Node Number	X Location (mm)	Y Location (mm)	Z Location (mm)	Equivalent (von-Mises) Stress (MPa)
1	-32,447	-4,8575	-0,11647	23,918
1	-32,447	-4,8575	-0,11647	23,918
2	-32,447	4,6245	-0,11647	23,979
2	-32,447	4,6245	-0,11647	23,979
3	-32,876	-3,9565	-0,11647	22,319
3	-32,876	-3,9565	-0,11647	22,319
4	-33,209	-3,0274	-0,11647	21,746
4	-33,209	-3,0274	-0,11647	21,746
5	-33,449	-2,0718	-0,11647	21,89
5	-33,449	-2,0718	-0,11647	21,89
6	-33,594	-1,0974	-0,11647	22,174
6	-33,594	-1,0974	-0,11647	22,174
7	-33,642	-0,11355	-0,11647	22,304
7	-33,642	-0,11355	-0,11647	22,304
8	-33,594	0,87028	-0,11647	22,159
8	-33,594	0,87028	-0,11647	22,159
9	-33,448	1,8446	-0,11647	21,892
9	-33,448	1,8446	-0,11647	21,892
10	-33,208	2,8	-0,11647	21,842
10	-33,208	2,8	-0,11647	21,842
11	-32,874	3,7279	-0,11647	22,477
11	-32,874	3,7279	-0,11647	22,477
12	-8,8047	-48,765	-0,11647	10,956
12	-8,8047	-48,765	-0,11647	10,956
13	-9,2887	-47,866	-0,11647	12,591
13	-9,2887	-47,866	-0,11647	12,591
14	-9,779	-46,956	-0,11647	14,062
14	-9,779	-46,956	-0,11647	14,062
15	-10,264	-46,055	-0,11647	15,362
15	-10,264	-46,055	-0,11647	15,362
16	-10,744	-45,164	-0,11647	16,612
16	-10,744	-45,164	-0,11647	16,612
17	-11,242	-44,238	-0,11647	17,819
17	-11,242	-44,238	-0,11647	17,819
18	-11,753	-43,29	-0,11647	18,909
18	-11,753	-43,29	-0,11647	18,909
19	-12,258	-42,352	-0,11647	19,787
19	-12,258	-42,352	-0,11647	19,787
20	-12,764	-41,411	-0,11647	20,415
20	-12,764	-41,411	-0,11647	20,415
21	-13,302	-40,412	-0,11647	20,795
21	-13,302	-40,412	-0,11647	20,795
22	-13,835	-39,422	-0,11647	20,937
22	-13,835	-39,422	-0,11647	20,937
23	-14,323	-38,516	-0,11647	20,87
23	-14,323	-38,516	-0,11647	20,87
24	-14,84	-37,557	-0,11647	20,626
24	-14,84	-37,557	-0,11647	20,626
25	-15,393	-36,529	-0,11647	20,246
25	-15,393	-36,529	-0,11647	20,246
26	-15,915	-35,559	-0,11647	19,789
26	-15,915	-35,559	-0,11647	19,789
27	-16,414	-34,634	-0,11647	19,27
27	-16,414	-34,634	-0,11647	19,27
28	-16,961	-33,617	-0,11647	18,687
28	-16,961	-33,617	-0,11647	18,687
29	-17,519	-32,581	-0,11647	18,095
29	-17,519	-32,581	-0,11647	18,095
30	-18,028	-31,637	-0,11647	17,528
30	-18,028	-31,637	-0,11647	17,528
31	-18,549	-30,668	-0,11647	16,971
31	-18,549	-30,668	-0,11647	16,971
32	-19,089	-29,666	-0,11647	16,439
32	-19,089	-29,666	-0,11647	16,439
33	-19,61	-28,698	-0,11647	15,957
33	-19,61	-28,698	-0,11647	15,957
34	-20,123	-27,746	-0,11647	15,521
34	-20,123	-27,746	-0,11647	15,521
35	-20,644	-26,778	-0,11647	15,139
35	-20,644	-26,778	-0,11647	15,139
36	-21,15	-25,838	-0,11647	14,818
36	-21,15	-25,838	-0,11647	14,818
37	-21,655	-24,9	-0,11647	14,553
37	-21,655	-24,9	-0,11647	14,553
38	-22,179	-23,927	-0,11647	14,353
38	-22,179	-23,927	-0,11647	14,353
39	-22,681	-22,994	-0,11647	14,231
39	-22,681	-22,994	-0,11647	14,231
40	-23,161	-22,102	-0,11647	14,176
40	-23,161	-22,102	-0,11647	14,176
41	-23,667	-21,164	-0,11647	14,192
41	-23,667	-21,164	-0,11647	14,192
42	-24,184	-20,203	-0,11647	14,299
42	-24,184	-20,203	-0,11647	14,299
43	-24,676	-19,289	-0,11647	14,495
43	-24,676	-19,289	-0,11647	14,495
44	-25,163	-18,385	-0,11647	14,78
44	-25,163	-18,385	-0,11647	14,78
45	-25,665	-17,452	-0,11647	15,172
45	-25,665	-17,452	-0,11647	15,172
46	-26,165	-16,524	-0,11647	15,684
46	-26,165	-16,524	-0,11647	15,684
47	-26,649	-15,626	-0,11647	16,312
47	-26,649	-15,626	-0,11647	16,312
48	-27,14	-14,714	-0,11647	17,075
48	-27,14	-14,714	-0,11647	17,075
49	-27,627	-13,809	-0,11647	17,988
49	-27,627	-13,809	-0,11647	17,988
50	-28,111	-12,911	-0,11647	19,051
50	-28,111	-12,911	-0,11647	19,051
51	-28,592	-12,018	-0,11647	20,262
51	-28,592	-12,018	-0,11647	20,262
52	-29,08	-11,111	-0,11647	21,602
52	-29,08	-11,111	-0,11647	21,602
53	-29,56	-10,218	-0,11647	23,007
53	-29,56	-10,218	-0,11647	23,007
54	-30,039	-9,3296	-0,11647	24,372
54	-30,039	-9,3296	-0,11647	24,372
55	-30,521	-8,435	-0,11647	25,55
55	-30,521	-8,435	-0,11647	25,55
56	-31,006	-7,5335	-0,11647	26,346
56	-31,006	-7,5335	-0,11647	26,346
57	-31,486	-6,6426	-0,11647	26,528
57	-31,486	-6,6426	-0,11647	26,528
58	-31,964	-5,7539	-0,11647	25,714
58	-31,964	-5,7539	-0,11647	25,714
59	8,8047	-48,765	-0,11647	10,928
59	8,8047	-48,765	-0,11647	10,928
60	8,2767	-49,636	-0,11647	9,581
60	8,2767	-49,636	-0,11647	9,581
61	7,6553	-50,458	-0,11647	8,7643
61	7,6553	-50,458	-0,11647	8,7643
62	6,9548	-51,209	-0,11647	8,2366
62	6,9548	-51,209	-0,11647	8,2366
63	6,182	-51,884	-0,11647	7,7971
63	6,182	-51,884	-0,11647	7,7971
64	5,3401	-52,479	-0,11647	7,3748
64	5,3401	-52,479	-0,11647	7,3748
65	4,4522	-52,978	-0,11647	7,0103
65	4,4522	-52,978	-0,11647	7,0103
66	3,5152	-53,386	-0,11647	6,748
66	3,5152	-53,386	-0,11647	6,748
67	2,5302	-53,698	-0,11647	6,5555
67	2,5302	-53,698	-0,11647	6,5555
68	1,5229	-53,907	-0,11647	6,4276
68	1,5229	-53,907	-0,11647	6,4276
69	0,50526	-54,011	-0,11647	6,3591
69	0,50526	-54,011	-0,11647	6,3591
70	-0,51473	-54,011	-0,11647	6,3794
70	-0,51473	-54,011	-0,11647	6,3794
71	-1,5323	-53,906	-0,11647	6,4729
71	-1,5323	-53,906	-0,11647	6,4729
72	-2,5395	-53,696	-0,11647	6,6099
72	-2,5395	-53,696	-0,11647	6,6099
73	-3,5241	-53,382	-0,11647	6,8016
73	-3,5241	-53,382	-0,11647	6,8016
74	-4,4605	-52,974	-0,11647	7,0537
74	-4,4605	-52,974	-0,11647	7,0537
75	-5,348	-52,474	-0,11647	7,3597
75	-5,348	-52,474	-0,11647	7,3597
76	-6,1895	-51,878	-0,11647	7,7331
76	-6,1895	-51,878	-0,11647	7,7331
77	-6,9615	-51,203	-0,11647	8,1633
77	-6,9615	-51,203	-0,11647	8,1633
78	-7,6614	-50,451	-0,11647	8,7168
78	-7,6614	-50,451	-0,11647	8,7168
79	-8,282	-49,628	-0,11647	9,5891
79	-8,282	-49,628	-0,11647	9,5891
80	32,452	-4,848	-0,11647	23,959
80	32,452	-4,848	-0,11647	23,959
81	31,969	-5,7459	-0,11647	25,675
81	31,969	-5,7459	-0,11647	25,675
82	31,49	-6,6349	-0,11647	26,466
82	31,49	-6,6349	-0,11647	26,466
83	31,01	-7,5259	-0,11647	26,282
83	31,01	-7,5259	-0,11647	26,282
84	30,525	-8,4276	-0,11647	25,49
84	30,525	-8,4276	-0,11647	25,49
85	30,043	-9,3225	-0,11647	24,319
85	30,043	-9,3225	-0,11647	24,319
86	29,564	-10,211	-0,11647	22,967
86	29,564	-10,211	-0,11647	22,967
87	29,083	-11,104	-0,11647	21,57
87	29,083	-11,104	-0,11647	21,57
88	28,595	-12,011	-0,11647	20,233
88	28,595	-12,011	-0,11647	20,233
89	28,114	-12,904	-0,11647	19,024
89	28,114	-12,904	-0,11647	19,024
90	27,631	-13,802	-0,11647	17,965
90	27,631	-13,802	-0,11647	17,965
91	27,143	-14,708	-0,11647	17,054
91	27,143	-14,708	-0,11647	17,054
92	26,652	-15,62	-0,11647	16,291
92	26,652	-15,62	-0,11647	16,291
93	26,168	-16,518	-0,11647	15,665
93	26,168	-16,518	-0,11647	15,665
94	25,668	-17,447	-0,11647	15,151
94	25,668	-17,447	-0,11647	15,151
95	25,166	-18,38	-0,11647	14,761
95	25,166	-18,38	-0,11647	14,761
96	24,679	-19,284	-0,11647	14,48
96	24,679	-19,284	-0,11647	14,48
97	24,187	-20,198	-0,11647	14,284
97	24,187	-20,198	-0,11647	14,284
98	23,669	-21,159	-0,11647	14,177
98	23,669	-21,159	-0,11647	14,177
99	23,164	-22,098	-0,11647	14,162
99	23,164	-22,098	-0,11647	14,162
100	22,684	-22,99	-0,11647	14,219
100	22,684	-22,99	-0,11647	14,219
101	22,182	-23,922	-0,11647	14,341
101	22,182	-23,922	-0,11647	14,341
102	21,658	-24,895	-0,11647	14,541
102	21,658	-24,895	-0,11647	14,541
103	21,152	-25,833	-0,11647	14,808
103	21,152	-25,833	-0,11647	14,808
104	20,646	-26,774	-0,11647	15,13
104	20,646	-26,774	-0,11647	15,13
105	20,124	-27,743	-0,11647	15,514
105	20,124	-27,743	-0,11647	15,514
106	19,612	-28,695	-0,11647	15,949
106	19,612	-28,695	-0,11647	15,949
107	19,09	-29,663	-0,11647	16,434
107	19,09	-29,663	-0,11647	16,434
108	18,551	-30,665	-0,11647	16,967
108	18,551	-30,665	-0,11647	16,967
109	18,029	-31,635	-0,11647	17,524
109	18,029	-31,635	-0,11647	17,524
110	17,52	-32,579	-0,11647	18,093
110	17,52	-32,579	-0,11647	18,093
111	16,963	-33,614	-0,11647	18,686
111	16,963	-33,614	-0,11647	18,686
112	16,415	-34,631	-0,11647	19,269
112	16,415	-34,631	-0,11647	19,269
113	15,917	-35,557	-0,11647	19,79
113	15,917	-35,557	-0,11647	19,79
114	15,395	-36,526	-0,11647	20,249
114	15,395	-36,526	-0,11647	20,249
115	14,841	-37,554	-0,11647	20,629
115	14,841	-37,554	-0,11647	20,629
116	14,325	-38,513	-0,11647	20,875
116	14,325	-38,513	-0,11647	20,875
117	13,837	-39,419	-0,11647	20,946
117	13,837	-39,419	-0,11647	20,946
118	13,304	-40,409	-0,11647	20,806
118	13,304	-40,409	-0,11647	20,806
119	12,766	-41,408	-0,11647	20,431
119	12,766	-41,408	-0,11647	20,431
120	12,259	-42,35	-0,11647	19,812
120	12,259	-42,35	-0,11647	19,812
121	11,753	-43,29	-0,11647	18,949
121	11,753	-43,29	-0,11647	18,949
122	11,242	-44,238	-0,11647	17,879
122	11,242	-44,238	-0,11647	17,879
123	10,743	-45,164	-0,11647	16,686
123	10,743	-45,164	-0,11647	16,686
124	10,263	-46,056	-0,11647	15,437
124	10,263	-46,056	-0,11647	15,437
125	9,7785	-46,956	-0,11647	14,113
125	9,7785	-46,956	-0,11647	14,113
126	9,2882	-47,867	-0,11647	12,591
126	9,2882	-47,867	-0,11647	12,591
127	32,452	4,615	-0,11647	23,911
127	32,452	4,615	-0,11647	23,911
128	32,88	3,7166	-0,11647	22,335
128	32,88	3,7166	-0,11647	22,335
129	33,212	2,7905	-0,11647	21,662
129	33,212	2,7905	-0,11647	21,662
130	33,452	1,8368	-0,11647	21,688
130	33,452	1,8368	-0,11647	21,688
131	33,597	0,86442	-0,11647	21,908
131	33,597	0,86442	-0,11647	21,908
132	33,645	-0,11749	-0,11647	22,135
132	33,645	-0,11749	-0,11647	22,135
133	33,597	-1,0994	-0,11647	22,185
133	33,597	-1,0994	-0,11647	22,185
134	33,452	-2,0718	-0,11647	22,053
134	33,452	-2,0718	-0,11647	22,053
135	33,212	-3,0254	-0,11647	21,973
135	33,212	-3,0254	-0,11647	21,973
136	32,878	-3,9525	-0,11647	22,465
136	32,878	-3,9525	-0,11647	22,465
137	8,6198	48,875	-0,11647	16,562
137	8,6198	48,875	-0,11647	16,562
138	9,0945	47,994	-0,11647	20,298
138	9,0945	47,994	-0,11647	20,298
139	9,5791	47,094	-0,11647	23,839
139	9,5791	47,094	-0,11647	23,839
140	10,061	46,199	-0,11647	26,693
140	10,061	46,199	-0,11647	26,693
141	10,535	45,319	-0,11647	28,662
141	10,535	45,319	-0,11647	28,662
142	11,017	44,423	-0,11647	29,828
142	11,017	44,423	-0,11647	29,828
143	11,52	43,489	-0,11647	30,358
143	11,52	43,489	-0,11647	30,358
144	12,032	42,539	-0,11647	30,328
144	12,032	42,539	-0,11647	30,328
145	12,538	41,599	-0,11647	29,858
145	12,538	41,599	-0,11647	29,858
146	13,057	40,636	-0,11647	29,064
146	13,057	40,636	-0,11647	29,064
147	13,585	39,655	-0,11647	28,072
147	13,585	39,655	-0,11647	28,072
148	14,081	38,732	-0,11647	27,003
148	14,081	38,732	-0,11647	27,003
149	14,575	37,815	-0,11647	25,88
149	14,575	37,815	-0,11647	25,88
150	15,108	36,827	-0,11647	24,709
150	15,108	36,827	-0,11647	24,709
151	15,634	35,849	-0,11647	23,578
151	15,634	35,849	-0,11647	23,578
152	16,116	34,954	-0,11647	22,525
152	16,116	34,954	-0,11647	22,525
153	16,627	34,004	-0,11647	21,49
153	16,627	34,004	-0,11647	21,49
154	17,175	32,987	-0,11647	20,484
154	17,175	32,987	-0,11647	20,484
155	17,692	32,026	-0,11647	19,576
155	17,692	32,026	-0,11647	19,576
156	18,184	31,113	-0,11647	18,75
156	18,184	31,113	-0,11647	18,75
157	18,715	30,127	-0,11647	17,964
157	18,715	30,127	-0,11647	17,964
158	19,255	29,125	-0,11647	17,252
158	19,255	29,125	-0,11647	17,252
159	19,755	28,195	-0,11647	16,635
159	19,755	28,195	-0,11647	16,635
160	20,265	27,249	-0,11647	16,086
160	20,265	27,249	-0,11647	16,086
161	20,784	26,285	-0,11647	15,609
161	20,784	26,285	-0,11647	15,609
162	21,291	25,343	-0,11647	15,214
162	21,291	25,343	-0,11647	15,214
163	21,793	24,41	-0,11647	14,892
163	21,793	24,41	-0,11647	14,892
164	22,305	23,46	-0,11647	14,648
164	22,305	23,46	-0,11647	14,648
165	22,794	22,551	-0,11647	14,489
165	22,794	22,551	-0,11647	14,489
166	23,28	21,65	-0,11647	14,403
166	23,28	21,65	-0,11647	14,403
167	23,788	20,706	-0,11647	14,4
167	23,788	20,706	-0,11647	14,4
168	24,292	19,769	-0,11647	14,492
168	24,292	19,769	-0,11647	14,492
169	24,768	18,885	-0,11647	14,672
169	24,768	18,885	-0,11647	14,672
170	25,253	17,986	-0,11647	14,943
170	25,253	17,986	-0,11647	14,943
171	25,752	17,059	-0,11647	15,328
171	25,752	17,059	-0,11647	15,328
172	26,243	16,147	-0,11647	15,834
172	26,243	16,147	-0,11647	15,834
173	26,718	15,265	-0,11647	16,451
173	26,718	15,265	-0,11647	16,451
174	27,204	14,362	-0,11647	17,207
174	27,204	14,362	-0,11647	17,207
175	27,688	13,462	-0,11647	18,118
175	27,688	13,462	-0,11647	18,118
176	28,168	12,571	-0,11647	19,177
176	28,168	12,571	-0,11647	19,177
177	28,644	11,688	-0,11647	20,382
177	28,644	11,688	-0,11647	20,382
178	29,125	10,795	-0,11647	21,715
178	29,125	10,795	-0,11647	21,715
179	29,598	9,9156	-0,11647	23,11
179	29,598	9,9156	-0,11647	23,11
180	30,071	9,0372	-0,11647	24,458
180	30,071	9,0372	-0,11647	24,458
181	30,548	8,1521	-0,11647	25,613
181	30,548	8,1521	-0,11647	25,613
182	31,027	7,2626	-0,11647	26,375
182	31,027	7,2626	-0,11647	26,375
183	31,5	6,3836	-0,11647	26,638
183	31,5	6,3836	-0,11647	26,638
184	31,973	5,5052	-0,11647	25,75
184	31,973	5,5052	-0,11647	25,75
185	-8,6198	48,875	-0,11647	16,413
185	-8,6198	48,875	-0,11647	16,413
186	-8,1027	49,728	-0,11647	13,432
186	-8,1027	49,728	-0,11647	13,432
187	-7,4933	50,534	-0,11647	11,706
187	-7,4933	50,534	-0,11647	11,706
188	-6,8097	51,268	-0,11647	10,928
188	-6,8097	51,268	-0,11647	10,928
189	-6,0522	51,929	-0,11647	10,825
189	-6,0522	51,929	-0,11647	10,825
190	-5,2298	52,51	-0,11647	11,267
190	-5,2298	52,51	-0,11647	11,267
191	-4,3605	52,999	-0,11647	12,108
191	-4,3605	52,999	-0,11647	12,108
192	-3,4426	53,399	-0,11647	13,164
192	-3,4426	53,399	-0,11647	13,164
193	-2,4779	53,705	-0,11647	14,258
193	-2,4779	53,705	-0,11647	14,258
194	-1,4916	53,91	-0,11647	15,237
194	-1,4916	53,91	-0,11647	15,237
195	-0,49505	54,011	-0,11647	15,785
195	-0,49505	54,011	-0,11647	15,785
196	0,50372	54,011	-0,11647	15,846
196	0,50372	54,011	-0,11647	15,846
197	1,5002	53,908	-0,11647	15,318
197	1,5002	53,908	-0,11647	15,318
198	2,4864	53,703	-0,11647	14,408
198	2,4864	53,703	-0,11647	14,408
199	3,4509	53,396	-0,11647	13,251
199	3,4509	53,396	-0,11647	13,251
200	4,3683	52,995	-0,11647	12,116
200	4,3683	52,995	-0,11647	12,116
201	5,2372	52,505	-0,11647	11,276
201	5,2372	52,505	-0,11647	11,276
202	6,0591	51,924	-0,11647	10,885
202	6,0591	51,924	-0,11647	10,885
203	6,8159	51,261	-0,11647	11,05
203	6,8159	51,261	-0,11647	11,05
204	7,499	50,527	-0,11647	11,865
204	7,499	50,527	-0,11647	11,865
205	8,1076	49,721	-0,11647	13,578
205	8,1076	49,721	-0,11647	13,578
206	-31,969	5,5123	-0,11647	25,705
206	-31,969	5,5123	-0,11647	25,705
207	-31,496	6,3906	-0,11647	26,567
207	-31,496	6,3906	-0,11647	26,567
208	-31,023	7,2695	-0,11647	26,347
208	-31,023	7,2695	-0,11647	26,347
209	-30,544	8,1588	-0,11647	25,564
209	-30,544	8,1588	-0,11647	25,564
210	-30,068	9,0438	-0,11647	24,422
210	-30,068	9,0438	-0,11647	24,422
211	-29,595	9,922	-0,11647	23,102
211	-29,595	9,922	-0,11647	23,102
212	-29,121	10,801	-0,11647	21,729
212	-29,121	10,801	-0,11647	21,729
213	-28,641	11,694	-0,11647	20,404
213	-28,641	11,694	-0,11647	20,404
214	-28,165	12,577	-0,11647	19,202
214	-28,165	12,577	-0,11647	19,202
215	-27,685	13,468	-0,11647	18,141
215	-27,685	13,468	-0,11647	18,141
216	-27,201	14,367	-0,11647	17,227
216	-27,201	14,367	-0,11647	17,227
217	-26,715	15,27	-0,11647	16,468
217	-26,715	15,27	-0,11647	16,468
218	-26,24	16,152	-0,11647	15,848
218	-26,24	16,152	-0,11647	15,848
219	-25,749	17,064	-0,11647	15,34
219	-25,749	17,064	-0,11647	15,34
220	-25,25	17,991	-0,11647	14,954
220	-25,25	17,991	-0,11647	14,954
221	-24,766	18,89	-0,11647	14,683
221	-24,766	18,89	-0,11647	14,683
222	-24,29	19,774	-0,11647	14,503
222	-24,29	19,774	-0,11647	14,503
223	-23,785	20,711	-0,11647	14,41
223	-23,785	20,711	-0,11647	14,41
224	-23,277	21,654	-0,11647	14,414
224	-23,277	21,654	-0,11647	14,414
225	-22,792	22,555	-0,11647	14,499
225	-22,792	22,555	-0,11647	14,499
226	-22,303	23,464	-0,11647	14,657
226	-22,303	23,464	-0,11647	14,657
227	-21,791	24,414	-0,11647	14,899
227	-21,791	24,414	-0,11647	14,899
228	-21,289	25,346	-0,11647	15,221
228	-21,289	25,346	-0,11647	15,221
229	-20,783	26,287	-0,11647	15,617
229	-20,783	26,287	-0,11647	15,617
230	-20,264	27,251	-0,11647	16,093
230	-20,264	27,251	-0,11647	16,093
231	-19,754	28,198	-0,11647	16,641
231	-19,754	28,198	-0,11647	16,641
232	-19,253	29,127	-0,11647	17,259
232	-19,253	29,127	-0,11647	17,259
233	-18,714	30,129	-0,11647	17,971
233	-18,714	30,129	-0,11647	17,971
234	-18,183	31,115	-0,11647	18,758
234	-18,183	31,115	-0,11647	18,758
235	-17,691	32,028	-0,11647	19,584
235	-17,691	32,028	-0,11647	19,584
236	-17,174	32,988	-0,11647	20,492
236	-17,174	32,988	-0,11647	20,492
237	-16,626	34,006	-0,11647	21,499
237	-16,626	34,006	-0,11647	21,499
238	-16,115	34,956	-0,11647	22,534
238	-16,115	34,956	-0,11647	22,534
239	-15,633	35,851	-0,11647	23,586
239	-15,633	35,851	-0,11647	23,586
240	-15,106	36,829	-0,11647	24,715
240	-15,106	36,829	-0,11647	24,715
241	-14,574	37,817	-0,11647	25,883
241	-14,574	37,817	-0,11647	25,883
242	-14,081	38,733	-0,11647	27,003
242	-14,081	38,733	-0,11647	27,003
243	-13,585	39,654	-0,11647	28,07
243	-13,585	39,654	-0,11647	28,07
244	-13,057	40,635	-0,11647	29,064
244	-13,057	40,635	-0,11647	29,064
245	-12,538	41,598	-0,11647	29,865
245	-12,538	41,598	-0,11647	29,865
246	-12,032	42,538	-0,11647	30,343
246	-12,032	42,538	-0,11647	30,343
247	-11,521	43,487	-0,11647	30,375
247	-11,521	43,487	-0,11647	30,375
248	-11,018	44,422	-0,11647	29,824
248	-11,018	44,422	-0,11647	29,824
249	-10,535	45,318	-0,11647	28,586
249	-10,535	45,318	-0,11647	28,586
250	-10,062	46,197	-0,11647	26,582
250	-10,062	46,197	-0,11647	26,582
251	-9,5801	47,092	-0,11647	23,771
251	-9,5801	47,092	-0,11647	23,771
252	-9,0956	47,992	-0,11647	20,208
252	-9,0956	47,992	-0,11647	20,208
253	-21,	-0,11647	-0,11647	30,734
253	-21,	-0,11647	-0,11647	30,734
254	-21,125	-1,1099	-0,11647	32,812
254	-21,125	-1,1099	-0,11647	32,812
255	-21,495	-2,0431	-0,11647	39,403
255	-21,495	-2,0431	-0,11647	39,403
256	-22,093	-2,8636	-0,11647	51,998
256	-22,093	-2,8636	-0,11647	51,998
257	-22,875	-3,5051	-0,11647	61,285
257	-22,875	-3,5051	-0,11647	61,285
258	-23,783	-3,9268	-0,11647	68,782
258	-23,783	-3,9268	-0,11647	68,782
259	-24,767	-4,1097	-0,11647	73,139
259	-24,767	-4,1097	-0,11647	73,139
260	-25,767	-4,0423	-0,11647	68,688
260	-25,767	-4,0423	-0,11647	68,688
261	-26,718	-3,7288	-0,11647	72,384
261	-26,718	-3,7288	-0,11647	72,384
262	-27,565	-3,1859	-0,11647	59,683
262	-27,565	-3,1859	-0,11647	59,683
263	-28,254	-2,4427	-0,11647	41,101
263	-28,254	-2,4427	-0,11647	41,101
264	-28,73	-1,5611	-0,11647	23,883
264	-28,73	-1,5611	-0,11647	23,883
265	-28,972	-0,58928	-0,11647	13,815
265	-28,972	-0,58928	-0,11647	13,815
266	-28,965	0,4123	-0,11647	13,846
266	-28,965	0,4123	-0,11647	13,846
267	-28,709	1,3806	-0,11647	21,604
267	-28,709	1,3806	-0,11647	21,604
268	-28,221	2,2557	-0,11647	40,286
268	-28,221	2,2557	-0,11647	40,286
269	-27,52	2,9896	-0,11647	58,885
269	-27,52	2,9896	-0,11647	58,885
270	-26,661	3,5225	-0,11647	62,479
270	-26,661	3,5225	-0,11647	62,479
271	-25,705	3,8209	-0,11647	73,045
271	-25,705	3,8209	-0,11647	73,045
272	-24,705	3,8726	-0,11647	74,127
272	-24,705	3,8726	-0,11647	74,127
273	-23,723	3,6744	-0,11647	68,79
273	-23,723	3,6744	-0,11647	68,79
274	-22,819	3,2367	-0,11647	60,888
274	-22,819	3,2367	-0,11647	60,888
275	-22,046	2,5804	-0,11647	51,482
275	-22,046	2,5804	-0,11647	51,482
276	-21,463	1,752	-0,11647	38,99
276	-21,463	1,752	-0,11647	38,99
277	-21,11	0,81358	-0,11647	32,663
277	-21,11	0,81358	-0,11647	32,663
278	29,	-0,11647	-0,11647	12,414
278	29,	-0,11647	-0,11647	12,414
279	28,875	-1,1101	-0,11647	16,159
279	28,875	-1,1101	-0,11647	16,159
280	28,506	-2,0413	-0,11647	28,595
280	28,506	-2,0413	-0,11647	28,595
281	27,914	-2,8565	-0,11647	49,473
281	27,914	-2,8565	-0,11647	49,473
282	27,133	-3,5005	-0,11647	64,031
282	27,133	-3,5005	-0,11647	64,031
283	26,225	-3,9241	-0,11647	64,939
283	26,225	-3,9241	-0,11647	64,939
284	25,241	-4,1092	-0,11647	73,332
284	25,241	-4,1092	-0,11647	73,332
285	24,242	-4,0439	-0,11647	71,819
285	24,242	-4,0439	-0,11647	71,819
286	23,29	-3,7325	-0,11647	65,418
286	23,29	-3,7325	-0,11647	65,418
287	22,443	-3,1921	-0,11647	56,249
287	22,443	-3,1921	-0,11647	56,249
288	21,75	-2,4485	-0,11647	42,315
288	21,75	-2,4485	-0,11647	42,315
289	21,27	-1,5605	-0,11647	34,967
289	21,27	-1,5605	-0,11647	34,967
290	21,028	-0,58889	-0,11647	31,16
290	21,028	-0,58889	-0,11647	31,16
291	21,035	0,41238	-0,11647	31,361
291	21,035	0,41238	-0,11647	31,361
292	21,291	1,3805	-0,11647	35,39
292	21,291	1,3805	-0,11647	35,39
293	21,783	2,261	-0,11647	42,733
293	21,783	2,261	-0,11647	42,733
294	22,485	2,9943	-0,11647	56,579
294	22,485	2,9943	-0,11647	56,579
295	23,344	3,5246	-0,11647	65,422
295	23,344	3,5246	-0,11647	65,422
296	24,3	3,8218	-0,11647	71,655
296	24,3	3,8218	-0,11647	71,655
297	25,3	3,8722	-0,11647	72,953
297	25,3	3,8722	-0,11647	72,953
298	26,281	3,6727	-0,11647	65,331
298	26,281	3,6727	-0,11647	65,331
299	27,186	3,2333	-0,11647	65,658
299	27,186	3,2333	-0,11647	65,658
300	27,96	2,5744	-0,11647	49,004
300	27,96	2,5744	-0,11647	49,004
301	28,538	1,7506	-0,11647	30,11
301	28,538	1,7506	-0,11647	30,11
302	28,89	0,81345	-0,11647	17,451
302	28,89	0,81345	-0,11647	17,451
303	4,	-45,116	-0,11647	38,095
303	4,	-45,116	-0,11647	38,095
304	3,8745	-46,11	-0,11647	26,352
304	3,8745	-46,11	-0,11647	26,352
305	3,5061	-47,042	-0,11647	17,871
305	3,5061	-47,042	-0,11647	17,871
306	2,9139	-47,857	-0,11647	12,962
306	2,9139	-47,857	-0,11647	12,962
307	2,1413	-48,495	-0,11647	6,4464
307	2,1413	-48,495	-0,11647	6,4464
308	1,2325	-48,922	-0,11647	2,9838
308	1,2325	-48,922	-0,11647	2,9838
309	0,23821	-49,109	-0,11647	2,2625
309	0,23821	-49,109	-0,11647	2,2625
310	-0,7739	-49,041	-0,11647	3,578
310	-0,7739	-49,041	-0,11647	3,578
311	-1,7302	-48,723	-0,11647	5,8254
311	-1,7302	-48,723	-0,11647	5,8254
312	-2,5723	-48,18	-0,11647	9,0293
312	-2,5723	-48,18	-0,11647	9,0293
313	-3,2543	-47,442	-0,11647	15,155
313	-3,2543	-47,442	-0,11647	15,155
314	-3,7311	-46,558	-0,11647	21,825
314	-3,7311	-46,558	-0,11647	21,825
315	-3,9724	-45,586	-0,11647	32,087
315	-3,9724	-45,586	-0,11647	32,087
316	-3,9644	-44,584	-0,11647	43,928
316	-3,9644	-44,584	-0,11647	43,928
317	-3,7078	-43,616	-0,11647	53,225
317	-3,7078	-43,616	-0,11647	53,225
318	-3,2171	-42,739	-0,11647	68,943
318	-3,2171	-42,739	-0,11647	68,943
319	-2,5247	-42,014	-0,11647	77,519
319	-2,5247	-42,014	-0,11647	77,519
320	-1,6742	-41,484	-0,11647	82,857
320	-1,6742	-41,484	-0,11647	82,857
321	-0,71119	-41,18	-0,11647	85,786
321	-0,71119	-41,18	-0,11647	85,786
322	0,30356	-41,128	-0,11647	82,535
322	0,30356	-41,128	-0,11647	82,535
323	1,2958	-41,332	-0,11647	83,707
323	1,2958	-41,332	-0,11647	83,707
324	2,1973	-41,774	-0,11647	79,363
324	2,1973	-41,774	-0,11647	79,363
325	2,9592	-42,425	-0,11647	71,814
325	2,9592	-42,425	-0,11647	71,814
326	3,5366	-43,248	-0,11647	57,31
326	3,5366	-43,248	-0,11647	57,31
327	3,89	-44,185	-0,11647	49,513
327	3,89	-44,185	-0,11647	49,513
328	4,	44,884	-0,11647	106,74
328	4,	44,884	-0,11647	106,74
329	3,8744	43,889	-0,11647	91,759
329	3,8744	43,889	-0,11647	91,759
330	3,5054	42,957	-0,11647	88,069
330	3,5054	42,957	-0,11647	88,069
331	2,9146	42,144	-0,11647	75,642
331	2,9146	42,144	-0,11647	75,642
332	2,1385	41,503	-0,11647	59,115
332	2,1385	41,503	-0,11647	59,115
333	1,2255	41,076	-0,11647	41,633
333	1,2255	41,076	-0,11647	41,633
334	0,23211	40,89	-0,11647	31,278
334	0,23211	40,89	-0,11647	31,278
335	-0,77578	40,959	-0,11647	34,72
335	-0,77578	40,959	-0,11647	34,72
336	-1,734	41,279	-0,11647	51,069
336	-1,734	41,279	-0,11647	51,069
337	-2,579	41,826	-0,11647	68,373
337	-2,579	41,826	-0,11647	68,373
338	-3,2601	42,566	-0,11647	84,336
338	-3,2601	42,566	-0,11647	84,336
339	-3,7344	43,45	-0,11647	90,889
339	-3,7344	43,45	-0,11647	90,889
340	-3,9735	44,424	-0,11647	103,59
340	-3,9735	44,424	-0,11647	103,59
341	-3,963	45,426	-0,11647	95,265
341	-3,963	45,426	-0,11647	95,265
342	-3,7036	46,395	-0,11647	77,912
342	-3,7036	46,395	-0,11647	77,912
343	-3,2092	47,271	-0,11647	53,928
343	-3,2092	47,271	-0,11647	53,928
344	-2,5098	47,998	-0,11647	24,185
344	-2,5098	47,998	-0,11647	24,185
345	-1,6565	48,524	-0,11647	11,474
345	-1,6565	48,524	-0,11647	11,474
346	-0,69811	48,822	-0,11647	12,829
346	-0,69811	48,822	-0,11647	12,829
347	0,30524	48,872	-0,11647	14,734
347	0,30524	48,872	-0,11647	14,734
348	1,2888	48,67	-0,11647	12,904
348	1,2888	48,67	-0,11647	12,904
349	2,1901	48,231	-0,11647	23,008
349	2,1901	48,231	-0,11647	23,008
350	2,955	47,579	-0,11647	46,06
350	2,955	47,579	-0,11647	46,06
351	3,5363	46,753	-0,11647	72,98
351	3,5363	46,753	-0,11647	72,98
352	3,89	45,815	-0,11647	96,664
352	3,89	45,815	-0,11647	96,664
353	13,671	-1,2249	-0,11647	19,755
353	13,671	-1,2249	-0,11647	19,755
354	-4,5156	-48,905	-0,11647	9,5925
354	-4,5156	-48,905	-0,11647	9,5925
355	-1,0882	-7,3161	-0,11647	12,345
355	-1,0882	-7,3161	-0,11647	12,345
356	-1,7843	-6,707	-0,11647	12,492
356	-1,7843	-6,707	-0,11647	12,492
357	-2,3924	-6,0022	-0,11647	12,695
357	-2,3924	-6,0022	-0,11647	12,695
358	4,2504	14,978	-0,11647	13,371
358	4,2504	14,978	-0,11647	13,371
359	-0,13232	51,602	-0,11647	12,363
359	-0,13232	51,602	-0,11647	12,363
360	1,3298	-26,954	-0,11647	23,634
360	1,3298	-26,954	-0,11647	23,634
361	-2,8902	-7,9442	-0,11647	12,428
361	-2,8902	-7,9442	-0,11647	12,428
362	3,3253	7,0477	-0,11647	12,5
362	3,3253	7,0477	-0,11647	12,5
363	-19,117	-10,609	-0,11647	21,555
363	-19,117	-10,609	-0,11647	21,555
364	4,7039	-47,189	-0,11647	16,222
364	4,7039	-47,189	-0,11647	16,222
365	-3,2792	-5,9648	-0,11647	12,83
365	-3,2792	-5,9648	-0,11647	12,83
366	-0,63033	22,419	-0,11647	18,013
366	-0,63033	22,419	-0,11647	18,013
367	15,86	-0,93258	-0,11647	23,016
367	15,86	-0,93258	-0,11647	23,016
368	0,66098	-17,178	-0,11647	14,232
368	0,66098	-17,178	-0,11647	14,232
369	-0,60967	17,674	-0,11647	14,277
369	-0,60967	17,674	-0,11647	14,277
370	-0,116	18,471	-0,11647	14,715
370	-0,116	18,471	-0,11647	14,715
371	0,17351	-19,306	-0,11647	15,541
371	0,17351	-19,306	-0,11647	15,541
372	-0,69781	20,427	-0,11647	16,008
372	-0,69781	20,427	-0,11647	16,008
373	-1,7605	17,366	-0,11647	14,237
373	-1,7605	17,366	-0,11647	14,237
374	0,30537	17,451	-0,11647	14,165
374	0,30537	17,451	-0,11647	14,165
375	-0,7866	16,813	-0,11647	13,898
375	-0,7866	16,813	-0,11647	13,898
376	-0,13513	-16,373	-0,11647	13,784
376	-0,13513	-16,373	-0,11647	13,784
377	-1,3736	-16,579	-0,11647	13,72
377	-1,3736	-16,579	-0,11647	13,72
378	-0,35608	-19,941	-0,11647	16,237
378	-0,35608	-19,941	-0,11647	16,237
379	-1,19	-18,429	-0,11647	15,154
379	-1,19	-18,429	-0,11647	15,154
380	-2,0308	-16,884	-0,11647	14,108
380	-2,0308	-16,884	-0,11647	14,108
381	1,9005	-17,146	-0,11647	14,275
381	1,9005	-17,146	-0,11647	14,275
382	1,0679	-18,791	-0,11647	15,433
382	1,0679	-18,791	-0,11647	15,433
383	-0,76999	19,269	-0,11647	15,452
383	-0,76999	19,269	-0,11647	15,452
384	0,67546	18,898	-0,11647	15,145
384	0,67546	18,898	-0,11647	15,145
385	1,0952	17,927	-0,11647	14,505
385	1,0952	17,927	-0,11647	14,505
386	1,5444	17,01	-0,11647	13,979
386	1,5444	17,01	-0,11647	13,979
387	-6,812e-002	-22,599	-0,11647	18,657
387	-6,812e-002	-22,599	-0,11647	18,657
388	-2,4187	-16,058	-0,11647	13,732
388	-2,4187	-16,058	-0,11647	13,732
389	0,50567	-21,858	-0,11647	18,086
389	0,50567	-21,858	-0,11647	18,086
390	-1,2478	20,789	-0,11647	16,438
390	-1,2478	20,789	-0,11647	16,438
391	-2,1467	16,699	-0,11647	13,776
391	-2,1467	16,699	-0,11647	13,776
392	-1,2599	16,083	-0,11647	13,519
392	-1,2599	16,083	-0,11647	13,519
393	3,5196	-16,082	-0,11647	13,875
393	3,5196	-16,082	-0,11647	13,875
394	2,0599	16,098	-0,11647	13,546
394	2,0599	16,098	-0,11647	13,546
395	-1,2599	-15,629	-0,11647	13,421
395	-1,2599	-15,629	-0,11647	13,421
396	0,52076	-15,626	-0,11647	13,363
396	0,52076	-15,626	-0,11647	13,363
397	-6,1418e-002	20,678	-0,11647	16,387
397	-6,1418e-002	20,678	-0,11647	16,387
398	-3,33	16,115	-0,11647	13,644
398	-3,33	16,115	-0,11647	13,644
399	0,49972	-23,217	-0,11647	19,409
399	0,49972	-23,217	-0,11647	19,409
400	-1,0988	-20,72	-0,11647	16,922
400	-1,0988	-20,72	-0,11647	16,922
401	-1,5403	-19,869	-0,11647	16,255
401	-1,5403	-19,869	-0,11647	16,255
402	-1,9816	-19,039	-0,11647	15,591
402	-1,9816	-19,039	-0,11647	15,591
403	-2,8529	-17,419	-0,11647	14,536
403	-2,8529	-17,419	-0,11647	14,536
404	-3,3145	-16,602	-0,11647	14,103
404	-3,3145	-16,602	-0,11647	14,103
405	-3,8066	-15,827	-0,11647	13,787
405	-3,8066	-15,827	-0,11647	13,787
406	3,2733	-16,983	-0,11647	14,251
406	3,2733	-16,983	-0,11647	14,251
407	2,7585	-17,847	-0,11647	14,8
407	2,7585	-17,847	-0,11647	14,8
408	1,8947	-19,503	-0,11647	15,952
408	1,8947	-19,503	-0,11647	15,952
409	1,4805	-20,372	-0,11647	16,64
409	1,4805	-20,372	-0,11647	16,64
410	0,95151	-21,148	-0,11647	17,393
410	0,95151	-21,148	-0,11647	17,393
411	-2,969	17,088	-0,11647	14,126
411	-2,969	17,088	-0,11647	14,126
412	-2,2226	18,9	-0,11647	15,178
412	-2,2226	18,9	-0,11647	15,178
413	-1,6804	19,796	-0,11647	15,86
413	-1,6804	19,796	-0,11647	15,86
414	1,096	20,358	-0,11647	16,21
414	1,096	20,358	-0,11647	16,21
415	1,9492	18,592	-0,11647	14,974
415	1,9492	18,592	-0,11647	14,974
416	2,9139	16,799	-0,11647	13,98
416	2,9139	16,799	-0,11647	13,98
417	3,5087	15,921	-0,11647	13,608
417	3,5087	15,921	-0,11647	13,608
418	1,0834	-22,412	-0,11647	18,623
418	1,0834	-22,412	-0,11647	18,623
419	-0,66531	21,366	-0,11647	16,966
419	-0,66531	21,366	-0,11647	16,966
420	4,7268	15,764	-0,11647	13,752
420	4,7268	15,764	-0,11647	13,752
421	-3,4604	15,26	-0,11647	13,329
421	-3,4604	15,26	-0,11647	13,329
422	1,4856	-22,931	-0,11647	19,204
422	1,4856	-22,931	-0,11647	19,204
423	1,2784	-23,561	-0,11647	19,78
423	1,2784	-23,561	-0,11647	19,78
424	-2,2789	15,789	-0,11647	13,345
424	-2,2789	15,789	-0,11647	13,345
425	-3,5367e-002	22,849	-0,11647	18,498
425	-3,5367e-002	22,849	-0,11647	18,498
426	3,9353	-15,274	-0,11647	13,548
426	3,9353	-15,274	-0,11647	13,548
427	4,4364	-16,665	-0,11647	14,294
427	4,4364	-16,665	-0,11647	14,294
428	-4,441	-15,098	-0,11647	13,575
428	-4,441	-15,098	-0,11647	13,575
429	-2,9355	-15,3	-0,11647	13,419
429	-2,9355	-15,3	-0,11647	13,419
430	2,7623	15,215	-0,11647	13,195
430	2,7623	15,215	-0,11647	13,195
431	-0,63476	15,401	-0,11647	13,164
431	-0,63476	15,401	-0,11647	13,164
432	1,3865	-14,828	-0,11647	12,999
432	1,3865	-14,828	-0,11647	12,999
433	3,0138	-14,704	-0,11647	13,123
433	3,0138	-14,704	-0,11647	13,123
434	-1,2657	-22,247	-0,11647	18,437
434	-1,2657	-22,247	-0,11647	18,437
435	-1,8559	-21,38	-0,11647	17,56
435	-1,8559	-21,38	-0,11647	17,56
436	-2,7705	-19,654	-0,11647	16,129
436	-2,7705	-19,654	-0,11647	16,129
437	-3,691	-17,993	-0,11647	14,991
437	-3,691	-17,993	-0,11647	14,991
438	-4,1527	-17,184	-0,11647	14,542
438	-4,1527	-17,184	-0,11647	14,542
439	-4,6031	-16,372	-0,11647	14,193
439	-4,6031	-16,372	-0,11647	14,193
440	-5,6315	-15,157	-0,11647	13,72
440	-5,6315	-15,157	-0,11647	13,72
441	3,5683	-18,425	-0,11647	15,27
441	3,5683	-18,425	-0,11647	15,27
442	2,2126	-21,071	-0,11647	17,252
442	2,2126	-21,071	-0,11647	17,252
443	1,711	-21,766	-0,11647	17,942
443	1,711	-21,766	-0,11647	17,942
444	-4,9657	15,053	-0,11647	13,484
444	-4,9657	15,053	-0,11647	13,484
445	-4,1751	16,747	-0,11647	14,108
445	-4,1751	16,747	-0,11647	14,108
446	-3,3787	18,58	-0,11647	15,08
446	-3,3787	18,58	-0,11647	15,08
447	-2,4693	20,385	-0,11647	16,295
447	-2,4693	20,385	-0,11647	16,295
448	-1,4006	21,946	-0,11647	17,476
448	-1,4006	21,946	-0,11647	17,476
449	1,3916	21,84	-0,11647	17,383
449	1,3916	21,84	-0,11647	17,383
450	2,3353	20,114	-0,11647	16,082
450	2,3353	20,114	-0,11647	16,082
451	3,2455	18,352	-0,11647	14,929
451	3,2455	18,352	-0,11647	14,929
452	4,2144	16,672	-0,11647	14,045
452	4,2144	16,672	-0,11647	14,045
453	-5,8274	13,418	-0,11647	13,262
453	-5,8274	13,418	-0,11647	13,262
454	1,0247	-24,42	-0,11647	20,749
454	1,0247	-24,42	-0,11647	20,749
455	-6,7188	13,881	-0,11647	13,538
455	-6,7188	13,881	-0,11647	13,538
456	-6,6516	-14,578	-0,11647	13,899
456	-6,6516	-14,578	-0,11647	13,899
457	4,8781	-15,843	-0,11647	13,962
457	4,8781	-15,843	-0,11647	13,962
458	-1,203	23,109	-0,11647	18,572
458	-1,203	23,109	-0,11647	18,572
459	-0,13677	23,416	-0,11647	18,847
459	-0,13677	23,416	-0,11647	18,847
460	4,5233	-14,489	-0,11647	13,31
460	4,5233	-14,489	-0,11647	13,31
461	5,3776	-15,042	-0,11647	13,719
461	5,3776	-15,042	-0,11647	13,719
462	0,59273	23,87	-0,11647	19,146
462	0,59273	23,87	-0,11647	19,146
463	-1,4921	23,761	-0,11647	19,231
463	-1,4921	23,761	-0,11647	19,231
464	5,9284	-14,256	-0,11647	13,571
464	5,9284	-14,256	-0,11647	13,571
465	5,434	15,098	-0,11647	13,609
465	5,434	15,098	-0,11647	13,609
466	-6,6217	12,798	-0,11647	13,313
466	-6,6217	12,798	-0,11647	13,313
467	-0,56158	24,234	-0,11647	19,594
467	-0,56158	24,234	-0,11647	19,594
468	0,1918	24,811	-0,11647	20,099
468	0,1918	24,811	-0,11647	20,099
469	1,3016	24,359	-0,11647	19,681
469	1,3016	24,359	-0,11647	19,681
470	6,1351	15,149	-0,11647	13,81
470	6,1351	15,149	-0,11647	13,81
471	7,2341	-14,014	-0,11647	13,91
471	7,2341	-14,014	-0,11647	13,91
472	-5,3942	-14,343	-0,11647	13,491
472	-5,3942	-14,343	-0,11647	13,491
473	-3,6822	-14,555	-0,11647	13,183
473	-3,6822	-14,555	-0,11647	13,183
474	-2,0425	-14,789	-0,11647	13,051
474	-2,0425	-14,789	-0,11647	13,051
475	3,5865	14,308	-0,11647	12,967
475	3,5865	14,308	-0,11647	12,967
476	1,9396	14,571	-0,11647	12,837
476	1,9396	14,571	-0,11647	12,837
477	0,16777	14,719	-0,11647	12,795
477	0,16777	14,719	-0,11647	12,795
478	-2,0986	14,762	-0,11647	12,945
478	-2,0986	14,762	-0,11647	12,945
479	-1,4743	-23,867	-0,11647	20,096
479	-1,4743	-23,867	-0,11647	20,096
480	1,2564	-26,33	-0,11647	22,925
480	1,2564	-26,33	-0,11647	22,925
481	0,47467	-14,138	-0,11647	12,69
481	0,47467	-14,138	-0,11647	12,69
482	2,1247	-14,074	-0,11647	12,769
482	2,1247	-14,074	-0,11647	12,769
483	3,6802	-13,91	-0,11647	12,939
483	3,6802	-13,91	-0,11647	12,939
484	-2,0416	-22,918	-0,11647	19,071
484	-2,0416	-22,918	-0,11647	19,071
485	-2,5837	-22,028	-0,11647	18,173
485	-2,5837	-22,028	-0,11647	18,173
486	-3,5716	-20,265	-0,11647	16,66
486	-3,5716	-20,265	-0,11647	16,66
487	-4,5211	-18,573	-0,11647	15,475
487	-4,5211	-18,573	-0,11647	15,475
488	-5,4604	-16,948	-0,11647	14,638
488	-5,4604	-16,948	-0,11647	14,638
489	-6,3493	-15,398	-0,11647	14,066
489	-6,3493	-15,398	-0,11647	14,066
490	6,7531	-14,781	-0,11647	13,974
490	6,7531	-14,781	-0,11647	13,974
491	6,2468	-15,578	-0,11647	14,145
491	6,2468	-15,578	-0,11647	14,145
492	5,7583	-16,392	-0,11647	14,403
492	5,7583	-16,392	-0,11647	14,403
493	5,2945	-17,238	-0,11647	14,756
493	5,2945	-17,238	-0,11647	14,756
494	3,4515	-20,809	-0,11647	17,099
494	3,4515	-20,809	-0,11647	17,099
495	2,9723	-21,714	-0,11647	17,881
495	2,9723	-21,714	-0,11647	17,881
496	2,3955	-22,654	-0,11647	18,841
496	2,3955	-22,654	-0,11647	18,841
497	2,1538	-23,735	-0,11647	19,899
497	2,1538	-23,735	-0,11647	19,899
498	1,8023	-24,408	-0,11647	20,66
498	1,8023	-24,408	-0,11647	20,66
499	-5,9018	15,606	-0,11647	13,931
499	-5,9018	15,606	-0,11647	13,931
500	-5,0285	17,369	-0,11647	14,583
500	-5,0285	17,369	-0,11647	14,583
501	-4,1566	19,168	-0,11647	15,561
501	-4,1566	19,168	-0,11647	15,561
502	-3,246	20,985	-0,11647	16,803
502	-3,246	20,985	-0,11647	16,803
503	-2,7565	21,876	-0,11647	17,435
503	-2,7565	21,876	-0,11647	17,435
504	-2,0734	22,605	-0,11647	18,07
504	-2,0734	22,605	-0,11647	18,07
505	1,6929	23,387	-0,11647	18,807
505	1,6929	23,387	-0,11647	18,807
506	2,1661	22,501	-0,11647	18,014
506	2,1661	22,501	-0,11647	18,014
507	2,6735	21,638	-0,11647	17,285
507	2,6735	21,638	-0,11647	17,285
508	3,1486	20,751	-0,11647	16,613
508	3,1486	20,751	-0,11647	16,613
509	4,0831	18,994	-0,11647	15,438
509	4,0831	18,994	-0,11647	15,438
510	5,0521	17,221	-0,11647	14,503
510	5,0521	17,221	-0,11647	14,503
511	5,4957	16,187	-0,11647	14,09
511	5,4957	16,187	-0,11647	14,09
512	6,1634	15,804	-0,11647	13,947
512	6,1634	15,804	-0,11647	13,947
513	-4,3792	13,629	-0,11647	12,923
513	-4,3792	13,629	-0,11647	12,923
514	-5,0974	12,776	-0,11647	12,907
514	-5,0974	12,776	-0,11647	12,907
515	5,1229	-13,695	-0,11647	13,2
515	5,1229	-13,695	-0,11647	13,2
516	-7,6406	-14,935	-0,11647	14,307
516	-7,6406	-14,935	-0,11647	14,307
517	-7,5562	12,762	-0,11647	13,616
517	-7,5562	12,762	-0,11647	13,616
518	0,87947	25,385	-0,11647	20,643
518	0,87947	25,385	-0,11647	20,643
519	6,5945	14,223	-0,11647	13,63
519	6,5945	14,223	-0,11647	13,63
520	7,6896	-13,439	-0,11647	13,847
520	7,6896	-13,439	-0,11647	13,847
521	6,5241	-13,474	-0,11647	13,547
521	6,5241	-13,474	-0,11647	13,547
522	-4,4341	-13,81	-0,11647	13,047
522	-4,4341	-13,81	-0,11647	13,047
523	-2,8049	-14,042	-0,11647	12,837
523	-2,8049	-14,042	-0,11647	12,837
524	-1,1657	-14,159	-0,11647	12,722
524	-1,1657	-14,159	-0,11647	12,722
525	-7,063	-13,812	-0,11647	13,796
525	-7,063	-13,812	-0,11647	13,796
526	5,3102	14,088	-0,11647	13,246
526	5,3102	14,088	-0,11647	13,246
527	2,7376	13,709	-0,11647	12,632
527	2,7376	13,709	-0,11647	12,632
528	1,0229	13,943	-0,11647	12,539
528	1,0229	13,943	-0,11647	12,539
529	-0,77654	14,04	-0,11647	12,524
529	-0,77654	14,04	-0,11647	12,524
530	-2,6824	13,898	-0,11647	12,71
530	-2,6824	13,898	-0,11647	12,71
531	8,6842	-12,772	-0,11647	14,156
531	8,6842	-12,772	-0,11647	14,156
532	1,1304	-25,322	-0,11647	21,812
532	1,1304	-25,322	-0,11647	21,812
533	-1,5423	24,642	-0,11647	19,886
533	-1,5423	24,642	-0,11647	19,886
534	-0,95776	-24,846	-0,11647	21,281
534	-0,95776	-24,846	-0,11647	21,281
535	0,24898	-25,494	-0,11647	22,01
535	0,24898	-25,494	-0,11647	22,01
536	-0,53931	-25,926	-0,11647	22,532
536	-0,53931	-25,926	-0,11647	22,532
537	-0,87496	25,044	-0,11647	20,31
537	-0,87496	25,044	-0,11647	20,31
538	0,51423	-26,433	-0,11647	23,242
538	0,51423	-26,433	-0,11647	23,242
539	-0,27573	25,672	-0,11647	20,923
539	-0,27573	25,672	-0,11647	20,923
540	0,81661	-27,32	-0,11647	24,268
540	0,81661	-27,32	-0,11647	24,268
541	1,264	-13,408	-0,11647	12,485
541	1,264	-13,408	-0,11647	12,485
542	2,8149	-13,295	-0,11647	12,62
542	2,8149	-13,295	-0,11647	12,62
543	4,2991	-13,118	-0,11647	12,85
543	4,2991	-13,118	-0,11647	12,85
544	-1,3732	-26,441	-0,11647	23,15
544	-1,3732	-26,441	-0,11647	23,15
545	-1,3847	25,74	-0,11647	21,015
545	-1,3847	25,74	-0,11647	21,015
546	1,3608	-27,985	-0,11647	25,19
546	1,3608	-27,985	-0,11647	25,19
547	2,0438	-26,209	-0,11647	22,826
547	2,0438	-26,209	-0,11647	22,826
548	-1,8129	-25,419	-0,11647	21,874
548	-1,8129	-25,419	-0,11647	21,874
549	-2,3182	-24,452	-0,11647	20,709
549	-2,3182	-24,452	-0,11647	20,709
550	-3,3753	-22,621	-0,11647	18,746
550	-3,3753	-22,621	-0,11647	18,746
551	-4,3826	-20,856	-0,11647	17,181
551	-4,3826	-20,856	-0,11647	17,181
552	-5,3512	-19,131	-0,11647	15,957
552	-5,3512	-19,131	-0,11647	15,957
553	-7,2468	-15,787	-0,11647	14,485
553	-7,2468	-15,787	-0,11647	14,485
554	-8,0948	-14,079	-0,11647	14,21
554	-8,0948	-14,079	-0,11647	14,21
555	8,0939	-14,431	-0,11647	14,275
555	8,0939	-14,431	-0,11647	14,275
556	7,1079	-16,082	-0,11647	14,58
556	7,1079	-16,082	-0,11647	14,58
557	6,6214	-16,921	-0,11647	14,853
557	6,6214	-16,921	-0,11647	14,853
558	6,1438	-17,785	-0,11647	15,221
558	6,1438	-17,785	-0,11647	15,221
559	5,199	-19,571	-0,11647	16,245
559	5,199	-19,571	-0,11647	16,245
560	4,2477	-21,395	-0,11647	17,629
560	4,2477	-21,395	-0,11647	17,629
561	3,766	-22,317	-0,11647	18,461
561	3,766	-22,317	-0,11647	18,461
562	3,3079	-23,231	-0,11647	19,379
562	3,3079	-23,231	-0,11647	19,379
563	2,2215	-25,166	-0,11647	21,503
563	2,2215	-25,166	-0,11647	21,503
564	-8,534	12,797	-0,11647	13,99
564	-8,534	12,797	-0,11647	13,99
565	-7,6796	14,088	-0,11647	13,921
565	-7,6796	14,088	-0,11647	13,921
566	-7,2684	15,219	-0,11647	14,133
566	-7,2684	15,219	-0,11647	14,133
567	-6,8036	16,168	-0,11647	14,376
567	-6,8036	16,168	-0,11647	14,376
568	-5,8761	17,955	-0,11647	15,062
568	-5,8761	17,955	-0,11647	15,062
569	-4,9681	19,754	-0,11647	16,051
569	-4,9681	19,754	-0,11647	16,051
570	-4,0274	21,557	-0,11647	17,308
570	-4,0274	21,557	-0,11647	17,308
571	-2,7303	23,444	-0,11647	18,873
571	-2,7303	23,444	-0,11647	18,873
572	-2,3632	25,398	-0,11647	20,69
572	-2,3632	25,398	-0,11647	20,69
573	1,5825	25,968	-0,11647	21,206
573	1,5825	25,968	-0,11647	21,206
574	2,0564	24,985	-0,11647	20,259
574	2,0564	24,985	-0,11647	20,259
575	2,515	24,033	-0,11647	19,378
575	2,515	24,033	-0,11647	19,378
576	2,9813	23,133	-0,11647	18,577
576	2,9813	23,133	-0,11647	18,577
577	3,4733	22,258	-0,11647	17,83
577	3,4733	22,258	-0,11647	17,83
578	3,9615	21,371	-0,11647	17,142
578	3,9615	21,371	-0,11647	17,142
579	4,9154	19,607	-0,11647	15,941
579	4,9154	19,607	-0,11647	15,941
580	5,8525	17,828	-0,11647	14,999
580	5,8525	17,828	-0,11647	14,999
581	6,8706	16,212	-0,11647	14,371
581	6,8706	16,212	-0,11647	14,371
582	7,6175	14,544	-0,11647	14,052
582	7,6175	14,544	-0,11647	14,052
583	8,5806	12,838	-0,11647	14,03
583	8,5806	12,838	-0,11647	14,03
584	0,24995	-27,787	-0,11647	25,039
584	0,24995	-27,787	-0,11647	25,039
585	-0,18679	-26,903	-0,11647	23,79
585	-0,18679	-26,903	-0,11647	23,79
586	1,0587	26,932	-0,11647	22,194
586	1,0587	26,932	-0,11647	22,194
587	5,7913	-12,923	-0,11647	13,172
587	5,7913	-12,923	-0,11647	13,172
588	7,384	-12,673	-0,11647	13,661
588	7,384	-12,673	-0,11647	13,661
589	9,1432	11,965	-0,11647	14,175
589	9,1432	11,965	-0,11647	14,175
590	0,76808	-28,573	-0,11647	26,225
590	0,76808	-28,573	-0,11647	26,225
591	-1,9901	26,377	-0,11647	21,582
591	-1,9901	26,377	-0,11647	21,582
592	-3,5271	-13,248	-0,11647	12,724
592	-3,5271	-13,248	-0,11647	12,724
593	-1,9335	-13,412	-0,11647	12,547
593	-1,9335	-13,412	-0,11647	12,547
594	-0,3319	-13,453	-0,11647	12,468
594	-0,3319	-13,453	-0,11647	12,468
595	-6,0737	-13,467	-0,11647	13,38
595	-6,0737	-13,467	-0,11647	13,38
596	4,439	13,405	-0,11647	12,824
596	4,439	13,405	-0,11647	12,824
597	1,849	13,123	-0,11647	12,369
597	1,849	13,123	-0,11647	12,369
598	0,17108	13,293	-0,11647	12,321
598	0,17108	13,293	-0,11647	12,321
599	-1,601	13,301	-0,11647	12,377
599	-1,601	13,301	-0,11647	12,377
600	-3,4006	13,074	-0,11647	12,578
600	-3,4006	13,074	-0,11647	12,578
601	8,9538	-12,005	-0,11647	14,233
601	8,9538	-12,005	-0,11647	14,233
602	7,045	13,349	-0,11647	13,565
602	7,045	13,349	-0,11647	13,565
603	-7,6483	-12,869	-0,11647	13,789
603	-7,6483	-12,869	-0,11647	13,789
604	-9,1626	-12,282	-0,11647	14,33
604	-9,1626	-12,282	-0,11647	14,33
605	1,9876	-12,645	-0,11647	12,361
605	1,9876	-12,645	-0,11647	12,361
606	3,4819	-12,513	-0,11647	12,549
606	3,4819	-12,513	-0,11647	12,549
607	-7,7307	11,693	-0,11647	13,557
607	-7,7307	11,693	-0,11647	13,557
608	1,8588	27,45	-0,11647	22,778
608	1,8588	27,45	-0,11647	22,778
609	-2,188	-26,964	-0,11647	23,734
609	-2,188	-26,964	-0,11647	23,734
610	-9,4689	10,863	-0,11647	14,307
610	-9,4689	10,863	-0,11647	14,307
611	1,8307	-27,2	-0,11647	24,042
611	1,8307	-27,2	-0,11647	24,042
612	-3,1671	-25,016	-0,11647	21,248
612	-3,1671	-25,016	-0,11647	21,248
613	-3,6832	-24,1	-0,11647	20,212
613	-3,6832	-24,1	-0,11647	20,212
614	-4,2034	-23,204	-0,11647	19,273
614	-4,2034	-23,204	-0,11647	19,273
615	-5,1937	-21,428	-0,11647	17,678
615	-5,1937	-21,428	-0,11647	17,678
616	-6,1852	-19,671	-0,11647	16,421
616	-6,1852	-19,671	-0,11647	16,421
617	-7,1718	-17,951	-0,11647	15,508
617	-7,1718	-17,951	-0,11647	15,508
618	-8,1214	-16,216	-0,11647	14,909
618	-8,1214	-16,216	-0,11647	14,909
619	-8,5735	-15,341	-0,11647	14,735
619	-8,5735	-15,341	-0,11647	14,735
620	-9,0311	-14,463	-0,11647	14,651
620	-9,0311	-14,463	-0,11647	14,651
621	-9,5187	-13,586	-0,11647	14,658
621	-9,5187	-13,586	-0,11647	14,658
622	-10,015	-12,669	-0,11647	14,769
622	-10,015	-12,669	-0,11647	14,769
623	-10,483	-11,831	-0,11647	15,014
623	-10,483	-11,831	-0,11647	15,014
624	-11,055	-11,181	-0,11647	15,14
624	-11,055	-11,181	-0,11647	15,14
625	10,865	-10,599	-0,11647	15,194
625	10,865	-10,599	-0,11647	15,194
626	10,072	-12,266	-0,11647	14,75
626	10,072	-12,266	-0,11647	14,75
627	9,7246	-13,092	-0,11647	14,655
627	9,7246	-13,092	-0,11647	14,655
628	8,9377	-14,828	-0,11647	14,688
628	8,9377	-14,828	-0,11647	14,688
629	7,9707	-16,574	-0,11647	15,015
629	7,9707	-16,574	-0,11647	15,015
630	7,4794	-17,44	-0,11647	15,301
630	7,4794	-17,44	-0,11647	15,301
631	6,9926	-18,319	-0,11647	15,676
631	6,9926	-18,319	-0,11647	15,676
632	6,0181	-20,122	-0,11647	16,717
632	6,0181	-20,122	-0,11647	16,717
633	5,5376	-21,045	-0,11647	17,379
633	5,5376	-21,045	-0,11647	17,379
634	5,0608	-21,97	-0,11647	18,129
634	5,0608	-21,97	-0,11647	18,129
635	4,5753	-22,897	-0,11647	18,969
635	4,5753	-22,897	-0,11647	18,969
636	4,1141	-23,823	-0,11647	19,882
636	4,1141	-23,823	-0,11647	19,882
637	3,637	-24,769	-0,11647	20,902
637	3,637	-24,769	-0,11647	20,902
638	3,1761	-25,668	-0,11647	22,017
638	3,1761	-25,668	-0,11647	22,017
639	2,4386	-27,633	-0,11647	24,552
639	2,4386	-27,633	-0,11647	24,552
640	-9,5374	13,171	-0,11647	14,459
640	-9,5374	13,171	-0,11647	14,459
641	-9,1168	14,098	-0,11647	14,408
641	-9,1168	14,098	-0,11647	14,408
642	-8,5836	14,93	-0,11647	14,481
642	-8,5836	14,93	-0,11647	14,481
643	-8,1137	15,766	-0,11647	14,607
643	-8,1137	15,766	-0,11647	14,607
644	-7,6589	16,697	-0,11647	14,832
644	-7,6589	16,697	-0,11647	14,832
645	-6,72	18,518	-0,11647	15,538
645	-6,72	18,518	-0,11647	15,538
646	-5,7808	20,332	-0,11647	16,539
646	-5,7808	20,332	-0,11647	16,539
647	-4,8344	22,148	-0,11647	17,803
647	-4,8344	22,148	-0,11647	17,803
648	-3,8121	23,95	-0,11647	19,34
648	-3,8121	23,95	-0,11647	19,34
649	-3,0387	25,817	-0,11647	21,068
649	-3,0387	25,817	-0,11647	21,068
650	2,3689	26,507	-0,11647	21,759
650	2,3689	26,507	-0,11647	21,759
651	2,843	25,556	-0,11647	20,806
651	2,843	25,556	-0,11647	20,806
652	3,3207	24,632	-0,11647	19,921
652	3,3207	24,632	-0,11647	19,921
653	3,8038	23,731	-0,11647	19,106
653	3,8038	23,731	-0,11647	19,106
654	4,2934	22,844	-0,11647	18,35
654	4,2934	22,844	-0,11647	18,35
655	4,7803	21,96	-0,11647	17,652
655	4,7803	21,96	-0,11647	17,652
656	5,7469	20,185	-0,11647	16,431
656	5,7469	20,185	-0,11647	16,431
657	6,7086	18,403	-0,11647	15,476
657	6,7086	18,403	-0,11647	15,476
658	7,6859	16,669	-0,11647	14,824
658	7,6859	16,669	-0,11647	14,824
659	8,5923	14,952	-0,11647	14,49
659	8,5923	14,952	-0,11647	14,49
660	9,5264	13,261	-0,11647	14,487
660	9,5264	13,261	-0,11647	14,487
661	6,4337	-12,154	-0,11647	13,214
661	6,4337	-12,154	-0,11647	13,214
662	9,7224	11,088	-0,11647	14,454
662	9,7224	11,088	-0,11647	14,454
663	10,312	10,367	-0,11647	14,791
663	10,312	10,367	-0,11647	14,791
664	-0,92239	-27,42	-0,11647	24,497
664	-0,92239	-27,42	-0,11647	24,497
665	-0,36018	-28,344	-0,11647	25,922
665	-0,36018	-28,344	-0,11647	25,922
666	1,9458	-28,522	-0,11647	25,914
666	1,9458	-28,522	-0,11647	25,914
667	1,3059	-29,259	-0,11647	27,278
667	1,3059	-29,259	-0,11647	27,278
668	0,17923	-29,169	-0,11647	27,256
668	0,17923	-29,169	-0,11647	27,256
669	2,5945	-29,129	-0,11647	26,833
669	2,5945	-29,129	-0,11647	26,833
670	-0,8394	26,446	-0,11647	21,703
670	-0,8394	26,446	-0,11647	21,703
671	-0,25822	27,161	-0,11647	22,463
671	-0,25822	27,161	-0,11647	22,463
672	-1,4924	27,131	-0,11647	22,412
672	-1,4924	27,131	-0,11647	22,412
673	-2,2241	27,818	-0,11647	23,204
673	-2,2241	27,818	-0,11647	23,204
674	4,9414	-12,358	-0,11647	12,834
674	4,9414	-12,358	-0,11647	12,834
675	-2,4013	28,731	-0,11647	24,021
675	-2,4013	28,731	-0,11647	24,021
676	10,931	9,8599	-0,11647	15,032
676	10,931	9,8599	-0,11647	15,032
677	-12,302	-9,673	-0,11647	16,305
677	-12,302	-9,673	-0,11647	16,305
678	-2,6656	-12,658	-0,11647	12,448
678	-2,6656	-12,658	-0,11647	12,448
679	-1,1097	-12,748	-0,11647	12,313
679	-1,1097	-12,748	-0,11647	12,313
680	-5,1274	-12,983	-0,11647	12,999
680	-5,1274	-12,983	-0,11647	12,999
681	0,46217	-12,72	-0,11647	12,284
681	0,46217	-12,72	-0,11647	12,284
682	3,5385	12,808	-0,11647	12,526
682	3,5385	12,808	-0,11647	12,526
683	0,97386	12,509	-0,11647	12,182
683	0,97386	12,509	-0,11647	12,182
684	-0,70354	12,595	-0,11647	12,175
684	-0,70354	12,595	-0,11647	12,175
685	-2,4316	12,495	-0,11647	12,296
685	-2,4316	12,495	-0,11647	12,296
686	7,9454	-11,71	-0,11647	13,749
686	7,9454	-11,71	-0,11647	13,749
687	9,4366	-11,129	-0,11647	14,384
687	9,4366	-11,129	-0,11647	14,384
688	6,0318	13,007	-0,11647	13,165
688	6,0318	13,007	-0,11647	13,165
689	-6,7023	-12,547	-0,11647	13,393
689	-6,7023	-12,547	-0,11647	13,393
690	7,6218	12,441	-0,11647	13,597
690	7,6218	12,441	-0,11647	13,597
691	-8,2691	-11,917	-0,11647	13,92
691	-8,2691	-11,917	-0,11647	13,92
692	-4,1764	12,253	-0,11647	12,553
692	-4,1764	12,253	-0,11647	12,553
693	-9,7938	-11,315	-0,11647	14,64
693	-9,7938	-11,315	-0,11647	14,64
694	2,6728	-11,868	-0,11647	12,313
694	2,6728	-11,868	-0,11647	12,313
695	4,1188	-11,748	-0,11647	12,554
695	4,1188	-11,748	-0,11647	12,554
696	-6,2225	11,78	-0,11647	13,039
696	-6,2225	11,78	-0,11647	13,039
697	2,7508	-30,084	-0,11647	28,09
697	2,7508	-30,084	-0,11647	28,09
698	1,8347	-29,907	-0,11647	28,318
698	1,8347	-29,907	-0,11647	28,318
699	-0,91843	27,842	-0,11647	23,249
699	-0,91843	27,842	-0,11647	23,249
700	0,73152	-29,934	-0,11647	28,523
700	0,73152	-29,934	-0,11647	28,523
701	-1,4898	28,514	-0,11647	24,002
701	-1,4898	28,514	-0,11647	24,002
702	-2,038	29,213	-0,11647	24,719
702	-2,038	29,213	-0,11647	24,719
703	-10,44	11,329	-0,11647	14,848
703	-10,44	11,329	-0,11647	14,848
704	-0,9864	29,27	-0,11647	24,796
704	-0,9864	29,27	-0,11647	24,796
705	-0,4102	28,566	-0,11647	24,075
705	-0,4102	28,566	-0,11647	24,075
706	0,35739	27,928	-0,11647	23,35
706	0,35739	27,928	-0,11647	23,35
707	1,4461	28,304	-0,11647	23,766
707	1,4461	28,304	-0,11647	23,766
708	0,49472	28,799	-0,11647	24,134
708	0,49472	28,799	-0,11647	24,134
709	1,0997	29,203	-0,11647	24,692
709	1,0997	29,203	-0,11647	24,692
710	-0,92416	-28,972	-0,11647	26,915
710	-0,92416	-28,972	-0,11647	26,915
711	-0,3768	-29,827	-0,11647	28,334
711	-0,3768	-29,827	-0,11647	28,334
712	-1,653	-28,047	-0,11647	25,461
712	-1,653	-28,047	-0,11647	25,461
713	12,3	-9,0248	-0,11647	16,332
713	12,3	-9,0248	-0,11647	16,332
714	-1,8629	-29,052	-0,11647	26,691
714	-1,8629	-29,052	-0,11647	26,691
715	-11,142	10,474	-0,11647	15,219
715	-11,142	10,474	-0,11647	15,219
716	-11,69	9,4812	-0,11647	15,655
716	-11,69	9,4812	-0,11647	15,655
717	-11,683	10,113	-0,11647	15,426
717	-11,683	10,113	-0,11647	15,426
718	10,047	12,414	-0,11647	14,637
718	10,047	12,414	-0,11647	14,637
719	10,587	11,604	-0,11647	14,888
719	10,587	11,604	-0,11647	14,888
720	-8,2571	10,664	-0,11647	13,746
720	-8,2571	10,664	-0,11647	13,746
721	1,7492	29,769	-0,11647	25,378
721	1,7492	29,769	-0,11647	25,378
722	3,1779e-002	29,335	-0,11647	24,862
722	3,1779e-002	29,335	-0,11647	24,862
723	-1,4304	-29,676	-0,11647	27,917
723	-1,4304	-29,676	-0,11647	27,917
724	-2,4573	-29,398	-0,11647	27,15
724	-2,4573	-29,398	-0,11647	27,15
725	-10,334	9,7516	-0,11647	14,844
725	-10,334	9,7516	-0,11647	14,844
726	5,5515	-11,624	-0,11647	12,893
726	5,5515	-11,624	-0,11647	12,893
727	11,166	10,817	-0,11647	15,221
727	11,166	10,817	-0,11647	15,221
728	-13,081	8,9019	-0,11647	16,847
728	-13,081	8,9019	-0,11647	16,847
729	-2,7145	-28,381	-0,11647	25,645
729	-2,7145	-28,381	-0,11647	25,645
730	-3,0677	-27,427	-0,11647	24,238
730	-3,0677	-27,427	-0,11647	24,238
731	-3,537	-26,493	-0,11647	22,913
731	-3,537	-26,493	-0,11647	22,913
732	-4,0221	-25,579	-0,11647	21,752
732	-4,0221	-25,579	-0,11647	21,752
733	-4,532	-24,677	-0,11647	20,703
733	-4,532	-24,677	-0,11647	20,703
734	-5,0418	-23,778	-0,11647	19,754
734	-5,0418	-23,778	-0,11647	19,754
735	-5,5387	-22,88	-0,11647	18,9
735	-5,5387	-22,88	-0,11647	18,9
736	-6,0249	-21,982	-0,11647	18,135
736	-6,0249	-21,982	-0,11647	18,135
737	-6,529	-21,088	-0,11647	17,45
737	-6,529	-21,088	-0,11647	17,45
738	-7,0206	-20,194	-0,11647	16,857
738	-7,0206	-20,194	-0,11647	16,857
739	-8,0218	-18,436	-0,11647	15,926
739	-8,0218	-18,436	-0,11647	15,926
740	-8,5072	-17,543	-0,11647	15,587
740	-8,5072	-17,543	-0,11647	15,587
741	-8,991	-16,659	-0,11647	15,331
741	-8,991	-16,659	-0,11647	15,331
742	-9,4668	-15,773	-0,11647	15,167
742	-9,4668	-15,773	-0,11647	15,167
743	-9,9412	-14,891	-0,11647	15,095
743	-9,9412	-14,891	-0,11647	15,095
744	-10,896	-13,144	-0,11647	15,238
744	-10,896	-13,144	-0,11647	15,238
745	-11,393	-12,31	-0,11647	15,435
745	-11,393	-12,31	-0,11647	15,435
746	-11,831	-11,398	-0,11647	15,631
746	-11,831	-11,398	-0,11647	15,631
747	12,247	-10,02	-0,11647	16,062
747	12,247	-10,02	-0,11647	16,062
748	11,082	-12,631	-0,11647	15,277
748	11,082	-12,631	-0,11647	15,277
749	10,672	-13,5	-0,11647	15,141
749	10,672	-13,5	-0,11647	15,141
750	9,7988	-15,267	-0,11647	15,12
750	9,7988	-15,267	-0,11647	15,12
751	8,8277	-17,049	-0,11647	15,437
751	8,8277	-17,049	-0,11647	15,437
752	7,8368	-18,839	-0,11647	16,11
752	7,8368	-18,839	-0,11647	16,11
753	6,845	-20,669	-0,11647	17,162
753	6,845	-20,669	-0,11647	17,162
754	6,3617	-21,603	-0,11647	17,828
754	6,3617	-21,603	-0,11647	17,828
755	5,8787	-22,531	-0,11647	18,585
755	5,8787	-22,531	-0,11647	18,585
756	5,3925	-23,466	-0,11647	19,429
756	5,3925	-23,466	-0,11647	19,429
757	4,9256	-24,39	-0,11647	20,355
757	4,9256	-24,39	-0,11647	20,355
758	4,4579	-25,314	-0,11647	21,371
758	4,4579	-25,314	-0,11647	21,371
759	3,9894	-26,232	-0,11647	22,474
759	3,9894	-26,232	-0,11647	22,474
760	3,5449	-27,157	-0,11647	23,679
760	3,5449	-27,157	-0,11647	23,679
761	3,0877	-28,101	-0,11647	25,082
761	3,0877	-28,101	-0,11647	25,082
762	-12,409	10,442	-0,11647	15,976
762	-12,409	10,442	-0,11647	15,976
763	-11,336	11,92	-0,11647	15,31
763	-11,336	11,92	-0,11647	15,31
764	-10,418	13,666	-0,11647	14,918
764	-10,418	13,666	-0,11647	14,918
765	-9,4772	15,462	-0,11647	14,932
765	-9,4772	15,462	-0,11647	14,932
766	-8,5148	17,246	-0,11647	15,297
766	-8,5148	17,246	-0,11647	15,297
767	-8,034	18,167	-0,11647	15,61
767	-8,034	18,167	-0,11647	15,61
768	-7,5592	19,078	-0,11647	16,003
768	-7,5592	19,078	-0,11647	16,003
769	-6,6115	20,895	-0,11647	17,01
769	-6,6115	20,895	-0,11647	17,01
770	-5,653	22,718	-0,11647	18,288
770	-5,653	22,718	-0,11647	18,288
771	-4,7099	24,526	-0,11647	19,796
771	-4,7099	24,526	-0,11647	19,796
772	-3,865	26,353	-0,11647	21,541
772	-3,865	26,353	-0,11647	21,541
773	-3,4631	27,274	-0,11647	22,526
773	-3,4631	27,274	-0,11647	22,526
774	-3,1863	28,177	-0,11647	23,518
774	-3,1863	28,177	-0,11647	23,518
775	2,2567	28,873	-0,11647	24,295
775	2,2567	28,873	-0,11647	24,295
776	2,7187	27,971	-0,11647	23,289
776	2,7187	27,971	-0,11647	23,289
777	3,1784	27,045	-0,11647	22,285
777	3,1784	27,045	-0,11647	22,285
778	3,663	26,119	-0,11647	21,323
778	3,663	26,119	-0,11647	21,323
779	4,1397	25,216	-0,11647	20,439
779	4,1397	25,216	-0,11647	20,439
780	4,6281	24,317	-0,11647	19,613
780	4,6281	24,317	-0,11647	19,613
781	5,1192	23,42	-0,11647	18,844
781	5,1192	23,42	-0,11647	18,844
782	5,6084	22,528	-0,11647	18,136
782	5,6084	22,528	-0,11647	18,136
783	6,587	20,74	-0,11647	16,898
783	6,587	20,74	-0,11647	16,898
784	8,5488	17,164	-0,11647	15,266
784	8,5488	17,164	-0,11647	15,266
785	9,0282	16,289	-0,11647	15,058
785	9,0282	16,289	-0,11647	15,058
786	9,5033	15,413	-0,11647	14,936
786	9,5033	15,413	-0,11647	14,936
787	10,45	13,709	-0,11647	14,956
787	10,45	13,709	-0,11647	14,956
788	11,475	12,029	-0,11647	15,346
788	11,475	12,029	-0,11647	15,346
789	12,025	11,186	-0,11647	15,704
789	12,025	11,186	-0,11647	15,704
790	12,647	10,258	-0,11647	16,29
790	12,647	10,258	-0,11647	16,29
791	11,74	10,063	-0,11647	15,589
791	11,74	10,063	-0,11647	15,589
792	11,163	-9,8485	-0,11647	15,537
792	11,163	-9,8485	-0,11647	15,537
793	-12,674	-8,8887	-0,11647	16,821
793	-12,674	-8,8887	-0,11647	16,821
794	-1,834	-12,019	-0,11647	12,239
794	-1,834	-12,019	-0,11647	12,239
795	-4,2374	-12,437	-0,11647	12,681
795	-4,2374	-12,437	-0,11647	12,681
796	-0,31183	-12,04	-0,11647	12,152
796	-0,31183	-12,04	-0,11647	12,152
797	13,343	-10,309	-0,11647	16,896
797	13,343	-10,309	-0,11647	16,896
798	3,5479	-29,509	-0,11647	26,96
798	3,5479	-29,509	-0,11647	26,96
799	2,6136	12,298	-0,11647	12,286
799	2,6136	12,298	-0,11647	12,286
800	-1,5026	11,866	-0,11647	12,103
800	-1,5026	11,866	-0,11647	12,103
801	6,983	-11,34	-0,11647	13,346
801	6,983	-11,34	-0,11647	13,346
802	8,4296	-10,821	-0,11647	13,926
802	8,4296	-10,821	-0,11647	13,926
803	5,109	12,529	-0,11647	12,805
803	5,109	12,529	-0,11647	12,805
804	-5,798	-12,086	-0,11647	13,03
804	-5,798	-12,086	-0,11647	13,03
805	1,2066	-11,976	-0,11647	12,181
805	1,2066	-11,976	-0,11647	12,181
806	-11,982	8,714	-0,11647	16,039
806	-11,982	8,714	-0,11647	16,039
807	6,68	12,049	-0,11647	13,208
807	6,68	12,049	-0,11647	13,208
808	-7,3546	-11,564	-0,11647	13,515
808	-7,3546	-11,564	-0,11647	13,515
809	-3,2109	11,696	-0,11647	12,292
809	-3,2109	11,696	-0,11647	12,292
810	-10,806	-10,322	-0,11647	15,136
810	-10,806	-10,322	-0,11647	15,136
811	3,3217	-11,088	-0,11647	12,339
811	3,3217	-11,088	-0,11647	12,339
812	4,7156	-10,987	-0,11647	12,628
812	4,7156	-10,987	-0,11647	12,628
813	8,243	11,53	-0,11647	13,747
813	8,243	11,53	-0,11647	13,747
814	-8,9793	-10,96	-0,11647	14,172
814	-8,9793	-10,96	-0,11647	14,172
815	12,379	-8,2154	-0,11647	16,577
815	12,379	-8,2154	-0,11647	16,577
816	13,273	-9,2265	-0,11647	17,144
816	13,273	-9,2265	-0,11647	17,144
817	3,3148	-30,447	-0,11647	28,489
817	3,3148	-30,447	-0,11647	28,489
818	2,3429	-30,642	-0,11647	29,319
818	2,3429	-30,642	-0,11647	29,319
819	1,2805	-30,651	-0,11647	29,726
819	1,2805	-30,651	-0,11647	29,726
820	0,16911	-30,606	-0,11647	29,796
820	0,16911	-30,606	-0,11647	29,796
821	-3,7073	29,679	-0,11647	25,009
821	-3,7073	29,679	-0,11647	25,009
822	-1,5524	29,968	-0,11647	25,581
822	-1,5524	29,968	-0,11647	25,581
823	-6,9117	10,577	-0,11647	13,239
823	-6,9117	10,577	-0,11647	13,239
824	-0,4697	30,02	-0,11647	25,67
824	-0,4697	30,02	-0,11647	25,67
825	-2,0475	-30,314	-0,11647	28,82
825	-2,0475	-30,314	-0,11647	28,82
826	-3,1612	-29,927	-0,11647	27,708
826	-3,1612	-29,927	-0,11647	27,708
827	-0,94029	-30,48	-0,11647	29,442
827	-0,94029	-30,48	-0,11647	29,442
828	-13,658	-9,3734	-0,11647	17,368
828	-13,658	-9,3734	-0,11647	17,368
829	-13,239	-8,3424	-0,11647	17,143
829	-13,239	-8,3424	-0,11647	17,143
830	-14,077	9,2185	-0,11647	17,582
830	-14,077	9,2185	-0,11647	17,582
831	14,199	-9,9931	-0,11647	17,391
831	14,199	-9,9931	-0,11647	17,391
832	-3,3659	-11,881	-0,11647	12,425
832	-3,3659	-11,881	-0,11647	12,425
833	-2,5282	-11,288	-0,11647	12,233
833	-2,5282	-11,288	-0,11647	12,233
834	-1,0373	-11,348	-0,11647	12,097
834	-1,0373	-11,348	-0,11647	12,097
835	-3,5322	-28,946	-0,11647	26,098
835	-3,5322	-28,946	-0,11647	26,098
836	-3,9388	-27,993	-0,11647	24,668
836	-3,9388	-27,993	-0,11647	24,668
837	-4,3833	-27,067	-0,11647	23,371
837	-4,3833	-27,067	-0,11647	23,371
838	-4,8682	-26,155	-0,11647	22,194
838	-4,8682	-26,155	-0,11647	22,194
839	-5,3732	-25,248	-0,11647	21,131
839	-5,3732	-25,248	-0,11647	21,131
840	-5,878	-24,34	-0,11647	20,171
840	-5,878	-24,34	-0,11647	20,171
841	-6,3733	-23,432	-0,11647	19,309
841	-6,3733	-23,432	-0,11647	19,309
842	-6,8718	-22,526	-0,11647	18,536
842	-6,8718	-22,526	-0,11647	18,536
843	-7,3717	-21,617	-0,11647	17,851
843	-7,3717	-21,617	-0,11647	17,851
844	-7,8669	-20,713	-0,11647	17,256
844	-7,8669	-20,713	-0,11647	17,256
845	-8,8732	-18,924	-0,11647	16,325
845	-8,8732	-18,924	-0,11647	16,325
846	-9,8516	-17,126	-0,11647	15,743
846	-9,8516	-17,126	-0,11647	15,743
847	-11,795	-13,604	-0,11647	15,695
847	-11,795	-13,604	-0,11647	15,695
848	-12,266	-12,733	-0,11647	15,911
848	-12,266	-12,733	-0,11647	15,911
849	-12,729	-11,849	-0,11647	16,192
849	-12,729	-11,849	-0,11647	16,192
850	-13,323	-10,156	-0,11647	16,932
850	-13,323	-10,156	-0,11647	16,932
851	12,497	-12,123	-0,11647	16,045
851	12,497	-12,123	-0,11647	16,045
852	12,034	-13,032	-0,11647	15,779
852	12,034	-13,032	-0,11647	15,779
853	11,591	-13,919	-0,11647	15,607
853	11,591	-13,919	-0,11647	15,607
854	10,666	-15,716	-0,11647	15,543
854	10,666	-15,716	-0,11647	15,543
855	9,6803	-17,525	-0,11647	15,844
855	9,6803	-17,525	-0,11647	15,844
856	9,1825	-18,435	-0,11647	16,134
856	9,1825	-18,435	-0,11647	16,134
857	8,6847	-19,353	-0,11647	16,517
857	8,6847	-19,353	-0,11647	16,517
858	7,6813	-21,209	-0,11647	17,568
858	7,6813	-21,209	-0,11647	17,568
859	7,194	-22,15	-0,11647	18,232
859	7,194	-22,15	-0,11647	18,232
860	6,6996	-23,092	-0,11647	18,99
860	6,6996	-23,092	-0,11647	18,99
861	6,2174	-24,024	-0,11647	19,832
861	6,2174	-24,024	-0,11647	19,832
862	5,7439	-24,95	-0,11647	20,759
862	5,7439	-24,95	-0,11647	20,759
863	4,8112	-26,796	-0,11647	22,899
863	4,8112	-26,796	-0,11647	22,899
864	3,896	-28,627	-0,11647	25,524
864	3,896	-28,627	-0,11647	25,524
865	-13,677	10,031	-0,11647	17,02
865	-13,677	10,031	-0,11647	17,02
866	-13,235	10,829	-0,11647	16,521
866	-13,235	10,829	-0,11647	16,521
867	-12,239	12,452	-0,11647	15,774
867	-12,239	12,452	-0,11647	15,774
868	-11,758	13,293	-0,11647	15,533
868	-11,758	13,293	-0,11647	15,533
869	-10,824	15,07	-0,11647	15,334
869	-10,824	15,07	-0,11647	15,334
870	-10,342	15,965	-0,11647	15,382
870	-10,342	15,965	-0,11647	15,382
871	-9,863	16,867	-0,11647	15,518
871	-9,863	16,867	-0,11647	15,518
872	-8,892	18,701	-0,11647	16,054
872	-8,892	18,701	-0,11647	16,054
873	-7,9215	20,534	-0,11647	16,914
873	-7,9215	20,534	-0,11647	16,914
874	-6,9676	22,365	-0,11647	18,065
874	-6,9676	22,365	-0,11647	18,065
875	-6,0056	24,186	-0,11647	19,475
875	-6,0056	24,186	-0,11647	19,475
876	-5,5482	25,088	-0,11647	20,26
876	-5,5482	25,088	-0,11647	20,26
877	-5,1175	25,99	-0,11647	21,104
877	-5,1175	25,99	-0,11647	21,104
878	-4,3119	27,805	-0,11647	22,973
878	-4,3119	27,805	-0,11647	22,973
879	-3,9372	28,711	-0,11647	23,991
879	-3,9372	28,711	-0,11647	23,991
880	3,0231	29,53	-0,11647	25,108
880	3,0231	29,53	-0,11647	25,108
881	4,0021	27,584	-0,11647	22,771
881	4,0021	27,584	-0,11647	22,771
882	4,4898	26,685	-0,11647	21,814
882	4,4898	26,685	-0,11647	21,814
883	4,9736	25,79	-0,11647	20,923
883	4,9736	25,79	-0,11647	20,923
884	5,9547	23,985	-0,11647	19,305
884	5,9547	23,985	-0,11647	19,305
885	6,4413	23,085	-0,11647	18,586
885	6,4413	23,085	-0,11647	18,586
886	6,9454	22,175	-0,11647	17,925
886	6,9454	22,175	-0,11647	17,925
887	7,439	21,264	-0,11647	17,331
887	7,439	21,264	-0,11647	17,331
888	7,9317	20,352	-0,11647	16,807
888	7,9317	20,352	-0,11647	16,807
889	8,9233	18,54	-0,11647	15,984
889	8,9233	18,54	-0,11647	15,984
890	9,4129	17,646	-0,11647	15,695
890	9,4129	17,646	-0,11647	15,695
891	9,8978	16,761	-0,11647	15,492
891	9,8978	16,761	-0,11647	15,492
892	10,873	15,018	-0,11647	15,35
892	10,873	15,018	-0,11647	15,35
893	11,848	13,314	-0,11647	15,569
893	11,848	13,314	-0,11647	15,569
894	12,343	12,462	-0,11647	15,826
894	12,343	12,462	-0,11647	15,826
895	13,073	9,3062	-0,11647	16,746
895	13,073	9,3062	-0,11647	16,746
896	12,081	9,2078	-0,11647	15,977
896	12,081	9,2078	-0,11647	15,977
897	9,8703	-10,248	-0,11647	14,643
897	9,8703	-10,248	-0,11647	14,643
898	10,354	-9,3144	-0,11647	15,016
898	10,354	-9,3144	-0,11647	15,016
899	7,5559	-10,462	-0,11647	13,532
899	7,5559	-10,462	-0,11647	13,532
900	-4,8996	-11,608	-0,11647	12,721
900	-4,8996	-11,608	-0,11647	12,721
901	-2,4049	-9,951	-0,11647	12,179
901	-2,4049	-9,951	-0,11647	12,179
902	-1,665	-9,3085	-0,11647	12,135
902	-1,665	-9,3085	-0,11647	12,135
903	0,43599	-11,3	-0,11647	12,071
903	0,43599	-11,3	-0,11647	12,071
904	4,3038	-30,075	-0,11647	27,329
904	4,3038	-30,075	-0,11647	27,329
905	-10,799	8,6791	-0,11647	15,263
905	-10,799	8,6791	-0,11647	15,263
906	-12,397	7,8809	-0,11647	16,567
906	-12,397	7,8809	-0,11647	16,567
907	-2,3093	-8,6408	-0,11647	12,259
907	-2,3093	-8,6408	-0,11647	12,259
908	1,9057	-11,201	-0,11647	12,154
908	1,9057	-11,201	-0,11647	12,154
909	-2,2704	11,105	-0,11647	12,112
909	-2,2704	11,105	-0,11647	12,112
910	-11,309	-9,2476	-0,11647	15,626
910	-11,309	-9,2476	-0,11647	15,626
911	14,091	9,3708	-0,11647	17,522
911	14,091	9,3708	-0,11647	17,522
912	11,071	-8,3042	-0,11647	15,682
912	11,071	-8,3042	-0,11647	15,682
913	3,9397	-10,312	-0,11647	12,433
913	3,9397	-10,312	-0,11647	12,433
914	7,316	11,114	-0,11647	13,365
914	7,316	11,114	-0,11647	13,365
915	-8,0083	-10,626	-0,11647	13,735
915	-8,0083	-10,626	-0,11647	13,735
916	13,435	-8,3648	-0,11647	17,475
916	13,435	-8,3648	-0,11647	17,475
917	14,256	-9,338	-0,11647	17,848
917	14,256	-9,338	-0,11647	17,848
918	3,9842	-31,013	-0,11647	28,952
918	3,9842	-31,013	-0,11647	28,952
919	2,9501	-31,314	-0,11647	30,176
919	2,9501	-31,314	-0,11647	30,176
920	0,73692	-31,352	-0,11647	31,229
920	0,73692	-31,352	-0,11647	31,229
921	-2,1481	30,632	-0,11647	26,373
921	-2,1481	30,632	-0,11647	26,373
922	8,8903	10,614	-0,11647	14,017
922	8,8903	10,614	-0,11647	14,017
923	-9,6663	-9,9908	-0,11647	14,539
923	-9,6663	-9,9908	-0,11647	14,539
924	-5,7919	10,358	-0,11647	12,826
924	-5,7919	10,358	-0,11647	12,826
925	-2,71	-30,837	-0,11647	29,504
925	-2,71	-30,837	-0,11647	29,504
926	-3,8904	-30,461	-0,11647	28,167
926	-3,8904	-30,461	-0,11647	28,167
927	-1,5425	-31,108	-0,11647	30,522
927	-1,5425	-31,108	-0,11647	30,522
928	-7,7014	9,5243	-0,11647	13,531
928	-7,7014	9,5243	-0,11647	13,531
929	-14,468	8,4008	-0,11647	18,233
929	-14,468	8,4008	-0,11647	18,233
930	-15,011	9,5795	-0,11647	18,26
930	-15,011	9,5795	-0,11647	18,26
931	-14,616	-9,7309	-0,11647	18,029
931	-14,616	-9,7309	-0,11647	18,029
932	-13,993	-8,5568	-0,11647	17,863
932	-13,993	-8,5568	-0,11647	17,863
933	-13,15	-7,6405	-0,11647	17,423
933	-13,15	-7,6405	-0,11647	17,423
934	-0,39707	-31,268	-0,11647	31,093
934	-0,39707	-31,268	-0,11647	31,093
935	12,591	-7,3882	-0,11647	17,033
935	12,591	-7,3882	-0,11647	17,033
936	14,962	-10,393	-0,11647	17,971
936	14,962	-10,393	-0,11647	17,971
937	0,1357	10,44	-0,11647	11,961
937	0,1357	10,44	-0,11647	11,961
938	6,6807	-10,081	-0,11647	13,193
938	6,6807	-10,081	-0,11647	13,193
939	14,353	-10,999	-0,11647	17,486
939	14,353	-10,999	-0,11647	17,486
940	3,3274	11,453	-0,11647	12,291
940	3,3274	11,453	-0,11647	12,291
941	2,4678	10,912	-0,11647	12,129
941	2,4678	10,912	-0,11647	12,129
942	-4,0272	-11,094	-0,11647	12,475
942	-4,0272	-11,094	-0,11647	12,475
943	-3,1918	-10,543	-0,11647	12,293
943	-3,1918	-10,543	-0,11647	12,293
944	-0,98415	-9,9648	-0,11647	12,058
944	-0,98415	-9,9648	-0,11647	12,058
945	-0,28945	-10,638	-0,11647	12,032
945	-0,28945	-10,638	-0,11647	12,032
946	-4,3327	-29,512	-0,11647	26,509
946	-4,3327	-29,512	-0,11647	26,509
947	-4,7721	-28,572	-0,11647	25,043
947	-4,7721	-28,572	-0,11647	25,043
948	-5,2345	-27,641	-0,11647	23,728
948	-5,2345	-27,641	-0,11647	23,728
949	-5,7129	-26,725	-0,11647	22,546
949	-5,7129	-26,725	-0,11647	22,546
950	-6,2117	-25,809	-0,11647	21,476
950	-6,2117	-25,809	-0,11647	21,476
951	-6,7108	-24,891	-0,11647	20,512
951	-6,7108	-24,891	-0,11647	20,512
952	-7,2188	-23,972	-0,11647	19,646
952	-7,2188	-23,972	-0,11647	19,646
953	-7,721	-23,055	-0,11647	18,876
953	-7,721	-23,055	-0,11647	18,876
954	-8,7251	-21,239	-0,11647	17,61
954	-8,7251	-21,239	-0,11647	17,61
955	-9,7271	-19,421	-0,11647	16,692
955	-9,7271	-19,421	-0,11647	16,692
956	-10,226	-18,506	-0,11647	16,365
956	-10,226	-18,506	-0,11647	16,365
957	-10,719	-17,609	-0,11647	16,13
957	-10,719	-17,609	-0,11647	16,13
958	-11,707	-15,824	-0,11647	15,943
958	-11,707	-15,824	-0,11647	15,943
959	-12,194	-14,934	-0,11647	15,994
959	-12,194	-14,934	-0,11647	15,994
960	-12,682	-14,056	-0,11647	16,138
960	-12,682	-14,056	-0,11647	16,138
961	-13,603	-12,32	-0,11647	16,693
961	-13,603	-12,32	-0,11647	16,693
962	-14,301	-10,595	-0,11647	17,528
962	-14,301	-10,595	-0,11647	17,528
963	13,405	-12,589	-0,11647	16,56
963	13,405	-12,589	-0,11647	16,56
964	12,489	-14,366	-0,11647	16,051
964	12,489	-14,366	-0,11647	16,051
965	11,533	-16,175	-0,11647	15,943
965	11,533	-16,175	-0,11647	15,943
966	10,535	-18,	-0,11647	16,22
966	10,535	-18,	-0,11647	16,22
967	9,5355	-19,865	-0,11647	16,882
967	9,5355	-19,865	-0,11647	16,882
968	9,0342	-20,802	-0,11647	17,355
968	9,0342	-20,802	-0,11647	17,355
969	8,5273	-21,743	-0,11647	17,921
969	8,5273	-21,743	-0,11647	17,921
970	8,027	-22,689	-0,11647	18,578
970	8,027	-22,689	-0,11647	18,578
971	7,5355	-23,635	-0,11647	19,326
971	7,5355	-23,635	-0,11647	19,326
972	7,0479	-24,574	-0,11647	20,163
972	7,0479	-24,574	-0,11647	20,163
973	6,5719	-25,504	-0,11647	21,085
973	6,5719	-25,504	-0,11647	21,085
974	6,1066	-26,429	-0,11647	22,103
974	6,1066	-26,429	-0,11647	22,103
975	5,6377	-27,356	-0,11647	23,234
975	5,6377	-27,356	-0,11647	23,234
976	5,1795	-28,274	-0,11647	24,481
976	5,1795	-28,274	-0,11647	24,481
977	4,7458	-29,182	-0,11647	25,835
977	4,7458	-29,182	-0,11647	25,835
978	-14,568	10,423	-0,11647	17,604
978	-14,568	10,423	-0,11647	17,604
979	-14,105	11,261	-0,11647	17,049
979	-14,105	11,261	-0,11647	17,049
980	-13,623	12,095	-0,11647	16,595
980	-13,623	12,095	-0,11647	16,595
981	-13,134	12,936	-0,11647	16,242
981	-13,134	12,936	-0,11647	16,242
982	-12,653	13,788	-0,11647	15,988
982	-12,653	13,788	-0,11647	15,988
983	-11,696	15,563	-0,11647	15,768
983	-11,696	15,563	-0,11647	15,768
984	-10,733	17,378	-0,11647	15,937
984	-10,733	17,378	-0,11647	15,937
985	-9,7539	19,214	-0,11647	16,462
985	-9,7539	19,214	-0,11647	16,462
986	-8,7737	21,063	-0,11647	17,319
986	-8,7737	21,063	-0,11647	17,319
987	-7,8073	22,908	-0,11647	18,471
987	-7,8073	22,908	-0,11647	18,471
988	-6,8547	24,734	-0,11647	19,886
988	-6,8547	24,734	-0,11647	19,886
989	-6,3913	25,646	-0,11647	20,685
989	-6,3913	25,646	-0,11647	20,685
990	-5,9456	26,554	-0,11647	21,545
990	-5,9456	26,554	-0,11647	21,545
991	-5,5191	27,464	-0,11647	22,464
991	-5,5191	27,464	-0,11647	22,464
992	-5,1044	28,372	-0,11647	23,444
992	-5,1044	28,372	-0,11647	23,444
993	-4,7323	29,283	-0,11647	24,476
993	-4,7323	29,283	-0,11647	24,476
994	4,0357	29,946	-0,11647	25,384
994	4,0357	29,946	-0,11647	25,384
995	4,8463	28,157	-0,11647	23,252
995	4,8463	28,157	-0,11647	23,252
996	5,329	27,253	-0,11647	22,277
996	5,329	27,253	-0,11647	22,277
997	5,8169	26,348	-0,11647	21,364
997	5,8169	26,348	-0,11647	21,364
998	6,7915	24,533	-0,11647	19,722
998	6,7915	24,533	-0,11647	19,722
999	7,2916	23,618	-0,11647	18,991
999	7,2916	23,618	-0,11647	18,991
1000	7,7985	22,703	-0,11647	18,325
1000	7,7985	22,703	-0,11647	18,325
1001	8,2958	21,78	-0,11647	17,728
1001	8,2958	21,78	-0,11647	17,728
1002	8,7887	20,866	-0,11647	17,206
1002	8,7887	20,866	-0,11647	17,206
1003	9,7911	19,042	-0,11647	16,39
1003	9,7911	19,042	-0,11647	16,39
1004	10,287	18,142	-0,11647	16,106
1004	10,287	18,142	-0,11647	16,106
1005	10,776	17,252	-0,11647	15,909
1005	10,776	17,252	-0,11647	15,909
1006	11,759	15,488	-0,11647	15,781
1006	11,759	15,488	-0,11647	15,781
1007	12,733	13,762	-0,11647	16,025
1007	12,733	13,762	-0,11647	16,025
1008	13,228	12,915	-0,11647	16,294
1008	13,228	12,915	-0,11647	16,294
1009	13,724	12,088	-0,11647	16,657
1009	13,724	12,088	-0,11647	16,657
1010	13,454	8,4089	-0,11647	17,267
1010	13,454	8,4089	-0,11647	17,267
1011	12,335	8,3811	-0,11647	16,402
1011	12,335	8,3811	-0,11647	16,402
1012	-9,5988	8,6285	-0,11647	14,542
1012	-9,5988	8,6285	-0,11647	14,542
1013	-12,89	6,9975	-0,11647	17,236
1013	-12,89	6,9975	-0,11647	17,236
1014	8,9746	-9,8972	-0,11647	14,187
1014	8,9746	-9,8972	-0,11647	14,187
1015	8,0841	-9,5795	-0,11647	13,789
1015	8,0841	-9,5795	-0,11647	13,789
1016	7,1888	-9,2746	-0,11647	13,436
1016	7,1888	-9,2746	-0,11647	13,436
1017	5,2692	-10,268	-0,11647	12,76
1017	5,2692	-10,268	-0,11647	12,76
1018	9,5122	-8,9389	-0,11647	14,549
1018	9,5122	-8,9389	-0,11647	14,549
1019	2,3126	9,5481	-0,11647	12,125
1019	2,3126	9,5481	-0,11647	12,125
1020	-3,0336	-9,2292	-0,11647	12,306
1020	-3,0336	-9,2292	-0,11647	12,306
1021	1,5654	8,9447	-0,11647	12,096
1021	1,5654	8,9447	-0,11647	12,096
1022	-11,999	-7,9831	-0,11647	16,413
1022	-11,999	-7,9831	-0,11647	16,413
1023	15,084	9,6211	-0,11647	18,28
1023	15,084	9,6211	-0,11647	18,28
1024	14,441	8,5052	-0,11647	18,111
1024	14,441	8,5052	-0,11647	18,111
1025	10,044	-8,022	-0,11647	14,984
1025	10,044	-8,022	-0,11647	14,984
1026	-7,0505	-10,27	-0,11647	13,35
1026	-7,0505	-10,27	-0,11647	13,35
1027	14,43	-8,5487	-0,11647	18,323
1027	14,43	-8,5487	-0,11647	18,323
1028	4,7378	-31,583	-0,11647	29,259
1028	4,7378	-31,583	-0,11647	29,259
1029	3,608	-31,874	-0,11647	30,757
1029	3,608	-31,874	-0,11647	30,757
1030	11,539	-7,2574	-0,11647	16,212
1030	11,539	-7,2574	-0,11647	16,212
1031	-3,9278	31,076	-0,11647	26,708
1031	-3,9278	31,076	-0,11647	26,708
1032	-2,7723	31,274	-0,11647	27,123
1032	-2,7723	31,274	-0,11647	27,123
1033	7,9676	10,21	-0,11647	13,601
1033	7,9676	10,21	-0,11647	13,601
1034	0,91177	8,2568	-0,11647	12,138
1034	0,91177	8,2568	-0,11647	12,138
1035	3,4742	31,814	-0,11647	27,707
1035	3,4742	31,814	-0,11647	27,707
1036	9,6703	9,5339	-0,11647	14,503
1036	9,6703	9,5339	-0,11647	14,503
1037	-10,281	-8,9942	-0,11647	15,006
1037	-10,281	-8,9942	-0,11647	15,006
1038	-4,6486	-31,017	-0,11647	28,48
1038	-4,6486	-31,017	-0,11647	28,48
1039	-6,5392	9,3101	-0,11647	13,112
1039	-6,5392	9,3101	-0,11647	13,112
1040	-15,433	8,7442	-0,11647	19,019
1040	-15,433	8,7442	-0,11647	19,019
1041	-15,916	9,9611	-0,11647	18,893
1041	-15,916	9,9611	-0,11647	18,893
1042	-15,545	-10,103	-0,11647	18,688
1042	-15,545	-10,103	-0,11647	18,688
1043	-13,892	7,2651	-0,11647	18,104
1043	-13,892	7,2651	-0,11647	18,104
1044	0,67131	31,406	-0,11647	27,402
1044	0,67131	31,406	-0,11647	27,402
1045	-0,99731	-31,909	-0,11647	32,359
1045	-0,99731	-31,909	-0,11647	32,359
1046	-8,3788	8,5224	-0,11647	13,938
1046	-8,3788	8,5224	-0,11647	13,938
1047	7,6756	-8,4529	-0,11647	13,702
1047	7,6756	-8,4529	-0,11647	13,702
1048	3,9901	10,609	-0,11647	12,369
1048	3,9901	10,609	-0,11647	12,369
1049	-4,6576	-10,282	-0,11647	12,594
1049	-4,6576	-10,282	-0,11647	12,594
1050	-3,8203	-9,7743	-0,11647	12,416
1050	-3,8203	-9,7743	-0,11647	12,416
1051	-0,28951	-9,2501	-0,11647	12,072
1051	-0,28951	-9,2501	-0,11647	12,072
1052	0,41471	-9,8893	-0,11647	12,039
1052	0,41471	-9,8893	-0,11647	12,039
1053	0,17574	9,0051	-0,11647	12,031
1053	0,17574	9,0051	-0,11647	12,031
1054	-0,5947	9,7367	-0,11647	11,987
1054	-0,5947	9,7367	-0,11647	11,987
1055	-5,1252	-30,086	-0,11647	26,786
1055	-5,1252	-30,086	-0,11647	26,786
1056	-5,5834	-29,149	-0,11647	25,306
1056	-5,5834	-29,149	-0,11647	25,306
1057	-6,0641	-28,214	-0,11647	23,977
1057	-6,0641	-28,214	-0,11647	23,977
1058	-6,5577	-27,286	-0,11647	22,788
1058	-6,5577	-27,286	-0,11647	22,788
1059	-7,0574	-26,361	-0,11647	21,723
1059	-7,0574	-26,361	-0,11647	21,723
1060	-7,5639	-25,431	-0,11647	20,763
1060	-7,5639	-25,431	-0,11647	20,763
1061	-8,0732	-24,506	-0,11647	19,906
1061	-8,0732	-24,506	-0,11647	19,906
1062	-9,0912	-22,659	-0,11647	18,478
1062	-9,0912	-22,659	-0,11647	18,478
1063	-9,596	-21,741	-0,11647	17,901
1063	-9,596	-21,741	-0,11647	17,901
1064	-10,099	-20,827	-0,11647	17,412
1064	-10,099	-20,827	-0,11647	17,412
1065	-11,104	-19,001	-0,11647	16,699
1065	-11,104	-19,001	-0,11647	16,699
1066	-12,098	-17,186	-0,11647	16,35
1066	-12,098	-17,186	-0,11647	16,35
1067	-12,591	-16,291	-0,11647	16,318
1067	-12,591	-16,291	-0,11647	16,318
1068	-13,082	-15,405	-0,11647	16,383
1068	-13,082	-15,405	-0,11647	16,383
1069	-14,054	-13,645	-0,11647	16,81
1069	-14,054	-13,645	-0,11647	16,81
1070	-14,912	-11,894	-0,11647	17,594
1070	-14,912	-11,894	-0,11647	17,594
1071	-15,256	-11,006	-0,11647	18,099
1071	-15,256	-11,006	-0,11647	18,099
1072	14,786	-12,236	-0,11647	17,45
1072	14,786	-12,236	-0,11647	17,45
1073	14,314	-13,068	-0,11647	17,014
1073	14,314	-13,068	-0,11647	17,014
1074	13,852	-13,935	-0,11647	16,683
1074	13,852	-13,935	-0,11647	16,683
1075	13,379	-14,824	-0,11647	16,456
1075	13,379	-14,824	-0,11647	16,456
1076	12,896	-15,725	-0,11647	16,331
1076	12,896	-15,725	-0,11647	16,331
1077	12,403	-16,638	-0,11647	16,307
1077	12,403	-16,638	-0,11647	16,307
1078	11,902	-17,559	-0,11647	16,382
1078	11,902	-17,559	-0,11647	16,382
1079	11,397	-18,486	-0,11647	16,556
1079	11,397	-18,486	-0,11647	16,556
1080	10,893	-19,425	-0,11647	16,828
1080	10,893	-19,425	-0,11647	16,828
1081	9,8795	-21,33	-0,11647	17,661
1081	9,8795	-21,33	-0,11647	17,661
1082	8,8804	-23,22	-0,11647	18,854
1082	8,8804	-23,22	-0,11647	18,854
1083	8,3798	-24,169	-0,11647	19,587
1083	8,3798	-24,169	-0,11647	19,587
1084	7,8894	-25,112	-0,11647	20,408
1084	7,8894	-25,112	-0,11647	20,408
1085	7,4108	-26,047	-0,11647	21,319
1085	7,4108	-26,047	-0,11647	21,319
1086	6,93	-26,983	-0,11647	22,334
1086	6,93	-26,983	-0,11647	22,334
1087	6,4572	-27,917	-0,11647	23,46
1087	6,4572	-27,917	-0,11647	23,46
1088	6,0001	-28,845	-0,11647	24,702
1088	6,0001	-28,845	-0,11647	24,702
1089	-15,459	10,813	-0,11647	18,159
1089	-15,459	10,813	-0,11647	18,159
1090	-14,509	12,529	-0,11647	17,061
1090	-14,509	12,529	-0,11647	17,061
1091	-14,026	13,388	-0,11647	16,685
1091	-14,026	13,388	-0,11647	16,685
1092	-13,542	14,26	-0,11647	16,412
1092	-13,542	14,26	-0,11647	16,412
1093	-12,569	16,058	-0,11647	16,17
1093	-12,569	16,058	-0,11647	16,17
1094	-11,603	17,872	-0,11647	16,319
1094	-11,603	17,872	-0,11647	16,319
1095	-11,113	18,784	-0,11647	16,53
1095	-11,113	18,784	-0,11647	16,53
1096	-10,623	19,706	-0,11647	16,827
1096	-10,623	19,706	-0,11647	16,827
1097	-10,125	20,644	-0,11647	17,211
1097	-10,125	20,644	-0,11647	17,211
1098	-9,6341	21,572	-0,11647	17,674
1098	-9,6341	21,572	-0,11647	17,674
1099	-9,1431	22,504	-0,11647	18,212
1099	-9,1431	22,504	-0,11647	18,212
1100	-8,6577	23,432	-0,11647	18,824
1100	-8,6577	23,432	-0,11647	18,824
1101	-7,6933	25,281	-0,11647	20,25
1101	-7,6933	25,281	-0,11647	20,25
1102	-7,2221	26,203	-0,11647	21,06
1102	-7,2221	26,203	-0,11647	21,06
1103	-6,7661	27,12	-0,11647	21,936
1103	-6,7661	27,12	-0,11647	21,936
1104	-5,8891	28,959	-0,11647	23,89
1104	-5,8891	28,959	-0,11647	23,89
1105	4,8658	30,519	-0,11647	25,85
1105	4,8658	30,519	-0,11647	25,85
1106	5,2667	29,602	-0,11647	24,734
1106	5,2667	29,602	-0,11647	24,734
1107	5,7011	28,712	-0,11647	23,683
1107	5,7011	28,712	-0,11647	23,683
1108	6,654	26,906	-0,11647	21,756
1108	6,654	26,906	-0,11647	21,756
1109	7,6446	25,075	-0,11647	20,088
1109	7,6446	25,075	-0,11647	20,088
1110	8,1498	24,152	-0,11647	19,35
1110	8,1498	24,152	-0,11647	19,35
1111	8,655	23,228	-0,11647	18,683
1111	8,655	23,228	-0,11647	18,683
1112	9,1548	22,308	-0,11647	18,088
1112	9,1548	22,308	-0,11647	18,088
1113	9,6556	21,379	-0,11647	17,566
1113	9,6556	21,379	-0,11647	17,566
1114	10,665	19,542	-0,11647	16,76
1114	10,665	19,542	-0,11647	16,76
1115	11,163	18,636	-0,11647	16,482
1115	11,163	18,636	-0,11647	16,482
1116	11,655	17,74	-0,11647	16,292
1116	11,655	17,74	-0,11647	16,292
1117	12,645	15,951	-0,11647	16,179
1117	12,645	15,951	-0,11647	16,179
1118	13,626	14,215	-0,11647	16,448
1118	13,626	14,215	-0,11647	16,448
1119	14,122	13,358	-0,11647	16,732
1119	14,122	13,358	-0,11647	16,732
1120	14,616	12,499	-0,11647	17,123
1120	14,616	12,499	-0,11647	17,123
1121	15,104	11,642	-0,11647	17,63
1121	15,104	11,642	-0,11647	17,63
1122	15,588	10,789	-0,11647	18,246
1122	15,588	10,789	-0,11647	18,246
1123	16,026	9,9615	-0,11647	18,964
1123	16,026	9,9615	-0,11647	18,964
1124	7,9921	-7,5785	-0,11647	13,949
1124	7,9921	-7,5785	-0,11647	13,949
1125	9,0402	-7,7666	-0,11647	14,449
1125	9,0402	-7,7666	-0,11647	14,449
1126	13,723	7,5672	-0,11647	17,828
1126	13,723	7,5672	-0,11647	17,828
1127	12,677	7,4817	-0,11647	16,921
1127	12,677	7,4817	-0,11647	16,921
1128	-1,6536	-7,9967	-0,11647	12,275
1128	-1,6536	-7,9967	-0,11647	12,275
1129	6,8022	-8,2016	-0,11647	13,424
1129	6,8022	-8,2016	-0,11647	13,424
1130	4,9651	-8,8932	-0,11647	12,75
1130	4,9651	-8,8932	-0,11647	12,75
1131	-3,6237	-8,4908	-0,11647	12,479
1131	-3,6237	-8,4908	-0,11647	12,479
1132	-0,36989	-7,8968	-0,11647	12,229
1132	-0,36989	-7,8968	-0,11647	12,229
1133	15,738	-10,681	-0,11647	18,555
1133	15,738	-10,681	-0,11647	18,555
1134	3,1334	-32,67	-0,11647	32,753
1134	3,1334	-32,67	-0,11647	32,753
1135	-3,4365	31,889	-0,11647	27,844
1135	-3,4365	31,889	-0,11647	27,844
1136	1,6268	7,4961	-0,11647	12,304
1136	1,6268	7,4961	-0,11647	12,304
1137	5,2805	31,99	-0,11647	27,557
1137	5,2805	31,99	-0,11647	27,557
1138	10,152	8,3817	-0,11647	14,93
1138	10,152	8,3817	-0,11647	14,93
1139	-2,2515	32,04	-0,11647	28,156
1139	-2,2515	32,04	-0,11647	28,156
1140	-4,1411	-31,943	-0,11647	30,422
1140	-4,1411	-31,943	-0,11647	30,422
1141	-2,8848	-32,267	-0,11647	32,141
1141	-2,8848	-32,267	-0,11647	32,141
1142	8,5779	9,2151	-0,11647	13,941
1142	8,5779	9,2151	-0,11647	13,941
1143	2,7205	7,554	-0,11647	12,401
1143	2,7205	7,554	-0,11647	12,401
1144	-5,461	8,9866	-0,11647	12,791
1144	-5,461	8,9866	-0,11647	12,791
1145	-16,369	9,1048	-0,11647	19,756
1145	-16,369	9,1048	-0,11647	19,756
1146	-16,813	10,341	-0,11647	19,468
1146	-16,813	10,341	-0,11647	19,468
1147	-16,472	-10,474	-0,11647	19,29
1147	-16,472	-10,474	-0,11647	19,29
1148	-14,89	7,5704	-0,11647	19,002
1148	-14,89	7,5704	-0,11647	19,002
1149	1,2659	32,076	-0,11647	28,244
1149	1,2659	32,076	-0,11647	28,244
1150	-1,6421	-32,518	-0,11647	33,525
1150	-1,6421	-32,518	-0,11647	33,525
1151	13,331	-5,6999	-0,11647	18,295
1151	13,331	-5,6999	-0,11647	18,295
1152	14,7	-7,745	-0,11647	18,913
1152	14,7	-7,745	-0,11647	18,913
1153	-7,2268	8,3184	-0,11647	13,465
1153	-7,2268	8,3184	-0,11647	13,465
1154	0,76942	-32,767	-0,11647	34,477
1154	0,76942	-32,767	-0,11647	34,477
1155	-14,534	-6,8862	-0,11647	19,096
1155	-14,534	-6,8862	-0,11647	19,096
1156	-14,356	6,4068	-0,11647	18,934
1156	-14,356	6,4068	-0,11647	18,934
1157	0,11232	32,145	-0,11647	28,339
1157	0,11232	32,145	-0,11647	28,339
1158	-0,41855	-32,691	-0,11647	34,331
1158	-0,41855	-32,691	-0,11647	34,331
1159	-9,0161	7,5168	-0,11647	14,413
1159	-9,0161	7,5168	-0,11647	14,413
1160	4,6236	9,7672	-0,11647	12,512
1160	4,6236	9,7672	-0,11647	12,512
1161	-5,2608	-9,4384	-0,11647	12,777
1161	-5,2608	-9,4384	-0,11647	12,777
1162	-4,4094	-8,9822	-0,11647	12,592
1162	-4,4094	-8,9822	-0,11647	12,592
1163	0,35342	-8,4905	-0,11647	12,15
1163	0,35342	-8,4905	-0,11647	12,15
1164	1,0803	-9,1098	-0,11647	12,112
1164	1,0803	-9,1098	-0,11647	12,112
1165	-0,4618	8,2846	-0,11647	12,121
1165	-0,4618	8,2846	-0,11647	12,121
1166	-1,2787	9,0011	-0,11647	12,072
1166	-1,2787	9,0011	-0,11647	12,072
1167	-5,9169	-30,653	-0,11647	26,902
1167	-5,9169	-30,653	-0,11647	26,902
1168	-6,4074	-29,715	-0,11647	25,412
1168	-6,4074	-29,715	-0,11647	25,412
1169	-6,8935	-28,777	-0,11647	24,096
1169	-6,8935	-28,777	-0,11647	24,096
1170	-7,4052	-27,838	-0,11647	22,913
1170	-7,4052	-27,838	-0,11647	22,913
1171	-7,9083	-26,905	-0,11647	21,862
1171	-7,9083	-26,905	-0,11647	21,862
1172	-8,4182	-25,973	-0,11647	20,92
1172	-8,4182	-25,973	-0,11647	20,92
1173	-8,9257	-25,029	-0,11647	20,079
1173	-8,9257	-25,029	-0,11647	20,079
1174	-9,9598	-23,163	-0,11647	18,681
1174	-9,9598	-23,163	-0,11647	18,681
1175	-10,468	-22,237	-0,11647	18,123
1175	-10,468	-22,237	-0,11647	18,123
1176	-10,966	-21,325	-0,11647	17,654
1176	-10,966	-21,325	-0,11647	17,654
1177	-11,477	-20,407	-0,11647	17,269
1177	-11,477	-20,407	-0,11647	17,269
1178	-11,982	-19,484	-0,11647	16,973
1178	-11,982	-19,484	-0,11647	16,973
1179	-12,982	-17,67	-0,11647	16,655
1179	-12,982	-17,67	-0,11647	16,655
1180	-13,478	-16,766	-0,11647	16,638
1180	-13,478	-16,766	-0,11647	16,638
1181	-13,971	-15,876	-0,11647	16,719
1181	-13,971	-15,876	-0,11647	16,719
1182	-14,957	-14,096	-0,11647	17,191
1182	-14,957	-14,096	-0,11647	17,191
1183	-15,865	-12,325	-0,11647	18,066
1183	-15,865	-12,325	-0,11647	18,066
1184	-16,221	-11,415	-0,11647	18,626
1184	-16,221	-11,415	-0,11647	18,626
1185	16,612	-11,053	-0,11647	19,099
1185	16,612	-11,053	-0,11647	19,099
1186	16,174	-11,869	-0,11647	18,438
1186	16,174	-11,869	-0,11647	18,438
1187	15,226	-13,53	-0,11647	17,411
1187	15,226	-13,53	-0,11647	17,411
1188	14,752	-14,395	-0,11647	17,056
1188	14,752	-14,395	-0,11647	17,056
1189	14,272	-15,279	-0,11647	16,806
1189	14,272	-15,279	-0,11647	16,806
1190	13,776	-16,183	-0,11647	16,66
1190	13,776	-16,183	-0,11647	16,66
1191	12,771	-18,035	-0,11647	16,678
1191	12,771	-18,035	-0,11647	16,678
1192	12,262	-18,983	-0,11647	16,838
1192	12,262	-18,983	-0,11647	16,838
1193	11,758	-19,929	-0,11647	17,096
1193	11,758	-19,929	-0,11647	17,096
1194	10,744	-21,84	-0,11647	17,895
1194	10,744	-21,84	-0,11647	17,895
1195	9,7322	-23,745	-0,11647	19,051
1195	9,7322	-23,745	-0,11647	19,051
1196	9,2302	-24,697	-0,11647	19,762
1196	9,2302	-24,697	-0,11647	19,762
1197	8,7386	-25,64	-0,11647	20,56
1197	8,7386	-25,64	-0,11647	20,56
1198	8,2445	-26,587	-0,11647	21,457
1198	8,2445	-26,587	-0,11647	21,457
1199	7,7566	-27,534	-0,11647	22,456
1199	7,7566	-27,534	-0,11647	22,456
1200	7,2785	-28,474	-0,11647	23,562
1200	7,2785	-28,474	-0,11647	23,562
1201	6,8124	-29,411	-0,11647	24,793
1201	6,8124	-29,411	-0,11647	24,793
1202	6,3593	-30,351	-0,11647	26,165
1202	6,3593	-30,351	-0,11647	26,165
1203	-16,351	11,215	-0,11647	18,664
1203	-16,351	11,215	-0,11647	18,664
1204	-15,396	12,96	-0,11647	17,482
1204	-15,396	12,96	-0,11647	17,482
1205	-14,914	13,835	-0,11647	17,081
1205	-14,914	13,835	-0,11647	17,081
1206	-14,429	14,714	-0,11647	16,79
1206	-14,429	14,714	-0,11647	16,79
1207	-13,457	16,527	-0,11647	16,524
1207	-13,457	16,527	-0,11647	16,524
1208	-12,967	17,443	-0,11647	16,541
1208	-12,967	17,443	-0,11647	16,541
1209	-12,479	18,357	-0,11647	16,652
1209	-12,479	18,357	-0,11647	16,652
1210	-11,982	19,27	-0,11647	16,853
1210	-11,982	19,27	-0,11647	16,853
1211	-11,49	20,204	-0,11647	17,142
1211	-11,49	20,204	-0,11647	17,142
1212	-10,987	21,137	-0,11647	17,517
1212	-10,987	21,137	-0,11647	17,517
1213	-10,495	22,074	-0,11647	17,972
1213	-10,495	22,074	-0,11647	17,972
1214	-10,	23,01	-0,11647	18,507
1214	-10,	23,01	-0,11647	18,507
1215	-9,5003	23,952	-0,11647	19,12
1215	-9,5003	23,952	-0,11647	19,12
1216	-8,5334	25,818	-0,11647	20,553
1216	-8,5334	25,818	-0,11647	20,553
1217	-8,054	26,749	-0,11647	21,374
1217	-8,054	26,749	-0,11647	21,374
1218	-7,5895	27,674	-0,11647	22,266
1218	-7,5895	27,674	-0,11647	22,266
1219	-7,1357	28,604	-0,11647	23,233
1219	-7,1357	28,604	-0,11647	23,233
1220	-6,6944	29,532	-0,11647	24,277
1220	-6,6944	29,532	-0,11647	24,277
1221	5,6841	31,083	-0,11647	26,303
1221	5,6841	31,083	-0,11647	26,303
1222	6,1163	30,171	-0,11647	25,13
1222	6,1163	30,171	-0,11647	25,13
1223	6,5626	29,266	-0,11647	24,045
1223	6,5626	29,266	-0,11647	24,045
1224	7,5102	27,451	-0,11647	22,084
1224	7,5102	27,451	-0,11647	22,084
1225	8,0088	26,529	-0,11647	21,203
1225	8,0088	26,529	-0,11647	21,203
1226	8,5091	25,609	-0,11647	20,393
1226	8,5091	25,609	-0,11647	20,393
1227	9,0112	24,677	-0,11647	19,653
1227	9,0112	24,677	-0,11647	19,653
1228	9,5197	23,749	-0,11647	18,984
1228	9,5197	23,749	-0,11647	18,984
1229	10,021	22,822	-0,11647	18,392
1229	10,021	22,822	-0,11647	18,392
1230	10,525	21,89	-0,11647	17,874
1230	10,525	21,89	-0,11647	17,874
1231	11,54	20,043	-0,11647	17,081
1231	11,54	20,043	-0,11647	17,081
1232	12,041	19,131	-0,11647	16,81
1232	12,041	19,131	-0,11647	16,81
1233	12,532	18,23	-0,11647	16,626
1233	12,532	18,23	-0,11647	16,626
1234	13,031	17,328	-0,11647	16,532
1234	13,031	17,328	-0,11647	16,532
1235	13,53	16,426	-0,11647	16,531
1235	13,53	16,426	-0,11647	16,531
1236	14,513	14,661	-0,11647	16,824
1236	14,513	14,661	-0,11647	16,824
1237	15,01	13,788	-0,11647	17,128
1237	15,01	13,788	-0,11647	17,128
1238	15,509	12,919	-0,11647	17,548
1238	15,509	12,919	-0,11647	17,548
1239	16,005	12,051	-0,11647	18,093
1239	16,005	12,051	-0,11647	18,093
1240	16,496	11,186	-0,11647	18,771
1240	16,496	11,186	-0,11647	18,771
1241	16,964	10,313	-0,11647	19,588
1241	16,964	10,313	-0,11647	19,588
1242	8,2401	-6,7864	-0,11647	14,201
1242	8,2401	-6,7864	-0,11647	14,201
1243	9,4499	-6,8495	-0,11647	14,834
1243	9,4499	-6,8495	-0,11647	14,834
1244	5,4792	-32,222	-0,11647	29,435
1244	5,4792	-32,222	-0,11647	29,435
1245	-4,122	32,488	-0,11647	28,54
1245	-4,122	32,488	-0,11647	28,54
1246	-6,7343	-8,96	-0,11647	13,287
1246	-6,7343	-8,96	-0,11647	13,287
1247	0,20075	-7,1436	-0,11647	12,344
1247	0,20075	-7,1436	-0,11647	12,344
1248	-3,4386	-7,2388	-0,11647	12,619
1248	-3,4386	-7,2388	-0,11647	12,619
1249	-2,8288	-6,6359	-0,11647	12,627
1249	-2,8288	-6,6359	-0,11647	12,627
1250	13,408	5,6325	-0,11647	18,203
1250	13,408	5,6325	-0,11647	18,203
1251	-1,4827	-6,0631	-0,11647	12,592
1251	-1,4827	-6,0631	-0,11647	12,592
1252	4,8457	32,894	-0,11647	28,929
1252	4,8457	32,894	-0,11647	28,929
1253	10,619	7,3165	-0,11647	15,409
1253	10,619	7,3165	-0,11647	15,409
1254	-2,9099	32,674	-0,11647	28,978
1254	-2,9099	32,674	-0,11647	28,978
1255	3,0231	32,597	-0,11647	28,861
1255	3,0231	32,597	-0,11647	28,861
1256	7,6037	8,818	-0,11647	13,542
1256	7,6037	8,818	-0,11647	13,542
1257	3,4779	8,0404	-0,11647	12,445
1257	3,4779	8,0404	-0,11647	12,445
1258	-8,2472	-8,3783	-0,11647	13,982
1258	-8,2472	-8,3783	-0,11647	13,982
1259	-4,431	8,5677	-0,11647	12,571
1259	-4,431	8,5677	-0,11647	12,571
1260	-17,272	9,4728	-0,11647	20,429
1260	-17,272	9,4728	-0,11647	20,429
1261	-17,719	10,742	-0,11647	19,961
1261	-17,719	10,742	-0,11647	19,961
1262	-10,771	6,6205	-0,11647	15,647
1262	-10,771	6,6205	-0,11647	15,647
1263	-16,113	-8,2595	-0,11647	20,21
1263	-16,113	-8,2595	-0,11647	20,21
1264	-15,86	7,8997	-0,11647	19,895
1264	-15,86	7,8997	-0,11647	19,895
1265	1,8784	32,741	-0,11647	29,116
1265	1,8784	32,741	-0,11647	29,116
1266	13,757	-4,9213	-0,11647	18,979
1266	13,757	-4,9213	-0,11647	18,979
1267	13,757	4,7007	-0,11647	18,905
1267	13,757	4,7007	-0,11647	18,905
1268	9,1252	8,1826	-0,11647	14,359
1268	9,1252	8,1826	-0,11647	14,359
1269	2,3815	6,7602	-0,11647	12,497
1269	2,3815	6,7602	-0,11647	12,497
1270	14,036	3,7933	-0,11647	19,652
1270	14,036	3,7933	-0,11647	19,652
1271	-9,7851	-7,6806	-0,11647	14,921
1271	-9,7851	-7,6806	-0,11647	14,921
1272	-6,1322	8,0393	-0,11647	13,107
1272	-6,1322	8,0393	-0,11647	13,107
1273	-14,438	4,3148	-0,11647	20,037
1273	-14,438	4,3148	-0,11647	20,037
1274	1,3963	-33,479	-0,11647	36,087
1274	1,3963	-33,479	-0,11647	36,087
1275	-14,399	-5,0017	-0,11647	19,734
1275	-14,399	-5,0017	-0,11647	19,734
1276	-15,516	-7,0983	-0,11647	20,155
1276	-15,516	-7,0983	-0,11647	20,155
1277	-15,325	6,7286	-0,11647	19,902
1277	-15,325	6,7286	-0,11647	19,902
1278	-0,48616	32,847	-0,11647	29,265
1278	-0,48616	32,847	-0,11647	29,265
1279	0,70952	32,839	-0,11647	29,248
1279	0,70952	32,839	-0,11647	29,248
1280	-1,0556	-33,318	-0,11647	35,823
1280	-1,0556	-33,318	-0,11647	35,823
1281	14,338	-5,9258	-0,11647	19,282
1281	14,338	-5,9258	-0,11647	19,282
1282	15,075	6,8923	-0,11647	19,508
1282	15,075	6,8923	-0,11647	19,508
1283	14,395	5,8266	-0,11647	19,205
1283	14,395	5,8266	-0,11647	19,205
1284	12,45	5,4344	-0,11647	17,317
1284	12,45	5,4344	-0,11647	17,317
1285	-12,513	5,7955	-0,11647	17,192
1285	-12,513	5,7955	-0,11647	17,192
1286	-7,8813	7,3453	-0,11647	13,886
1286	-7,8813	7,3453	-0,11647	13,886
1287	-14,82	5,5595	-0,11647	19,892
1287	-14,82	5,5595	-0,11647	19,892
1288	0,1859	-33,452	-0,11647	36,378
1288	0,1859	-33,452	-0,11647	36,378
1289	17,398	9,4544	-0,11647	20,525
1289	17,398	9,4544	-0,11647	20,525
1290	17,245	-9,3822	-0,11647	20,694
1290	17,245	-9,3822	-0,11647	20,694
1291	16,76	8,2648	-0,11647	20,672
1291	16,76	8,2648	-0,11647	20,672
1292	4,5132	-33,904	-0,11647	33,53
1292	4,5132	-33,904	-0,11647	33,53
1293	12,807	-4,5963	-0,11647	18,236
1293	12,807	-4,5963	-0,11647	18,236
1294	-4,8285	33,085	-0,11647	29,212
1294	-4,8285	33,085	-0,11647	29,212
1295	5,2118	8,892	-0,11647	12,715
1295	5,2118	8,892	-0,11647	12,715
1296	4,3412	8,4737	-0,11647	12,544
1296	4,3412	8,4737	-0,11647	12,544
1297	-5,825	-8,5699	-0,11647	13,018
1297	-5,825	-8,5699	-0,11647	13,018
1298	-1,454e-002	5,3132	-0,11647	12,636
1298	-1,454e-002	5,3132	-0,11647	12,636
1299	0,97149	-7,6972	-0,11647	12,276
1299	0,97149	-7,6972	-0,11647	12,276
1300	1,7278	-8,2976	-0,11647	12,244
1300	1,7278	-8,2976	-0,11647	12,244
1301	-0,97341	-5,459	-0,11647	12,67
1301	-0,97341	-5,459	-0,11647	12,67
1302	-1,9245	8,2397	-0,11647	12,209
1302	-1,9245	8,2397	-0,11647	12,209
1303	-6,7235	-31,214	-0,11647	26,822
1303	-6,7235	-31,214	-0,11647	26,822
1304	-7,2295	-30,273	-0,11647	25,356
1304	-7,2295	-30,273	-0,11647	25,356
1305	-8,2491	-28,381	-0,11647	22,914
1305	-8,2491	-28,381	-0,11647	22,914
1306	-8,7639	-27,436	-0,11647	21,886
1306	-8,7639	-27,436	-0,11647	21,886
1307	-9,7991	-25,546	-0,11647	20,155
1307	-9,7991	-25,546	-0,11647	20,155
1308	-10,83	-23,674	-0,11647	18,81
1308	-10,83	-23,674	-0,11647	18,81
1309	-11,34	-22,743	-0,11647	18,274
1309	-11,34	-22,743	-0,11647	18,274
1310	-11,84	-21,83	-0,11647	17,825
1310	-11,84	-21,83	-0,11647	17,825
1311	-12,35	-20,903	-0,11647	17,459
1311	-12,35	-20,903	-0,11647	17,459
1312	-12,857	-19,976	-0,11647	17,179
1312	-12,857	-19,976	-0,11647	17,179
1313	-13,867	-18,145	-0,11647	16,892
1313	-13,867	-18,145	-0,11647	16,892
1314	-14,363	-17,24	-0,11647	16,89
1314	-14,363	-17,24	-0,11647	16,89
1315	-14,857	-16,346	-0,11647	16,985
1315	-14,857	-16,346	-0,11647	16,985
1316	-15,851	-14,556	-0,11647	17,496
1316	-15,851	-14,556	-0,11647	17,496
1317	-16,344	-13,661	-0,11647	17,935
1317	-16,344	-13,661	-0,11647	17,935
1318	-16,845	-12,771	-0,11647	18,471
1318	-16,845	-12,771	-0,11647	18,471
1319	-17,196	-11,82	-0,11647	19,12
1319	-17,196	-11,82	-0,11647	19,12
1320	17,532	-11,403	-0,11647	19,588
1320	17,532	-11,403	-0,11647	19,588
1321	17,087	-12,249	-0,11647	18,852
1321	17,087	-12,249	-0,11647	18,852
1322	16,616	-13,099	-0,11647	18,237
1322	16,616	-13,099	-0,11647	18,237
1323	16,134	-13,963	-0,11647	17,74
1323	16,134	-13,963	-0,11647	17,74
1324	15,648	-14,845	-0,11647	17,357
1324	15,648	-14,845	-0,11647	17,357
1325	15,159	-15,745	-0,11647	17,085
1325	15,159	-15,745	-0,11647	17,085
1326	14,657	-16,657	-0,11647	16,922
1326	14,657	-16,657	-0,11647	16,922
1327	14,151	-17,581	-0,11647	16,864
1327	14,151	-17,581	-0,11647	16,864
1328	13,647	-18,524	-0,11647	16,908
1328	13,647	-18,524	-0,11647	16,908
1329	12,626	-20,422	-0,11647	17,293
1329	12,626	-20,422	-0,11647	17,293
1330	11,612	-22,341	-0,11647	18,05
1330	11,612	-22,341	-0,11647	18,05
1331	10,598	-24,252	-0,11647	19,157
1331	10,598	-24,252	-0,11647	19,157
1332	10,089	-25,209	-0,11647	19,843
1332	10,089	-25,209	-0,11647	19,843
1333	9,5809	-26,168	-0,11647	20,62
1333	9,5809	-26,168	-0,11647	20,62
1334	9,0821	-27,122	-0,11647	21,489
1334	9,0821	-27,122	-0,11647	21,489
1335	7,6267	-29,967	-0,11647	24,731
1335	7,6267	-29,967	-0,11647	24,731
1336	7,1554	-30,924	-0,11647	26,081
1336	7,1554	-30,924	-0,11647	26,081
1337	-17,243	11,619	-0,11647	19,097
1337	-17,243	11,619	-0,11647	19,097
1338	-16,285	13,394	-0,11647	17,838
1338	-16,285	13,394	-0,11647	17,838
1339	-15,804	14,282	-0,11647	17,413
1339	-15,804	14,282	-0,11647	17,413
1340	-14,831	16,085	-0,11647	16,909
1340	-14,831	16,085	-0,11647	16,909
1341	-14,343	16,997	-0,11647	16,816
1341	-14,343	16,997	-0,11647	16,816
1342	-13,851	17,914	-0,11647	16,822
1342	-13,851	17,914	-0,11647	16,822
1343	-13,357	18,838	-0,11647	16,923
1343	-13,357	18,838	-0,11647	16,923
1344	-12,859	19,76	-0,11647	17,116
1344	-12,859	19,76	-0,11647	17,116
1345	-11,861	21,623	-0,11647	17,761
1345	-11,861	21,623	-0,11647	17,761
1346	-10,856	23,509	-0,11647	18,739
1346	-10,856	23,509	-0,11647	18,739
1347	-9,8631	25,409	-0,11647	20,031
1347	-9,8631	25,409	-0,11647	20,031
1348	-8,8891	27,283	-0,11647	21,617
1348	-8,8891	27,283	-0,11647	21,617
1349	-8,4099	28,222	-0,11647	22,523
1349	-8,4099	28,222	-0,11647	22,523
1350	-7,9422	29,159	-0,11647	23,513
1350	-7,9422	29,159	-0,11647	23,513
1351	-7,4821	30,102	-0,11647	24,593
1351	-7,4821	30,102	-0,11647	24,593
1352	-7,0207	31,046	-0,11647	25,774
1352	-7,0207	31,046	-0,11647	25,774
1353	-6,036	32,874	-0,11647	28,404
1353	-6,036	32,874	-0,11647	28,404
1354	6,0342	32,566	-0,11647	28,028
1354	6,0342	32,566	-0,11647	28,028
1355	6,4874	31,659	-0,11647	26,699
1355	6,4874	31,659	-0,11647	26,699
1356	6,944	30,74	-0,11647	25,473
1356	6,944	30,74	-0,11647	25,473
1357	7,4018	29,828	-0,11647	24,344
1357	7,4018	29,828	-0,11647	24,344
1358	7,8777	28,912	-0,11647	23,304
1358	7,8777	28,912	-0,11647	23,304
1359	8,8609	27,069	-0,11647	21,451
1359	8,8609	27,069	-0,11647	21,451
1360	9,3676	26,139	-0,11647	20,634
1360	9,3676	26,139	-0,11647	20,634
1361	9,8754	25,205	-0,11647	19,89
1361	9,8754	25,205	-0,11647	19,89
1362	10,893	23,327	-0,11647	18,63
1362	10,893	23,327	-0,11647	18,63
1363	11,399	22,392	-0,11647	18,119
1363	11,399	22,392	-0,11647	18,119
1364	11,912	21,456	-0,11647	17,686
1364	11,912	21,456	-0,11647	17,686
1365	12,911	19,633	-0,11647	17,077
1365	12,911	19,633	-0,11647	17,077
1366	13,908	17,804	-0,11647	16,813
1366	13,908	17,804	-0,11647	16,813
1367	14,412	16,898	-0,11647	16,821
1367	14,412	16,898	-0,11647	16,821
1368	14,911	15,996	-0,11647	16,926
1368	14,911	15,996	-0,11647	16,926
1369	15,896	14,224	-0,11647	17,457
1369	15,896	14,224	-0,11647	17,457
1370	16,396	13,339	-0,11647	17,901
1370	16,396	13,339	-0,11647	17,901
1371	16,899	12,455	-0,11647	18,48
1371	16,899	12,455	-0,11647	18,48
1372	17,901	10,692	-0,11647	20,122
1372	17,901	10,692	-0,11647	20,122
1373	11,066	6,2763	-0,11647	15,953
1373	11,066	6,2763	-0,11647	15,953
1374	-11,849	-5,6794	-0,11647	16,863
1374	-11,849	-5,6794	-0,11647	16,863
1375	6,2015	-32,858	-0,11647	29,422
1375	6,2015	-32,858	-0,11647	29,422
1376	-3,5971	33,29	-0,11647	29,796
1376	-3,5971	33,29	-0,11647	29,796
1377	3,6929	33,206	-0,11647	29,647
1377	3,6929	33,206	-0,11647	29,647
1378	-3,7473	-5,5284	-0,11647	12,928
1378	-3,7473	-5,5284	-0,11647	12,928
1379	6,6637	8,4012	-0,11647	13,223
1379	6,6637	8,4012	-0,11647	13,223
1380	-7,2777	-8,0396	-0,11647	13,604
1380	-7,2777	-8,0396	-0,11647	13,604
1381	-4,6778	-6,9163	-0,11647	12,921
1381	-4,6778	-6,9163	-0,11647	12,921
1382	0,71047	-6,3204	-0,11647	12,499
1382	0,71047	-6,3204	-0,11647	12,499
1383	-3,4764	8,0333	-0,11647	12,44
1383	-3,4764	8,0333	-0,11647	12,44
1384	-9,6558	6,497	-0,11647	14,961
1384	-9,6558	6,497	-0,11647	14,961
1385	-17,546	-9,7913	-0,11647	20,803
1385	-17,546	-9,7913	-0,11647	20,803
1386	-16,988	-8,5528	-0,11647	21,053
1386	-16,988	-8,5528	-0,11647	21,053
1387	-16,801	8,247	-0,11647	20,758
1387	-16,801	8,247	-0,11647	20,758
1388	2,5299	33,393	-0,11647	30,019
1388	2,5299	33,393	-0,11647	30,019
1389	13,364	-3,9998	-0,11647	18,845
1389	13,364	-3,9998	-0,11647	18,845
1390	14,115	-4,1278	-0,11647	19,614
1390	14,115	-4,1278	-0,11647	19,614
1391	16,607	-8,2392	-0,11647	20,797
1391	16,607	-8,2392	-0,11647	20,797
1392	2,0349	5,9688	-0,11647	12,633
1392	2,0349	5,9688	-0,11647	12,633
1393	-4,3241	-5,7579	-0,11647	13,029
1393	-4,3241	-5,7579	-0,11647	13,029
1394	4,7036	-7,8575	-0,11647	12,819
1394	4,7036	-7,8575	-0,11647	12,819
1395	-5,0865	7,6704	-0,11647	12,851
1395	-5,0865	7,6704	-0,11647	12,851
1396	2,0468	-34,159	-0,11647	37,485
1396	2,0468	-34,159	-0,11647	37,485
1397	-16,443	-7,3494	-0,11647	21,165
1397	-16,443	-7,3494	-0,11647	21,165
1398	-16,28	7,0435	-0,11647	20,904
1398	-16,28	7,0435	-0,11647	20,904
1399	-1,1097	33,531	-0,11647	30,196
1399	-1,1097	33,531	-0,11647	30,196
1400	1,3332	33,514	-0,11647	30,177
1400	1,3332	33,514	-0,11647	30,177
1401	9,6078	7,1268	-0,11647	14,818
1401	9,6078	7,1268	-0,11647	14,818
1402	12,89	4,4364	-0,11647	17,976
1402	12,89	4,4364	-0,11647	17,976
1403	-10,304	-6,6252	-0,11647	15,451
1403	-10,304	-6,6252	-0,11647	15,451
1404	-3,6265	-4,8068	-0,11647	13,087
1404	-3,6265	-4,8068	-0,11647	13,087
1405	-13,126	4,7203	-0,11647	18,06
1405	-13,126	4,7203	-0,11647	18,06
1406	-13,715	-3,4382	-0,11647	19,381
1406	-13,715	-3,4382	-0,11647	19,381
1407	6,7391	-6,9503	-0,11647	13,588
1407	6,7391	-6,9503	-0,11647	13,588
1408	-0,54348	3,3415	-0,11647	12,928
1408	-0,54348	3,3415	-0,11647	12,928
1409	-6,7736	7,0985	-0,11647	13,475
1409	-6,7736	7,0985	-0,11647	13,475
1410	-15,295	4,7564	-0,11647	20,853
1410	-15,295	4,7564	-0,11647	20,853
1411	0,81397	-34,186	-0,11647	38,419
1411	0,81397	-34,186	-0,11647	38,419
1412	-15,325	-5,1421	-0,11647	20,799
1412	-15,325	-5,1421	-0,11647	20,799
1413	18,388	9,8065	-0,11647	21,213
1413	18,388	9,8065	-0,11647	21,213
1414	18,174	-9,6918	-0,11647	21,345
1414	18,174	-9,6918	-0,11647	21,345
1415	18,912	-10,861	-0,11647	20,946
1415	18,912	-10,861	-0,11647	20,946
1416	17,76	8,5907	-0,11647	21,566
1416	17,76	8,5907	-0,11647	21,566
1417	-6,213	34,252	-0,11647	30,436
1417	-6,213	34,252	-0,11647	30,436
1418	-5,7821	34,947	-0,11647	31,892
1418	-5,7821	34,947	-0,11647	31,892
1419	3,9969	-34,656	-0,11647	36,049
1419	3,9969	-34,656	-0,11647	36,049
1420	-15,759	5,8782	-0,11647	20,914
1420	-15,759	5,8782	-0,11647	20,914
1421	0,12031	33,559	-0,11647	30,216
1421	0,12031	33,559	-0,11647	30,216
1422	-0,44269	-34,1	-0,11647	38,292
1422	-0,44269	-34,1	-0,11647	38,292
1423	15,331	-6,1178	-0,11647	20,401
1423	15,331	-6,1178	-0,11647	20,401
1424	11,439	-5,0333	-0,11647	16,601
1424	11,439	-5,0333	-0,11647	16,601
1425	11,508	5,2479	-0,11647	16,533
1425	11,508	5,2479	-0,11647	16,533
1426	-11,412	5,5924	-0,11647	16,368
1426	-11,412	5,5924	-0,11647	16,368
1427	-12,311	-4,586	-0,11647	17,539
1427	-12,311	-4,586	-0,11647	17,539
1428	-0,41836	-1,1705	-0,11647	13,256
1428	-0,41836	-1,1705	-0,11647	13,256
1429	8,6225	-5,8916	-0,11647	14,6
1429	8,6225	-5,8916	-0,11647	14,6
1430	0,2526	1,3485	-0,11647	13,229
1430	0,2526	1,3485	-0,11647	13,229
1431	-18,243	-10,953	-0,11647	20,597
1431	-18,243	-10,953	-0,11647	20,597
1432	13,306	-3,2882	-0,11647	18,874
1432	13,306	-3,2882	-0,11647	18,874
1433	5,7342	-33,874	-0,11647	31,419
1433	5,7342	-33,874	-0,11647	31,419
1434	-4,2968	33,892	-0,11647	30,607
1434	-4,2968	33,892	-0,11647	30,607
1435	5,0976	34,305	-0,11647	31,014
1435	5,0976	34,305	-0,11647	31,014
1436	-5,1267	-33,966	-0,11647	32,711
1436	-5,1267	-33,966	-0,11647	32,711
1437	-5,9384	-34,534	-0,11647	32,153
1437	-5,9384	-34,534	-0,11647	32,153
1438	5,7346	7,9913	-0,11647	12,974
1438	5,7346	7,9913	-0,11647	12,974
1439	4,8215	7,585	-0,11647	12,775
1439	4,8215	7,585	-0,11647	12,775
1440	-6,3588	-7,6774	-0,11647	13,304
1440	-6,3588	-7,6774	-0,11647	13,304
1441	-5,4866	-7,2941	-0,11647	13,077
1441	-5,4866	-7,2941	-0,11647	13,077
1442	1,4538	5,2269	-0,11647	12,705
1442	1,4538	5,2269	-0,11647	12,705
1443	0,69678	4,4872	-0,11647	12,806
1443	0,69678	4,4872	-0,11647	12,806
1444	1,5344	-6,8578	-0,11647	12,451
1444	1,5344	-6,8578	-0,11647	12,451
1445	-1,488	-4,7174	-0,11647	12,846
1445	-1,488	-4,7174	-0,11647	12,846
1446	-0,77702	-4,2664	-0,11647	12,908
1446	-0,77702	-4,2664	-0,11647	12,908
1447	-1,6802	6,7851	-0,11647	12,421
1447	-1,6802	6,7851	-0,11647	12,421
1448	-6,4936	-33,64	-0,11647	29,985
1448	-6,4936	-33,64	-0,11647	29,985
1449	-7,0186	-32,717	-0,11647	28,144
1449	-7,0186	-32,717	-0,11647	28,144
1450	-7,5436	-31,772	-0,11647	26,54
1450	-7,5436	-31,772	-0,11647	26,54
1451	-8,0645	-30,821	-0,11647	25,132
1451	-8,0645	-30,821	-0,11647	25,132
1452	-8,5848	-29,871	-0,11647	23,892
1452	-8,5848	-29,871	-0,11647	23,892
1453	-9,1031	-28,919	-0,11647	22,789
1453	-9,1031	-28,919	-0,11647	22,789
1454	-9,6186	-27,957	-0,11647	21,801
1454	-9,6186	-27,957	-0,11647	21,801
1455	-10,665	-26,063	-0,11647	20,142
1455	-10,665	-26,063	-0,11647	20,142
1456	-11,181	-25,127	-0,11647	19,459
1456	-11,181	-25,127	-0,11647	19,459
1457	-11,695	-24,192	-0,11647	18,862
1457	-11,695	-24,192	-0,11647	18,862
1458	-12,208	-23,259	-0,11647	18,347
1458	-12,208	-23,259	-0,11647	18,347
1459	-12,716	-22,326	-0,11647	17,917
1459	-12,716	-22,326	-0,11647	17,917
1460	-13,226	-21,396	-0,11647	17,57
1460	-13,226	-21,396	-0,11647	17,57
1461	-13,736	-20,464	-0,11647	17,307
1461	-13,736	-20,464	-0,11647	17,307
1462	-14,749	-18,626	-0,11647	17,05
1462	-14,749	-18,626	-0,11647	17,05
1463	-15,246	-17,717	-0,11647	17,061
1463	-15,246	-17,717	-0,11647	17,061
1464	-15,741	-16,817	-0,11647	17,169
1464	-15,741	-16,817	-0,11647	17,169
1465	-16,739	-15,01	-0,11647	17,708
1465	-16,739	-15,01	-0,11647	17,708
1466	-18,338	-12,038	-0,11647	19,783
1466	-18,338	-12,038	-0,11647	19,783
1467	18,461	-11,734	-0,11647	20,013
1467	18,461	-11,734	-0,11647	20,013
1468	18,	-12,624	-0,11647	19,174
1468	18,	-12,624	-0,11647	19,174
1469	17,524	-13,503	-0,11647	18,507
1469	17,524	-13,503	-0,11647	18,507
1470	16,543	-15,281	-0,11647	17,573
1470	16,543	-15,281	-0,11647	17,573
1471	16,052	-16,193	-0,11647	17,283
1471	16,052	-16,193	-0,11647	17,283
1472	15,55	-17,12	-0,11647	17,104
1472	15,55	-17,12	-0,11647	17,104
1473	15,035	-18,053	-0,11647	17,031
1473	15,035	-18,053	-0,11647	17,031
1474	14,53	-18,988	-0,11647	17,06
1474	14,53	-18,988	-0,11647	17,06
1475	13,508	-20,904	-0,11647	17,409
1475	13,508	-20,904	-0,11647	17,409
1476	12,995	-21,864	-0,11647	17,721
1476	12,995	-21,864	-0,11647	17,721
1477	12,487	-22,819	-0,11647	18,119
1477	12,487	-22,819	-0,11647	18,119
1478	11,465	-24,745	-0,11647	19,174
1478	11,465	-24,745	-0,11647	19,174
1479	10,955	-25,705	-0,11647	19,828
1479	10,955	-25,705	-0,11647	19,828
1480	10,445	-26,662	-0,11647	20,568
1480	10,445	-26,662	-0,11647	20,568
1481	9,9458	-27,623	-0,11647	21,397
1481	9,9458	-27,623	-0,11647	21,397
1482	9,4433	-28,588	-0,11647	22,327
1482	9,4433	-28,588	-0,11647	22,327
1483	8,4455	-30,509	-0,11647	24,513
1483	8,4455	-30,509	-0,11647	24,513
1484	7,9546	-31,476	-0,11647	25,809
1484	7,9546	-31,476	-0,11647	25,809
1485	7,463	-32,453	-0,11647	27,294
1485	7,463	-32,453	-0,11647	27,294
1486	6,9423	-33,439	-0,11647	29,018
1486	6,9423	-33,439	-0,11647	29,018
1487	-19,094	10,246	-0,11647	21,478
1487	-19,094	10,246	-0,11647	21,478
1488	-18,139	12,042	-0,11647	19,421
1488	-18,139	12,042	-0,11647	19,421
1489	-17,179	13,826	-0,11647	18,109
1489	-17,179	13,826	-0,11647	18,109
1490	-16,696	14,731	-0,11647	17,664
1490	-16,696	14,731	-0,11647	17,664
1491	-16,21	15,634	-0,11647	17,343
1491	-16,21	15,634	-0,11647	17,343
1492	-15,232	17,459	-0,11647	17,032
1492	-15,232	17,459	-0,11647	17,032
1493	-14,733	18,384	-0,11647	17,03
1493	-14,733	18,384	-0,11647	17,03
1494	-14,237	19,313	-0,11647	17,123
1494	-14,237	19,313	-0,11647	17,123
1495	-13,738	20,244	-0,11647	17,306
1495	-13,738	20,244	-0,11647	17,306
1496	-13,237	21,174	-0,11647	17,578
1496	-13,237	21,174	-0,11647	17,578
1497	-12,225	23,064	-0,11647	18,378
1497	-12,225	23,064	-0,11647	18,378
1498	-11,72	24,009	-0,11647	18,899
1498	-11,72	24,009	-0,11647	18,899
1499	-11,221	24,951	-0,11647	19,498
1499	-11,221	24,951	-0,11647	19,498
1500	-10,727	25,907	-0,11647	20,178
1500	-10,727	25,907	-0,11647	20,178
1501	-10,216	26,862	-0,11647	20,942
1501	-10,216	26,862	-0,11647	20,942
1502	-9,2424	28,752	-0,11647	22,693
1502	-9,2424	28,752	-0,11647	22,693
1503	-8,7511	29,701	-0,11647	23,703
1503	-8,7511	29,701	-0,11647	23,703
1504	-8,2813	30,655	-0,11647	24,811
1504	-8,2813	30,655	-0,11647	24,811
1505	-7,7884	31,618	-0,11647	26,05
1505	-7,7884	31,618	-0,11647	26,05
1506	-7,2865	32,585	-0,11647	27,437
1506	-7,2865	32,585	-0,11647	27,437
1507	-6,7846	33,529	-0,11647	28,868
1507	-6,7846	33,529	-0,11647	28,868
1508	5,819	34,788	-0,11647	31,59
1508	5,819	34,788	-0,11647	31,59
1509	6,3216	34,074	-0,11647	29,929
1509	6,3216	34,074	-0,11647	29,929
1510	6,79	33,166	-0,11647	28,461
1510	6,79	33,166	-0,11647	28,461
1511	7,2915	32,236	-0,11647	27,012
1511	7,2915	32,236	-0,11647	27,012
1512	8,2415	30,383	-0,11647	24,561
1512	8,2415	30,383	-0,11647	24,561
1513	9,7201	27,604	-0,11647	21,622
1513	9,7201	27,604	-0,11647	21,622
1514	10,228	26,664	-0,11647	20,799
1514	10,228	26,664	-0,11647	20,799
1515	10,743	25,717	-0,11647	20,053
1515	10,743	25,717	-0,11647	20,053
1516	11,255	24,775	-0,11647	19,386
1516	11,255	24,775	-0,11647	19,386
1517	11,767	23,831	-0,11647	18,798
1517	11,767	23,831	-0,11647	18,798
1518	12,276	22,89	-0,11647	18,293
1518	12,276	22,89	-0,11647	18,293
1519	13,295	21,027	-0,11647	17,526
1519	13,295	21,027	-0,11647	17,526
1520	13,797	20,108	-0,11647	17,27
1520	13,797	20,108	-0,11647	17,27
1521	14,296	19,195	-0,11647	17,101
1521	14,296	19,195	-0,11647	17,101
1522	14,799	18,274	-0,11647	17,021
1522	14,799	18,274	-0,11647	17,021
1523	15,297	17,37	-0,11647	17,036
1523	15,297	17,37	-0,11647	17,036
1524	16,287	15,562	-0,11647	17,369
1524	16,287	15,562	-0,11647	17,369
1525	16,782	14,665	-0,11647	17,703
1525	16,782	14,665	-0,11647	17,703
1526	17,28	13,769	-0,11647	18,162
1526	17,28	13,769	-0,11647	18,162
1527	18,293	11,979	-0,11647	19,537
1527	18,293	11,979	-0,11647	19,537
1528	18,82	11,086	-0,11647	20,507
1528	18,82	11,086	-0,11647	20,507
1529	-8,5235	6,3624	-0,11647	14,372
1529	-8,5235	6,3624	-0,11647	14,372
1530	-17,716	8,5981	-0,11647	21,561
1530	-17,716	8,5981	-0,11647	21,561
1531	14,314	-3,3	-0,11647	20,182
1531	14,314	-3,3	-0,11647	20,182
1532	17,513	-8,5226	-0,11647	21,665
1532	17,513	-8,5226	-0,11647	21,665
1533	7,1707	7,46	-0,11647	13,549
1533	7,1707	7,46	-0,11647	13,549
1534	14,838	-0,94712	-0,11647	21,416
1534	14,838	-0,94712	-0,11647	21,416
1535	-7,7869	-7,098	-0,11647	13,964
1535	-7,7869	-7,098	-0,11647	13,964
1536	-5,0596	-6,0599	-0,11647	13,168
1536	-5,0596	-6,0599	-0,11647	13,168
1537	0,53101	2,9197	-0,11647	13,069
1537	0,53101	2,9197	-0,11647	13,069
1538	1,1285	-5,4096	-0,11647	12,697
1538	1,1285	-5,4096	-0,11647	12,697
1539	3,8455	-7,2237	-0,11647	12,685
1539	3,8455	-7,2237	-0,11647	12,685
1540	-2,5961	-4,6516	-0,11647	12,976
1540	-2,5961	-4,6516	-0,11647	12,976
1541	-1,4384	5,3386	-0,11647	12,676
1541	-1,4384	5,3386	-0,11647	12,676
1542	-4,1008	7,1856	-0,11647	12,691
1542	-4,1008	7,1856	-0,11647	12,691
1543	-14,827	2,9352	-0,11647	20,846
1543	-14,827	2,9352	-0,11647	20,846
1544	2,7177	-34,802	-0,11647	38,552
1544	2,7177	-34,802	-0,11647	38,552
1545	-14,756	-3,3382	-0,11647	20,759
1545	-14,756	-3,3382	-0,11647	20,759
1546	5,3639	35,637	-0,11647	33,227
1546	5,3639	35,637	-0,11647	33,227
1547	-17,337	-7,626	-0,11647	22,157
1547	-17,337	-7,626	-0,11647	22,157
1548	-17,215	7,3647	-0,11647	21,909
1548	-17,215	7,3647	-0,11647	21,909
1549	-1,7677	34,185	-0,11647	31,168
1549	-1,7677	34,185	-0,11647	31,168
1550	1,9816	34,173	-0,11647	31,159
1550	1,9816	34,173	-0,11647	31,159
1551	-2,4161	-34,522	-0,11647	38,13
1551	-2,4161	-34,522	-0,11647	38,13
1552	6,4402	-34,464	-0,11647	31,103
1552	6,4402	-34,464	-0,11647	31,103
1553	15,014	-4,2746	-0,11647	20,769
1553	15,014	-4,2746	-0,11647	20,769
1554	16,918	-7,3975	-0,11647	21,762
1554	16,918	-7,3975	-0,11647	21,762
1555	17,063	7,4037	-0,11647	21,677
1555	17,063	7,4037	-0,11647	21,677
1556	15,004	4,0907	-0,11647	20,759
1556	15,004	4,0907	-0,11647	20,759
1557	8,6231	6,8324	-0,11647	14,32
1557	8,6231	6,8324	-0,11647	14,32
1558	13,578	-2,2779	-0,11647	19,59
1558	13,578	-2,2779	-0,11647	19,59
1559	13,245	3,3594	-0,11647	18,627
1559	13,245	3,3594	-0,11647	18,627
1560	-9,2646	-6,4087	-0,11647	14,854
1560	-9,2646	-6,4087	-0,11647	14,854
1561	-13,756	3,5076	-0,11647	19,277
1561	-13,756	3,5076	-0,11647	19,277
1562	-13,971	-2,3501	-0,11647	19,914
1562	-13,971	-2,3501	-0,11647	19,914
1563	0,42282	-3,8089	-0,11647	12,953
1563	0,42282	-3,8089	-0,11647	12,953
1564	5,5091	-6,7407	-0,11647	13,197
1564	5,5091	-6,7407	-0,11647	13,197
1565	-1,207	3,8596	-0,11647	12,924
1565	-1,207	3,8596	-0,11647	12,924
1566	-5,7099	6,7696	-0,11647	13,178
1566	-5,7099	6,7696	-0,11647	13,178
1567	-15,655	3,8931	-0,11647	21,698
1567	-15,655	3,8931	-0,11647	21,698
1568	1,4578	-34,883	-0,11647	40,299
1568	1,4578	-34,883	-0,11647	40,299
1569	-15,641	-4,2654	-0,11647	21,725
1569	-15,641	-4,2654	-0,11647	21,725
1570	19,35	10,192	-0,11647	21,73
1570	19,35	10,192	-0,11647	21,73
1571	19,135	-10,018	-0,11647	21,986
1571	19,135	-10,018	-0,11647	21,986
1572	18,804	8,9389	-0,11647	22,405
1572	18,804	8,9389	-0,11647	22,405
1573	-5,3133	35,863	-0,11647	33,637
1573	-5,3133	35,863	-0,11647	33,637
1574	19,996	-9,2916	-0,11647	24,199
1574	19,996	-9,2916	-0,11647	24,199
1575	-18,302	-9,9563	-0,11647	21,48
1575	-18,302	-9,9563	-0,11647	21,48
1576	-19,416	-11,25	-0,11647	21,102
1576	-19,416	-11,25	-0,11647	21,102
1577	5,2326	-34,564	-0,11647	33,458
1577	5,2326	-34,564	-0,11647	33,458
1578	-20,355	-10,294	-0,11647	22,793
1578	-20,355	-10,294	-0,11647	22,793
1579	-18,949	-10,01	-0,11647	22,108
1579	-18,949	-10,01	-0,11647	22,108
1580	4,6483	-35,239	-0,11647	36,11
1580	4,6483	-35,239	-0,11647	36,11
1581	5,1615	-35,735	-0,11647	36,432
1581	5,1615	-35,735	-0,11647	36,432
1582	5,9019	-35,543	-0,11647	33,86
1582	5,9019	-35,543	-0,11647	33,86
1583	-19,922	-9,8102	-0,11647	22,975
1583	-19,922	-9,8102	-0,11647	22,975
1584	-20,483	9,7548	-0,11647	23,222
1584	-20,483	9,7548	-0,11647	23,222
1585	-16,793	-6,4518	-0,11647	22,248
1585	-16,793	-6,4518	-0,11647	22,248
1586	-16,686	6,1628	-0,11647	22,039
1586	-16,686	6,1628	-0,11647	22,039
1587	-0,50385	34,252	-0,11647	31,165
1587	-0,50385	34,252	-0,11647	31,165
1588	0,7467	34,256	-0,11647	31,176
1588	0,7467	34,256	-0,11647	31,176
1589	-1,0956	-34,729	-0,11647	40,057
1589	-1,0956	-34,729	-0,11647	40,057
1590	15,646	-5,2876	-0,11647	21,243
1590	15,646	-5,2876	-0,11647	21,243
1591	21,105	-9,2574	-0,11647	24,973
1591	21,105	-9,2574	-0,11647	24,973
1592	15,684	5,1684	-0,11647	21,193
1592	15,684	5,1684	-0,11647	21,193
1593	10,073	6,0752	-0,11647	15,312
1593	10,073	6,0752	-0,11647	15,312
1594	12,16	-3,7956	-0,11647	17,592
1594	12,16	-3,7956	-0,11647	17,592
1595	11,913	4,1833	-0,11647	17,16
1595	11,913	4,1833	-0,11647	17,16
1596	-10,776	-5,5744	-0,11647	16,037
1596	-10,776	-5,5744	-0,11647	16,037
1597	-12,097	4,5372	-0,11647	17,17
1597	-12,097	4,5372	-0,11647	17,17
1598	-12,639	-3,463	-0,11647	18,185
1598	-12,639	-3,463	-0,11647	18,185
1599	0,28188	-0,33274	-0,11647	13,281
1599	0,28188	-0,33274	-0,11647	13,281
1600	0,36333	-2,0421	-0,11647	13,184
1600	0,36333	-2,0421	-0,11647	13,184
1601	7,369	-5,8819	-0,11647	14,038
1601	7,369	-5,8819	-0,11647	14,038
1602	-0,47814	0,52236	-0,11647	13,274
1602	-0,47814	0,52236	-0,11647	13,274
1603	-0,53739	2,288	-0,11647	13,135
1603	-0,53739	2,288	-0,11647	13,135
1604	-7,3993	6,1506	-0,11647	13,892
1604	-7,3993	6,1506	-0,11647	13,892
1605	-16,179	5,0058	-0,11647	21,968
1605	-16,179	5,0058	-0,11647	21,968
1606	0,19306	-34,861	-0,11647	40,883
1606	0,19306	-34,861	-0,11647	40,883
1607	-16,246	-5,3188	-0,11647	22,091
1607	-16,246	-5,3188	-0,11647	22,091
1608	-6,1079	36,491	-0,11647	34,571
1608	-6,1079	36,491	-0,11647	34,571
1609	10,417	-4,8888	-0,11647	15,856
1609	10,417	-4,8888	-0,11647	15,856
1610	-10,298	5,4788	-0,11647	15,582
1610	-10,298	5,4788	-0,11647	15,582
1611	-20,523	-8,892	-0,11647	24,92
1611	-20,523	-8,892	-0,11647	24,92
1612	-16,575	-0,17139	-0,11647	24,673
1612	-16,575	-0,17139	-0,11647	24,673
1613	-19,411	-9,3735	-0,11647	22,963
1613	-19,411	-9,3735	-0,11647	22,963
1614	-18,715	-9,1047	-0,11647	22,508
1614	-18,715	-9,1047	-0,11647	22,508
1615	-19,564	9,3423	-0,11647	22,9
1615	-19,564	9,3423	-0,11647	22,9
1616	-4,4727	35,291	-0,11647	32,922
1616	-4,4727	35,291	-0,11647	32,922
1617	-3,7467	34,68	-0,11647	32,
1617	-3,7467	34,68	-0,11647	32,
1618	4,635	35,187	-0,11647	32,736
1618	4,635	35,187	-0,11647	32,736
1619	-4,5326	-34,838	-0,11647	35,432
1619	-4,5326	-34,838	-0,11647	35,432
1620	14,721	-1,8221	-0,11647	21,037
1620	14,721	-1,8221	-0,11647	21,037
1621	14,544	-2,5652	-0,11647	20,741
1621	14,544	-2,5652	-0,11647	20,741
1622	18,362	-8,8782	-0,11647	22,467
1622	18,362	-8,8782	-0,11647	22,467
1623	19,262	-9,1483	-0,11647	23,262
1623	19,262	-9,1483	-0,11647	23,262
1624	14,827	2,3801	-0,11647	21,287
1624	14,827	2,3801	-0,11647	21,287
1625	14,565	1,7514	-0,11647	20,899
1625	14,565	1,7514	-0,11647	20,899
1626	5,2568	6,6889	-0,11647	13,045
1626	5,2568	6,6889	-0,11647	13,045
1627	14,607	0,88837	-0,11647	20,986
1627	14,607	0,88837	-0,11647	20,986
1628	-6,832	-6,7615	-0,11647	13,625
1628	-6,832	-6,7615	-0,11647	13,625
1629	-5,9213	-6,3987	-0,11647	13,361
1629	-5,9213	-6,3987	-0,11647	13,361
1630	-15,296	-0,15013	-0,11647	22,182
1630	-15,296	-0,15013	-0,11647	22,182
1631	1,348	3,7137	-0,11647	12,973
1631	1,348	3,7137	-0,11647	12,973
1632	2,9531	-6,6108	-0,11647	12,65
1632	2,9531	-6,6108	-0,11647	12,65
1633	-2,0252	-3,9815	-0,11647	13,033
1633	-2,0252	-3,9815	-0,11647	13,033
1634	-1,2244	-3,3999	-0,11647	13,069
1634	-1,2244	-3,3999	-0,11647	13,069
1635	-2,2795	6,0059	-0,11647	12,62
1635	-2,2795	6,0059	-0,11647	12,62
1636	-15,054	1,0226	-0,11647	21,612
1636	-15,054	1,0226	-0,11647	21,612
1637	-14,926	2,0484	-0,11647	21,205
1637	-14,926	2,0484	-0,11647	21,205
1638	4,0924	-36,006	-0,11647	39,141
1638	4,0924	-36,006	-0,11647	39,141
1639	3,3974	-35,413	-0,11647	39,17
1639	3,3974	-35,413	-0,11647	39,17
1640	-14,954	-2,3611	-0,11647	21,29
1640	-14,954	-2,3611	-0,11647	21,29
1641	-15,16	-1,317	-0,11647	21,735
1641	-15,16	-1,317	-0,11647	21,735
1642	-6,1902	-35,977	-0,11647	33,596
1642	-6,1902	-35,977	-0,11647	33,596
1643	-6,774	-35,12	-0,11647	31,234
1643	-6,774	-35,12	-0,11647	31,234
1644	-7,3286	-34,206	-0,11647	29,237
1644	-7,3286	-34,206	-0,11647	29,237
1645	-7,8633	-33,273	-0,11647	27,536
1645	-7,8633	-33,273	-0,11647	27,536
1646	-8,3858	-32,323	-0,11647	26,058
1646	-8,3858	-32,323	-0,11647	26,058
1647	-8,9154	-31,367	-0,11647	24,747
1647	-8,9154	-31,367	-0,11647	24,747
1648	-9,4436	-30,402	-0,11647	23,581
1648	-9,4436	-30,402	-0,11647	23,581
1649	-9,9614	-29,448	-0,11647	22,544
1649	-9,9614	-29,448	-0,11647	22,544
1650	-10,481	-28,482	-0,11647	21,615
1650	-10,481	-28,482	-0,11647	21,615
1651	-11,532	-26,583	-0,11647	20,042
1651	-11,532	-26,583	-0,11647	20,042
1652	-12,052	-25,638	-0,11647	19,391
1652	-12,052	-25,638	-0,11647	19,391
1653	-12,563	-24,699	-0,11647	18,823
1653	-12,563	-24,699	-0,11647	18,823
1654	-13,079	-23,76	-0,11647	18,333
1654	-13,079	-23,76	-0,11647	18,333
1655	-13,591	-22,821	-0,11647	17,924
1655	-13,591	-22,821	-0,11647	17,924
1656	-14,103	-21,889	-0,11647	17,596
1656	-14,103	-21,889	-0,11647	17,596
1657	-14,612	-20,956	-0,11647	17,351
1657	-14,612	-20,956	-0,11647	17,351
1658	-15,629	-19,111	-0,11647	17,12
1658	-15,629	-19,111	-0,11647	17,12
1659	-16,129	-18,194	-0,11647	17,141
1659	-16,129	-18,194	-0,11647	17,141
1660	-16,624	-17,292	-0,11647	17,259
1660	-16,624	-17,292	-0,11647	17,259
1661	-18,623	-13,617	-0,11647	18,924
1661	-18,623	-13,617	-0,11647	18,924
1662	-19,169	-12,717	-0,11647	19,716
1662	-19,169	-12,717	-0,11647	19,716
1663	-19,894	-11,806	-0,11647	20,875
1663	-19,894	-11,806	-0,11647	20,875
1664	20,304	-10,133	-0,11647	23,005
1664	20,304	-10,133	-0,11647	23,005
1665	19,38	-12,088	-0,11647	20,257
1665	19,38	-12,088	-0,11647	20,257
1666	18,908	-13,002	-0,11647	19,372
1666	18,908	-13,002	-0,11647	19,372
1667	18,424	-13,914	-0,11647	18,664
1667	18,424	-13,914	-0,11647	18,664
1668	17,933	-14,818	-0,11647	18,111
1668	17,933	-14,818	-0,11647	18,111
1669	17,438	-15,731	-0,11647	17,689
1669	17,438	-15,731	-0,11647	17,689
1670	16,942	-16,654	-0,11647	17,386
1670	16,942	-16,654	-0,11647	17,386
1671	16,433	-17,586	-0,11647	17,195
1671	16,433	-17,586	-0,11647	17,195
1672	15,923	-18,521	-0,11647	17,11
1672	15,923	-18,521	-0,11647	17,11
1673	15,416	-19,457	-0,11647	17,125
1673	15,416	-19,457	-0,11647	17,125
1674	14,397	-21,375	-0,11647	17,438
1674	14,397	-21,375	-0,11647	17,438
1675	13,883	-22,327	-0,11647	17,727
1675	13,883	-22,327	-0,11647	17,727
1676	13,366	-23,286	-0,11647	18,101
1676	13,366	-23,286	-0,11647	18,101
1677	12,855	-24,257	-0,11647	18,56
1677	12,855	-24,257	-0,11647	18,56
1678	12,339	-25,225	-0,11647	19,099
1678	12,339	-25,225	-0,11647	19,099
1679	11,825	-26,19	-0,11647	19,719
1679	11,825	-26,19	-0,11647	19,719
1680	11,312	-27,156	-0,11647	20,422
1680	11,312	-27,156	-0,11647	20,422
1681	10,799	-28,127	-0,11647	21,21
1681	10,799	-28,127	-0,11647	21,21
1682	10,292	-29,095	-0,11647	22,086
1682	10,292	-29,095	-0,11647	22,086
1683	9,7915	-30,058	-0,11647	23,056
1683	9,7915	-30,058	-0,11647	23,056
1684	9,2846	-31,027	-0,11647	24,134
1684	9,2846	-31,027	-0,11647	24,134
1685	8,7866	-31,993	-0,11647	25,342
1685	8,7866	-31,993	-0,11647	25,342
1686	8,2736	-32,979	-0,11647	26,722
1686	8,2736	-32,979	-0,11647	26,722
1687	7,7459	-33,975	-0,11647	28,319
1687	7,7459	-33,975	-0,11647	28,319
1688	7,2237	-34,994	-0,11647	30,192
1688	7,2237	-34,994	-0,11647	30,192
1689	-19,998	10,669	-0,11647	21,741
1689	-19,998	10,669	-0,11647	21,741
1690	-19,514	11,575	-0,11647	20,559
1690	-19,514	11,575	-0,11647	20,559
1691	-19,038	12,475	-0,11647	19,615
1691	-19,038	12,475	-0,11647	19,615
1692	-18,071	14,272	-0,11647	18,272
1692	-18,071	14,272	-0,11647	18,272
1693	-17,59	15,184	-0,11647	17,815
1693	-17,59	15,184	-0,11647	17,815
1694	-17,098	16,097	-0,11647	17,486
1694	-17,098	16,097	-0,11647	17,486
1695	-16,12	17,933	-0,11647	17,162
1695	-16,12	17,933	-0,11647	17,162
1696	-15,619	18,858	-0,11647	17,154
1696	-15,619	18,858	-0,11647	17,154
1697	-15,125	19,775	-0,11647	17,239
1697	-15,125	19,775	-0,11647	17,239
1698	-14,622	20,714	-0,11647	17,415
1698	-14,622	20,714	-0,11647	17,415
1699	-14,115	21,657	-0,11647	17,681
1699	-14,115	21,657	-0,11647	17,681
1700	-13,105	23,547	-0,11647	18,465
1700	-13,105	23,547	-0,11647	18,465
1701	-12,598	24,496	-0,11647	18,978
1701	-12,598	24,496	-0,11647	18,978
1702	-12,093	25,446	-0,11647	19,571
1702	-12,093	25,446	-0,11647	19,571
1703	-11,588	26,398	-0,11647	20,246
1703	-11,588	26,398	-0,11647	20,246
1704	-11,081	27,361	-0,11647	21,005
1704	-11,081	27,361	-0,11647	21,005
1705	-10,083	29,266	-0,11647	22,766
1705	-10,083	29,266	-0,11647	22,766
1706	-9,587	30,218	-0,11647	23,782
1706	-9,587	30,218	-0,11647	23,782
1707	-9,0984	31,18	-0,11647	24,91
1707	-9,0984	31,18	-0,11647	24,91
1708	-8,5862	32,159	-0,11647	26,183
1708	-8,5862	32,159	-0,11647	26,183
1709	-8,0622	33,146	-0,11647	27,622
1709	-8,0622	33,146	-0,11647	27,622
1710	-7,5115	34,165	-0,11647	29,342
1710	-7,5115	34,165	-0,11647	29,342
1711	-6,9003	35,291	-0,11647	31,452
1711	-6,9003	35,291	-0,11647	31,452
1712	6,001	36,714	-0,11647	35,043
1712	6,001	36,714	-0,11647	35,043
1713	7,071	34,699	-0,11647	30,451
1713	7,071	34,699	-0,11647	30,451
1714	7,5775	33,735	-0,11647	28,701
1714	7,5775	33,735	-0,11647	28,701
1715	8,0972	32,803	-0,11647	27,203
1715	8,0972	32,803	-0,11647	27,203
1716	9,078	30,932	-0,11647	24,682
1716	9,078	30,932	-0,11647	24,682
1717	9,5827	29,996	-0,11647	23,594
1717	9,5827	29,996	-0,11647	23,594
1718	10,587	28,117	-0,11647	21,699
1718	10,587	28,117	-0,11647	21,699
1719	11,099	27,171	-0,11647	20,876
1719	11,099	27,171	-0,11647	20,876
1720	11,614	26,225	-0,11647	20,133
1720	11,614	26,225	-0,11647	20,133
1721	12,124	25,274	-0,11647	19,471
1721	12,124	25,274	-0,11647	19,471
1722	13,153	23,39	-0,11647	18,388
1722	13,153	23,39	-0,11647	18,388
1723	14,17	21,525	-0,11647	17,635
1723	14,17	21,525	-0,11647	17,635
1724	14,676	20,598	-0,11647	17,384
1724	14,676	20,598	-0,11647	17,384
1725	15,177	19,677	-0,11647	17,219
1725	15,177	19,677	-0,11647	17,219
1726	15,678	18,762	-0,11647	17,145
1726	15,678	18,762	-0,11647	17,145
1727	16,18	17,844	-0,11647	17,163
1727	16,18	17,844	-0,11647	17,163
1728	17,178	16,029	-0,11647	17,506
1728	17,178	16,029	-0,11647	17,506
1729	17,672	15,124	-0,11647	17,846
1729	17,672	15,124	-0,11647	17,846
1730	18,169	14,225	-0,11647	18,312
1730	18,169	14,225	-0,11647	18,312
1731	18,675	13,314	-0,11647	18,928
1731	18,675	13,314	-0,11647	18,928
1732	19,185	12,415	-0,11647	19,712
1732	19,185	12,415	-0,11647	19,712
1733	19,705	11,521	-0,11647	20,698
1733	19,705	11,521	-0,11647	20,698
1734	19,889	9,3002	-0,11647	23,173
1734	19,889	9,3002	-0,11647	23,173
1735	-18,121	7,7034	-0,11647	22,882
1735	-18,121	7,7034	-0,11647	22,882
1736	-3,1409	-35,101	-0,11647	38,708
1736	-3,1409	-35,101	-0,11647	38,708
1737	15,493	4,2186e-002	-0,11647	22,449
1737	15,493	4,2186e-002	-0,11647	22,449
1738	15,315	3,2856	-0,11647	21,535
1738	15,315	3,2856	-0,11647	21,535
1739	7,648	6,4996	-0,11647	13,916
1739	7,648	6,4996	-0,11647	13,916
1740	4,4986	5,4745	-0,11647	13,089
1740	4,4986	5,4745	-0,11647	13,089
1741	13,705	2,1573	-0,11647	19,53
1741	13,705	2,1573	-0,11647	19,53
1742	-8,258	-6,1334	-0,11647	14,357
1742	-8,258	-6,1334	-0,11647	14,357
1743	1,0672	2,1294	-0,11647	13,184
1743	1,0672	2,1294	-0,11647	13,184
1744	1,5785	-4,4959	-0,11647	12,906
1744	1,5785	-4,4959	-0,11647	12,906
1745	4,4919	-6,3251	-0,11647	12,996
1745	4,4919	-6,3251	-0,11647	12,996
1746	-3,3553	-4,0807	-0,11647	13,196
1746	-3,3553	-4,0807	-0,11647	13,196
1747	-1,9617	4,5713	-0,11647	12,873
1747	-1,9617	4,5713	-0,11647	12,873
1748	-16,213	0,32786	-0,11647	23,848
1748	-16,213	0,32786	-0,11647	23,848
1749	-15,853	-3,3483	-0,11647	22,348
1749	-15,853	-3,3483	-0,11647	22,348
1750	-16,331	-0,75449	-0,11647	24,041
1750	-16,331	-0,75449	-0,11647	24,041
1751	20,769	9,7227	-0,11647	23,515
1751	20,769	9,7227	-0,11647	23,515
1752	-20,961	8,8095	-0,11647	25,267
1752	-20,961	8,8095	-0,11647	25,267
1753	17,343	6,5153	-0,11647	22,785
1753	17,343	6,5153	-0,11647	22,785
1754	15,973	4,31	-0,11647	22,07
1754	15,973	4,31	-0,11647	22,07
1755	16,345	-4,3544e-002	-0,11647	23,827
1755	16,345	-4,3544e-002	-0,11647	23,827
1756	9,0975	5,831	-0,11647	14,771
1756	9,0975	5,831	-0,11647	14,771
1757	12,46	-2,5293	-0,11647	18,126
1757	12,46	-2,5293	-0,11647	18,126
1758	12,399	3,1096	-0,11647	17,798
1758	12,399	3,1096	-0,11647	17,798
1759	3,8224	4,3014	-0,11647	13,2
1759	3,8224	4,3014	-0,11647	13,2
1760	1,0021	0,50419	-0,11647	13,295
1760	1,0021	0,50419	-0,11647	13,295
1761	1,1856	-2,8725	-0,11647	13,121
1761	1,1856	-2,8725	-0,11647	13,121
1762	6,2071	-5,6957	-0,11647	13,609
1762	6,2071	-5,6957	-0,11647	13,609
1763	-1,6095	2,9627	-0,11647	13,111
1763	-1,6095	2,9627	-0,11647	13,111
1764	0,84163	-35,594	-0,11647	43,435
1764	0,84163	-35,594	-0,11647	43,435
1765	-4,5909	36,687	-0,11647	35,913
1765	-4,5909	36,687	-0,11647	35,913
1766	5,5122	-36,798	-0,11647	36,769
1766	5,5122	-36,798	-0,11647	36,769
1767	6,2345	-37,093	-0,11647	34,84
1767	6,2345	-37,093	-0,11647	34,84
1768	9,194	-4,8711	-0,11647	15,1
1768	9,194	-4,8711	-0,11647	15,1
1769	-10,896	4,4328	-0,11647	16,26
1769	-10,896	4,4328	-0,11647	16,26
1770	11,019	-3,8204	-0,11647	16,531
1770	11,019	-3,8204	-0,11647	16,531
1771	-17,152	-5,5401	-0,11647	23,453
1771	-17,152	-5,5401	-0,11647	23,453
1772	0,13132	34,962	-0,11647	32,105
1772	0,13132	34,962	-0,11647	32,105
1773	-0,4523	-35,518	-0,11647	43,294
1773	-0,4523	-35,518	-0,11647	43,294
1774	10,523	5,0394	-0,11647	15,842
1774	10,523	5,0394	-0,11647	15,842
1775	1,0626	-1,1778	-0,11647	13,275
1775	1,0626	-1,1778	-0,11647	13,275
1776	4,2181	-37,292	-0,11647	42,187
1776	4,2181	-37,292	-0,11647	42,187
1777	-19,859	-8,5587	-0,11647	24,585
1777	-19,859	-8,5587	-0,11647	24,585
1778	-19,031	-8,1854	-0,11647	23,972
1778	-19,031	-8,1854	-0,11647	23,972
1779	-3,8843	36,043	-0,11647	34,57
1779	-3,8843	36,043	-0,11647	34,57
1780	3,3774	35,416	-0,11647	33,364
1780	3,3774	35,416	-0,11647	33,364
1781	4,1368	36,001	-0,11647	34,47
1781	4,1368	36,001	-0,11647	34,47
1782	-3,9007	-35,676	-0,11647	38,754
1782	-3,9007	-35,676	-0,11647	38,754
1783	-4,684	-36,255	-0,11647	38,135
1783	-4,684	-36,255	-0,11647	38,135
1784	15,646	-1,7779	-0,11647	22,524
1784	15,646	-1,7779	-0,11647	22,524
1785	18,717	-7,9657	-0,11647	23,821
1785	18,717	-7,9657	-0,11647	23,821
1786	19,574	-8,2476	-0,11647	24,707
1786	19,574	-8,2476	-0,11647	24,707
1787	20,228	8,4039	-0,11647	25,22
1787	20,228	8,4039	-0,11647	25,22
1788	19,051	8,0599	-0,11647	23,734
1788	19,051	8,0599	-0,11647	23,734
1789	15,536	2,4641	-0,11647	22,127
1789	15,536	2,4641	-0,11647	22,127
1790	15,584	1,646	-0,11647	22,396
1790	15,584	1,646	-0,11647	22,396
1791	5,6677	5,7874	-0,11647	13,322
1791	5,6677	5,7874	-0,11647	13,322
1792	13,726	0,89645	-0,11647	19,73
1792	13,726	0,89645	-0,11647	19,73
1793	-7,2673	-5,8363	-0,11647	13,965
1793	-7,2673	-5,8363	-0,11647	13,965
1794	-6,2894	-5,5	-0,11647	13,659
1794	-6,2894	-5,5	-0,11647	13,659
1795	-14,085	1,0271	-0,11647	20,226
1795	-14,085	1,0271	-0,11647	20,226
1796	-14,215	-0,10895	-0,11647	20,516
1796	-14,215	-0,10895	-0,11647	20,516
1797	1,9411	2,9207	-0,11647	13,136
1797	1,9411	2,9207	-0,11647	13,136
1798	2,5631	-5,1606	-0,11647	12,877
1798	2,5631	-5,1606	-0,11647	12,877
1799	3,5588	-5,7097	-0,11647	12,9
1799	3,5588	-5,7097	-0,11647	12,9
1800	-2,8084	-3,3811	-0,11647	13,201
1800	-2,8084	-3,3811	-0,11647	13,201
1801	-1,9654	-2,6515	-0,11647	13,209
1801	-1,9654	-2,6515	-0,11647	13,209
1802	-2,855	5,1837	-0,11647	12,845
1802	-2,855	5,1837	-0,11647	12,845
1803	-16,054	1,192	-0,11647	23,244
1803	-16,054	1,192	-0,11647	23,244
1804	-15,923	2,107	-0,11647	22,822
1804	-15,923	2,107	-0,11647	22,822
1805	3,5286	-36,762	-0,11647	42,94
1805	3,5286	-36,762	-0,11647	42,94
1806	2,8045	-36,181	-0,11647	42,821
1806	2,8045	-36,181	-0,11647	42,821
1807	-15,958	-2,4616	-0,11647	22,877
1807	-15,958	-2,4616	-0,11647	22,877
1808	-16,129	-1,5391	-0,11647	23,401
1808	-16,129	-1,5391	-0,11647	23,401
1809	21,344	8,8707	-0,11647	25,459
1809	21,344	8,8707	-0,11647	25,459
1810	-21,768	-8,3481	-0,11647	27,655
1810	-21,768	-8,3481	-0,11647	27,655
1811	4,925	-37,769	-0,11647	40,591
1811	4,925	-37,769	-0,11647	40,591
1812	4,6928	38,166	-0,11647	40,052
1812	4,6928	38,166	-0,11647	40,052
1813	-6,4833	-37,326	-0,11647	34,257
1813	-6,4833	-37,326	-0,11647	34,257
1814	-7,0897	-36,607	-0,11647	31,977
1814	-7,0897	-36,607	-0,11647	31,977
1815	-7,6398	-35,708	-0,11647	29,949
1815	-7,6398	-35,708	-0,11647	29,949
1816	-8,1794	-34,772	-0,11647	28,226
1816	-8,1794	-34,772	-0,11647	28,226
1817	-8,7129	-33,829	-0,11647	26,732
1817	-8,7129	-33,829	-0,11647	26,732
1818	-9,2435	-32,866	-0,11647	25,409
1818	-9,2435	-32,866	-0,11647	25,409
1819	-9,7717	-31,907	-0,11647	24,228
1819	-9,7717	-31,907	-0,11647	24,228
1820	-10,295	-30,942	-0,11647	23,165
1820	-10,295	-30,942	-0,11647	23,165
1821	-10,824	-29,978	-0,11647	22,203
1821	-10,824	-29,978	-0,11647	22,203
1822	-11,873	-28,058	-0,11647	20,556
1822	-11,873	-28,058	-0,11647	20,556
1823	-12,401	-27,099	-0,11647	19,857
1823	-12,401	-27,099	-0,11647	19,857
1824	-12,92	-26,152	-0,11647	19,239
1824	-12,92	-26,152	-0,11647	19,239
1825	-13,436	-25,202	-0,11647	18,699
1825	-13,436	-25,202	-0,11647	18,699
1826	-13,951	-24,261	-0,11647	18,234
1826	-13,951	-24,261	-0,11647	18,234
1827	-14,98	-22,378	-0,11647	17,534
1827	-14,98	-22,378	-0,11647	17,534
1828	-15,997	-20,521	-0,11647	17,157
1828	-15,997	-20,521	-0,11647	17,157
1829	-17,004	-18,679	-0,11647	17,123
1829	-17,004	-18,679	-0,11647	17,123
1830	-18,004	-16,851	-0,11647	17,473
1830	-18,004	-16,851	-0,11647	17,473
1831	-18,999	-15,035	-0,11647	18,274
1831	-18,999	-15,035	-0,11647	18,274
1832	-19,988	-13,22	-0,11647	19,644
1832	-19,988	-13,22	-0,11647	19,644
1833	-21,087	-11,626	-0,11647	21,149
1833	-21,087	-11,626	-0,11647	21,149
1834	-21,889	-9,7219	-0,11647	24,845
1834	-21,889	-9,7219	-0,11647	24,845
1835	21,842	-9,7779	-0,11647	24,728
1835	21,842	-9,7779	-0,11647	24,728
1836	21,27	-10,645	-0,11647	22,941
1836	21,27	-10,645	-0,11647	22,941
1837	20,772	-11,561	-0,11647	21,494
1837	20,772	-11,561	-0,11647	21,494
1838	19,812	-13,411	-0,11647	19,421
1838	19,812	-13,411	-0,11647	19,421
1839	19,324	-14,332	-0,11647	18,695
1839	19,324	-14,332	-0,11647	18,695
1840	18,831	-15,247	-0,11647	18,128
1840	18,831	-15,247	-0,11647	18,128
1841	17,828	-17,095	-0,11647	17,387
1841	17,828	-17,095	-0,11647	17,387
1842	17,329	-18,027	-0,11647	17,189
1842	17,329	-18,027	-0,11647	17,189
1843	16,821	-18,972	-0,11647	17,093
1843	16,821	-18,972	-0,11647	17,093
1844	15,797	-20,875	-0,11647	17,192
1844	15,797	-20,875	-0,11647	17,192
1845	14,765	-22,793	-0,11647	17,647
1845	14,765	-22,793	-0,11647	17,647
1846	14,252	-23,751	-0,11647	17,998
1846	14,252	-23,751	-0,11647	17,998
1847	12,704	-26,657	-0,11647	19,52
1847	12,704	-26,657	-0,11647	19,52
1848	12,19	-27,626	-0,11647	20,179
1848	12,19	-27,626	-0,11647	20,179
1849	11,678	-28,596	-0,11647	20,915
1849	11,678	-28,596	-0,11647	20,915
1850	11,161	-29,575	-0,11647	21,732
1850	11,161	-29,575	-0,11647	21,732
1851	10,653	-30,542	-0,11647	22,633
1851	10,653	-30,542	-0,11647	22,633
1852	10,139	-31,519	-0,11647	23,627
1852	10,139	-31,519	-0,11647	23,627
1853	9,6215	-32,494	-0,11647	24,728
1853	9,6215	-32,494	-0,11647	24,728
1854	8,584	-34,46	-0,11647	27,338
1854	8,584	-34,46	-0,11647	27,338
1855	8,0604	-35,46	-0,11647	28,89
1855	8,0604	-35,46	-0,11647	28,89
1856	7,5476	-36,47	-0,11647	30,608
1856	7,5476	-36,47	-0,11647	30,608
1857	-6,5114	-38,427	-0,11647	35,091
1857	-6,5114	-38,427	-0,11647	35,091
1858	-21,869	9,2986	-0,11647	25,213
1858	-21,869	9,2986	-0,11647	25,213
1859	-21,387	10,203	-0,11647	23,293
1859	-21,387	10,203	-0,11647	23,293
1860	-20,426	12,017	-0,11647	20,605
1860	-20,426	12,017	-0,11647	20,605
1861	-19,456	13,826	-0,11647	18,904
1861	-19,456	13,826	-0,11647	18,904
1862	-18,97	14,732	-0,11647	18,31
1862	-18,97	14,732	-0,11647	18,31
1863	-18,487	15,642	-0,11647	17,855
1863	-18,487	15,642	-0,11647	17,855
1864	-17,503	17,472	-0,11647	17,308
1864	-17,503	17,472	-0,11647	17,308
1865	-17,011	18,394	-0,11647	17,196
1865	-17,011	18,394	-0,11647	17,196
1866	-16,507	19,325	-0,11647	17,183
1866	-16,507	19,325	-0,11647	17,183
1867	-15,507	21,18	-0,11647	17,436
1867	-15,507	21,18	-0,11647	17,436
1868	-14,491	23,078	-0,11647	18,04
1868	-14,491	23,078	-0,11647	18,04
1869	-13,986	24,026	-0,11647	18,466
1869	-13,986	24,026	-0,11647	18,466
1870	-13,478	24,971	-0,11647	18,971
1870	-13,478	24,971	-0,11647	18,971
1871	-12,969	25,924	-0,11647	19,557
1871	-12,969	25,924	-0,11647	19,557
1872	-12,462	26,876	-0,11647	20,225
1872	-12,462	26,876	-0,11647	20,225
1873	-11,449	28,803	-0,11647	21,812
1873	-11,449	28,803	-0,11647	21,812
1874	-10,441	30,71	-0,11647	23,748
1874	-10,441	30,71	-0,11647	23,748
1875	-9,4142	32,657	-0,11647	26,158
1875	-9,4142	32,657	-0,11647	26,158
1876	-8,3286	34,658	-0,11647	29,329
1876	-8,3286	34,658	-0,11647	29,329
1877	-7,7348	35,71	-0,11647	31,375
1877	-7,7348	35,71	-0,11647	31,375
1878	-7,2402	36,728	-0,11647	33,537
1878	-7,2402	36,728	-0,11647	33,537
1879	6,9407	37,125	-0,11647	34,756
1879	6,9407	37,125	-0,11647	34,756
1880	7,3795	36,194	-0,11647	32,541
1880	7,3795	36,194	-0,11647	32,541
1881	7,8701	35,215	-0,11647	30,531
1881	7,8701	35,215	-0,11647	30,531
1882	8,4128	34,301	-0,11647	28,763
1882	8,4128	34,301	-0,11647	28,763
1883	9,9287	31,468	-0,11647	24,692
1883	9,9287	31,468	-0,11647	24,692
1884	10,442	30,527	-0,11647	23,595
1884	10,442	30,527	-0,11647	23,595
1885	10,949	29,586	-0,11647	22,601
1885	10,949	29,586	-0,11647	22,601
1886	11,459	28,634	-0,11647	21,695
1886	11,459	28,634	-0,11647	21,695
1887	11,97	27,681	-0,11647	20,873
1887	11,97	27,681	-0,11647	20,873
1888	12,485	26,732	-0,11647	20,134
1888	12,485	26,732	-0,11647	20,134
1889	13,512	24,833	-0,11647	18,899
1889	13,512	24,833	-0,11647	18,899
1890	14,024	23,891	-0,11647	18,405
1890	14,024	23,891	-0,11647	18,405
1891	14,539	22,949	-0,11647	17,989
1891	14,539	22,949	-0,11647	17,989
1892	15,049	22,015	-0,11647	17,657
1892	15,049	22,015	-0,11647	17,657
1893	15,554	21,082	-0,11647	17,409
1893	15,554	21,082	-0,11647	17,409
1894	16,057	20,162	-0,11647	17,246
1894	16,057	20,162	-0,11647	17,246
1895	16,561	19,235	-0,11647	17,174
1895	16,561	19,235	-0,11647	17,174
1896	17,06	18,323	-0,11647	17,194
1896	17,06	18,323	-0,11647	17,194
1897	17,559	17,407	-0,11647	17,312
1897	17,559	17,407	-0,11647	17,312
1898	18,551	15,593	-0,11647	17,872
1898	18,551	15,593	-0,11647	17,872
1899	19,551	13,772	-0,11647	18,947
1899	19,551	13,772	-0,11647	18,947
1900	20,58	11,97	-0,11647	20,694
1900	20,58	11,97	-0,11647	20,694
1901	21,647	10,187	-0,11647	23,443
1901	21,647	10,187	-0,11647	23,443
1902	-21,015	-7,9585	-0,11647	27,388
1902	-21,015	-7,9585	-0,11647	27,388
1903	-18,557	-6,9853	-0,11647	24,641
1903	-18,557	-6,9853	-0,11647	24,641
1904	-18,502	6,7881	-0,11647	24,407
1904	-18,502	6,7881	-0,11647	24,407
1905	2,0878	35,573	-0,11647	33,365
1905	2,0878	35,573	-0,11647	33,365
1906	4,4661	37,373	-0,11647	37,89
1906	4,4661	37,373	-0,11647	37,89
1907	-2,4928	-35,919	-0,11647	42,541
1907	-2,4928	-35,919	-0,11647	42,541
1908	-4,7922	-37,64	-0,11647	40,857
1908	-4,7922	-37,64	-0,11647	40,857
1909	16,746	-1,0032	-0,11647	24,624
1909	16,746	-1,0032	-0,11647	24,624
1910	16,19	-3,5845	-0,11647	22,887
1910	16,19	-3,5845	-0,11647	22,887
1911	18,172	-6,7967	-0,11647	24,17
1911	18,172	-6,7967	-0,11647	24,17
1912	20,858	7,3266	-0,11647	27,74
1912	20,858	7,3266	-0,11647	27,74
1913	18,3	6,794	-0,11647	24,068
1913	18,3	6,794	-0,11647	24,068
1914	16,244	3,4451	-0,11647	22,894
1914	16,244	3,4451	-0,11647	22,894
1915	16,469	0,85868	-0,11647	24,139
1915	16,469	0,85868	-0,11647	24,139
1916	8,1009	5,5322	-0,11647	14,312
1916	8,1009	5,5322	-0,11647	14,312
1917	4,9466	4,6192	-0,11647	13,368
1917	4,9466	4,6192	-0,11647	13,368
1918	12,636	-1,4239	-0,11647	18,455
1918	12,636	-1,4239	-0,11647	18,455
1919	-8,703	-5,1555	-0,11647	14,768
1919	-8,703	-5,1555	-0,11647	14,768
1920	-12,869	2,277	-0,11647	18,582
1920	-12,869	2,277	-0,11647	18,582
1921	4,3031	3,5227	-0,11647	13,451
1921	4,3031	3,5227	-0,11647	13,451
1922	1,7476	1,3213	-0,11647	13,296
1922	1,7476	1,3213	-0,11647	13,296
1923	2,1188	-3,6231	-0,11647	13,096
1923	2,1188	-3,6231	-0,11647	13,096
1924	5,1403	-5,3222	-0,11647	13,337
1924	5,1403	-5,3222	-0,11647	13,337
1925	-4,387	-3,7262	-0,11647	13,42
1925	-4,387	-3,7262	-0,11647	13,42
1926	-5,3063	5,4209	-0,11647	13,3
1926	-5,3063	5,4209	-0,11647	13,3
1927	-17,227	0,63645	-0,11647	25,616
1927	-17,227	0,63645	-0,11647	25,616
1928	-16,754	3,1843	-0,11647	23,926
1928	-16,754	3,1843	-0,11647	23,926
1929	3,6168	-38,104	-0,11647	47,426
1929	3,6168	-38,104	-0,11647	47,426
1930	1,509	-36,293	-0,11647	45,704
1930	1,509	-36,293	-0,11647	45,704
1931	-16,796	-3,5171	-0,11647	24,015
1931	-16,796	-3,5171	-0,11647	24,015
1932	22,234	9,3099	-0,11647	25,348
1932	22,234	9,3099	-0,11647	25,348
1933	21,991	8,0723	-0,11647	28,01
1933	21,991	8,0723	-0,11647	28,01
1934	-5,2033	37,384	-0,11647	37,594
1934	-5,2033	37,384	-0,11647	37,594
1935	-6,884	37,788	-0,11647	36,224
1935	-6,884	37,788	-0,11647	36,224
1936	7,0591	-37,474	-0,11647	32,579
1936	7,0591	-37,474	-0,11647	32,579
1937	5,7364	-38,102	-0,11647	37,929
1937	5,7364	-38,102	-0,11647	37,929
1938	7,9498	-4,8942	-0,11647	14,482
1938	7,9498	-4,8942	-0,11647	14,482
1939	22,021	-7,7153	-0,11647	29,722
1939	22,021	-7,7153	-0,11647	29,722
1940	-17,332	-0,92561	-0,11647	25,728
1940	-17,332	-0,92561	-0,11647	25,728
1941	-21,535	7,7838	-0,11647	28,101
1941	-21,535	7,7838	-0,11647	28,101
1942	-22,376	8,5015	-0,11647	27,383
1942	-22,376	8,5015	-0,11647	27,383
1943	6,592	38,017	-0,11647	37,149
1943	6,592	38,017	-0,11647	37,149
1944	5,5974	38,416	-0,11647	40,
1944	5,5974	38,416	-0,11647	40,
1945	4,3777	-38,605	-0,11647	45,281
1945	4,3777	-38,605	-0,11647	45,281
1946	-22,56	-8,702	-0,11647	27,63
1946	-22,56	-8,702	-0,11647	27,63
1947	-22,258	-7,3902	-0,11647	31,237
1947	-22,258	-7,3902	-0,11647	31,237
1948	4,2222	38,704	-0,11647	42,42
1948	4,2222	38,704	-0,11647	42,42
1949	21,892	6,8443	-0,11647	31,41
1949	21,892	6,8443	-0,11647	31,41
1950	11,285	-2,7134	-0,11647	17,022
1950	11,285	-2,7134	-0,11647	17,022
1951	9,7396	-3,8624	-0,11647	15,633
1951	9,7396	-3,8624	-0,11647	15,633
1952	-17,483	-4,6214	-0,11647	24,71
1952	-17,483	-4,6214	-0,11647	24,71
1953	-18,042	-5,7818	-0,11647	24,901
1953	-18,042	-5,7818	-0,11647	24,901
1954	-17,96	5,5309	-0,11647	24,682
1954	-17,96	5,5309	-0,11647	24,682
1955	-17,411	4,3217	-0,11647	24,539
1955	-17,411	4,3217	-0,11647	24,539
1956	0,78982	35,651	-0,11647	33,087
1956	0,78982	35,651	-0,11647	33,087
1957	-0,50894	35,638	-0,11647	33,024
1957	-0,50894	35,638	-0,11647	33,024
1958	-1,1266	-36,139	-0,11647	45,471
1958	-1,1266	-36,139	-0,11647	45,471
1959	0,20883	-36,291	-0,11647	46,72
1959	0,20883	-36,291	-0,11647	46,72
1960	17,557	-5,6771	-0,11647	24,075
1960	17,557	-5,6771	-0,11647	24,075
1961	16,888	-4,6137	-0,11647	23,595
1961	16,888	-4,6137	-0,11647	23,595
1962	22,461	-7,1352	-0,11647	33,007
1962	22,461	-7,1352	-0,11647	33,007
1963	16,933	4,5036	-0,11647	23,551
1963	16,933	4,5036	-0,11647	23,551
1964	17,616	5,6143	-0,11647	23,996
1964	17,616	5,6143	-0,11647	23,996
1965	9,55	4,8233	-0,11647	15,242
1965	9,55	4,8233	-0,11647	15,242
1966	10,961	3,9842	-0,11647	16,396
1966	10,961	3,9842	-0,11647	16,396
1967	-10,165	-4,3539	-0,11647	15,823
1967	-10,165	-4,3539	-0,11647	15,823
1968	1,8725	-1,984	-0,11647	13,272
1968	1,8725	-1,984	-0,11647	13,272
1969	1,7557	-0,31558	-0,11647	13,349
1969	1,7557	-0,31558	-0,11647	13,349
1970	-2,1091	2,0951	-0,11647	13,265
1970	-2,1091	2,0951	-0,11647	13,265
1971	-1,95	0,47182	-0,11647	13,359
1971	-1,95	0,47182	-0,11647	13,359
1972	-4,9319	-38,467	-0,11647	42,814
1972	-4,9319	-38,467	-0,11647	42,814
1973	-5,5295	-38,654	-0,11647	39,419
1973	-5,5295	-38,654	-0,11647	39,419
1974	-18,282	-0,13806	-0,11647	27,52
1974	-18,282	-0,13806	-0,11647	27,52
1975	-3,9069	37,379	-0,11647	38,004
1975	-3,9069	37,379	-0,11647	38,004
1976	-19,403	-7,2797	-0,11647	25,765
1976	-19,403	-7,2797	-0,11647	25,765
1977	-19,42	7,1401	-0,11647	25,586
1977	-19,42	7,1401	-0,11647	25,586
1978	-20,393	7,4978	-0,11647	26,709
1978	-20,393	7,4978	-0,11647	26,709
1979	-3,2189	36,773	-0,11647	36,158
1979	-3,2189	36,773	-0,11647	36,158
1980	3,5847	36,788	-0,11647	36,182
1980	3,5847	36,788	-0,11647	36,182
1981	-4,0012	-37,058	-0,11647	42,301
1981	-4,0012	-37,058	-0,11647	42,301
1982	16,568	-1,86	-0,11647	24,13
1982	16,568	-1,86	-0,11647	24,13
1983	16,401	-2,6972	-0,11647	23,563
1983	16,401	-2,6972	-0,11647	23,563
1984	19,971	-7,3985	-0,11647	26,589
1984	19,971	-7,3985	-0,11647	26,589
1985	20,103	7,5506	-0,11647	26,87
1985	20,103	7,5506	-0,11647	26,87
1986	19,232	7,092	-0,11647	25,254
1986	19,232	7,092	-0,11647	25,254
1987	16,515	1,7214	-0,11647	24,018
1987	16,515	1,7214	-0,11647	24,018
1988	7,0936	5,1996	-0,11647	13,927
1988	7,0936	5,1996	-0,11647	13,927
1989	6,048	4,8833	-0,11647	13,611
1989	6,048	4,8833	-0,11647	13,611
1990	12,704	0,85433	-0,11647	18,596
1990	12,704	0,85433	-0,11647	18,596
1991	-7,681	-4,8989	-0,11647	14,309
1991	-7,681	-4,8989	-0,11647	14,309
1992	-6,6324	-4,6397	-0,11647	13,951
1992	-6,6324	-4,6397	-0,11647	13,951
1993	-13,003	1,1003	-0,11647	18,924
1993	-13,003	1,1003	-0,11647	18,924
1994	3,3301	2,8928	-0,11647	13,322
1994	3,3301	2,8928	-0,11647	13,322
1995	2,5331	2,1257	-0,11647	13,297
1995	2,5331	2,1257	-0,11647	13,297
1996	4,1196	-4,8199	-0,11647	13,181
1996	4,1196	-4,8199	-0,11647	13,181
1997	-3,519	-2,7718	-0,11647	13,375
1997	-3,519	-2,7718	-0,11647	13,375
1998	-2,6991	-1,9407	-0,11647	13,36
1998	-2,6991	-1,9407	-0,11647	13,36
1999	-3,3929	4,3259	-0,11647	13,09
1999	-3,3929	4,3259	-0,11647	13,09
2000	-4,3284	4,9155	-0,11647	13,16
2000	-4,3284	4,9155	-0,11647	13,16
2001	-16,921	2,2931	-0,11647	24,604
2001	-16,921	2,2931	-0,11647	24,604
2002	2,8941	-37,549	-0,11647	48,01
2002	2,8941	-37,549	-0,11647	48,01
2003	2,1971	-36,95	-0,11647	47,313
2003	2,1971	-36,95	-0,11647	47,313
2004	-17,135	-1,7698	-0,11647	25,283
2004	-17,135	-1,7698	-0,11647	25,283
2005	22,8	8,4747	-0,11647	27,818
2005	22,8	8,4747	-0,11647	27,818
2006	-5,6204	38,328	-0,11647	39,29
2006	-5,6204	38,328	-0,11647	39,29
2007	-6,3755	38,843	-0,11647	39,675
2007	-6,3755	38,843	-0,11647	39,675
2008	6,5348	-38,48	-0,11647	34,948
2008	6,5348	-38,48	-0,11647	34,948
2009	6,8147	-4,6753	-0,11647	14,002
2009	6,8147	-4,6753	-0,11647	14,002
2010	-4,5443	38,083	-0,11647	40,068
2010	-4,5443	38,083	-0,11647	40,068
2011	-4,4742	-39,032	-0,11647	45,944
2011	-4,4742	-39,032	-0,11647	45,944
2012	-3,9052	38,635	-0,11647	42,576
2012	-3,9052	38,635	-0,11647	42,576
2013	-22,376	7,3896	-0,11647	30,13
2013	-22,376	7,3896	-0,11647	30,13
2014	-22,984	7,7844	-0,11647	30,108
2014	-22,984	7,7844	-0,11647	30,108
2015	22,028	-6,6501	-0,11647	33,224
2015	22,028	-6,6501	-0,11647	33,224
2016	-4,3013	39,197	-0,11647	45,505
2016	-4,3013	39,197	-0,11647	45,505
2017	17,596	-0,22741	-0,11647	26,392
2017	17,596	-0,22741	-0,11647	26,392
2018	-22,476	6,7394	-0,11647	32,98
2018	-22,476	6,7394	-0,11647	32,98
2019	-23,374	6,9654	-0,11647	33,912
2019	-23,374	6,9654	-0,11647	33,912
2020	17,829	0,46935	-0,11647	27,164
2020	17,829	0,46935	-0,11647	27,164
2021	-19,232	-0,14596	-0,11647	29,002
2021	-19,232	-0,14596	-0,11647	29,002
2022	-2,7511	1,2293	-0,11647	13,406
2022	-2,7511	1,2293	-0,11647	13,406
2023	2,5405	-1,0939	-0,11647	13,401
2023	2,5405	-1,0939	-0,11647	13,401
2024	9,9692	3,7959	-0,11647	15,721
2024	9,9692	3,7959	-0,11647	15,721
2025	17,884	4,7032	-0,11647	25,242
2025	17,884	4,7032	-0,11647	25,242
2026	23,289	-7,4022	-0,11647	33,111
2026	23,289	-7,4022	-0,11647	33,111
2027	17,84	-4,8037	-0,11647	25,307
2027	17,84	-4,8037	-0,11647	25,307
2028	-0,45769	-36,945	-0,11647	49,95
2028	-0,45769	-36,945	-0,11647	49,95
2029	0,15156	36,347	-0,11647	33,841
2029	0,15156	36,347	-0,11647	33,841
2030	-18,325	4,5701	-0,11647	26,25
2030	-18,325	4,5701	-0,11647	26,25
2031	10,126	-2,7856	-0,11647	16,076
2031	10,126	-2,7856	-0,11647	16,076
2032	-10,244	3,3129	-0,11647	16,005
2032	-10,244	3,3129	-0,11647	16,005
2033	22,311	5,9661	-0,11647	36,156
2033	22,311	5,9661	-0,11647	36,156
2034	-3,9693	-39,797	-0,11647	51,637
2034	-3,9693	-39,797	-0,11647	51,637
2035	3,6758	39,395	-0,11647	45,773
2035	3,6758	39,395	-0,11647	45,773
2036	-23,075	-7,7845	-0,11647	31,181
2036	-23,075	-7,7845	-0,11647	31,181
2037	-7,1251	-39,416	-0,11647	32,731
2037	-7,1251	-39,416	-0,11647	32,731
2038	-7,3819	-38,227	-0,11647	31,984
2038	-7,3819	-38,227	-0,11647	31,984
2039	-7,9643	-37,251	-0,11647	30,011
2039	-7,9643	-37,251	-0,11647	30,011
2040	-8,514	-36,301	-0,11647	28,401
2040	-8,514	-36,301	-0,11647	28,401
2041	-9,0435	-35,344	-0,11647	27,026
2041	-9,0435	-35,344	-0,11647	27,026
2042	-9,5785	-34,381	-0,11647	25,782
2042	-9,5785	-34,381	-0,11647	25,782
2043	-10,103	-33,411	-0,11647	24,647
2043	-10,103	-33,411	-0,11647	24,647
2044	-10,63	-32,454	-0,11647	23,611
2044	-10,63	-32,454	-0,11647	23,611
2045	-11,157	-31,481	-0,11647	22,658
2045	-11,157	-31,481	-0,11647	22,658
2046	-11,683	-30,518	-0,11647	21,783
2046	-11,683	-30,518	-0,11647	21,783
2047	-12,733	-28,592	-0,11647	20,257
2047	-12,733	-28,592	-0,11647	20,257
2048	-13,26	-27,63	-0,11647	19,599
2048	-13,26	-27,63	-0,11647	19,599
2049	-13,783	-26,67	-0,11647	19,012
2049	-13,783	-26,67	-0,11647	19,012
2050	-14,301	-25,722	-0,11647	18,498
2050	-14,301	-25,722	-0,11647	18,498
2051	-14,82	-24,769	-0,11647	18,054
2051	-14,82	-24,769	-0,11647	18,054
2052	-15,338	-23,819	-0,11647	17,682
2052	-15,338	-23,819	-0,11647	17,682
2053	-15,851	-22,88	-0,11647	17,386
2053	-15,851	-22,88	-0,11647	17,386
2054	-16,361	-21,945	-0,11647	17,167
2054	-16,361	-21,945	-0,11647	17,167
2055	-16,87	-21,016	-0,11647	17,027
2055	-16,87	-21,016	-0,11647	17,027
2056	-17,376	-20,09	-0,11647	16,971
2056	-17,376	-20,09	-0,11647	16,971
2057	-17,879	-19,168	-0,11647	17,002
2057	-17,879	-19,168	-0,11647	17,002
2058	-18,38	-18,248	-0,11647	17,126
2058	-18,38	-18,248	-0,11647	17,126
2059	-18,88	-17,332	-0,11647	17,349
2059	-18,88	-17,332	-0,11647	17,349
2060	-19,874	-15,51	-0,11647	18,133
2060	-19,874	-15,51	-0,11647	18,133
2061	-20,373	-14,596	-0,11647	18,718
2061	-20,373	-14,596	-0,11647	18,718
2062	-20,865	-13,69	-0,11647	19,448
2062	-20,865	-13,69	-0,11647	19,448
2063	-21,382	-12,811	-0,11647	20,36
2063	-21,382	-12,811	-0,11647	20,36
2064	-21,873	-11,829	-0,11647	21,493
2064	-21,873	-11,829	-0,11647	21,493
2065	-22,216	-10,944	-0,11647	22,958
2065	-22,216	-10,944	-0,11647	22,958
2066	-22,722	-10,06	-0,11647	24,661
2066	-22,722	-10,06	-0,11647	24,661
2067	-23,342	-9,1563	-0,11647	27,061
2067	-23,342	-9,1563	-0,11647	27,061
2068	8,514	-3,8273	-0,11647	14,925
2068	8,514	-3,8273	-0,11647	14,925
2069	-8,5905	4,2075	-0,11647	14,828
2069	-8,5905	4,2075	-0,11647	14,828
2070	22,283	-5,9953	-0,11647	37,074
2070	22,283	-5,9953	-0,11647	37,074
2071	23,085	-6,2925	-0,11647	38,507
2071	23,085	-6,2925	-0,11647	38,507
2072	-3,9737	39,812	-0,11647	48,226
2072	-3,9737	39,812	-0,11647	48,226
2073	-3,2567	39,315	-0,11647	44,923
2073	-3,2567	39,315	-0,11647	44,923
2074	-18,253	-1,0151	-0,11647	27,518
2074	-18,253	-1,0151	-0,11647	27,518
2075	-17,767	-3,6963	-0,11647	25,852
2075	-17,767	-3,6963	-0,11647	25,852
2076	0,88139	-37,035	-0,11647	50,076
2076	0,88139	-37,035	-0,11647	50,076
2077	3,7995	-39,451	-0,11647	51,665
2077	3,7995	-39,451	-0,11647	51,665
2078	3,0192	-38,925	-0,11647	54,131
2078	3,0192	-38,925	-0,11647	54,131
2079	-17,697	3,3956	-0,11647	25,707
2079	-17,697	3,3956	-0,11647	25,707
2080	-18,215	0,73135	-0,11647	27,446
2080	-18,215	0,73135	-0,11647	27,446
2081	-22,715	5,928	-0,11647	37,831
2081	-22,715	5,928	-0,11647	37,831
2082	-23,638	6,1504	-0,11647	39,391
2082	-23,638	6,1504	-0,11647	39,391
2083	-5,8714	4,549	-0,11647	13,631
2083	-5,8714	4,549	-0,11647	13,631
2084	-3,0269	2,8013	-0,11647	13,281
2084	-3,0269	2,8013	-0,11647	13,281
2085	-2,6599	-0,37598	-0,11647	13,439
2085	-2,6599	-0,37598	-0,11647	13,439
2086	-4,9869	-2,8484	-0,11647	13,687
2086	-4,9869	-2,8484	-0,11647	13,687
2087	5,7182	-4,3794	-0,11647	13,682
2087	5,7182	-4,3794	-0,11647	13,682
2088	2,745	-2,7022	-0,11647	13,286
2088	2,745	-2,7022	-0,11647	13,286
2089	2,4577	0,53183	-0,11647	13,405
2089	2,4577	0,53183	-0,11647	13,405
2090	4,5646	2,729	-0,11647	13,691
2090	4,5646	2,729	-0,11647	13,691
2091	-11,73	2,2754	-0,11647	17,42
2091	-11,73	2,2754	-0,11647	17,42
2092	-11,823	-2,2696	-0,11647	17,57
2092	-11,823	-2,2696	-0,11647	17,57
2093	-5,9247	-3,5183	-0,11647	13,94
2093	-5,9247	-3,5183	-0,11647	13,94
2094	-9,1169	-4,1658	-0,11647	15,188
2094	-9,1169	-4,1658	-0,11647	15,188
2095	11,511	-1,5757	-0,11647	17,359
2095	11,511	-1,5757	-0,11647	17,359
2096	5,4372	3,6841	-0,11647	13,621
2096	5,4372	3,6841	-0,11647	13,621
2097	8,5488	4,5632	-0,11647	14,723
2097	8,5488	4,5632	-0,11647	14,723
2098	17,455	0,90553	-0,11647	26,009
2098	17,455	0,90553	-0,11647	26,009
2099	17,179	3,6086	-0,11647	24,501
2099	17,179	3,6086	-0,11647	24,501
2100	18,554	5,8518	-0,11647	25,548
2100	18,554	5,8518	-0,11647	25,548
2101	21,109	6,5376	-0,11647	30,318
2101	21,109	6,5376	-0,11647	30,318
2102	22,626	7,2117	-0,11647	31,709
2102	22,626	7,2117	-0,11647	31,709
2103	21,246	-6,8857	-0,11647	30,694
2103	21,246	-6,8857	-0,11647	30,694
2104	18,491	-5,9105	-0,11647	25,67
2104	18,491	-5,9105	-0,11647	25,67
2105	17,132	-3,7432	-0,11647	24,523
2105	17,132	-3,7432	-0,11647	24,523
2106	17,562	-1,0159	-0,11647	26,181
2106	17,562	-1,0159	-0,11647	26,181
2107	5,1656	-39,048	-0,11647	41,889
2107	5,1656	-39,048	-0,11647	41,889
2108	23,852	-8,387	-0,11647	29,315
2108	23,852	-8,387	-0,11647	29,315
2109	23,283	-9,3168	-0,11647	26,59
2109	23,283	-9,3168	-0,11647	26,59
2110	22,717	-10,207	-0,11647	24,381
2110	22,717	-10,207	-0,11647	24,381
2111	22,184	-11,096	-0,11647	22,681
2111	22,184	-11,096	-0,11647	22,681
2112	21,693	-12,002	-0,11647	21,317
2112	21,693	-12,002	-0,11647	21,317
2113	21,207	-12,918	-0,11647	20,203
2113	21,207	-12,918	-0,11647	20,203
2114	20,719	-13,836	-0,11647	19,306
2114	20,719	-13,836	-0,11647	19,306
2115	20,224	-14,754	-0,11647	18,588
2115	20,224	-14,754	-0,11647	18,588
2116	19,729	-15,683	-0,11647	18,021
2116	19,729	-15,683	-0,11647	18,021
2117	19,231	-16,61	-0,11647	17,589
2117	19,231	-16,61	-0,11647	17,589
2118	18,727	-17,546	-0,11647	17,277
2118	18,727	-17,546	-0,11647	17,277
2119	18,226	-18,48	-0,11647	17,075
2119	18,226	-18,48	-0,11647	17,075
2120	17,718	-19,425	-0,11647	16,975
2120	17,718	-19,425	-0,11647	16,975
2121	17,209	-20,366	-0,11647	16,969
2121	17,209	-20,366	-0,11647	16,969
2122	16,695	-21,319	-0,11647	17,054
2122	16,695	-21,319	-0,11647	17,054
2123	16,18	-22,275	-0,11647	17,224
2123	16,18	-22,275	-0,11647	17,224
2124	15,666	-23,23	-0,11647	17,475
2124	15,666	-23,23	-0,11647	17,475
2125	15,147	-24,196	-0,11647	17,805
2125	15,147	-24,196	-0,11647	17,805
2126	14,627	-25,164	-0,11647	18,211
2126	14,627	-25,164	-0,11647	18,211
2127	14,107	-26,136	-0,11647	18,69
2127	14,107	-26,136	-0,11647	18,69
2128	13,586	-27,111	-0,11647	19,239
2128	13,586	-27,111	-0,11647	19,239
2129	13,075	-28,078	-0,11647	19,854
2129	13,075	-28,078	-0,11647	19,854
2130	12,041	-30,035	-0,11647	21,294
2130	12,041	-30,035	-0,11647	21,294
2131	11,528	-31,006	-0,11647	22,114
2131	11,528	-31,006	-0,11647	22,114
2132	11,014	-31,977	-0,11647	23,008
2132	11,014	-31,977	-0,11647	23,008
2133	10,492	-32,956	-0,11647	23,986
2133	10,492	-32,956	-0,11647	23,986
2134	9,9647	-33,938	-0,11647	25,049
2134	9,9647	-33,938	-0,11647	25,049
2135	9,4483	-34,912	-0,11647	26,198
2135	9,4483	-34,912	-0,11647	26,198
2136	8,9248	-35,9	-0,11647	27,443
2136	8,9248	-35,9	-0,11647	27,443
2137	8,4048	-36,893	-0,11647	28,789
2137	8,4048	-36,893	-0,11647	28,789
2138	7,8853	-37,889	-0,11647	30,256
2138	7,8853	-37,889	-0,11647	30,256
2139	7,3643	-38,876	-0,11647	31,885
2139	7,3643	-38,876	-0,11647	31,885
2140	-3,9002	-38,402	-0,11647	47,219
2140	-3,9002	-38,402	-0,11647	47,219
2141	-1,8225	-36,732	-0,11647	47,126
2141	-1,8225	-36,732	-0,11647	47,126
2142	-5,1749	-39,548	-0,11647	42,743
2142	-5,1749	-39,548	-0,11647	42,743
2143	-6,2857	-39,124	-0,11647	36,306
2143	-6,2857	-39,124	-0,11647	36,306
2144	-5,0766	39,147	-0,11647	43,494
2144	-5,0766	39,147	-0,11647	43,494
2145	-24,227	7,289	-0,11647	33,246
2145	-24,227	7,289	-0,11647	33,246
2146	-23,854	8,1001	-0,11647	29,77
2146	-23,854	8,1001	-0,11647	29,77
2147	-23,313	8,9308	-0,11647	26,952
2147	-23,313	8,9308	-0,11647	26,952
2148	-22,786	9,7856	-0,11647	24,782
2148	-22,786	9,7856	-0,11647	24,782
2149	-22,29	10,671	-0,11647	23,03
2149	-22,29	10,671	-0,11647	23,03
2150	-21,812	11,572	-0,11647	21,605
2150	-21,812	11,572	-0,11647	21,605
2151	-21,323	12,469	-0,11647	20,464
2151	-21,323	12,469	-0,11647	20,464
2152	-20,842	13,372	-0,11647	19,543
2152	-20,842	13,372	-0,11647	19,543
2153	-20,358	14,278	-0,11647	18,803
2153	-20,358	14,278	-0,11647	18,803
2154	-19,872	15,187	-0,11647	18,219
2154	-19,872	15,187	-0,11647	18,219
2155	-19,383	16,099	-0,11647	17,772
2155	-19,383	16,099	-0,11647	17,772
2156	-18,891	17,015	-0,11647	17,447
2156	-18,891	17,015	-0,11647	17,447
2157	-18,396	17,936	-0,11647	17,233
2157	-18,396	17,936	-0,11647	17,233
2158	-17,905	18,848	-0,11647	17,125
2158	-17,905	18,848	-0,11647	17,125
2159	-17,404	19,779	-0,11647	17,111
2159	-17,404	19,779	-0,11647	17,111
2160	-16,399	21,639	-0,11647	17,359
2160	-16,399	21,639	-0,11647	17,359
2161	-15,889	22,583	-0,11647	17,614
2161	-15,889	22,583	-0,11647	17,614
2162	-15,377	23,531	-0,11647	17,953
2162	-15,377	23,531	-0,11647	17,953
2163	-14,87	24,479	-0,11647	18,372
2163	-14,87	24,479	-0,11647	18,372
2164	-14,363	25,426	-0,11647	18,871
2164	-14,363	25,426	-0,11647	18,871
2165	-13,855	26,376	-0,11647	19,449
2165	-13,855	26,376	-0,11647	19,449
2166	-13,343	27,335	-0,11647	20,111
2166	-13,343	27,335	-0,11647	20,111
2167	-12,829	28,3	-0,11647	20,855
2167	-12,829	28,3	-0,11647	20,855
2168	-12,32	29,258	-0,11647	21,681
2168	-12,32	29,258	-0,11647	21,681
2169	-11,812	30,219	-0,11647	22,594
2169	-11,812	30,219	-0,11647	22,594
2170	-11,304	31,182	-0,11647	23,603
2170	-11,304	31,182	-0,11647	23,603
2171	-10,792	32,145	-0,11647	24,72
2171	-10,792	32,145	-0,11647	24,72
2172	-10,272	33,119	-0,11647	25,969
2172	-10,272	33,119	-0,11647	25,969
2173	-9,7445	34,104	-0,11647	27,387
2173	-9,7445	34,104	-0,11647	27,387
2174	-9,1925	35,115	-0,11647	29,025
2174	-9,1925	35,115	-0,11647	29,025
2175	-8,6476	36,129	-0,11647	30,868
2175	-8,6476	36,129	-0,11647	30,868
2176	-8,1528	37,117	-0,11647	32,922
2176	-8,1528	37,117	-0,11647	32,922
2177	-7,6806	38,147	-0,11647	35,376
2177	-7,6806	38,147	-0,11647	35,376
2178	-7,2526	39,13	-0,11647	38,354
2178	-7,2526	39,13	-0,11647	38,354
2179	3,5755	38,104	-0,11647	40,29
2179	3,5755	38,104	-0,11647	40,29
2180	1,4705	36,315	-0,11647	34,26
2180	1,4705	36,315	-0,11647	34,26
2181	-1,17	36,28	-0,11647	34,078
2181	-1,17	36,28	-0,11647	34,078
2182	-3,2749	38,09	-0,11647	39,769
2182	-3,2749	38,09	-0,11647	39,769
2183	4,946	39,192	-0,11647	43,96
2183	4,946	39,192	-0,11647	43,96
2184	-21,529	6,7344	-0,11647	31,376
2184	-21,529	6,7344	-0,11647	31,376
2185	-18,856	5,8413	-0,11647	26,171
2185	-18,856	5,8413	-0,11647	26,171
2186	-18,92	-6,0496	-0,11647	26,423
2186	-18,92	-6,0496	-0,11647	26,423
2187	-21,443	-7,0207	-0,11647	30,598
2187	-21,443	-7,0207	-0,11647	30,598
2188	6,1781	38,854	-0,11647	40,069
2188	6,1781	38,854	-0,11647	40,069
2189	18,534	0,56714	-0,11647	28,114
2189	18,534	0,56714	-0,11647	28,114
2190	18,518	-0,37364	-0,11647	28,019
2190	18,518	-0,37364	-0,11647	28,019
2191	6,8916	39,43	-0,11647	39,739
2191	6,8916	39,43	-0,11647	39,739
2192	7,3647	38,649	-0,11647	36,949
2192	7,3647	38,649	-0,11647	36,949
2193	7,8075	37,7	-0,11647	34,429
2193	7,8075	37,7	-0,11647	34,429
2194	8,2491	36,748	-0,11647	32,249
2194	8,2491	36,748	-0,11647	32,249
2195	8,7437	35,794	-0,11647	30,343
2195	8,7437	35,794	-0,11647	30,343
2196	9,2551	34,854	-0,11647	28,645
2196	9,2551	34,854	-0,11647	28,645
2197	9,7674	33,9	-0,11647	27,14
2197	9,7674	33,9	-0,11647	27,14
2198	10,281	32,95	-0,11647	25,802
2198	10,281	32,95	-0,11647	25,802
2199	10,792	32,006	-0,11647	24,596
2199	10,792	32,006	-0,11647	24,596
2200	11,305	31,05	-0,11647	23,502
2200	11,305	31,05	-0,11647	23,502
2201	11,813	30,106	-0,11647	22,511
2201	11,813	30,106	-0,11647	22,511
2202	12,838	28,201	-0,11647	20,793
2202	12,838	28,201	-0,11647	20,793
2203	13,358	27,24	-0,11647	20,055
2203	13,358	27,24	-0,11647	20,055
2204	13,867	26,292	-0,11647	19,402
2204	13,867	26,292	-0,11647	19,402
2205	14,383	25,336	-0,11647	18,827
2205	14,383	25,336	-0,11647	18,827
2206	14,896	24,394	-0,11647	18,335
2206	14,896	24,394	-0,11647	18,335
2207	15,407	23,457	-0,11647	17,922
2207	15,407	23,457	-0,11647	17,922
2208	15,919	22,512	-0,11647	17,589
2208	15,919	22,512	-0,11647	17,589
2209	16,424	21,584	-0,11647	17,34
2209	16,424	21,584	-0,11647	17,34
2210	16,933	20,649	-0,11647	17,177
2210	16,933	20,649	-0,11647	17,177
2211	17,439	19,721	-0,11647	17,102
2211	17,439	19,721	-0,11647	17,102
2212	17,937	18,805	-0,11647	17,119
2212	17,937	18,805	-0,11647	17,119
2213	18,438	17,887	-0,11647	17,232
2213	18,438	17,887	-0,11647	17,232
2214	18,934	16,974	-0,11647	17,448
2214	18,934	16,974	-0,11647	17,448
2215	19,43	16,066	-0,11647	17,775
2215	19,43	16,066	-0,11647	17,775
2216	19,927	15,157	-0,11647	18,228
2216	19,927	15,157	-0,11647	18,228
2217	20,426	14,243	-0,11647	18,819
2217	20,426	14,243	-0,11647	18,819
2218	20,928	13,337	-0,11647	19,568
2218	20,928	13,337	-0,11647	19,568
2219	21,44	12,431	-0,11647	20,503
2219	21,44	12,431	-0,11647	20,503
2220	21,963	11,545	-0,11647	21,654
2220	21,963	11,545	-0,11647	21,654
2221	22,498	10,659	-0,11647	23,079
2221	22,498	10,659	-0,11647	23,079
2222	23,05	9,7838	-0,11647	24,863
2222	23,05	9,7838	-0,11647	24,863
2223	23,613	8,8936	-0,11647	27,17
2223	23,613	8,8936	-0,11647	27,17
2224	6,7838	40,619	-0,11647	43,923
2224	6,7838	40,619	-0,11647	43,923
2225	-19,777	-6,345	-0,11647	27,976
2225	-19,777	-6,345	-0,11647	27,976
2226	-20,638	6,5446	-0,11647	29,389
2226	-20,638	6,5446	-0,11647	29,389
2227	6,2861	40,091	-0,11647	43,841
2227	6,2861	40,091	-0,11647	43,841
2228	-1,8534	36,897	-0,11647	35,472
2228	-1,8534	36,897	-0,11647	35,472
2229	2,1833	36,936	-0,11647	35,811
2229	2,1833	36,936	-0,11647	35,811
2230	2,9137	37,539	-0,11647	37,846
2230	2,9137	37,539	-0,11647	37,846
2231	-5,9226	39,705	-0,11647	43,633
2231	-5,9226	39,705	-0,11647	43,633
2232	-6,7037	-40,362	-0,11647	33,897
2232	-6,7037	-40,362	-0,11647	33,897
2233	-3,2788	-37,845	-0,11647	47,883
2233	-3,2788	-37,845	-0,11647	47,883
2234	5,9787	-39,452	-0,11647	37,866
2234	5,9787	-39,452	-0,11647	37,866
2235	17,487	-1,9788	-0,11647	25,854
2235	17,487	-1,9788	-0,11647	25,854
2236	17,332	-2,8702	-0,11647	25,305
2236	17,332	-2,8702	-0,11647	25,305
2237	19,419	-6,1769	-0,11647	27,33
2237	19,419	-6,1769	-0,11647	27,33
2238	20,324	-6,498	-0,11647	28,971
2238	20,324	-6,498	-0,11647	28,971
2239	24,164	8,0046	-0,11647	30,224
2239	24,164	8,0046	-0,11647	30,224
2240	20,287	6,363	-0,11647	28,904
2240	20,287	6,363	-0,11647	28,904
2241	19,452	6,1314	-0,11647	27,173
2241	19,452	6,1314	-0,11647	27,173
2242	17,461	1,8354	-0,11647	25,757
2242	17,461	1,8354	-0,11647	25,757
2243	6,4568	3,9252	-0,11647	13,913
2243	6,4568	3,9252	-0,11647	13,913
2244	11,613	1,8359	-0,11647	17,346
2244	11,613	1,8359	-0,11647	17,346
2245	11,682	0,70523	-0,11647	17,543
2245	11,682	0,70523	-0,11647	17,543
2246	-7,0567	-3,7243	-0,11647	14,228
2246	-7,0567	-3,7243	-0,11647	14,228
2247	-12,005	-1,1322	-0,11647	17,857
2247	-12,005	-1,1322	-0,11647	17,857
2248	-11,963	1,1356	-0,11647	17,789
2248	-11,963	1,1356	-0,11647	17,789
2249	3,9398	2,1082	-0,11647	13,53
2249	3,9398	2,1082	-0,11647	13,53
2250	3,1503	1,3741	-0,11647	13,457
2250	3,1503	1,3741	-0,11647	13,457
2251	4,6773	-3,9176	-0,11647	13,463
2251	4,6773	-3,9176	-0,11647	13,463
2252	-4,1644	-2,0601	-0,11647	13,582
2252	-4,1644	-2,0601	-0,11647	13,582
2253	-3,4083	-1,2103	-0,11647	13,507
2253	-3,4083	-1,2103	-0,11647	13,507
2254	-24,443	6,4819	-0,11647	38,898
2254	-24,443	6,4819	-0,11647	38,898
2255	-25,138	6,5707	-0,11647	39,109
2255	-25,138	6,5707	-0,11647	39,109
2256	-18,088	1,5993	-0,11647	27,152
2256	-18,088	1,5993	-0,11647	27,152
2257	-17,92	2,4797	-0,11647	26,589
2257	-17,92	2,4797	-0,11647	26,589
2258	1,5582	-37,72	-0,11647	52,799
2258	1,5582	-37,72	-0,11647	52,799
2259	-18,151	-1,9049	-0,11647	27,259
2259	-18,151	-1,9049	-0,11647	27,259
2260	-2,691	40,017	-0,11647	46,88
2260	-2,691	40,017	-0,11647	46,88
2261	19,422	-0,47654	-0,11647	29,321
2261	19,422	-0,47654	-0,11647	29,321
2262	23,531	-5,4698	-0,11647	47,326
2262	23,531	-5,4698	-0,11647	47,326
2263	-23,983	5,3311	-0,11647	48,696
2263	-23,983	5,3311	-0,11647	48,696
2264	-19,185	0,78257	-0,11647	29,255
2264	-19,185	0,78257	-0,11647	29,255
2265	2,4205	-39,741	-0,11647	63,122
2265	2,4205	-39,741	-0,11647	63,122
2266	-7,4808	3,9962	-0,11647	14,336
2266	-7,4808	3,9962	-0,11647	14,336
2267	7,3654	-3,7153	-0,11647	14,394
2267	7,3654	-3,7153	-0,11647	14,394
2268	-23,895	-8,2025	-0,11647	30,346
2268	-23,895	-8,2025	-0,11647	30,346
2269	-23,111	-5,5081	-0,11647	44,35
2269	-23,111	-5,5081	-0,11647	44,35
2270	-23,068	5,0878	-0,11647	45,734
2270	-23,068	5,0878	-0,11647	45,734
2271	3,1041	40,17	-0,11647	49,603
2271	3,1041	40,17	-0,11647	49,603
2272	-3,4961	40,549	-0,11647	53,598
2272	-3,4961	40,549	-0,11647	53,598
2273	-3,4398	-40,601	-0,11647	60,034
2273	-3,4398	-40,601	-0,11647	60,034
2274	3,2199	-40,294	-0,11647	60,596
2274	3,2199	-40,294	-0,11647	60,596
2275	22,642	-5,1721	-0,11647	43,887
2275	22,642	-5,1721	-0,11647	43,887
2276	22,7	5,09	-0,11647	42,991
2276	22,7	5,09	-0,11647	42,991
2277	19,442	0,42214	-0,11647	29,368
2277	19,442	0,42214	-0,11647	29,368
2278	5,0513	-46,445	-0,11647	19,433
2278	5,0513	-46,445	-0,11647	19,433
2279	-9,1051	3,232	-0,11647	15,288
2279	-9,1051	3,232	-0,11647	15,288
2280	-19,286	-5,0997	-0,11647	28,421
2280	-19,286	-5,0997	-0,11647	28,421
2281	-21,851	-6,0751	-0,11647	34,931
2281	-21,851	-6,0751	-0,11647	34,931
2282	-23,551	-6,8306	-0,11647	36,406
2282	-23,551	-6,8306	-0,11647	36,406
2283	-7,5223	-40,779	-0,11647	29,848
2283	-7,5223	-40,779	-0,11647	29,848
2284	-7,9313	-39,793	-0,11647	29,384
2284	-7,9313	-39,793	-0,11647	29,384
2285	-8,3468	-38,81	-0,11647	28,696
2285	-8,3468	-38,81	-0,11647	28,696
2286	-8,8467	-37,833	-0,11647	27,827
2286	-8,8467	-37,833	-0,11647	27,827
2287	-9,3862	-36,872	-0,11647	26,784
2287	-9,3862	-36,872	-0,11647	26,784
2288	-9,9089	-35,911	-0,11647	25,749
2288	-9,9089	-35,911	-0,11647	25,749
2289	-10,431	-34,947	-0,11647	24,769
2289	-10,431	-34,947	-0,11647	24,769
2290	-10,955	-33,98	-0,11647	23,831
2290	-10,955	-33,98	-0,11647	23,831
2291	-11,482	-33,021	-0,11647	22,942
2291	-11,482	-33,021	-0,11647	22,942
2292	-12,008	-32,047	-0,11647	22,1
2292	-12,008	-32,047	-0,11647	22,1
2293	-12,535	-31,071	-0,11647	21,307
2293	-12,535	-31,071	-0,11647	21,307
2294	-13,064	-30,097	-0,11647	20,57
2294	-13,064	-30,097	-0,11647	20,57
2295	-13,591	-29,127	-0,11647	19,891
2295	-13,591	-29,127	-0,11647	19,891
2296	-14,117	-28,16	-0,11647	19,272
2296	-14,117	-28,16	-0,11647	19,272
2297	-14,641	-27,196	-0,11647	18,715
2297	-14,641	-27,196	-0,11647	18,715
2298	-15,164	-26,237	-0,11647	18,222
2298	-15,164	-26,237	-0,11647	18,222
2299	-15,683	-25,284	-0,11647	17,796
2299	-15,683	-25,284	-0,11647	17,796
2300	-16,2	-24,335	-0,11647	17,438
2300	-16,2	-24,335	-0,11647	17,438
2301	-16,714	-23,391	-0,11647	17,151
2301	-16,714	-23,391	-0,11647	17,151
2302	-17,226	-22,453	-0,11647	16,938
2302	-17,226	-22,453	-0,11647	16,938
2303	-17,736	-21,518	-0,11647	16,801
2303	-17,736	-21,518	-0,11647	16,801
2304	-18,243	-20,589	-0,11647	16,745
2304	-18,243	-20,589	-0,11647	16,745
2305	-19,248	-18,739	-0,11647	16,891
2305	-19,248	-18,739	-0,11647	16,891
2306	-19,749	-17,818	-0,11647	17,107
2306	-19,749	-17,818	-0,11647	17,107
2307	-20,248	-16,901	-0,11647	17,426
2307	-20,248	-16,901	-0,11647	17,426
2308	-20,745	-15,987	-0,11647	17,86
2308	-20,745	-15,987	-0,11647	17,86
2309	-21,241	-15,074	-0,11647	18,422
2309	-21,241	-15,074	-0,11647	18,422
2310	-21,736	-14,163	-0,11647	19,128
2310	-21,736	-14,163	-0,11647	19,128
2311	-22,24	-13,246	-0,11647	20,014
2311	-22,24	-13,246	-0,11647	20,014
2312	-22,729	-12,317	-0,11647	21,12
2312	-22,729	-12,317	-0,11647	21,12
2313	-23,19	-11,393	-0,11647	22,464
2313	-23,19	-11,393	-0,11647	22,464
2314	-23,665	-10,484	-0,11647	24,107
2314	-23,665	-10,484	-0,11647	24,107
2315	-24,19	-9,5766	-0,11647	26,195
2315	-24,19	-9,5766	-0,11647	26,195
2316	-24,723	-8,6396	-0,11647	28,975
2316	-24,723	-8,6396	-0,11647	28,975
2317	-21,825	5,7747	-0,11647	35,336
2317	-21,825	5,7747	-0,11647	35,336
2318	-19,206	4,8621	-0,11647	28,172
2318	-19,206	4,8621	-0,11647	28,172
2319	6,5142	41,376	-0,11647	46,703
2319	6,5142	41,376	-0,11647	46,703
2320	4,3783	39,966	-0,11647	48,865
2320	4,3783	39,966	-0,11647	48,865
2321	-2,5728	38,773	-0,11647	41,106
2321	-2,5728	38,773	-0,11647	41,106
2322	2,9644	38,869	-0,11647	42,112
2322	2,9644	38,869	-0,11647	42,112
2323	0,8294	37,034	-0,11647	34,799
2323	0,8294	37,034	-0,11647	34,799
2324	-4,748	40,219	-0,11647	49,449
2324	-4,748	40,219	-0,11647	49,449
2325	-25,362	7,3975	-0,11647	33,296
2325	-25,362	7,3975	-0,11647	33,296
2326	-24,752	8,413	-0,11647	28,93
2326	-24,752	8,413	-0,11647	28,93
2327	-24,19	9,3281	-0,11647	26,178
2327	-24,19	9,3281	-0,11647	26,178
2328	-23,702	10,235	-0,11647	24,155
2328	-23,702	10,235	-0,11647	24,155
2329	-22,242	12,919	-0,11647	20,144
2329	-22,242	12,919	-0,11647	20,144
2330	-21,758	13,82	-0,11647	19,266
2330	-21,758	13,82	-0,11647	19,266
2331	-21,271	14,724	-0,11647	18,558
2331	-21,271	14,724	-0,11647	18,558
2332	-20,784	15,631	-0,11647	17,996
2332	-20,784	15,631	-0,11647	17,996
2333	-20,294	16,541	-0,11647	17,565
2333	-20,294	16,541	-0,11647	17,565
2334	-19,801	17,453	-0,11647	17,251
2334	-19,801	17,453	-0,11647	17,251
2335	-19,305	18,371	-0,11647	17,046
2335	-19,305	18,371	-0,11647	17,046
2336	-18,808	19,291	-0,11647	16,941
2336	-18,808	19,291	-0,11647	16,941
2337	-18,308	20,216	-0,11647	16,932
2337	-18,308	20,216	-0,11647	16,932
2338	-17,805	21,144	-0,11647	17,012
2338	-17,805	21,144	-0,11647	17,012
2339	-17,3	22,078	-0,11647	17,18
2339	-17,3	22,078	-0,11647	17,18
2340	-16,792	23,017	-0,11647	17,432
2340	-16,792	23,017	-0,11647	17,432
2341	-16,281	23,961	-0,11647	17,767
2341	-16,281	23,961	-0,11647	17,767
2342	-15,769	24,91	-0,11647	18,181
2342	-15,769	24,91	-0,11647	18,181
2343	-15,257	25,862	-0,11647	18,677
2343	-15,257	25,862	-0,11647	18,677
2344	-14,742	26,818	-0,11647	19,253
2344	-14,742	26,818	-0,11647	19,253
2345	-14,229	27,777	-0,11647	19,907
2345	-14,229	27,777	-0,11647	19,907
2346	-13,717	28,736	-0,11647	20,641
2346	-13,717	28,736	-0,11647	20,641
2347	-13,205	29,694	-0,11647	21,456
2347	-13,205	29,694	-0,11647	21,456
2348	-12,191	31,62	-0,11647	23,347
2348	-12,191	31,62	-0,11647	23,347
2349	-11,678	32,583	-0,11647	24,437
2349	-11,678	32,583	-0,11647	24,437
2350	-11,162	33,548	-0,11647	25,644
2350	-11,162	33,548	-0,11647	25,644
2351	-10,628	34,531	-0,11647	26,994
2351	-10,628	34,531	-0,11647	26,994
2352	-10,097	35,508	-0,11647	28,496
2352	-10,097	35,508	-0,11647	28,496
2353	-9,5724	36,496	-0,11647	30,165
2353	-9,5724	36,496	-0,11647	30,165
2354	-9,0635	37,49	-0,11647	32,029
2354	-9,0635	37,49	-0,11647	32,029
2355	-8,5958	38,475	-0,11647	34,128
2355	-8,5958	38,475	-0,11647	34,128
2356	-8,1246	39,466	-0,11647	36,557
2356	-8,1246	39,466	-0,11647	36,557
2357	-7,6603	40,429	-0,11647	39,392
2357	-7,6603	40,429	-0,11647	39,392
2358	-7,1848	41,382	-0,11647	42,84
2358	-7,1848	41,382	-0,11647	42,84
2359	-7,05	-41,695	-0,11647	30,24
2359	-7,05	-41,695	-0,11647	30,24
2360	-4,6955	-40,343	-0,11647	47,042
2360	-4,6955	-40,343	-0,11647	47,042
2361	-3,2771	-39,224	-0,11647	54,302
2361	-3,2771	-39,224	-0,11647	54,302
2362	-1,1542	-37,549	-0,11647	52,61
2362	-1,1542	-37,549	-0,11647	52,61
2363	4,594	-39,943	-0,11647	47,179
2363	4,594	-39,943	-0,11647	47,179
2364	24,712	-8,6579	-0,11647	29,164
2364	24,712	-8,6579	-0,11647	29,164
2365	24,15	-9,6833	-0,11647	25,957
2365	24,15	-9,6833	-0,11647	25,957
2366	23,604	-10,619	-0,11647	23,829
2366	23,604	-10,619	-0,11647	23,829
2367	23,106	-11,532	-0,11647	22,233
2367	23,106	-11,532	-0,11647	22,233
2368	22,613	-12,433	-0,11647	20,949
2368	22,613	-12,433	-0,11647	20,949
2369	22,123	-13,349	-0,11647	19,893
2369	22,123	-13,349	-0,11647	19,893
2370	21,631	-14,268	-0,11647	19,029
2370	21,631	-14,268	-0,11647	19,029
2371	21,137	-15,19	-0,11647	18,333
2371	21,137	-15,19	-0,11647	18,333
2372	20,641	-16,116	-0,11647	17,782
2372	20,641	-16,116	-0,11647	17,782
2373	20,141	-17,045	-0,11647	17,359
2373	20,141	-17,045	-0,11647	17,359
2374	19,64	-17,977	-0,11647	17,053
2374	19,64	-17,977	-0,11647	17,053
2375	19,136	-18,913	-0,11647	16,852
2375	19,136	-18,913	-0,11647	16,852
2376	18,629	-19,851	-0,11647	16,751
2376	18,629	-19,851	-0,11647	16,751
2377	18,119	-20,794	-0,11647	16,741
2377	18,119	-20,794	-0,11647	16,741
2378	17,605	-21,742	-0,11647	16,818
2378	17,605	-21,742	-0,11647	16,818
2379	17,089	-22,697	-0,11647	16,976
2379	17,089	-22,697	-0,11647	16,976
2380	16,571	-23,656	-0,11647	17,213
2380	16,571	-23,656	-0,11647	17,213
2381	16,05	-24,62	-0,11647	17,526
2381	16,05	-24,62	-0,11647	17,526
2382	15,528	-25,589	-0,11647	17,91
2382	15,528	-25,589	-0,11647	17,91
2383	15,004	-26,563	-0,11647	18,362
2383	15,004	-26,563	-0,11647	18,362
2384	14,491	-27,537	-0,11647	18,878
2384	14,491	-27,537	-0,11647	18,878
2385	13,967	-28,513	-0,11647	19,456
2385	13,967	-28,513	-0,11647	19,456
2386	13,447	-29,495	-0,11647	20,094
2386	13,447	-29,495	-0,11647	20,094
2387	12,934	-30,47	-0,11647	20,785
2387	12,934	-30,47	-0,11647	20,785
2388	12,416	-31,446	-0,11647	21,533
2388	12,416	-31,446	-0,11647	21,533
2389	11,889	-32,433	-0,11647	22,336
2389	11,889	-32,433	-0,11647	22,336
2390	11,37	-33,406	-0,11647	23,186
2390	11,37	-33,406	-0,11647	23,186
2391	10,848	-34,379	-0,11647	24,08
2391	10,848	-34,379	-0,11647	24,08
2392	10,319	-35,356	-0,11647	25,017
2392	10,319	-35,356	-0,11647	25,017
2393	9,795	-36,33	-0,11647	25,989
2393	9,795	-36,33	-0,11647	25,989
2394	9,2673	-37,312	-0,11647	26,979
2394	9,2673	-37,312	-0,11647	26,979
2395	8,7457	-38,292	-0,11647	27,965
2395	8,7457	-38,292	-0,11647	27,965
2396	8,23	-39,261	-0,11647	28,911
2396	8,23	-39,261	-0,11647	28,911
2397	7,7143	-40,218	-0,11647	29,771
2397	7,7143	-40,218	-0,11647	29,771
2398	7,1969	-41,157	-0,11647	30,495
2398	7,1969	-41,157	-0,11647	30,495
2399	18,09	-3,9174	-0,11647	26,453
2399	18,09	-3,9174	-0,11647	26,453
2400	18,478	-1,2523	-0,11647	27,997
2400	18,478	-1,2523	-0,11647	27,997
2401	21,436	-5,7922	-0,11647	34,732
2401	21,436	-5,7922	-0,11647	34,732
2402	23,842	-6,6015	-0,11647	38,419
2402	23,842	-6,6015	-0,11647	38,419
2403	24,136	-7,7731	-0,11647	32,299
2403	24,136	-7,7731	-0,11647	32,299
2404	23,144	6,3277	-0,11647	37,051
2404	23,144	6,3277	-0,11647	37,051
2405	18,822	4,9181	-0,11647	27,168
2405	18,822	4,9181	-0,11647	27,168
2406	21,46	5,6517	-0,11647	34,079
2406	21,46	5,6517	-0,11647	34,079
2407	18,52	1,2328	-0,11647	28,083
2407	18,52	1,2328	-0,11647	28,083
2408	18,13	3,7947	-0,11647	26,428
2408	18,13	3,7947	-0,11647	26,428
2409	8,9625	3,5742	-0,11647	15,131
2409	8,9625	3,5742	-0,11647	15,131
2410	10,328	2,7572	-0,11647	16,16
2410	10,328	2,7572	-0,11647	16,16
2411	10,438	-1,6907	-0,11647	16,441
2411	10,438	-1,6907	-0,11647	16,441
2412	-6,3702	-2,6405	-0,11647	14,183
2412	-6,3702	-2,6405	-0,11647	14,183
2413	-9,4889	-3,1452	-0,11647	15,584
2413	-9,4889	-3,1452	-0,11647	15,584
2414	-10,801	-2,1981	-0,11647	16,673
2414	-10,801	-2,1981	-0,11647	16,673
2415	-10,64	2,2641	-0,11647	16,474
2415	-10,64	2,2641	-0,11647	16,474
2416	3,2044	-0,22993	-0,11647	13,512
2416	3,2044	-0,22993	-0,11647	13,512
2417	5,5309	2,5257	-0,11647	13,854
2417	5,5309	2,5257	-0,11647	13,854
2418	6,2627	-3,4651	-0,11647	14,009
2418	6,2627	-3,4651	-0,11647	14,009
2419	3,368	-1,8239	-0,11647	13,465
2419	3,368	-1,8239	-0,11647	13,465
2420	-3,4165	0,37041	-0,11647	13,538
2420	-3,4165	0,37041	-0,11647	13,538
2421	-5,4969	-2,0982	-0,11647	13,978
2421	-5,4969	-2,0982	-0,11647	13,978
2422	-6,4142	3,6742	-0,11647	13,976
2422	-6,4142	3,6742	-0,11647	13,976
2423	-3,595	1,9412	-0,11647	13,471
2423	-3,595	1,9412	-0,11647	13,471
2424	-18,648	3,595	-0,11647	27,819
2424	-18,648	3,595	-0,11647	27,819
2425	0,22067	-37,75	-0,11647	54,771
2425	0,22067	-37,75	-0,11647	54,771
2426	-19,225	-1,0695	-0,11647	29,331
2426	-19,225	-1,0695	-0,11647	29,331
2427	-18,727	-3,8831	-0,11647	28,023
2427	-18,727	-3,8831	-0,11647	28,023
2428	5,4196	45,208	-0,11647	57,553
2428	5,4196	45,208	-0,11647	57,553
2429	6,7461	42,696	-0,11647	47,11
2429	6,7461	42,696	-0,11647	47,11
2430	7,2231	41,676	-0,11647	43,083
2430	7,2231	41,676	-0,11647	43,083
2431	7,5401	40,392	-0,11647	39,851
2431	7,5401	40,392	-0,11647	39,851
2432	8,6098	38,299	-0,11647	33,803
2432	8,6098	38,299	-0,11647	33,803
2433	9,1152	37,307	-0,11647	31,73
2433	9,1152	37,307	-0,11647	31,73
2434	10,634	34,437	-0,11647	26,886
2434	10,634	34,437	-0,11647	26,886
2435	11,663	32,524	-0,11647	24,396
2435	11,663	32,524	-0,11647	24,396
2436	12,689	30,618	-0,11647	22,333
2436	12,689	30,618	-0,11647	22,333
2437	13,709	28,716	-0,11647	20,629
2437	13,709	28,716	-0,11647	20,629
2438	14,738	26,805	-0,11647	19,244
2438	14,738	26,805	-0,11647	19,244
2439	15,247	25,857	-0,11647	18,672
2439	15,247	25,857	-0,11647	18,672
2440	16,783	23,023	-0,11647	17,428
2440	16,783	23,023	-0,11647	17,428
2441	17,293	22,084	-0,11647	17,174
2441	17,293	22,084	-0,11647	17,174
2442	17,8	21,149	-0,11647	17,006
2442	17,8	21,149	-0,11647	17,006
2443	18,304	20,22	-0,11647	16,924
2443	18,304	20,22	-0,11647	16,924
2444	18,806	19,296	-0,11647	16,932
2444	18,806	19,296	-0,11647	16,932
2445	19,305	18,375	-0,11647	17,036
2445	19,305	18,375	-0,11647	17,036
2446	19,803	17,458	-0,11647	17,239
2446	19,803	17,458	-0,11647	17,239
2447	20,298	16,546	-0,11647	17,55
2447	20,298	16,546	-0,11647	17,55
2448	20,802	15,635	-0,11647	17,981
2448	20,802	15,635	-0,11647	17,981
2449	21,296	14,723	-0,11647	18,544
2449	21,296	14,723	-0,11647	18,544
2450	21,79	13,811	-0,11647	19,257
2450	21,79	13,811	-0,11647	19,257
2451	22,817	12,012	-0,11647	21,213
2451	22,817	12,012	-0,11647	21,213
2452	23,343	11,123	-0,11647	22,524
2452	23,343	11,123	-0,11647	22,524
2453	23,875	10,24	-0,11647	24,13
2453	23,875	10,24	-0,11647	24,13
2454	24,407	9,355	-0,11647	26,148
2454	24,407	9,355	-0,11647	26,148
2455	24,935	8,4495	-0,11647	28,684
2455	24,935	8,4495	-0,11647	28,684
2456	5,3265	-45,604	-0,11647	23,421
2456	5,3265	-45,604	-0,11647	23,421
2457	6,2653	43,649	-0,11647	51,166
2457	6,2653	43,649	-0,11647	51,166
2458	-18,999	-2,9346	-0,11647	29,198
2458	-18,999	-2,9346	-0,11647	29,198
2459	1,637	-39,153	-0,11647	62,579
2459	1,637	-39,153	-0,11647	62,579
2460	-19,105	1,7093	-0,11647	29,317
2460	-19,105	1,7093	-0,11647	29,317
2461	-18,928	2,6442	-0,11647	29,019
2461	-18,928	2,6442	-0,11647	29,019
2462	-24,818	5,5546	-0,11647	47,777
2462	-24,818	5,5546	-0,11647	47,777
2463	-25,593	5,8826	-0,11647	43,173
2463	-25,593	5,8826	-0,11647	43,173
2464	-4,4808	2,6045	-0,11647	13,57
2464	-4,4808	2,6045	-0,11647	13,57
2465	-5,4207	3,1852	-0,11647	13,726
2465	-5,4207	3,1852	-0,11647	13,726
2466	-4,8543	-1,3234	-0,11647	13,795
2466	-4,8543	-1,3234	-0,11647	13,795
2467	-4,1028	-0,47269	-0,11647	13,662
2467	-4,1028	-0,47269	-0,11647	13,662
2468	3,8848	0,6183	-0,11647	13,612
2468	3,8848	0,6183	-0,11647	13,612
2469	-10,916	1,1599	-0,11647	16,833
2469	-10,916	1,1599	-0,11647	16,833
2470	-11,026	3,681e-002	-0,11647	16,98
2470	-11,026	3,681e-002	-0,11647	16,98
2471	-10,985	-1,0884	-0,11647	16,928
2471	-10,985	-1,0884	-0,11647	16,928
2472	-8,4731	-2,9878	-0,11647	15,013
2472	-8,4731	-2,9878	-0,11647	15,013
2473	-7,4194	-2,7564	-0,11647	14,509
2473	-7,4194	-2,7564	-0,11647	14,509
2474	10,649	-0,56839	-0,11647	16,675
2474	10,649	-0,56839	-0,11647	16,675
2475	10,592	1,6805	-0,11647	16,507
2475	10,592	1,6805	-0,11647	16,507
2476	6,862	2,9791	-0,11647	14,222
2476	6,862	2,9791	-0,11647	14,222
2477	18,32	2,9015	-0,11647	27,331
2477	18,32	2,9015	-0,11647	27,331
2478	18,44	2,0083	-0,11647	27,841
2478	18,44	2,0083	-0,11647	27,841
2479	20,597	5,3794	-0,11647	31,67
2479	20,597	5,3794	-0,11647	31,67
2480	19,729	5,1411	-0,11647	29,338
2480	19,729	5,1411	-0,11647	29,338
2481	24,691	7,12	-0,11647	34,481
2481	24,691	7,12	-0,11647	34,481
2482	24,649	-7,0714	-0,11647	36,229
2482	24,649	-7,0714	-0,11647	36,229
2483	19,713	-5,2574	-0,11647	29,486
2483	19,713	-5,2574	-0,11647	29,486
2484	20,615	-5,5451	-0,11647	31,956
2484	20,615	-5,5451	-0,11647	31,956
2485	18,406	-2,1276	-0,11647	27,802
2485	18,406	-2,1276	-0,11647	27,802
2486	6,2933	-40,779	-0,11647	35,652
2486	6,2933	-40,779	-0,11647	35,652
2487	-1,8635	-38,116	-0,11647	54,442
2487	-1,8635	-38,116	-0,11647	54,442
2488	-2,5736	-38,667	-0,11647	55,109
2488	-2,5736	-38,667	-0,11647	55,109
2489	-5,4587	-40,817	-0,11647	41,165
2489	-5,4587	-40,817	-0,11647	41,165
2490	-6,2414	-41,252	-0,11647	35,34
2490	-6,2414	-41,252	-0,11647	35,34
2491	-6,3233	41,02	-0,11647	46,536
2491	-6,3233	41,02	-0,11647	46,536
2492	2,2328	38,282	-0,11647	38,77
2492	2,2328	38,282	-0,11647	38,77
2493	-1,175	37,631	-0,11647	35,807
2493	-1,175	37,631	-0,11647	35,807
2494	5,7771	40,944	-0,11647	49,265
2494	5,7771	40,944	-0,11647	49,265
2495	-20,078	5,1872	-0,11647	30,319
2495	-20,078	5,1872	-0,11647	30,319
2496	-20,944	5,4956	-0,11647	32,726
2496	-20,944	5,4956	-0,11647	32,726
2497	-25,232	-7,6869	-0,11647	32,762
2497	-25,232	-7,6869	-0,11647	32,762
2498	-24,391	-7,2372	-0,11647	35,096
2498	-24,391	-7,2372	-0,11647	35,096
2499	-29,283	-3,0518	-0,11647	29,463
2499	-29,283	-3,0518	-0,11647	29,463
2500	-28,719	-3,9877	-0,11647	35,014
2500	-28,719	-3,9877	-0,11647	35,014
2501	-7,3651	-43,045	-0,11647	25,321
2501	-7,3651	-43,045	-0,11647	25,321
2502	-7,8468	-42,186	-0,11647	25,836
2502	-7,8468	-42,186	-0,11647	25,836
2503	-8,3428	-41,252	-0,11647	26,279
2503	-8,3428	-41,252	-0,11647	26,279
2504	-8,7963	-40,295	-0,11647	26,386
2504	-8,7963	-40,295	-0,11647	26,386
2505	-9,2337	-39,347	-0,11647	26,21
2505	-9,2337	-39,347	-0,11647	26,21
2506	-9,737	-38,375	-0,11647	25,786
2506	-9,737	-38,375	-0,11647	25,786
2507	-10,256	-37,423	-0,11647	25,174
2507	-10,256	-37,423	-0,11647	25,174
2508	-10,779	-36,459	-0,11647	24,468
2508	-10,779	-36,459	-0,11647	24,468
2509	-11,3	-35,494	-0,11647	23,727
2509	-11,3	-35,494	-0,11647	23,727
2510	-11,823	-34,53	-0,11647	22,972
2510	-11,823	-34,53	-0,11647	22,972
2511	-12,351	-33,558	-0,11647	22,22
2511	-12,351	-33,558	-0,11647	22,22
2512	-12,876	-32,585	-0,11647	21,486
2512	-12,876	-32,585	-0,11647	21,486
2513	-13,393	-31,622	-0,11647	20,782
2513	-13,393	-31,622	-0,11647	20,782
2514	-13,921	-30,648	-0,11647	20,108
2514	-13,921	-30,648	-0,11647	20,108
2515	-14,449	-29,676	-0,11647	19,473
2515	-14,449	-29,676	-0,11647	19,473
2516	-14,974	-28,706	-0,11647	18,887
2516	-14,974	-28,706	-0,11647	18,887
2517	-15,498	-27,74	-0,11647	18,355
2517	-15,498	-27,74	-0,11647	18,355
2518	-16,019	-26,78	-0,11647	17,881
2518	-16,019	-26,78	-0,11647	17,881
2519	-16,538	-25,824	-0,11647	17,466
2519	-16,538	-25,824	-0,11647	17,466
2520	-17,059	-24,867	-0,11647	17,114
2520	-17,059	-24,867	-0,11647	17,114
2521	-17,575	-23,917	-0,11647	16,83
2521	-17,575	-23,917	-0,11647	16,83
2522	-18,089	-22,973	-0,11647	16,617
2522	-18,089	-22,973	-0,11647	16,617
2523	-18,591	-22,041	-0,11647	16,477
2523	-18,591	-22,041	-0,11647	16,477
2524	-19,1	-21,107	-0,11647	16,416
2524	-19,1	-21,107	-0,11647	16,416
2525	-20,105	-19,248	-0,11647	16,542
2525	-20,105	-19,248	-0,11647	16,542
2526	-20,607	-18,321	-0,11647	16,743
2526	-20,607	-18,321	-0,11647	16,743
2527	-21,107	-17,399	-0,11647	17,043
2527	-21,107	-17,399	-0,11647	17,043
2528	-21,604	-16,48	-0,11647	17,455
2528	-21,604	-16,48	-0,11647	17,455
2529	-22,1	-15,563	-0,11647	17,987
2529	-22,1	-15,563	-0,11647	17,987
2530	-22,594	-14,649	-0,11647	18,656
2530	-22,594	-14,649	-0,11647	18,656
2531	-23,098	-13,729	-0,11647	19,485
2531	-23,098	-13,729	-0,11647	19,485
2532	-23,594	-12,804	-0,11647	20,504
2532	-23,594	-12,804	-0,11647	20,504
2533	-24,084	-11,876	-0,11647	21,744
2533	-24,084	-11,876	-0,11647	21,744
2534	-24,565	-10,947	-0,11647	23,234
2534	-24,565	-10,947	-0,11647	23,234
2535	-25,061	-10,031	-0,11647	25,048
2535	-25,061	-10,031	-0,11647	25,048
2536	-25,569	-9,1	-0,11647	27,286
2536	-25,569	-9,1	-0,11647	27,286
2537	-20,15	-5,3969	-0,11647	30,556
2537	-20,15	-5,3969	-0,11647	30,556
2538	21,812	4,7416	-0,11647	38,988
2538	21,812	4,7416	-0,11647	38,988
2539	24,369	-5,8171	-0,11647	46,958
2539	24,369	-5,8171	-0,11647	46,958
2540	19,407	-1,3883	-0,11647	29,97
2540	19,407	-1,3883	-0,11647	29,97
2541	5,6298	-44,718	-0,11647	26,636
2541	5,6298	-44,718	-0,11647	26,636
2542	-4,209	-41,154	-0,11647	53,054
2542	-4,209	-41,154	-0,11647	53,054
2543	-5,64	44,889	-0,11647	56,529
2543	-5,64	44,889	-0,11647	56,529
2544	-1,9284	39,489	-0,11647	40,811
2544	-1,9284	39,489	-0,11647	40,811
2545	3,8507	40,749	-0,11647	55,838
2545	3,8507	40,749	-0,11647	55,838
2546	-30,057	-0,58493	-0,11647	18,708
2546	-30,057	-0,58493	-0,11647	18,708
2547	-28,169	-4,8024	-0,11647	37,663
2547	-28,169	-4,8024	-0,11647	37,663
2548	-22,217	-5,1302	-0,11647	40,934
2548	-22,217	-5,1302	-0,11647	40,934
2549	7,864	-2,7518	-0,11647	14,755
2549	7,864	-2,7518	-0,11647	14,755
2550	-8,0031	3,0799	-0,11647	14,729
2550	-8,0031	3,0799	-0,11647	14,729
2551	26,502	7,1263	-0,11647	32,576
2551	26,502	7,1263	-0,11647	32,576
2552	26,182	8,1076	-0,11647	29,229
2552	26,182	8,1076	-0,11647	29,229
2553	25,706	8,9577	-0,11647	26,834
2553	25,706	8,9577	-0,11647	26,834
2554	25,209	9,8217	-0,11647	24,904
2554	25,209	9,8217	-0,11647	24,904
2555	24,701	10,707	-0,11647	23,219
2555	24,701	10,707	-0,11647	23,219
2556	24,184	11,589	-0,11647	21,802
2556	24,184	11,589	-0,11647	21,802
2557	23,673	12,478	-0,11647	20,617
2557	23,673	12,478	-0,11647	20,617
2558	23,162	13,373	-0,11647	19,624
2558	23,162	13,373	-0,11647	19,624
2559	22,661	14,283	-0,11647	18,802
2559	22,661	14,283	-0,11647	18,802
2560	22,17	15,195	-0,11647	18,133
2560	22,17	15,195	-0,11647	18,133
2561	21,67	16,112	-0,11647	17,602
2561	21,67	16,112	-0,11647	17,602
2562	21,177	17,025	-0,11647	17,197
2562	21,177	17,025	-0,11647	17,197
2563	19,686	19,776	-0,11647	16,631
2563	19,686	19,776	-0,11647	16,631
2564	19,186	20,699	-0,11647	16,634
2564	19,186	20,699	-0,11647	16,634
2565	18,17	22,571	-0,11647	16,902
2565	18,17	22,571	-0,11647	16,902
2566	17,663	23,505	-0,11647	17,162
2566	17,663	23,505	-0,11647	17,162
2567	17,15	24,453	-0,11647	17,501
2567	17,15	24,453	-0,11647	17,501
2568	15,102	28,26	-0,11647	19,646
2568	15,102	28,26	-0,11647	19,646
2569	14,593	29,21	-0,11647	20,373
2569	14,593	29,21	-0,11647	20,373
2570	12,54	33,033	-0,11647	24,103
2570	12,54	33,033	-0,11647	24,103
2571	12,026	33,993	-0,11647	25,254
2571	12,026	33,993	-0,11647	25,254
2572	11,514	34,941	-0,11647	26,501
2572	11,514	34,941	-0,11647	26,501
2573	9,9644	37,835	-0,11647	31,001
2573	9,9644	37,835	-0,11647	31,001
2574	9,4551	38,829	-0,11647	32,846
2574	9,4551	38,829	-0,11647	32,846
2575	7,0499	44,095	-0,11647	42,632
2575	7,0499	44,095	-0,11647	42,632
2576	6,5097	45,077	-0,11647	43,728
2576	6,5097	45,077	-0,11647	43,728
2577	5,1217	47,07	-0,11647	40,373
2577	5,1217	47,07	-0,11647	40,373
2578	0,46898	-50,155	-0,11647	4,4119
2578	0,46898	-50,155	-0,11647	4,4119
2579	29,013	1,9814	-0,11647	28,716
2579	29,013	1,9814	-0,11647	28,716
2580	29,681	2,0994	-0,11647	24,731
2580	29,681	2,0994	-0,11647	24,731
2581	30,22	1,2148	-0,11647	22,295
2581	30,22	1,2148	-0,11647	22,295
2582	26,101	-8,2452	-0,11647	29,669
2582	26,101	-8,2452	-0,11647	29,669
2583	25,537	-9,1841	-0,11647	27,029
2583	25,537	-9,1841	-0,11647	27,029
2584	23,036	-13,793	-0,11647	19,408
2584	23,036	-13,793	-0,11647	19,408
2585	22,543	-14,71	-0,11647	18,593
2585	22,543	-14,71	-0,11647	18,593
2586	22,048	-15,632	-0,11647	17,931
2586	22,048	-15,632	-0,11647	17,931
2587	21,55	-16,556	-0,11647	17,405
2587	21,55	-16,556	-0,11647	17,405
2588	21,049	-17,482	-0,11647	17,
2588	21,049	-17,482	-0,11647	17,
2589	20,548	-18,414	-0,11647	16,707
2589	20,548	-18,414	-0,11647	16,707
2590	20,046	-19,347	-0,11647	16,515
2590	20,046	-19,347	-0,11647	16,515
2591	19,534	-20,293	-0,11647	16,418
2591	19,534	-20,293	-0,11647	16,418
2592	19,024	-21,234	-0,11647	16,41
2592	19,024	-21,234	-0,11647	16,41
2593	18,512	-22,179	-0,11647	16,485
2593	18,512	-22,179	-0,11647	16,485
2594	17,479	-24,089	-0,11647	16,866
2594	17,479	-24,089	-0,11647	16,866
2595	16,96	-25,048	-0,11647	17,166
2595	16,96	-25,048	-0,11647	17,166
2596	16,439	-26,012	-0,11647	17,533
2596	16,439	-26,012	-0,11647	17,533
2597	15,919	-26,98	-0,11647	17,963
2597	15,919	-26,98	-0,11647	17,963
2598	15,397	-27,957	-0,11647	18,452
2598	15,397	-27,957	-0,11647	18,452
2599	14,878	-28,932	-0,11647	18,997
2599	14,878	-28,932	-0,11647	18,997
2600	14,356	-29,911	-0,11647	19,593
2600	14,356	-29,911	-0,11647	19,593
2601	13,833	-30,891	-0,11647	20,235
2601	13,833	-30,891	-0,11647	20,235
2602	13,312	-31,872	-0,11647	20,916
2602	13,312	-31,872	-0,11647	20,916
2603	12,79	-32,85	-0,11647	21,628
2603	12,79	-32,85	-0,11647	21,628
2604	12,269	-33,826	-0,11647	22,362
2604	12,269	-33,826	-0,11647	22,362
2605	11,745	-34,798	-0,11647	23,108
2605	11,745	-34,798	-0,11647	23,108
2606	11,218	-35,77	-0,11647	23,856
2606	11,218	-35,77	-0,11647	23,856
2607	10,686	-36,751	-0,11647	24,589
2607	10,686	-36,751	-0,11647	24,589
2608	10,152	-37,723	-0,11647	25,265
2608	10,152	-37,723	-0,11647	25,265
2609	9,6389	-38,689	-0,11647	25,848
2609	9,6389	-38,689	-0,11647	25,848
2610	9,122	-39,65	-0,11647	26,284
2610	9,122	-39,65	-0,11647	26,284
2611	8,6111	-40,599	-0,11647	26,503
2611	8,6111	-40,599	-0,11647	26,503
2612	8,1133	-41,53	-0,11647	26,4
2612	8,1133	-41,53	-0,11647	26,4
2613	7,6376	-42,44	-0,11647	25,853
2613	7,6376	-42,44	-0,11647	25,853
2614	7,2068	-43,329	-0,11647	24,744
2614	7,2068	-43,329	-0,11647	24,744
2615	6,8258	-44,214	-0,11647	23,054
2615	6,8258	-44,214	-0,11647	23,054
2616	6,4715	-45,096	-0,11647	20,844
2616	6,4715	-45,096	-0,11647	20,844
2617	6,1138	-45,966	-0,11647	18,407
2617	6,1138	-45,966	-0,11647	18,407
2618	5,6639	-46,822	-0,11647	15,866
2618	5,6639	-46,822	-0,11647	15,866
2619	5,0002	-47,654	-0,11647	13,654
2619	5,0002	-47,654	-0,11647	13,654
2620	28,832	4,0953	-0,11647	33,475
2620	28,832	4,0953	-0,11647	33,475
2621	4,3176	48,567	-0,11647	23,775
2621	4,3176	48,567	-0,11647	23,775
2622	-6,94	2,8079	-0,11647	14,306
2622	-6,94	2,8079	-0,11647	14,306
2623	-4,2003	1,0957	-0,11647	13,648
2623	-4,2003	1,0957	-0,11647	13,648
2624	6,7832	-2,5862	-0,11647	14,315
2624	6,7832	-2,5862	-0,11647	14,315
2625	3,9883	-0,95472	-0,11647	13,626
2625	3,9883	-0,95472	-0,11647	13,626
2626	-9,5533	2,2274	-0,11647	15,708
2626	-9,5533	2,2274	-0,11647	15,708
2627	-6,5433	-1,4887	-0,11647	14,289
2627	-6,5433	-1,4887	-0,11647	14,289
2628	-9,7954	-2,0997	-0,11647	15,927
2628	-9,7954	-2,0997	-0,11647	15,927
2629	9,3811	-1,7602	-0,11647	15,688
2629	9,3811	-1,7602	-0,11647	15,688
2630	6,1781	1,5568	-0,11647	14,181
2630	6,1781	1,5568	-0,11647	14,181
2631	19,47	1,293	-0,11647	30,157
2631	19,47	1,293	-0,11647	30,157
2632	19,096	3,9771	-0,11647	28,803
2632	19,096	3,9771	-0,11647	28,803
2633	23,601	5,4444	-0,11647	45,575
2633	23,601	5,4444	-0,11647	45,575
2634	26,7	6,2878	-0,11647	37,317
2634	26,7	6,2878	-0,11647	37,317
2635	26,652	-7,3116	-0,11647	32,626
2635	26,652	-7,3116	-0,11647	32,626
2636	21,78	-4,8756	-0,11647	39,412
2636	21,78	-4,8756	-0,11647	39,412
2637	4,034	-40,809	-0,11647	54,384
2637	4,034	-40,809	-0,11647	54,384
2638	6,6799	-42,072	-0,11647	30,821
2638	6,6799	-42,072	-0,11647	30,821
2639	-2,6741	-40,036	-0,11647	63,644
2639	-2,6741	-40,036	-0,11647	63,644
2640	-0,45949	-38,396	-0,11647	59,322
2640	-0,45949	-38,396	-0,11647	59,322
2641	-6,9556	-43,664	-0,11647	25,119
2641	-6,9556	-43,664	-0,11647	25,119
2642	-7,3411	-44,542	-0,11647	20,882
2642	-7,3411	-44,542	-0,11647	20,882
2643	-5,9215	-45,196	-0,11647	22,851
2643	-5,9215	-45,196	-0,11647	22,851
2644	-6,5369	-42,553	-0,11647	30,101
2644	-6,5369	-42,553	-0,11647	30,101
2645	-4,2619	41,06	-0,11647	57,938
2645	-4,2619	41,06	-0,11647	57,938
2646	-6,698	42,308	-0,11647	47,088
2646	-6,698	42,308	-0,11647	47,088
2647	2,3418	39,612	-0,11647	43,14
2647	2,3418	39,612	-0,11647	43,14
2648	0,17781	37,734	-0,11647	35,019
2648	0,17781	37,734	-0,11647	35,019
2649	6,0116	42,28	-0,11647	53,021
2649	6,0116	42,28	-0,11647	53,021
2650	-30,138	1,5561	-0,11647	22,904
2650	-30,138	1,5561	-0,11647	22,904
2651	-26,889	6,8468	-0,11647	33,038
2651	-26,889	6,8468	-0,11647	33,038
2652	-26,213	7,8536	-0,11647	30,112
2652	-26,213	7,8536	-0,11647	30,112
2653	-25,604	8,8434	-0,11647	27,364
2653	-25,604	8,8434	-0,11647	27,364
2654	-25,103	9,7657	-0,11647	25,118
2654	-25,103	9,7657	-0,11647	25,118
2655	-24,6	10,671	-0,11647	23,33
2655	-24,6	10,671	-0,11647	23,33
2656	-24,125	11,575	-0,11647	21,863
2656	-24,125	11,575	-0,11647	21,863
2657	-23,64	12,474	-0,11647	20,653
2657	-23,64	12,474	-0,11647	20,653
2658	-23,146	13,376	-0,11647	19,649
2658	-23,146	13,376	-0,11647	19,649
2659	-22,66	14,278	-0,11647	18,826
2659	-22,66	14,278	-0,11647	18,826
2660	-22,173	15,181	-0,11647	18,158
2660	-22,173	15,181	-0,11647	18,158
2661	-21,685	16,087	-0,11647	17,627
2661	-21,685	16,087	-0,11647	17,627
2662	-21,193	16,994	-0,11647	17,22
2662	-21,193	16,994	-0,11647	17,22
2663	-20,701	17,905	-0,11647	16,925
2663	-20,701	17,905	-0,11647	16,925
2664	-20,207	18,82	-0,11647	16,734
2664	-20,207	18,82	-0,11647	16,734
2665	-19,71	19,738	-0,11647	16,641
2665	-19,71	19,738	-0,11647	16,641
2666	-19,205	20,67	-0,11647	16,64
2666	-19,205	20,67	-0,11647	16,64
2667	-18,704	21,597	-0,11647	16,727
2667	-18,704	21,597	-0,11647	16,727
2668	-18,201	22,528	-0,11647	16,899
2668	-18,201	22,528	-0,11647	16,899
2669	-17,693	23,464	-0,11647	17,153
2669	-17,693	23,464	-0,11647	17,153
2670	-17,185	24,406	-0,11647	17,488
2670	-17,185	24,406	-0,11647	17,488
2671	-16,675	25,352	-0,11647	17,903
2671	-16,675	25,352	-0,11647	17,903
2672	-16,159	26,31	-0,11647	18,398
2672	-16,159	26,31	-0,11647	18,398
2673	-15,133	28,215	-0,11647	19,619
2673	-15,133	28,215	-0,11647	19,619
2674	-14,62	29,172	-0,11647	20,347
2674	-14,62	29,172	-0,11647	20,347
2675	-14,105	30,132	-0,11647	21,155
2675	-14,105	30,132	-0,11647	21,155
2676	-13,593	31,09	-0,11647	22,042
2676	-13,593	31,09	-0,11647	22,042
2677	-13,082	32,052	-0,11647	23,014
2677	-13,082	32,052	-0,11647	23,014
2678	-12,569	33,013	-0,11647	24,078
2678	-12,569	33,013	-0,11647	24,078
2679	-12,05	33,988	-0,11647	25,243
2679	-12,05	33,988	-0,11647	25,243
2680	-11,528	34,952	-0,11647	26,512
2680	-11,528	34,952	-0,11647	26,512
2681	-11,003	35,919	-0,11647	27,895
2681	-11,003	35,919	-0,11647	27,895
2682	-10,484	36,9	-0,11647	29,403
2682	-10,484	36,9	-0,11647	29,403
2683	-9,978	37,872	-0,11647	31,032
2683	-9,978	37,872	-0,11647	31,032
2684	-9,4843	38,849	-0,11647	32,798
2684	-9,4843	38,849	-0,11647	32,798
2685	-9,005	39,822	-0,11647	34,713
2685	-9,005	39,822	-0,11647	34,713
2686	-8,5298	40,788	-0,11647	36,782
2686	-8,5298	40,788	-0,11647	36,782
2687	-8,0527	41,738	-0,11647	39,006
2687	-8,0527	41,738	-0,11647	39,006
2688	-7,5721	42,669	-0,11647	41,18
2688	-7,5721	42,669	-0,11647	41,18
2689	-7,1304	43,58	-0,11647	42,993
2689	-7,1304	43,58	-0,11647	42,993
2690	-6,6756	44,505	-0,11647	44,82
2690	-6,6756	44,505	-0,11647	44,82
2691	-5,9754	45,476	-0,11647	48,409
2691	-5,9754	45,476	-0,11647	48,409
2692	-5,984	47,193	-0,11647	31,782
2692	-5,984	47,193	-0,11647	31,782
2693	-5,7265	47,916	-0,11647	26,601
2693	-5,7265	47,916	-0,11647	26,601
2694	-22,146	4,8179	-0,11647	41,238
2694	-22,146	4,8179	-0,11647	41,238
2695	-19,558	3,8419	-0,11647	30,259
2695	-19,558	3,8419	-0,11647	30,259
2696	-28,769	4,2321	-0,11647	33,846
2696	-28,769	4,2321	-0,11647	33,846
2697	-23,995	-5,8849	-0,11647	45,133
2697	-23,995	-5,8849	-0,11647	45,133
2698	-26,556	-7,255	-0,11647	33,175
2698	-26,556	-7,255	-0,11647	33,175
2699	-19,638	-4,1023	-0,11647	30,51
2699	-19,638	-4,1023	-0,11647	30,51
2700	-20,497	-4,4105	-0,11647	33,666
2700	-20,497	-4,4105	-0,11647	33,666
2701	-27,591	-5,5913	-0,11647	37,748
2701	-27,591	-5,5913	-0,11647	37,748
2702	-27,052	-6,3828	-0,11647	35,954
2702	-27,052	-6,3828	-0,11647	35,954
2703	-24,87	-6,2753	-0,11647	42,264
2703	-24,87	-6,2753	-0,11647	42,264
2704	-20,419	4,1569	-0,11647	33,371
2704	-20,419	4,1569	-0,11647	33,371
2705	-4,6193	48,892	-0,11647	20,318
2705	-4,6193	48,892	-0,11647	20,318
2706	-4,7567	48,341	-0,11647	25,036
2706	-4,7567	48,341	-0,11647	25,036
2707	4,5625	41,32	-0,11647	58,931
2707	4,5625	41,32	-0,11647	58,931
2708	5,2807	41,836	-0,11647	56,849
2708	5,2807	41,836	-0,11647	56,849
2709	-1,1911	38,953	-0,11647	36,996
2709	-1,1911	38,953	-0,11647	36,996
2710	-0,48956	38,388	-0,11647	35,288
2710	-0,48956	38,388	-0,11647	35,288
2711	0,86416	38,427	-0,11647	35,841
2711	0,86416	38,427	-0,11647	35,841
2712	-5,9237	44,086	-0,11647	54,151
2712	-5,9237	44,086	-0,11647	54,151
2713	-6,2425	43,223	-0,11647	51,101
2713	-6,2425	43,223	-0,11647	51,101
2714	-5,8344	41,941	-0,11647	53,206
2714	-5,8344	41,941	-0,11647	53,206
2715	-4,978	-41,683	-0,11647	44,945
2715	-4,978	-41,683	-0,11647	44,945
2716	-6,1513	-43,496	-0,11647	28,693
2716	-6,1513	-43,496	-0,11647	28,693
2717	-6,0996	-44,371	-0,11647	25,683
2717	-6,0996	-44,371	-0,11647	25,683
2718	-1,1687	-38,962	-0,11647	62,563
2718	-1,1687	-38,962	-0,11647	62,563
2719	-1,9157	-39,498	-0,11647	64,164
2719	-1,9157	-39,498	-0,11647	64,164
2720	5,9109	-43,824	-0,11647	29,048
2720	5,9109	-43,824	-0,11647	29,048
2721	5,7461	-41,706	-0,11647	38,015
2721	5,7461	-41,706	-0,11647	38,015
2722	19,366	-2,2985	-0,11647	30,15
2722	19,366	-2,2985	-0,11647	30,15
2723	20,009	-4,3045	-0,11647	31,774
2723	20,009	-4,3045	-0,11647	31,774
2724	20,894	-4,5702	-0,11647	35,474
2724	20,894	-4,5702	-0,11647	35,474
2725	25,164	-6,219	-0,11647	42,708
2725	25,164	-6,219	-0,11647	42,708
2726	27,178	-6,4373	-0,11647	35,157
2726	27,178	-6,4373	-0,11647	35,157
2727	28,188	-5,0833	-0,11647	38,02
2727	28,188	-5,0833	-0,11647	38,02
2728	25,446	6,2086	-0,11647	39,618
2728	25,446	6,2086	-0,11647	39,618
2729	20,929	4,4224	-0,11647	35,25
2729	20,929	4,4224	-0,11647	35,25
2730	20,036	4,1696	-0,11647	31,688
2730	20,036	4,1696	-0,11647	31,688
2731	19,311	3,07	-0,11647	30,057
2731	19,311	3,07	-0,11647	30,057
2732	19,418	2,1925	-0,11647	30,319
2732	19,418	2,1925	-0,11647	30,319
2733	7,2402	2,0696	-0,11647	14,53
2733	7,2402	2,0696	-0,11647	14,53
2734	9,6399	1,542	-0,11647	15,831
2734	9,6399	1,542	-0,11647	15,831
2735	9,8056	0,44254	-0,11647	16,038
2735	9,8056	0,44254	-0,11647	16,038
2736	-8,8077	-1,9916	-0,11647	15,317
2736	-8,8077	-1,9916	-0,11647	15,317
2737	-7,7421	-1,807	-0,11647	14,784
2737	-7,7421	-1,807	-0,11647	14,784
2738	-10,004	-1,0307	-0,11647	16,156
2738	-10,004	-1,0307	-0,11647	16,156
2739	-10,068	7,5289e-002	-0,11647	16,229
2739	-10,068	7,5289e-002	-0,11647	16,229
2740	4,6179	-9,3609e-002	-0,11647	13,771
2740	4,6179	-9,3609e-002	-0,11647	13,771
2741	5,7424	-2,2213	-0,11647	14,003
2741	5,7424	-2,2213	-0,11647	14,003
2742	-5,5674	-0,64934	-0,11647	14,01
2742	-5,5674	-0,64934	-0,11647	14,01
2743	-4,8146	0,2481	-0,11647	13,821
2743	-4,8146	0,2481	-0,11647	13,821
2744	-5,9355	2,3593	-0,11647	14,001
2744	-5,9355	2,3593	-0,11647	14,001
2745	3,3992	49,119	-0,11647	17,288
2745	3,3992	49,119	-0,11647	17,288
2746	-29,398	3,4435	-0,11647	30,205
2746	-29,398	3,4435	-0,11647	30,205
2747	-30,893	1,8547	-0,11647	23,856
2747	-30,893	1,8547	-0,11647	23,856
2748	-30,778	0,51553	-0,11647	22,292
2748	-30,778	0,51553	-0,11647	22,292
2749	-30,739	-0,39167	-0,11647	20,819
2749	-30,739	-0,39167	-0,11647	20,819
2750	-28,959	-5,2721	-0,11647	31,117
2750	-28,959	-5,2721	-0,11647	31,117
2751	-26,922	-8,6912	-0,11647	27,439
2751	-26,922	-8,6912	-0,11647	27,439
2752	-24,955	-12,375	-0,11647	20,865
2752	-24,955	-12,375	-0,11647	20,865
2753	-22,979	-16,041	-0,11647	17,426
2753	-22,979	-16,041	-0,11647	17,426
2754	-21,986	-17,88	-0,11647	16,542
2754	-21,986	-17,88	-0,11647	16,542
2755	-18,958	-23,478	-0,11647	16,2
2755	-18,958	-23,478	-0,11647	16,2
2756	-17,932	-25,369	-0,11647	16,703
2756	-17,932	-25,369	-0,11647	16,703
2757	-17,411	-26,329	-0,11647	17,052
2757	-17,411	-26,329	-0,11647	17,052
2758	-16,896	-27,283	-0,11647	17,459
2758	-16,896	-27,283	-0,11647	17,459
2759	-16,373	-28,248	-0,11647	17,922
2759	-16,373	-28,248	-0,11647	17,922
2760	-15,85	-29,217	-0,11647	18,437
2760	-15,85	-29,217	-0,11647	18,437
2761	-15,324	-30,19	-0,11647	18,997
2761	-15,324	-30,19	-0,11647	18,997
2762	-13,75	-33,112	-0,11647	20,855
2762	-13,75	-33,112	-0,11647	20,855
2763	-12,179	-36,026	-0,11647	22,728
2763	-12,179	-36,026	-0,11647	22,728
2764	-9,6538	-40,806	-0,11647	23,909
2764	-9,6538	-40,806	-0,11647	23,909
2765	-9,1663	-41,766	-0,11647	23,408
2765	-9,1663	-41,766	-0,11647	23,408
2766	-8,6485	-42,72	-0,11647	22,531
2766	-8,6485	-42,72	-0,11647	22,531
2767	-8,1313	-43,659	-0,11647	21,43
2767	-8,1313	-43,659	-0,11647	21,43
2768	-6,9873	-45,54	-0,11647	18,023
2768	-6,9873	-45,54	-0,11647	18,023
2769	28,023	5,8024	-0,11647	33,468
2769	28,023	5,8024	-0,11647	33,468
2770	27,405	7,6017	-0,11647	29,378
2770	27,405	7,6017	-0,11647	29,378
2771	26,99	8,5084	-0,11647	27,194
2771	26,99	8,5084	-0,11647	27,194
2772	25,541	11,177	-0,11647	22,203
2772	25,541	11,177	-0,11647	22,203
2773	25,037	12,057	-0,11647	20,956
2773	25,037	12,057	-0,11647	20,956
2774	24,536	12,947	-0,11647	19,883
2774	24,536	12,947	-0,11647	19,883
2775	24,038	13,844	-0,11647	18,972
2775	24,038	13,844	-0,11647	18,972
2776	23,54	14,75	-0,11647	18,211
2776	23,54	14,75	-0,11647	18,211
2777	19,065	23,027	-0,11647	16,521
2777	19,065	23,027	-0,11647	16,521
2778	18,554	23,969	-0,11647	16,789
2778	18,554	23,969	-0,11647	16,789
2779	18,051	24,915	-0,11647	17,135
2779	18,051	24,915	-0,11647	17,135
2780	16,509	27,774	-0,11647	18,644
2780	16,509	27,774	-0,11647	18,644
2781	16,001	28,725	-0,11647	19,298
2781	16,001	28,725	-0,11647	19,298
2782	15,488	29,685	-0,11647	20,029
2782	15,488	29,685	-0,11647	20,029
2783	13,43	33,515	-0,11647	23,726
2783	13,43	33,515	-0,11647	23,726
2784	12,916	34,477	-0,11647	24,844
2784	12,916	34,477	-0,11647	24,844
2785	12,404	35,428	-0,11647	26,038
2785	12,404	35,428	-0,11647	26,038
2786	10,845	38,32	-0,11647	30,13
2786	10,845	38,32	-0,11647	30,13
2787	10,328	39,299	-0,11647	31,647
2787	10,328	39,299	-0,11647	31,647
2788	9,8103	40,294	-0,11647	33,198
2788	9,8103	40,294	-0,11647	33,198
2789	8,7275	42,432	-0,11647	36,034
2789	8,7275	42,432	-0,11647	36,034
2790	-7,9702	43,97	-0,11647	37,108
2790	-7,9702	43,97	-0,11647	37,108
2791	-8,9249	42,115	-0,11647	35,644
2791	-8,9249	42,115	-0,11647	35,644
2792	-9,405	41,169	-0,11647	34,391
2792	-9,405	41,169	-0,11647	34,391
2793	-10,371	39,241	-0,11647	31,52
2793	-10,371	39,241	-0,11647	31,52
2794	-12,425	35,392	-0,11647	26,003
2794	-12,425	35,392	-0,11647	26,003
2795	-15,514	29,639	-0,11647	19,998
2795	-15,514	29,639	-0,11647	19,998
2796	-17,057	26,767	-0,11647	18,04
2796	-17,057	26,767	-0,11647	18,04
2797	-17,572	25,815	-0,11647	17,54
2797	-17,572	25,815	-0,11647	17,54
2798	-18,085	24,869	-0,11647	17,119
2798	-18,085	24,869	-0,11647	17,119
2799	-19,096	22,995	-0,11647	16,515
2799	-19,096	22,995	-0,11647	16,515
2800	-20,6	20,206	-0,11647	16,221
2800	-20,6	20,206	-0,11647	16,221
2801	-21,101	19,287	-0,11647	16,296
2801	-21,101	19,287	-0,11647	16,296
2802	-22,583	16,548	-0,11647	17,116
2802	-22,583	16,548	-0,11647	17,116
2803	-23,075	15,641	-0,11647	17,611
2803	-23,075	15,641	-0,11647	17,611
2804	-23,562	14,738	-0,11647	18,235
2804	-23,562	14,738	-0,11647	18,235
2805	-24,048	13,837	-0,11647	19,001
2805	-24,048	13,837	-0,11647	19,001
2806	-24,533	12,938	-0,11647	19,923
2806	-24,533	12,938	-0,11647	19,923
2807	-25,018	12,038	-0,11647	21,027
2807	-25,018	12,038	-0,11647	21,027
2808	-27,624	7,4418	-0,11647	29,254
2808	-27,624	7,4418	-0,11647	29,254
2809	-8,4841	2,147	-0,11647	15,097
2809	-8,4841	2,147	-0,11647	15,097
2810	8,3187	-1,781	-0,11647	15,083
2810	8,3187	-1,781	-0,11647	15,083
2811	5,2103	-48,649	-0,11647	10,585
2811	5,2103	-48,649	-0,11647	10,585
2812	5,82	-47,969	-0,11647	12,09
2812	5,82	-47,969	-0,11647	12,09
2813	6,3867	-47,228	-0,11647	13,833
2813	6,3867	-47,228	-0,11647	13,833
2814	6,8762	-46,394	-0,11647	15,647
2814	6,8762	-46,394	-0,11647	15,647
2815	7,2959	-45,521	-0,11647	17,568
2815	7,2959	-45,521	-0,11647	17,568
2816	7,6964	-44,637	-0,11647	19,465
2816	7,6964	-44,637	-0,11647	19,465
2817	8,1129	-43,746	-0,11647	21,148
2817	8,1129	-43,746	-0,11647	21,148
2818	8,5571	-42,844	-0,11647	22,47
2818	8,5571	-42,844	-0,11647	22,47
2819	9,0321	-41,927	-0,11647	23,394
2819	9,0321	-41,927	-0,11647	23,394
2820	9,5212	-40,988	-0,11647	23,915
2820	9,5212	-40,988	-0,11647	23,915
2821	10,546	-39,091	-0,11647	24,021
2821	10,546	-39,091	-0,11647	24,021
2822	11,072	-38,13	-0,11647	23,741
2822	11,072	-38,13	-0,11647	23,741
2823	13,165	-34,256	-0,11647	21,583
2823	13,165	-34,256	-0,11647	21,583
2824	14,211	-32,299	-0,11647	20,298
2824	14,211	-32,299	-0,11647	20,298
2825	14,736	-31,316	-0,11647	19,669
2825	14,736	-31,316	-0,11647	19,669
2826	15,262	-30,333	-0,11647	19,066
2826	15,262	-30,333	-0,11647	19,066
2827	15,787	-29,354	-0,11647	18,499
2827	15,787	-29,354	-0,11647	18,499
2828	16,311	-28,379	-0,11647	17,977
2828	16,311	-28,379	-0,11647	17,977
2829	17,869	-25,481	-0,11647	16,732
2829	17,869	-25,481	-0,11647	16,732
2830	20,945	-19,803	-0,11647	16,059
2830	20,945	-19,803	-0,11647	16,059
2831	22,455	-17,005	-0,11647	16,89
2831	22,455	-17,005	-0,11647	16,89
2832	22,951	-16,085	-0,11647	17,383
2832	22,951	-16,085	-0,11647	17,383
2833	23,447	-15,165	-0,11647	18,003
2833	23,447	-15,165	-0,11647	18,003
2834	23,94	-14,249	-0,11647	18,766
2834	23,94	-14,249	-0,11647	18,766
2835	24,44	-13,328	-0,11647	19,688
2835	24,44	-13,328	-0,11647	19,688
2836	24,93	-12,418	-0,11647	20,784
2836	24,93	-12,418	-0,11647	20,784
2837	25,416	-11,508	-0,11647	22,071
2837	25,416	-11,508	-0,11647	22,071
2838	26,921	-8,7717	-0,11647	27,156
2838	26,921	-8,7717	-0,11647	27,156
2839	27,965	-7,0158	-0,11647	30,343
2839	27,965	-7,0158	-0,11647	30,343
2840	28,853	-5,2506	-0,11647	31,577
2840	28,853	-5,2506	-0,11647	31,577
2841	29,233	-4,386	-0,11647	30,194
2841	29,233	-4,386	-0,11647	30,194
2842	29,732	-3,488	-0,11647	28,216
2842	29,732	-3,488	-0,11647	28,216
2843	30,153	-2,9155	-0,11647	25,669
2843	30,153	-2,9155	-0,11647	25,669
2844	30,541	-2,2067	-0,11647	23,737
2844	30,541	-2,2067	-0,11647	23,737
2845	30,685	-1,4722	-0,11647	22,594
2845	30,685	-1,4722	-0,11647	22,594
2846	30,895	0,84596	-0,11647	21,862
2846	30,895	0,84596	-0,11647	21,862
2847	30,727	1,647	-0,11647	22,744
2847	30,727	1,647	-0,11647	22,744
2848	29,971	3,3443	-0,11647	26,66
2848	29,971	3,3443	-0,11647	26,66
2849	1,1654	50,208	-0,11647	9,1683
2849	1,1654	50,208	-0,11647	9,1683
2850	30,67	-0,67216	-0,11647	21,732
2850	30,67	-0,67216	-0,11647	21,732
2851	29,718	4,3837	-0,11647	28,24
2851	29,718	4,3837	-0,11647	28,24
2852	7,2674	-1,6881	-0,11647	14,591
2852	7,2674	-1,6881	-0,11647	14,591
2853	-7,4308	1,9529	-0,11647	14,619
2853	-7,4308	1,9529	-0,11647	14,619
2854	2,4903	50,729	-0,11647	13,059
2854	2,4903	50,729	-0,11647	13,059
2855	3,1714	50,682	-0,11647	13,39
2855	3,1714	50,682	-0,11647	13,39
2856	3,5734	50,149	-0,11647	14,1
2856	3,5734	50,149	-0,11647	14,1
2857	5,957	47,469	-0,11647	29,284
2857	5,957	47,469	-0,11647	29,284
2858	6,4914	46,59	-0,11647	32,964
2858	6,4914	46,59	-0,11647	32,964
2859	7,0984	45,644	-0,11647	35,301
2859	7,0984	45,644	-0,11647	35,301
2860	0,62459	51,271	-0,11647	11,558
2860	0,62459	51,271	-0,11647	11,558
2861	-5,0357	49,311	-0,11647	17,909
2861	-5,0357	49,311	-0,11647	17,909
2862	-4,2405	49,782	-0,11647	15,323
2862	-4,2405	49,782	-0,11647	15,323
2863	-2,4383	50,339	-0,11647	12,192
2863	-2,4383	50,339	-0,11647	12,192
2864	-1,5662	50,645	-0,11647	11,22
2864	-1,5662	50,645	-0,11647	11,22
2865	-0,8222	51,088	-0,11647	11,419
2865	-0,8222	51,088	-0,11647	11,419
2866	0,65833	-50,733	-0,11647	5,489
2866	0,65833	-50,733	-0,11647	5,489
2867	5,5784	-49,73	-0,11647	9,0564
2867	5,5784	-49,73	-0,11647	9,0564
2868	3,1796	-49,937	-0,11647	6,4869
2868	3,1796	-49,937	-0,11647	6,4869
2869	1,5263	-50,902	-0,11647	5,3541
2869	1,5263	-50,902	-0,11647	5,3541
2870	-0,41301	-51,218	-0,11647	5,2651
2870	-0,41301	-51,218	-0,11647	5,2651
2871	-1,0067	-50,845	-0,11647	5,1439
2871	-1,0067	-50,845	-0,11647	5,1439
2872	-2,5557	-50,283	-0,11647	6,126
2872	-2,5557	-50,283	-0,11647	6,126
2873	6,4543e-002	50,559	-0,11647	10,187
2873	6,4543e-002	50,559	-0,11647	10,187
2874	7,8386	44,543	-0,11647	35,746
2874	7,8386	44,543	-0,11647	35,746
2875	-30,	4,0976	-0,11647	27,455
2875	-30,	4,0976	-0,11647	27,455
2876	-6,2503	-47,255	-0,11647	13,825
2876	-6,2503	-47,255	-0,11647	13,825
2877	-5,8759	-48,037	-0,11647	12,029
2877	-5,8759	-48,037	-0,11647	12,029
2878	-5,03	-47,699	-0,11647	13,092
2878	-5,03	-47,699	-0,11647	13,092
2879	-5,318	-46,917	-0,11647	16,297
2879	-5,318	-46,917	-0,11647	16,297
2880	-6,4196	1,5996	-0,11647	14,268
2880	-6,4196	1,5996	-0,11647	14,268
2881	6,2234	-1,5264	-0,11647	14,247
2881	6,2234	-1,5264	-0,11647	14,247
2882	-8,8791	1,1671	-0,11647	15,403
2882	-8,8791	1,1671	-0,11647	15,403
2883	-9,2392	0,13695	-0,11647	15,625
2883	-9,2392	0,13695	-0,11647	15,625
2884	-9,016	-0,94477	-0,11647	15,514
2884	-9,016	-0,94477	-0,11647	15,514
2885	8,7014	-0,769	-0,11647	15,342
2885	8,7014	-0,769	-0,11647	15,342
2886	8,6616	1,3422	-0,11647	15,259
2886	8,6616	1,3422	-0,11647	15,259
2887	29,457	5,347	-0,11647	28,917
2887	29,457	5,347	-0,11647	28,917
2888	28,279	8,0624	-0,11647	26,872
2888	28,279	8,0624	-0,11647	26,872
2889	26,89	10,756	-0,11647	22,434
2889	26,89	10,756	-0,11647	22,434
2890	26,402	11,643	-0,11647	21,149
2890	26,402	11,643	-0,11647	21,149
2891	25,908	12,526	-0,11647	20,015
2891	25,908	12,526	-0,11647	20,015
2892	25,415	13,409	-0,11647	19,032
2892	25,415	13,409	-0,11647	19,032
2893	24,932	14,306	-0,11647	18,191
2893	24,932	14,306	-0,11647	18,191
2894	24,447	15,203	-0,11647	17,486
2894	24,447	15,203	-0,11647	17,486
2895	23,954	16,106	-0,11647	16,91
2895	23,954	16,106	-0,11647	16,91
2896	23,464	17,016	-0,11647	16,453
2896	23,464	17,016	-0,11647	16,453
2897	22,974	17,934	-0,11647	16,106
2897	22,974	17,934	-0,11647	16,106
2898	22,482	18,845	-0,11647	15,866
2898	22,482	18,845	-0,11647	15,866
2899	21,487	20,684	-0,11647	15,671
2899	21,487	20,684	-0,11647	15,671
2900	20,987	21,609	-0,11647	15,706
2900	20,987	21,609	-0,11647	15,706
2901	20,481	22,547	-0,11647	15,827
2901	20,481	22,547	-0,11647	15,827
2902	19,976	23,48	-0,11647	16,027
2902	19,976	23,48	-0,11647	16,027
2903	19,469	24,419	-0,11647	16,307
2903	19,469	24,419	-0,11647	16,307
2904	18,959	25,36	-0,11647	16,667
2904	18,959	25,36	-0,11647	16,667
2905	17,932	27,267	-0,11647	17,618
2905	17,932	27,267	-0,11647	17,618
2906	17,418	28,221	-0,11647	18,206
2906	17,418	28,221	-0,11647	18,206
2907	16,905	29,181	-0,11647	18,87
2907	16,905	29,181	-0,11647	18,87
2908	16,392	30,142	-0,11647	19,609
2908	16,392	30,142	-0,11647	19,609
2909	15,877	31,102	-0,11647	20,423
2909	15,877	31,102	-0,11647	20,423
2910	15,356	32,051	-0,11647	21,307
2910	15,356	32,051	-0,11647	21,307
2911	14,842	33,009	-0,11647	22,262
2911	14,842	33,009	-0,11647	22,262
2912	14,328	33,972	-0,11647	23,291
2912	14,328	33,972	-0,11647	23,291
2913	13,819	34,941	-0,11647	24,387
2913	13,819	34,941	-0,11647	24,387
2914	13,306	35,896	-0,11647	25,538
2914	13,306	35,896	-0,11647	25,538
2915	12,788	36,847	-0,11647	26,742
2915	12,788	36,847	-0,11647	26,742
2916	12,268	37,802	-0,11647	27,987
2916	12,268	37,802	-0,11647	27,987
2917	11,754	38,762	-0,11647	29,248
2917	11,754	38,762	-0,11647	29,248
2918	11,233	39,741	-0,11647	30,485
2918	11,233	39,741	-0,11647	30,485
2919	10,718	40,707	-0,11647	31,628
2919	10,718	40,707	-0,11647	31,628
2920	9,7346	42,603	-0,11647	33,194
2920	9,7346	42,603	-0,11647	33,194
2921	9,2358	43,421	-0,11647	33,241
2921	9,2358	43,421	-0,11647	33,241
2922	8,7232	45,156	-0,11647	31,567
2922	8,7232	45,156	-0,11647	31,567
2923	8,2128	45,331	-0,11647	30,571
2923	8,2128	45,331	-0,11647	30,571
2924	7,7291	46,343	-0,11647	28,835
2924	7,7291	46,343	-0,11647	28,835
2925	7,2008	47,238	-0,11647	25,716
2925	7,2008	47,238	-0,11647	25,716
2926	6,6705	48,084	-0,11647	22,437
2926	6,6705	48,084	-0,11647	22,437
2927	6,1227	48,877	-0,11647	19,196
2927	6,1227	48,877	-0,11647	19,196
2928	5,4964	49,616	-0,11647	16,407
2928	5,4964	49,616	-0,11647	16,407
2929	4,8262	50,238	-0,11647	14,502
2929	4,8262	50,238	-0,11647	14,502
2930	4,2079	50,79	-0,11647	13,538
2930	4,2079	50,79	-0,11647	13,538
2931	3,5105	51,275	-0,11647	13,134
2931	3,5105	51,275	-0,11647	13,134
2932	1,882	51,801	-0,11647	13,06
2932	1,882	51,801	-0,11647	13,06
2933	1,0902	52,033	-0,11647	12,992
2933	1,0902	52,033	-0,11647	12,992
2934	0,3499	52,266	-0,11647	13,18
2934	0,3499	52,266	-0,11647	13,18
2935	-0,24292	52,494	-0,11647	13,663
2935	-0,24292	52,494	-0,11647	13,663
2936	-0,71181	52,118	-0,11647	13,215
2936	-0,71181	52,118	-0,11647	13,215
2937	-1,4789	51,865	-0,11647	12,664
2937	-1,4789	51,865	-0,11647	12,664
2938	-2,2449	51,525	-0,11647	12,747
2938	-2,2449	51,525	-0,11647	12,747
2939	-3,0303	51,162	-0,11647	12,868
2939	-3,0303	51,162	-0,11647	12,868
2940	-3,8562	50,805	-0,11647	13,216
2940	-3,8562	50,805	-0,11647	13,216
2941	-4,6924	50,386	-0,11647	13,966
2941	-4,6924	50,386	-0,11647	13,966
2942	-5,4831	49,884	-0,11647	15,494
2942	-5,4831	49,884	-0,11647	15,494
2943	-6,062	49,186	-0,11647	17,846
2943	-6,062	49,186	-0,11647	17,846
2944	-6,5067	48,451	-0,11647	20,889
2944	-6,5067	48,451	-0,11647	20,889
2945	-6,9023	47,711	-0,11647	23,988
2945	-6,9023	47,711	-0,11647	23,988
2946	-7,3491	46,947	-0,11647	26,969
2946	-7,3491	46,947	-0,11647	26,969
2947	-7,8254	46,139	-0,11647	29,55
2947	-7,8254	46,139	-0,11647	29,55
2948	-8,3287	45,282	-0,11647	31,529
2948	-8,3287	45,282	-0,11647	31,529
2949	-9,7933	42,529	-0,11647	33,037
2949	-9,7933	42,529	-0,11647	33,037
2950	-10,281	41,588	-0,11647	32,428
2950	-10,281	41,588	-0,11647	32,428
2951	-11,268	39,682	-0,11647	30,4
2951	-11,268	39,682	-0,11647	30,4
2952	-11,775	38,728	-0,11647	29,195
2952	-11,775	38,728	-0,11647	29,195
2953	-12,286	37,774	-0,11647	27,951
2953	-12,286	37,774	-0,11647	27,951
2954	-12,799	36,82	-0,11647	26,716
2954	-12,799	36,82	-0,11647	26,716
2955	-13,314	35,865	-0,11647	25,514
2955	-13,314	35,865	-0,11647	25,514
2956	-13,829	34,908	-0,11647	24,363
2956	-13,829	34,908	-0,11647	24,363
2957	-14,343	33,952	-0,11647	23,272
2957	-14,343	33,952	-0,11647	23,272
2958	-14,856	32,993	-0,11647	22,247
2958	-14,856	32,993	-0,11647	22,247
2959	-15,371	32,033	-0,11647	21,292
2959	-15,371	32,033	-0,11647	21,292
2960	-15,885	31,069	-0,11647	20,406
2960	-15,885	31,069	-0,11647	20,406
2961	-16,404	30,114	-0,11647	19,593
2961	-16,404	30,114	-0,11647	19,593
2962	-16,923	29,152	-0,11647	18,855
2962	-16,923	29,152	-0,11647	18,855
2963	-17,437	28,199	-0,11647	18,193
2963	-17,437	28,199	-0,11647	18,193
2964	-17,952	27,24	-0,11647	17,606
2964	-17,952	27,24	-0,11647	17,606
2965	-18,467	26,284	-0,11647	17,093
2965	-18,467	26,284	-0,11647	17,093
2966	-18,981	25,338	-0,11647	16,659
2966	-18,981	25,338	-0,11647	16,659
2967	-19,489	24,398	-0,11647	16,303
2967	-19,489	24,398	-0,11647	16,303
2968	-19,992	23,464	-0,11647	16,028
2968	-19,992	23,464	-0,11647	16,028
2969	-20,493	22,532	-0,11647	15,831
2969	-20,493	22,532	-0,11647	15,831
2970	-21,493	20,684	-0,11647	15,678
2970	-21,493	20,684	-0,11647	15,678
2971	-21,989	19,767	-0,11647	15,73
2971	-21,989	19,767	-0,11647	15,73
2972	-22,487	18,847	-0,11647	15,875
2972	-22,487	18,847	-0,11647	15,875
2973	-22,98	17,931	-0,11647	16,118
2973	-22,98	17,931	-0,11647	16,118
2974	-23,465	17,023	-0,11647	16,462
2974	-23,465	17,023	-0,11647	16,462
2975	-23,966	16,119	-0,11647	16,92
2975	-23,966	16,119	-0,11647	16,92
2976	-24,448	15,21	-0,11647	17,495
2976	-24,448	15,21	-0,11647	17,495
2977	-24,934	14,313	-0,11647	18,206
2977	-24,934	14,313	-0,11647	18,206
2978	-25,418	13,414	-0,11647	19,057
2978	-25,418	13,414	-0,11647	19,057
2979	-25,903	12,518	-0,11647	20,062
2979	-25,903	12,518	-0,11647	20,062
2980	-26,389	11,624	-0,11647	21,228
2980	-26,389	11,624	-0,11647	21,228
2981	-26,872	10,714	-0,11647	22,566
2981	-26,872	10,714	-0,11647	22,566
2982	-27,361	9,7952	-0,11647	24,035
2982	-27,361	9,7952	-0,11647	24,035
2983	-27,874	8,8789	-0,11647	25,501
2983	-27,874	8,8789	-0,11647	25,501
2984	-28,413	7,989	-0,11647	26,773
2984	-28,413	7,989	-0,11647	26,773
2985	-28,966	7,1139	-0,11647	27,601
2985	-28,966	7,1139	-0,11647	27,601
2986	-29,525	6,2434	-0,11647	27,757
2986	-29,525	6,2434	-0,11647	27,757
2987	-30,087	5,4117	-0,11647	27,127
2987	-30,087	5,4117	-0,11647	27,127
2988	-30,654	4,5777	-0,11647	26,129
2988	-30,654	4,5777	-0,11647	26,129
2989	-31,04	4,0695	-0,11647	25,481
2989	-31,04	4,0695	-0,11647	25,481
2990	-30,821	3,4059	-0,11647	24,984
2990	-30,821	3,4059	-0,11647	24,984
2991	-31,289	2,6389	-0,11647	23,753
2991	-31,289	2,6389	-0,11647	23,753
2992	-31,607	1,859	-0,11647	22,932
2992	-31,607	1,859	-0,11647	22,932
2993	-31,671	1,0471	-0,11647	22,462
2993	-31,671	1,0471	-0,11647	22,462
2994	-31,6	0,27359	-0,11647	21,985
2994	-31,6	0,27359	-0,11647	21,985
2995	-31,575	-0,59818	-0,11647	21,956
2995	-31,575	-0,59818	-0,11647	21,956
2996	-31,554	-1,4846	-0,11647	22,205
2996	-31,554	-1,4846	-0,11647	22,205
2997	-31,425	-2,4016	-0,11647	22,857
2997	-31,425	-2,4016	-0,11647	22,857
2998	-31,057	-3,2329	-0,11647	24,087
2998	-31,057	-3,2329	-0,11647	24,087
2999	-30,665	-4,0206	-0,11647	25,36
2999	-30,665	-4,0206	-0,11647	25,36
3000	-30,252	-4,8768	-0,11647	26,769
3000	-30,252	-4,8768	-0,11647	26,769
3001	-29,782	-5,7433	-0,11647	27,835
3001	-29,782	-5,7433	-0,11647	27,835
3002	-29,28	-6,5961	-0,11647	28,178
3002	-29,28	-6,5961	-0,11647	28,178
3003	-28,775	-7,4537	-0,11647	27,766
3003	-28,775	-7,4537	-0,11647	27,766
3004	-28,276	-8,3254	-0,11647	26,758
3004	-28,276	-8,3254	-0,11647	26,758
3005	-27,787	-9,2149	-0,11647	25,396
3005	-27,787	-9,2149	-0,11647	25,396
3006	-26,81	-11,031	-0,11647	22,425
3006	-26,81	-11,031	-0,11647	22,425
3007	-26,324	-11,945	-0,11647	21,082
3007	-26,324	-11,945	-0,11647	21,082
3008	-25,839	-12,86	-0,11647	19,902
3008	-25,839	-12,86	-0,11647	19,902
3009	-25,35	-13,763	-0,11647	18,891
3009	-25,35	-13,763	-0,11647	18,891
3010	-24,861	-14,671	-0,11647	18,035
3010	-24,861	-14,671	-0,11647	18,035
3011	-24,367	-15,59	-0,11647	17,319
3011	-24,367	-15,59	-0,11647	17,319
3012	-23,876	-16,505	-0,11647	16,737
3012	-23,876	-16,505	-0,11647	16,737
3013	-23,374	-17,417	-0,11647	16,275
3013	-23,374	-17,417	-0,11647	16,275
3014	-22,882	-18,338	-0,11647	15,923
3014	-22,882	-18,338	-0,11647	15,923
3015	-21,883	-20,197	-0,11647	15,507
3015	-21,883	-20,197	-0,11647	15,507
3016	-21,377	-21,126	-0,11647	15,435
3016	-21,377	-21,126	-0,11647	15,435
3017	-19,854	-23,941	-0,11647	15,688
3017	-19,854	-23,941	-0,11647	15,688
3018	-19,336	-24,896	-0,11647	15,917
3018	-19,336	-24,896	-0,11647	15,917
3019	-18,82	-25,844	-0,11647	16,21
3019	-18,82	-25,844	-0,11647	16,21
3020	-18,302	-26,807	-0,11647	16,561
3020	-18,302	-26,807	-0,11647	16,561
3021	-17,792	-27,766	-0,11647	16,967
3021	-17,792	-27,766	-0,11647	16,967
3022	-17,271	-28,732	-0,11647	17,426
3022	-17,271	-28,732	-0,11647	17,426
3023	-16,745	-29,704	-0,11647	17,935
3023	-16,745	-29,704	-0,11647	17,935
3024	-16,211	-30,683	-0,11647	18,483
3024	-16,211	-30,683	-0,11647	18,483
3025	-15,684	-31,66	-0,11647	19,058
3025	-15,684	-31,66	-0,11647	19,058
3026	-15,162	-32,64	-0,11647	19,647
3026	-15,162	-32,64	-0,11647	19,647
3027	-14,639	-33,612	-0,11647	20,236
3027	-14,639	-33,612	-0,11647	20,236
3028	-14,116	-34,586	-0,11647	20,812
3028	-14,116	-34,586	-0,11647	20,812
3029	-13,594	-35,556	-0,11647	21,351
3029	-13,594	-35,556	-0,11647	21,351
3030	-13,07	-36,528	-0,11647	21,828
3030	-13,07	-36,528	-0,11647	21,828
3031	-12,545	-37,497	-0,11647	22,213
3031	-12,545	-37,497	-0,11647	22,213
3032	-12,024	-38,462	-0,11647	22,465
3032	-12,024	-38,462	-0,11647	22,465
3033	-11,515	-39,415	-0,11647	22,539
3033	-11,515	-39,415	-0,11647	22,539
3034	-11,014	-40,367	-0,11647	22,393
3034	-11,014	-40,367	-0,11647	22,393
3035	-10,512	-41,32	-0,11647	21,98
3035	-10,512	-41,32	-0,11647	21,98
3036	-10,009	-42,275	-0,11647	21,263
3036	-10,009	-42,275	-0,11647	21,263
3037	-9,4952	-43,228	-0,11647	20,229
3037	-9,4952	-43,228	-0,11647	20,229
3038	-8,9385	-44,182	-0,11647	18,899
3038	-8,9385	-44,182	-0,11647	18,899
3039	-8,4176	-45,056	-0,11647	17,353
3039	-8,4176	-45,056	-0,11647	17,353
3040	-7,9821	-45,97	-0,11647	15,693
3040	-7,9821	-45,97	-0,11647	15,693
3041	30,505	4,489	-0,11647	25,826
3041	30,505	4,489	-0,11647	25,826
3042	30,773	3,5072	-0,11647	24,871
3042	30,773	3,5072	-0,11647	24,871
3043	31,115	2,6353	-0,11647	23,64
3043	31,115	2,6353	-0,11647	23,64
3044	31,419	1,7796	-0,11647	22,581
3044	31,419	1,7796	-0,11647	22,581
3045	31,605	0,88439	-0,11647	22,028
3045	31,605	0,88439	-0,11647	22,028
3046	31,563	-0,80419	-0,11647	22,177
3046	31,563	-0,80419	-0,11647	22,177
3047	31,494	-1,6271	-0,11647	22,583
3047	31,494	-1,6271	-0,11647	22,583
3048	31,33	-2,4399	-0,11647	23,283
3048	31,33	-2,4399	-0,11647	23,283
3049	31,005	-3,2661	-0,11647	24,252
3049	31,005	-3,2661	-0,11647	24,252
3050	30,586	-4,067	-0,11647	25,582
3050	30,586	-4,067	-0,11647	25,582
3051	30,168	-4,8367	-0,11647	26,882
3051	30,168	-4,8367	-0,11647	26,882
3052	29,724	-5,6862	-0,11647	27,874
3052	29,724	-5,6862	-0,11647	27,874
3053	29,289	-6,6081	-0,11647	28,157
3053	29,289	-6,6081	-0,11647	28,157
3054	28,792	-7,5012	-0,11647	27,616
3054	28,792	-7,5012	-0,11647	27,616
3055	28,28	-8,383	-0,11647	26,577
3055	28,28	-8,383	-0,11647	26,577
3056	27,773	-9,2694	-0,11647	25,228
3056	27,773	-9,2694	-0,11647	25,228
3057	26,799	-11,075	-0,11647	22,322
3057	26,799	-11,075	-0,11647	22,322
3058	26,315	-11,98	-0,11647	21,005
3058	26,315	-11,98	-0,11647	21,005
3059	25,827	-12,885	-0,11647	19,843
3059	25,827	-12,885	-0,11647	19,843
3060	25,336	-13,794	-0,11647	18,84
3060	25,336	-13,794	-0,11647	18,84
3061	24,843	-14,708	-0,11647	17,987
3061	24,843	-14,708	-0,11647	17,987
3062	24,349	-15,624	-0,11647	17,276
3062	24,349	-15,624	-0,11647	17,276
3063	23,851	-16,544	-0,11647	16,698
3063	23,851	-16,544	-0,11647	16,698
3064	23,348	-17,47	-0,11647	16,238
3064	23,348	-17,47	-0,11647	16,238
3065	22,848	-18,396	-0,11647	15,89
3065	22,848	-18,396	-0,11647	15,89
3066	22,351	-19,326	-0,11647	15,642
3066	22,351	-19,326	-0,11647	15,642
3067	21,845	-20,261	-0,11647	15,487
3067	21,845	-20,261	-0,11647	15,487
3068	21,339	-21,193	-0,11647	15,422
3068	21,339	-21,193	-0,11647	15,422
3069	20,828	-22,134	-0,11647	15,438
3069	20,828	-22,134	-0,11647	15,438
3070	20,32	-23,072	-0,11647	15,53
3070	20,32	-23,072	-0,11647	15,53
3071	19,807	-24,022	-0,11647	15,694
3071	19,807	-24,022	-0,11647	15,694
3072	19,295	-24,972	-0,11647	15,928
3072	19,295	-24,972	-0,11647	15,928
3073	18,264	-26,887	-0,11647	16,582
3073	18,264	-26,887	-0,11647	16,582
3074	17,745	-27,852	-0,11647	16,996
3074	17,745	-27,852	-0,11647	16,996
3075	17,221	-28,824	-0,11647	17,463
3075	17,221	-28,824	-0,11647	17,463
3076	16,694	-29,796	-0,11647	17,975
3076	16,694	-29,796	-0,11647	17,975
3077	16,167	-30,775	-0,11647	18,524
3077	16,167	-30,775	-0,11647	18,524
3078	15,65	-31,759	-0,11647	19,102
3078	15,65	-31,759	-0,11647	19,102
3079	15,114	-32,742	-0,11647	19,695
3079	15,114	-32,742	-0,11647	19,695
3080	14,589	-33,725	-0,11647	20,291
3080	14,589	-33,725	-0,11647	20,291
3081	14,063	-34,705	-0,11647	20,867
3081	14,063	-34,705	-0,11647	20,867
3082	13,541	-35,68	-0,11647	21,4
3082	13,541	-35,68	-0,11647	21,4
3083	13,023	-36,648	-0,11647	21,866
3083	13,023	-36,648	-0,11647	21,866
3084	12,504	-37,612	-0,11647	22,239
3084	12,504	-37,612	-0,11647	22,239
3085	10,443	-41,417	-0,11647	21,965
3085	10,443	-41,417	-0,11647	21,965
3086	9,9383	-42,355	-0,11647	21,239
3086	9,9383	-42,355	-0,11647	21,239
3087	9,4619	-43,276	-0,11647	20,201
3087	9,4619	-43,276	-0,11647	20,201
3088	8,9977	-44,187	-0,11647	18,868
3088	8,9977	-44,187	-0,11647	18,868
3089	8,5522	-45,088	-0,11647	17,308
3089	8,5522	-45,088	-0,11647	17,308
3090	8,115	-45,98	-0,11647	15,632
3090	8,115	-45,98	-0,11647	15,632
3091	7,6639	-46,857	-0,11647	13,978
3091	7,6639	-46,857	-0,11647	13,978
3092	7,1695	-47,686	-0,11647	12,446
3092	7,1695	-47,686	-0,11647	12,446
3093	6,637	-48,45	-0,11647	11,097
3093	6,637	-48,45	-0,11647	11,097
3094	6,0886	-49,127	-0,11647	9,9734
3094	6,0886	-49,127	-0,11647	9,9734
3095	5,057	-50,279	-0,11647	8,2703
3095	5,057	-50,279	-0,11647	8,2703
3096	4,6994	-50,95	-0,11647	7,5876
3096	4,6994	-50,95	-0,11647	7,5876
3097	4,0543	-50,981	-0,11647	7,0519
3097	4,0543	-50,981	-0,11647	7,0519
3098	3,2559	-51,115	-0,11647	6,5082
3098	3,2559	-51,115	-0,11647	6,5082
3099	2,4785	-51,327	-0,11647	6,2284
3099	2,4785	-51,327	-0,11647	6,2284
3100	1,6957	-51,735	-0,11647	5,9496
3100	1,6957	-51,735	-0,11647	5,9496
3101	0,85706	-52,092	-0,11647	5,8263
3101	0,85706	-52,092	-0,11647	5,8263
3102	-1,8577e-002	-52,141	-0,11647	5,8719
3102	-1,8577e-002	-52,141	-0,11647	5,8719
3103	-0,81762	-52,018	-0,11647	5,8701
3103	-0,81762	-52,018	-0,11647	5,8701
3104	-1,5929	-51,733	-0,11647	5,9822
3104	-1,5929	-51,733	-0,11647	5,9822
3105	-2,355	-51,45	-0,11647	6,2203
3105	-2,355	-51,45	-0,11647	6,2203
3106	-3,1434	-51,146	-0,11647	6,6131
3106	-3,1434	-51,146	-0,11647	6,6131
3107	-3,9281	-50,808	-0,11647	7,1804
3107	-3,9281	-50,808	-0,11647	7,1804
3108	-4,6961	-50,408	-0,11647	7,8844
3108	-4,6961	-50,408	-0,11647	7,8844
3109	-5,452	-49,958	-0,11647	8,7471
3109	-5,452	-49,958	-0,11647	8,7471
3110	-6,1026	-49,239	-0,11647	9,8143
3110	-6,1026	-49,239	-0,11647	9,8143
3111	-6,6571	-48,485	-0,11647	11,049
3111	-6,6571	-48,485	-0,11647	11,049
3112	-7,5584	-46,856	-0,11647	13,944
3112	-7,5584	-46,856	-0,11647	13,944
3113	29,862	-2,0044	-0,11647	23,572
3113	29,862	-2,0044	-0,11647	23,572
3114	26,428	-5,7187	-0,11647	43,594
3114	26,428	-5,7187	-0,11647	43,594
3115	-3,3708	-50,03	-0,11647	6,9726
3115	-3,3708	-50,03	-0,11647	6,9726
3116	5,192	-42,619	-0,11647	39,392
3116	5,192	-42,619	-0,11647	39,392
3117	-5,3054	42,858	-0,11647	61,499
3117	-5,3054	42,858	-0,11647	61,499
3118	4,7254	42,725	-0,11647	73,328
3118	4,7254	42,725	-0,11647	73,328
3119	-3,9545	49,088	-0,11647	18,53
3119	-3,9545	49,088	-0,11647	18,53
3120	-20,835	3,1233	-0,11647	36,264
3120	-20,835	3,1233	-0,11647	36,264
3121	-26,855	5,2709	-0,11647	43,261
3121	-26,855	5,2709	-0,11647	43,261
3122	-29,88	-1,874	-0,11647	23,187
3122	-29,88	-1,874	-0,11647	23,187
3123	-26,177	-5,7459	-0,11647	44,905
3123	-26,177	-5,7459	-0,11647	44,905
3124	-22,529	-4,207	-0,11647	50,312
3124	-22,529	-4,207	-0,11647	50,312
3125	-23,505	-4,65	-0,11647	56,503
3125	-23,505	-4,65	-0,11647	56,503
3126	-25,28	-5,2646	-0,11647	56,562
3126	-25,28	-5,2646	-0,11647	56,562
3127	-24,488	-4,952	-0,11647	59,264
3127	-24,488	-4,952	-0,11647	59,264
3128	-26,795	-4,9721	-0,11647	49,609
3128	-26,795	-4,9721	-0,11647	49,609
3129	-27,342	-4,3341	-0,11647	50,886
3129	-27,342	-4,3341	-0,11647	50,886
3130	-28,075	-3,5973	-0,11647	46,597
3130	-28,075	-3,5973	-0,11647	46,597
3131	-29,243	-1,7146	-0,11647	23,949
3131	-29,243	-1,7146	-0,11647	23,949
3132	-28,739	-2,7307	-0,11647	35,488
3132	-28,739	-2,7307	-0,11647	35,488
3133	-29,478	-0,59781	-0,11647	16,758
3133	-29,478	-0,59781	-0,11647	16,758
3134	-29,534	0,50583	-0,11647	16,862
3134	-29,534	0,50583	-0,11647	16,862
3135	-29,407	1,7269	-0,11647	23,372
3135	-29,407	1,7269	-0,11647	23,372
3136	-28,748	2,7474	-0,11647	35,881
3136	-28,748	2,7474	-0,11647	35,881
3137	-27,503	4,3785	-0,11647	45,842
3137	-27,503	4,3785	-0,11647	45,842
3138	-28,125	3,6198	-0,11647	44,246
3138	-28,125	3,6198	-0,11647	44,246
3139	-26,084	4,9776	-0,11647	55,04
3139	-26,084	4,9776	-0,11647	55,04
3140	-25,364	4,7149	-0,11647	62,106
3140	-25,364	4,7149	-0,11647	62,106
3141	-24,452	4,5167	-0,11647	62,375
3141	-24,452	4,5167	-0,11647	62,375
3142	-23,454	4,2998	-0,11647	57,665
3142	-23,454	4,2998	-0,11647	57,665
3143	-21,592	3,4782	-0,11647	41,922
3143	-21,592	3,4782	-0,11647	41,922
3144	-22,469	3,9374	-0,11647	50,157
3144	-22,469	3,9374	-0,11647	50,157
3145	-8,4378	-47,344	-0,11647	12,961
3145	-8,4378	-47,344	-0,11647	12,961
3146	-8,8963	-46,46	-0,11647	14,477
3146	-8,8963	-46,46	-0,11647	14,477
3147	-9,3612	-45,559	-0,11647	15,959
3147	-9,3612	-45,559	-0,11647	15,959
3148	-9,8508	-44,645	-0,11647	17,379
3148	-9,8508	-44,645	-0,11647	17,379
3149	-10,359	-43,719	-0,11647	18,666
3149	-10,359	-43,719	-0,11647	18,666
3150	-10,872	-42,783	-0,11647	19,743
3150	-10,872	-42,783	-0,11647	19,743
3151	-11,38	-41,834	-0,11647	20,569
3151	-11,38	-41,834	-0,11647	20,569
3152	-11,893	-40,881	-0,11647	21,127
3152	-11,893	-40,881	-0,11647	21,127
3153	-12,404	-39,923	-0,11647	21,425
3153	-12,404	-39,923	-0,11647	21,425
3154	-12,918	-38,959	-0,11647	21,498
3154	-12,918	-38,959	-0,11647	21,498
3155	-13,438	-37,989	-0,11647	21,371
3155	-13,438	-37,989	-0,11647	21,371
3156	-13,966	-37,027	-0,11647	21,084
3156	-13,966	-37,027	-0,11647	21,084
3157	-14,488	-36,058	-0,11647	20,684
3157	-14,488	-36,058	-0,11647	20,684
3158	-15,007	-35,076	-0,11647	20,203
3158	-15,007	-35,076	-0,11647	20,203
3159	-15,538	-34,093	-0,11647	19,661
3159	-15,538	-34,093	-0,11647	19,661
3160	-16,071	-33,115	-0,11647	19,088
3160	-16,071	-33,115	-0,11647	19,088
3161	-16,596	-32,133	-0,11647	18,513
3161	-16,596	-32,133	-0,11647	18,513
3162	-17,124	-31,144	-0,11647	17,945
3162	-17,124	-31,144	-0,11647	17,945
3163	-17,654	-30,169	-0,11647	17,397
3163	-17,654	-30,169	-0,11647	17,397
3164	-18,176	-29,2	-0,11647	16,886
3164	-18,176	-29,2	-0,11647	16,886
3165	-18,697	-28,229	-0,11647	16,418
3165	-18,697	-28,229	-0,11647	16,418
3166	-19,218	-27,264	-0,11647	15,998
3166	-19,218	-27,264	-0,11647	15,998
3167	-19,733	-26,31	-0,11647	15,635
3167	-19,733	-26,31	-0,11647	15,635
3168	-20,246	-25,357	-0,11647	15,33
3168	-20,246	-25,357	-0,11647	15,33
3169	-20,762	-24,409	-0,11647	15,084
3169	-20,762	-24,409	-0,11647	15,084
3170	-21,271	-23,467	-0,11647	14,907
3170	-21,271	-23,467	-0,11647	14,907
3171	-21,772	-22,53	-0,11647	14,804
3171	-21,772	-22,53	-0,11647	14,804
3172	-22,278	-21,596	-0,11647	14,772
3172	-22,278	-21,596	-0,11647	14,772
3173	-23,28	-19,737	-0,11647	14,947
3173	-23,28	-19,737	-0,11647	14,947
3174	-23,777	-18,813	-0,11647	15,173
3174	-23,777	-18,813	-0,11647	15,173
3175	-24,275	-17,893	-0,11647	15,489
3175	-24,275	-17,893	-0,11647	15,489
3176	-24,773	-16,968	-0,11647	15,914
3176	-24,773	-16,968	-0,11647	15,914
3177	-25,267	-16,051	-0,11647	16,458
3177	-25,267	-16,051	-0,11647	16,458
3178	-25,76	-15,138	-0,11647	17,124
3178	-25,76	-15,138	-0,11647	17,124
3179	-26,248	-14,234	-0,11647	17,921
3179	-26,248	-14,234	-0,11647	17,921
3180	-26,736	-13,328	-0,11647	18,866
3180	-26,736	-13,328	-0,11647	18,866
3181	-27,219	-12,43	-0,11647	19,958
3181	-27,219	-12,43	-0,11647	19,958
3182	-27,707	-11,523	-0,11647	21,194
3182	-27,707	-11,523	-0,11647	21,194
3183	-28,182	-10,621	-0,11647	22,528
3183	-28,182	-10,621	-0,11647	22,528
3184	-28,664	-9,7296	-0,11647	23,889
3184	-28,664	-9,7296	-0,11647	23,889
3185	-29,153	-8,8415	-0,11647	25,151
3185	-29,153	-8,8415	-0,11647	25,151
3186	-29,641	-7,9527	-0,11647	26,139
3186	-29,641	-7,9527	-0,11647	26,139
3187	-30,135	-7,0752	-0,11647	26,656
3187	-30,135	-7,0752	-0,11647	26,656
3188	-30,624	-6,1981	-0,11647	26,509
3188	-30,624	-6,1981	-0,11647	26,509
3189	-31,091	-5,3222	-0,11647	25,677
3189	-31,091	-5,3222	-0,11647	25,677
3190	-31,548	-4,4655	-0,11647	24,461
3190	-31,548	-4,4655	-0,11647	24,461
3191	-31,866	-3,5669	-0,11647	23,291
3191	-31,866	-3,5669	-0,11647	23,291
3192	-32,129	-2,6375	-0,11647	22,432
3192	-32,129	-2,6375	-0,11647	22,432
3193	-32,307	-1,7001	-0,11647	22,098
3193	-32,307	-1,7001	-0,11647	22,098
3194	-32,424	-0,80422	-0,11647	21,973
3194	-32,424	-0,80422	-0,11647	21,973
3195	-32,487	7,2065e-002	-0,11647	21,97
3195	-32,487	7,2065e-002	-0,11647	21,97
3196	-32,46	0,95034	-0,11647	22,027
3196	-32,46	0,95034	-0,11647	22,027
3197	-32,309	1,868	-0,11647	22,26
3197	-32,309	1,868	-0,11647	22,26
3198	-32,078	2,7405	-0,11647	22,816
3198	-32,078	2,7405	-0,11647	22,816
3199	-31,886	3,494	-0,11647	23,526
3199	-31,886	3,494	-0,11647	23,526
3200	-31,551	4,1549	-0,11647	24,452
3200	-31,551	4,1549	-0,11647	24,452
3201	-31,291	5,1229	-0,11647	25,593
3201	-31,291	5,1229	-0,11647	25,593
3202	-30,774	5,9291	-0,11647	26,416
3202	-30,774	5,9291	-0,11647	26,416
3203	-30,256	6,7861	-0,11647	26,581
3203	-30,256	6,7861	-0,11647	26,581
3204	-29,742	7,6468	-0,11647	26,127
3204	-29,742	7,6468	-0,11647	26,127
3205	-29,229	8,5224	-0,11647	25,209
3205	-29,229	8,5224	-0,11647	25,209
3206	-28,719	9,4086	-0,11647	23,994
3206	-28,719	9,4086	-0,11647	23,994
3207	-28,232	10,309	-0,11647	22,659
3207	-28,232	10,309	-0,11647	22,659
3208	-27,754	11,203	-0,11647	21,335
3208	-27,754	11,203	-0,11647	21,335
3209	-27,274	12,1	-0,11647	20,107
3209	-27,274	12,1	-0,11647	20,107
3210	-26,791	12,999	-0,11647	19,014
3210	-26,791	12,999	-0,11647	19,014
3211	-26,308	13,896	-0,11647	18,074
3211	-26,308	13,896	-0,11647	18,074
3212	-25,822	14,793	-0,11647	17,279
3212	-25,822	14,793	-0,11647	17,279
3213	-25,334	15,698	-0,11647	16,618
3213	-25,334	15,698	-0,11647	16,618
3214	-24,359	17,505	-0,11647	15,669
3214	-24,359	17,505	-0,11647	15,669
3215	-23,865	18,417	-0,11647	15,365
3215	-23,865	18,417	-0,11647	15,365
3216	-23,373	19,33	-0,11647	15,156
3216	-23,373	19,33	-0,11647	15,156
3217	-22,881	20,245	-0,11647	15,039
3217	-22,881	20,245	-0,11647	15,039
3218	-22,381	21,167	-0,11647	15,017
3218	-22,381	21,167	-0,11647	15,017
3219	-21,88	22,091	-0,11647	15,08
3219	-21,88	22,091	-0,11647	15,08
3220	-21,383	23,015	-0,11647	15,218
3220	-21,383	23,015	-0,11647	15,218
3221	-20,891	23,939	-0,11647	15,436
3221	-20,891	23,939	-0,11647	15,436
3222	-20,383	24,877	-0,11647	15,735
3222	-20,383	24,877	-0,11647	15,735
3223	-19,874	25,821	-0,11647	16,112
3223	-19,874	25,821	-0,11647	16,112
3224	-19,36	26,768	-0,11647	16,566
3224	-19,36	26,768	-0,11647	16,566
3225	-18,842	27,716	-0,11647	17,098
3225	-18,842	27,716	-0,11647	17,098
3226	-18,328	28,679	-0,11647	17,703
3226	-18,328	28,679	-0,11647	17,703
3227	-17,816	29,641	-0,11647	18,382
3227	-17,816	29,641	-0,11647	18,382
3228	-17,292	30,6	-0,11647	19,142
3228	-17,292	30,6	-0,11647	19,142
3229	-16,769	31,564	-0,11647	19,972
3229	-16,769	31,564	-0,11647	19,972
3230	-16,259	32,53	-0,11647	20,866
3230	-16,259	32,53	-0,11647	20,866
3231	-15,745	33,488	-0,11647	21,828
3231	-15,745	33,488	-0,11647	21,828
3232	-15,223	34,443	-0,11647	22,858
3232	-15,223	34,443	-0,11647	22,858
3233	-14,709	35,401	-0,11647	23,937
3233	-14,709	35,401	-0,11647	23,937
3234	-14,204	36,351	-0,11647	25,055
3234	-14,204	36,351	-0,11647	25,055
3235	-13,691	37,297	-0,11647	26,207
3235	-13,691	37,297	-0,11647	26,207
3236	-13,175	38,246	-0,11647	27,37
3236	-13,175	38,246	-0,11647	27,37
3237	-12,667	39,198	-0,11647	28,494
3237	-12,667	39,198	-0,11647	28,494
3238	-12,171	40,152	-0,11647	29,534
3238	-12,171	40,152	-0,11647	29,534
3239	-11,659	41,099	-0,11647	30,413
3239	-11,659	41,099	-0,11647	30,413
3240	-11,152	42,046	-0,11647	31,025
3240	-11,152	42,046	-0,11647	31,025
3241	-10,655	42,984	-0,11647	31,229
3241	-10,655	42,984	-0,11647	31,229
3242	-10,165	43,911	-0,11647	30,887
3242	-10,165	43,911	-0,11647	30,887
3243	-9,6769	44,828	-0,11647	29,856
3243	-9,6769	44,828	-0,11647	29,856
3244	-9,1934	45,728	-0,11647	28,047
3244	-9,1934	45,728	-0,11647	28,047
3245	-8,7124	46,604	-0,11647	25,492
3245	-8,7124	46,604	-0,11647	25,492
3246	-8,24	47,461	-0,11647	22,406
3246	-8,24	47,461	-0,11647	22,406
3247	-7,7851	48,285	-0,11647	19,327
3247	-7,7851	48,285	-0,11647	19,327
3248	-7,2465	49,033	-0,11647	16,666
3248	-7,2465	49,033	-0,11647	16,666
3249	-6,6697	49,738	-0,11647	14,659
3249	-6,6697	49,738	-0,11647	14,659
3250	-5,991	50,428	-0,11647	13,3
3250	-5,991	50,428	-0,11647	13,3
3251	-5,2136	51,011	-0,11647	12,569
3251	-5,2136	51,011	-0,11647	12,569
3252	-4,4286	51,532	-0,11647	12,436
3252	-4,4286	51,532	-0,11647	12,436
3253	-3,6379	51,989	-0,11647	12,649
3253	-3,6379	51,989	-0,11647	12,649
3254	-2,8256	52,378	-0,11647	13,037
3254	-2,8256	52,378	-0,11647	13,037
3255	-1,9557	52,704	-0,11647	13,493
3255	-1,9557	52,704	-0,11647	13,493
3256	-1,138	52,967	-0,11647	14,152
3256	-1,138	52,967	-0,11647	14,152
3257	-0,34321	53,126	-0,11647	14,453
3257	-0,34321	53,126	-0,11647	14,453
3258	0,46926	53,069	-0,11647	14,422
3258	0,46926	53,069	-0,11647	14,422
3259	1,3158	52,925	-0,11647	14,069
3259	1,3158	52,925	-0,11647	14,069
3260	2,1778	52,676	-0,11647	13,63
3260	2,1778	52,676	-0,11647	13,63
3261	3,0326	52,373	-0,11647	13,125
3261	3,0326	52,373	-0,11647	13,125
3262	3,8516	51,97	-0,11647	12,661
3262	3,8516	51,97	-0,11647	12,661
3263	4,618	51,49	-0,11647	12,504
3263	4,618	51,49	-0,11647	12,504
3264	5,3351	50,94	-0,11647	12,799
3264	5,3351	50,94	-0,11647	12,799
3265	6,0255	50,273	-0,11647	13,712
3265	6,0255	50,273	-0,11647	13,712
3266	6,6885	49,542	-0,11647	15,283
3266	6,6885	49,542	-0,11647	15,283
3267	7,3098	48,8	-0,11647	17,44
3267	7,3098	48,8	-0,11647	17,44
3268	7,904	48,046	-0,11647	20,266
3268	7,904	48,046	-0,11647	20,266
3269	8,3818	47,181	-0,11647	23,295
3269	8,3818	47,181	-0,11647	23,295
3270	8,8561	46,431	-0,11647	25,987
3270	8,8561	46,431	-0,11647	25,987
3271	9,323	45,693	-0,11647	28,206
3271	9,323	45,693	-0,11647	28,206
3272	9,7587	44,778	-0,11647	29,871
3272	9,7587	44,778	-0,11647	29,871
3273	10,16	43,909	-0,11647	30,864
3273	10,16	43,909	-0,11647	30,864
3274	10,645	43,001	-0,11647	31,218
3274	10,645	43,001	-0,11647	31,218
3275	11,135	42,078	-0,11647	31,031
3275	11,135	42,078	-0,11647	31,031
3276	11,637	41,13	-0,11647	30,438
3276	11,637	41,13	-0,11647	30,438
3277	12,154	40,172	-0,11647	29,56
3277	12,154	40,172	-0,11647	29,56
3278	12,664	39,216	-0,11647	28,513
3278	12,664	39,216	-0,11647	28,513
3279	13,174	38,26	-0,11647	27,38
3279	13,174	38,26	-0,11647	27,38
3280	13,694	37,307	-0,11647	26,212
3280	13,694	37,307	-0,11647	26,212
3281	14,211	36,36	-0,11647	25,053
3281	14,211	36,36	-0,11647	25,053
3282	14,719	35,394	-0,11647	23,926
3282	14,719	35,394	-0,11647	23,926
3283	15,232	34,435	-0,11647	22,845
3283	15,232	34,435	-0,11647	22,845
3284	15,752	33,481	-0,11647	21,816
3284	15,752	33,481	-0,11647	21,816
3285	16,268	32,524	-0,11647	20,855
3285	16,268	32,524	-0,11647	20,855
3286	16,779	31,558	-0,11647	19,962
3286	16,779	31,558	-0,11647	19,962
3287	17,298	30,605	-0,11647	19,135
3287	17,298	30,605	-0,11647	19,135
3288	17,819	29,647	-0,11647	18,378
3288	17,819	29,647	-0,11647	18,378
3289	18,331	28,687	-0,11647	17,699
3289	18,331	28,687	-0,11647	17,699
3290	18,845	27,725	-0,11647	17,094
3290	18,845	27,725	-0,11647	17,094
3291	19,362	26,771	-0,11647	16,561
3291	19,362	26,771	-0,11647	16,561
3292	19,871	25,826	-0,11647	16,108
3292	19,871	25,826	-0,11647	16,108
3293	20,379	24,881	-0,11647	15,731
3293	20,379	24,881	-0,11647	15,731
3294	20,892	23,932	-0,11647	15,428
3294	20,892	23,932	-0,11647	15,428
3295	21,393	23,002	-0,11647	15,209
3295	21,393	23,002	-0,11647	15,209
3296	21,89	22,075	-0,11647	15,07
3296	21,89	22,075	-0,11647	15,07
3297	22,391	21,153	-0,11647	15,006
3297	22,391	21,153	-0,11647	15,006
3298	22,89	20,234	-0,11647	15,029
3298	22,89	20,234	-0,11647	15,029
3299	23,382	19,315	-0,11647	15,146
3299	23,382	19,315	-0,11647	15,146
3300	23,871	18,401	-0,11647	15,356
3300	23,871	18,401	-0,11647	15,356
3301	24,367	17,488	-0,11647	15,663
3301	24,367	17,488	-0,11647	15,663
3302	24,856	16,582	-0,11647	16,077
3302	24,856	16,582	-0,11647	16,077
3303	25,343	15,675	-0,11647	16,614
3303	25,343	15,675	-0,11647	16,614
3304	25,831	14,77	-0,11647	17,273
3304	25,831	14,77	-0,11647	17,273
3305	26,311	13,884	-0,11647	18,059
3305	26,311	13,884	-0,11647	18,059
3306	26,794	12,992	-0,11647	18,987
3306	26,794	12,992	-0,11647	18,987
3307	27,28	12,104	-0,11647	20,066
3307	27,28	12,104	-0,11647	20,066
3308	27,761	11,215	-0,11647	21,277
3308	27,761	11,215	-0,11647	21,277
3309	28,243	10,331	-0,11647	22,6
3309	28,243	10,331	-0,11647	22,6
3310	28,708	9,4412	-0,11647	23,962
3310	28,708	9,4412	-0,11647	23,962
3311	29,177	8,5482	-0,11647	25,245
3311	29,177	8,5482	-0,11647	25,245
3312	29,635	7,6383	-0,11647	26,254
3312	29,635	7,6383	-0,11647	26,254
3313	30,085	6,7123	-0,11647	26,744
3313	30,085	6,7123	-0,11647	26,744
3314	30,537	5,6926	-0,11647	26,615
3314	30,537	5,6926	-0,11647	26,615
3315	31,325	5,2014	-0,11647	25,704
3315	31,325	5,2014	-0,11647	25,704
3316	31,296	4,4168	-0,11647	24,727
3316	31,296	4,4168	-0,11647	24,727
3317	31,57	3,5959	-0,11647	23,71
3317	31,57	3,5959	-0,11647	23,71
3318	31,896	2,6964	-0,11647	22,731
3318	31,896	2,6964	-0,11647	22,731
3319	32,149	1,8117	-0,11647	22,103
3319	32,149	1,8117	-0,11647	22,103
3320	32,334	0,87771	-0,11647	21,793
3320	32,334	0,87771	-0,11647	21,793
3321	32,437	-5,0952e-002	-0,11647	21,86
3321	32,437	-5,0952e-002	-0,11647	21,86
3322	32,434	-0,94619	-0,11647	22,064
3322	32,434	-0,94619	-0,11647	22,064
3323	32,336	-1,8203	-0,11647	22,274
3323	32,336	-1,8203	-0,11647	22,274
3324	32,131	-2,6987	-0,11647	22,673
3324	32,131	-2,6987	-0,11647	22,673
3325	31,855	-3,5904	-0,11647	23,401
3325	31,855	-3,5904	-0,11647	23,401
3326	31,524	-4,4646	-0,11647	24,507
3326	31,524	-4,4646	-0,11647	24,507
3327	31,073	-5,3115	-0,11647	25,667
3327	31,073	-5,3115	-0,11647	25,667
3328	30,607	-6,1787	-0,11647	26,463
3328	30,607	-6,1787	-0,11647	26,463
3329	30,136	-7,0643	-0,11647	26,602
3329	30,136	-7,0643	-0,11647	26,602
3330	29,653	-7,9633	-0,11647	26,075
3330	29,653	-7,9633	-0,11647	26,075
3331	29,151	-8,8531	-0,11647	25,07
3331	29,151	-8,8531	-0,11647	25,07
3332	28,666	-9,7452	-0,11647	23,813
3332	28,666	-9,7452	-0,11647	23,813
3333	28,178	-10,64	-0,11647	22,459
3333	28,178	-10,64	-0,11647	22,459
3334	27,693	-11,543	-0,11647	21,134
3334	27,693	-11,543	-0,11647	21,134
3335	27,21	-12,442	-0,11647	19,913
3335	27,21	-12,442	-0,11647	19,913
3336	26,719	-13,343	-0,11647	18,824
3336	26,719	-13,343	-0,11647	18,824
3337	26,237	-14,255	-0,11647	17,884
3337	26,237	-14,255	-0,11647	17,884
3338	25,738	-15,163	-0,11647	17,085
3338	25,738	-15,163	-0,11647	17,085
3339	25,243	-16,085	-0,11647	16,421
3339	25,243	-16,085	-0,11647	16,421
3340	24,75	-17,004	-0,11647	15,881
3340	24,75	-17,004	-0,11647	15,881
3341	24,257	-17,924	-0,11647	15,462
3341	24,257	-17,924	-0,11647	15,462
3342	23,751	-18,853	-0,11647	15,147
3342	23,751	-18,853	-0,11647	15,147
3343	23,253	-19,781	-0,11647	14,927
3343	23,253	-19,781	-0,11647	14,927
3344	22,754	-20,712	-0,11647	14,799
3344	22,754	-20,712	-0,11647	14,799
3345	22,245	-21,646	-0,11647	14,761
3345	22,245	-21,646	-0,11647	14,761
3346	21,738	-22,581	-0,11647	14,799
3346	21,738	-22,581	-0,11647	14,799
3347	21,235	-23,516	-0,11647	14,904
3347	21,235	-23,516	-0,11647	14,904
3348	20,734	-24,457	-0,11647	15,084
3348	20,734	-24,457	-0,11647	15,084
3349	20,218	-25,409	-0,11647	15,332
3349	20,218	-25,409	-0,11647	15,332
3350	19,703	-26,364	-0,11647	15,641
3350	19,703	-26,364	-0,11647	15,641
3351	19,185	-27,322	-0,11647	16,01
3351	19,185	-27,322	-0,11647	16,01
3352	18,663	-28,288	-0,11647	16,433
3352	18,663	-28,288	-0,11647	16,433
3353	18,15	-29,257	-0,11647	16,903
3353	18,15	-29,257	-0,11647	16,903
3354	17,624	-30,231	-0,11647	17,417
3354	17,624	-30,231	-0,11647	17,417
3355	17,093	-31,207	-0,11647	17,967
3355	17,093	-31,207	-0,11647	17,967
3356	16,567	-32,195	-0,11647	18,537
3356	16,567	-32,195	-0,11647	18,537
3357	16,044	-33,18	-0,11647	19,114
3357	16,044	-33,18	-0,11647	19,114
3358	15,51	-34,159	-0,11647	19,687
3358	15,51	-34,159	-0,11647	19,687
3359	14,98	-35,142	-0,11647	20,227
3359	14,98	-35,142	-0,11647	20,227
3360	14,462	-36,122	-0,11647	20,706
3360	14,462	-36,122	-0,11647	20,706
3361	13,934	-37,095	-0,11647	21,102
3361	13,934	-37,095	-0,11647	21,102
3362	13,41	-38,058	-0,11647	21,384
3362	13,41	-38,058	-0,11647	21,384
3363	12,893	-39,022	-0,11647	21,503
3363	12,893	-39,022	-0,11647	21,503
3364	12,385	-39,976	-0,11647	21,426
3364	12,385	-39,976	-0,11647	21,426
3365	11,868	-40,929	-0,11647	21,125
3365	11,868	-40,929	-0,11647	21,125
3366	11,352	-41,881	-0,11647	20,567
3366	11,352	-41,881	-0,11647	20,567
3367	10,848	-42,823	-0,11647	19,743
3367	10,848	-42,823	-0,11647	19,743
3368	10,352	-43,751	-0,11647	18,682
3368	10,352	-43,751	-0,11647	18,682
3369	9,8734	-44,659	-0,11647	17,429
3369	9,8734	-44,659	-0,11647	17,429
3370	9,3986	-45,564	-0,11647	16,029
3370	9,3986	-45,564	-0,11647	16,029
3371	8,9446	-46,462	-0,11647	14,531
3371	8,9446	-46,462	-0,11647	14,531
3372	8,4747	-47,351	-0,11647	12,982
3372	8,4747	-47,351	-0,11647	12,982
3373	7,9839	-48,216	-0,11647	11,507
3373	7,9839	-48,216	-0,11647	11,507
3374	7,4276	-49,01	-0,11647	10,259
3374	7,4276	-49,01	-0,11647	10,259
3375	6,869	-49,783	-0,11647	9,3164
3375	6,869	-49,783	-0,11647	9,3164
3376	6,2797	-50,474	-0,11647	8,5849
3376	6,2797	-50,474	-0,11647	8,5849
3377	5,6677	-51,091	-0,11647	8,0046
3377	5,6677	-51,091	-0,11647	8,0046
3378	5,0195	-51,536	-0,11647	7,4718
3378	5,0195	-51,536	-0,11647	7,4718
3379	4,2023	-51,927	-0,11647	7,0013
3379	4,2023	-51,927	-0,11647	7,0013
3380	3,3542	-52,249	-0,11647	6,6621
3380	3,3542	-52,249	-0,11647	6,6621
3381	2,4974	-52,501	-0,11647	6,4173
3381	2,4974	-52,501	-0,11647	6,4173
3382	1,6747	-52,643	-0,11647	6,2382
3382	1,6747	-52,643	-0,11647	6,2382
3383	0,78953	-52,787	-0,11647	6,1299
3383	0,78953	-52,787	-0,11647	6,1299
3384	-0,19396	-52,85	-0,11647	6,1283
3384	-0,19396	-52,85	-0,11647	6,1283
3385	-1,1393	-52,803	-0,11647	6,2097
3385	-1,1393	-52,803	-0,11647	6,2097
3386	-2,0418	-52,615	-0,11647	6,3633
3386	-2,0418	-52,615	-0,11647	6,3633
3387	-2,9245	-52,344	-0,11647	6,5844
3387	-2,9245	-52,344	-0,11647	6,5844
3388	-3,741	-51,981	-0,11647	6,89
3388	-3,741	-51,981	-0,11647	6,89
3389	-4,5411	-51,545	-0,11647	7,291
3389	-4,5411	-51,545	-0,11647	7,291
3390	-5,302	-51,034	-0,11647	7,8001
3390	-5,302	-51,034	-0,11647	7,8001
3391	-6,0092	-50,454	-0,11647	8,4271
3391	-6,0092	-50,454	-0,11647	8,4271
3392	-6,7442	-49,745	-0,11647	9,2424
3392	-6,7442	-49,745	-0,11647	9,2424
3393	-7,972	-48,221	-0,11647	11,52
3393	-7,972	-48,221	-0,11647	11,52
3394	-2,0934	49,434	-0,11647	11,191
3394	-2,0934	49,434	-0,11647	11,191
3395	-0,65808	49,781	-0,11647	8,7506
3395	-0,65808	49,781	-0,11647	8,7506
3396	1,7408	49,156	-0,11647	8,0111
3396	1,7408	49,156	-0,11647	8,0111
3397	0,70776	49,52	-0,11647	7,9991
3397	0,70776	49,52	-0,11647	7,9991
3398	4,0901	42,23	-0,11647	72,909
3398	4,0901	42,23	-0,11647	72,909
3399	3,3778	41,562	-0,11647	64,87
3399	3,3778	41,562	-0,11647	64,87
3400	2,5736	40,878	-0,11647	53,455
3400	2,5736	40,878	-0,11647	53,455
3401	0,96817	39,876	-0,11647	35,197
3401	0,96817	39,876	-0,11647	35,197
3402	1,6806	40,343	-0,11647	41,603
3402	1,6806	40,343	-0,11647	41,603
3403	-0,55841	39,743	-0,11647	33,611
3403	-0,55841	39,743	-0,11647	33,611
3404	-2,1326	40,682	-0,11647	47,975
3404	-2,1326	40,682	-0,11647	47,975
3405	-3,0245	41,237	-0,11647	60,197
3405	-3,0245	41,237	-0,11647	60,197
3406	-3,799	41,922	-0,11647	69,817
3406	-3,799	41,922	-0,11647	69,817
3407	-5,1476	43,825	-0,11647	67,277
3407	-5,1476	43,825	-0,11647	67,277
3408	-5,0578	44,791	-0,11647	65,429
3408	-5,0578	44,791	-0,11647	65,429
3409	-5,3487	45,996	-0,11647	54,885
3409	-5,3487	45,996	-0,11647	54,885
3410	-4,8769	46,877	-0,11647	45,882
3410	-4,8769	46,877	-0,11647	45,882
3411	-4,0034	48,285	-0,11647	29,932
3411	-4,0034	48,285	-0,11647	29,932
3412	-3,7532	-42,047	-0,11647	62,817
3412	-3,7532	-42,047	-0,11647	62,817
3413	-2,9591	-41,391	-0,11647	71,055
3413	-2,9591	-41,391	-0,11647	71,055
3414	-1,2215	-40,322	-0,11647	76,403
3414	-1,2215	-40,322	-0,11647	76,403
3415	-2,0696	-40,805	-0,11647	75,817
3415	-2,0696	-40,805	-0,11647	75,817
3416	1,0581	-40,038	-0,11647	73,359
3416	1,0581	-40,038	-0,11647	73,359
3417	1,7678	-40,534	-0,11647	75,345
3417	1,7678	-40,534	-0,11647	75,345
3418	2,6644	-41,08	-0,11647	72,316
3418	2,6644	-41,08	-0,11647	72,316
3419	4,243	-42,168	-0,11647	54,471
3419	4,243	-42,168	-0,11647	54,471
3420	3,5197	-41,707	-0,11647	65,11
3420	3,5197	-41,707	-0,11647	65,11
3421	-0,20963	-49,881	-0,11647	3,3634
3421	-0,20963	-49,881	-0,11647	3,3634
3422	-1,1174	-49,662	-0,11647	4,0126
3422	-1,1174	-49,662	-0,11647	4,0126
3423	-2,8983	-49,173	-0,11647	7,1148
3423	-2,8983	-49,173	-0,11647	7,1148
3424	-2,0892	-49,416	-0,11647	5,5549
3424	-2,0892	-49,416	-0,11647	5,5549
3425	-4,0145	-47,622	-0,11647	13,675
3425	-4,0145	-47,622	-0,11647	13,675
3426	-4,3821	-46,737	-0,11647	19,556
3426	-4,3821	-46,737	-0,11647	19,556
3427	-4,6805	-45,74	-0,11647	27,41
3427	-4,6805	-45,74	-0,11647	27,41
3428	-5,0196	-43,969	-0,11647	37,373
3428	-5,0196	-43,969	-0,11647	37,373
3429	-4,8147	-44,758	-0,11647	34,446
3429	-4,8147	-44,758	-0,11647	34,446
3430	22,093	3,7875	-0,11647	45,953
3430	22,093	3,7875	-0,11647	45,953
3431	23,036	4,2488	-0,11647	53,733
3431	23,036	4,2488	-0,11647	53,733
3432	25,014	4,811	-0,11647	59,41
3432	25,014	4,811	-0,11647	59,41
3433	24,05	4,5534	-0,11647	58,68
3433	24,05	4,5534	-0,11647	58,68
3434	29,297	-2,5518	-0,11647	30,122
3434	29,297	-2,5518	-0,11647	30,122
3435	28,787	-3,198	-0,11647	36,886
3435	28,787	-3,198	-0,11647	36,886
3436	27,099	-4,9902	-0,11647	46,137
3436	27,099	-4,9902	-0,11647	46,137
3437	28,	-4,2986	-0,11647	42,363
3437	28,	-4,2986	-0,11647	42,363
3438	25,632	-5,2809	-0,11647	55,975
3438	25,632	-5,2809	-0,11647	55,975
3439	24,918	-4,968	-0,11647	61,196
3439	24,918	-4,968	-0,11647	61,196
3440	23,977	-4,6903	-0,11647	59,98
3440	23,977	-4,6903	-0,11647	59,98
3441	22,989	-4,3974	-0,11647	54,384
3441	22,989	-4,3974	-0,11647	54,384
3442	21,289	-3,6139	-0,11647	39,162
3442	21,289	-3,6139	-0,11647	39,162
3443	22,043	-3,948	-0,11647	46,148
3443	22,043	-3,948	-0,11647	46,148
3444	20,37	-1,5782	-0,11647	32,374
3444	20,37	-1,5782	-0,11647	32,374
3445	20,298	-0,58918	-0,11647	29,806
3445	20,298	-0,58918	-0,11647	29,806
3446	20,412	2,2461	-0,11647	35,228
3446	20,412	2,2461	-0,11647	35,228
3447	20,402	1,4258	-0,11647	32,624
3447	20,402	1,4258	-0,11647	32,624
3448	20,29	0,44782	-0,11647	29,927
3448	20,29	0,44782	-0,11647	29,927
3449	4,9469	-43,537	-0,11647	40,545
3449	4,9469	-43,537	-0,11647	40,545
3450	3,5789	-48,991	-0,11647	8,203
3450	3,5789	-48,991	-0,11647	8,203
3451	4,2984	-48,159	-0,11647	11,136
3451	4,2984	-48,159	-0,11647	11,136
3452	4,1854	-47,193	-0,11647	16,65
3452	4,1854	-47,193	-0,11647	16,65
3453	4,4643	-46,262	-0,11647	23,867
3453	4,4643	-46,262	-0,11647	23,867
3454	4,6228	-45,281	-0,11647	32,517
3454	4,6228	-45,281	-0,11647	32,517
3455	4,7659	-44,337	-0,11647	38,67
3455	4,7659	-44,337	-0,11647	38,67
3456	2,7017	48,628	-0,11647	20,447
3456	2,7017	48,628	-0,11647	20,447
3457	3,6504	47,937	-0,11647	36,256
3457	3,6504	47,937	-0,11647	36,256
3458	4,2144	46,892	-0,11647	58,394
3458	4,2144	46,892	-0,11647	58,394
3459	4,9641	44,247	-0,11647	71,581
3459	4,9641	44,247	-0,11647	71,581
3460	4,6993	45,076	-0,11647	74,809
3460	4,6993	45,076	-0,11647	74,809
3461	-20,192	-2,0063	-0,11647	33,187
3461	-20,192	-2,0063	-0,11647	33,187
3462	-20,212	-1,1585	-0,11647	30,721
3462	-20,212	-1,1585	-0,11647	30,721
3463	-20,159	-0,13284	-0,11647	29,383
3463	-20,159	-0,13284	-0,11647	29,383
3464	-20,165	0,85126	-0,11647	30,6
3464	-20,165	0,85126	-0,11647	30,6
3465	27,927	3,7592	-0,11647	45,343
3465	27,927	3,7592	-0,11647	45,343
3466	28,537	2,891	-0,11647	39,14
3466	28,537	2,891	-0,11647	39,14
3467	29,747	-1,4967	-0,11647	22,813
3467	29,747	-1,4967	-0,11647	22,813
3468	29,315	1,1185	-0,11647	21,864
3468	29,315	1,1185	-0,11647	21,864
3469	7,7238	1,1237	-0,11647	14,784
3469	7,7238	1,1237	-0,11647	14,784
3470	-3,864	-48,305	-0,11647	10,232
3470	-3,864	-48,305	-0,11647	10,232
3471	-8,0532	-0,8587	-0,11647	15,
3471	-8,0532	-0,8587	-0,11647	15,
3472	-4,1492	-49,77	-0,11647	7,9808
3472	-4,1492	-49,77	-0,11647	7,9808
3473	-5,4817	-48,78	-0,11647	10,444
3473	-5,4817	-48,78	-0,11647	10,444
3474	7,7208	-0,8283	-0,11647	14,854
3474	7,7208	-0,8283	-0,11647	14,854
3475	-7,8803	1,1373	-0,11647	14,906
3475	-7,8803	1,1373	-0,11647	14,906
3476	5,9337	4,2348e-002	-0,11647	14,149
3476	5,9337	4,2348e-002	-0,11647	14,149
3477	-6,1943	0,11731	-0,11647	14,241
3477	-6,1943	0,11731	-0,11647	14,241
3478	6,7191	-0,62294	-0,11647	14,479
3478	6,7191	-0,62294	-0,11647	14,479
3479	6,6802	0,87105	-0,11647	14,45
3479	6,6802	0,87105	-0,11647	14,45
3480	8,046	9,2952e-002	-0,11647	14,999
3480	8,046	9,2952e-002	-0,11647	14,999
3481	7,1344	0,10289	-0,11647	14,732
3481	7,1344	0,10289	-0,11647	14,732
3482	-4,7248	-48,381	-0,11647	11,152
3482	-4,7248	-48,381	-0,11647	11,152
3483	-3,7265	-49,021	-0,11647	8,3798
3483	-3,7265	-49,021	-0,11647	8,3798
3484	-4,8981	-49,391	-0,11647	9,1408
3484	-4,8981	-49,391	-0,11647	9,1408
3485	-7,0367	-0,5729	-0,11647	14,595
3485	-7,0367	-0,5729	-0,11647	14,595
3486	-8,2611	0,176	-0,11647	15,12
3486	-8,2611	0,176	-0,11647	15,12
3487	-6,9256	0,82824	-0,11647	14,535
3487	-6,9256	0,82824	-0,11647	14,535
3488	-7,4058	0,14207	-0,11647	14,838
3488	-7,4058	0,14207	-0,11647	14,838
3489	-0,36956	-14,883	-0,11647	12,982
3489	-0,36956	-14,883	-0,11647	12,982
3490	-4,9324	47,663	-0,11647	32,365
3490	-4,9324	47,663	-0,11647	32,365
3491	14,693	-4,463e-002	-0,11647	21,096
3491	14,693	-4,463e-002	-0,11647	21,096
3492	21,953	-17,929	-0,11647	16,511
3492	21,953	-17,929	-0,11647	16,511
3493	-12,082	16,963	-0,11647	16,198
3493	-12,082	16,963	-0,11647	16,198
3494	-8,5803	-23,584	-0,11647	19,146
3494	-8,5803	-23,584	-0,11647	19,146
3495	-9,3622	-18,02	-0,11647	15,989
3495	-9,3622	-18,02	-0,11647	15,989
3496	15,763	24,907	-0,11647	18,178
3496	15,763	24,907	-0,11647	18,178
3497	-1,0636	7,5519	-0,11647	12,252
3497	-1,0636	7,5519	-0,11647	12,252
3498	-8,823	44,385	-0,11647	32,726
3498	-8,823	44,385	-0,11647	32,726
3499	-3,7607	9,4482	-0,11647	12,342
3499	-3,7607	9,4482	-0,11647	12,342
3500	24,998	-10,134	-0,11647	24,838
3500	24,998	-10,134	-0,11647	24,838
3501	31,626	3,3247e-002	-0,11647	22,005
3501	31,626	3,3247e-002	-0,11647	22,005
3502	2,7127	51,587	-0,11647	13,166
3502	2,7127	51,587	-0,11647	13,166
3503	4,3806	-19,003	-0,11647	15,757
3503	4,3806	-19,003	-0,11647	15,757
3504	-19,965	2,7632	-0,11647	32,194
3504	-19,965	2,7632	-0,11647	32,194
3505	4,9712	-36,474	-0,11647	38,169
3505	4,9712	-36,474	-0,11647	38,169
3506	8,4636	-15,706	-0,11647	14,816
3506	8,4636	-15,706	-0,11647	14,816
3507	17,021	26,816	-0,11647	18,065
3507	17,021	26,816	-0,11647	18,065
3508	-16,24	-15,916	-0,11647	17,382
3508	-16,24	-15,916	-0,11647	17,382
3509	-17,232	-14,113	-0,11647	18,152
3509	-17,232	-14,113	-0,11647	18,152
3510	12,997	25,774	-0,11647	19,476
3510	12,997	25,774	-0,11647	19,476
3511	4,5079	-9,544	-0,11647	12,586
3511	4,5079	-9,544	-0,11647	12,586
3512	-15,432	-13,213	-0,11647	17,585
3512	-15,432	-13,213	-0,11647	17,585
3513	2,8799	-24,193	-0,11647	20,353
3513	2,8799	-24,193	-0,11647	20,353
3514	-2,9813	49,244	-0,11647	15,242
3514	-2,9813	49,244	-0,11647	15,242
3515	4,7209	-20,478	-0,11647	16,896
3515	4,7209	-20,478	-0,11647	16,896
3516	-6,4338	-11,183	-0,11647	13,146
3516	-6,4338	-11,183	-0,11647	13,146
3517	12,787	21,957	-0,11647	17,868
3517	12,787	21,957	-0,11647	17,868
3518	13,665	22,45	-0,11647	17,97
3518	13,665	22,45	-0,11647	17,97
3519	4,3033	-32,464	-0,11647	31,146
3519	4,3033	-32,464	-0,11647	31,146
3520	-8,5959	-13,201	-0,11647	14,216
3520	-8,5959	-13,201	-0,11647	14,216
3521	10,39	-20,374	-0,11647	17,197
3521	10,39	-20,374	-0,11647	17,197
3522	-4,9897	-17,745	-0,11647	15,012
3522	-4,9897	-17,745	-0,11647	15,012
3523	-14,769	-4,1199	-0,11647	20,26
3523	-14,769	-4,1199	-0,11647	20,26
3524	6,2999	25,446	-0,11647	20,515
3524	6,2999	25,446	-0,11647	20,515
3525	22,301	12,907	-0,11647	20,137
3525	22,301	12,907	-0,11647	20,137
3526	-2,281	-7,3454	-0,11647	12,435
3526	-2,281	-7,3454	-0,11647	12,435
3527	-4,4302	-42,546	-0,11647	51,659
3527	-4,4302	-42,546	-0,11647	51,659
3528	1,9568	-32,771	-0,11647	33,905
3528	1,9568	-32,771	-0,11647	33,905
3529	-6,3174	-17,462	-0,11647	15,077
3529	-6,3174	-17,462	-0,11647	15,077
3530	-6,6779	-18,804	-0,11647	15,924
3530	-6,6779	-18,804	-0,11647	15,924
3531	29,102	6,2563	-0,11647	28,764
3531	29,102	6,2563	-0,11647	28,764
3532	26,817	5,3813	-0,11647	42,6
3532	26,817	5,3813	-0,11647	42,6
3533	-18,556	13,372	-0,11647	18,864
3533	-18,556	13,372	-0,11647	18,864
3534	-19,934	12,919	-0,11647	19,66
3534	-19,934	12,919	-0,11647	19,66
3535	-20,901	11,118	-0,11647	21,787
3535	-20,901	11,118	-0,11647	21,787
3536	-9,4458	-24,096	-0,11647	19,333
3536	-9,4458	-24,096	-0,11647	19,333
3537	9,2806	41,311	-0,11647	34,727
3537	9,2806	41,311	-0,11647	34,727
3538	-20,021	8,4235	-0,11647	24,644
3538	-20,021	8,4235	-0,11647	24,644
3539	7,1651	-7,58	-0,11647	13,707
3539	7,1651	-7,58	-0,11647	13,707
3540	5,9001	-7,8883	-0,11647	13,12
3540	5,9001	-7,8883	-0,11647	13,12
3541	17,403	11,572	-0,11647	19,213
3541	17,403	11,572	-0,11647	19,213
3542	7,2577	15,362	-0,11647	14,187
3542	7,2577	15,362	-0,11647	14,187
3543	-17,061	1,4306	-0,11647	25,155
3543	-17,061	1,4306	-0,11647	25,155
3544	4,8351	-18,112	-0,11647	15,211
3544	4,8351	-18,112	-0,11647	15,211
3545	-11,346	-29,008	-0,11647	21,336
3545	-11,346	-29,008	-0,11647	21,336
3546	-20,505	-12,293	-0,11647	20,59
3546	-20,505	-12,293	-0,11647	20,59
3547	7,0309	9,7557	-0,11647	13,241
3547	7,0309	9,7557	-0,11647	13,241
3548	-0,63614	4,6611	-0,11647	12,769
3548	-0,63614	4,6611	-0,11647	12,769
3549	-4,7406	9,9524	-0,11647	12,53
3549	-4,7406	9,9524	-0,11647	12,53
3550	-0,16513	-5,9055	-0,11647	12,574
3550	-0,16513	-5,9055	-0,11647	12,574
3551	-3,5964	-32,835	-0,11647	32,651
3551	-3,5964	-32,835	-0,11647	32,651
3552	-2,31	-33,116	-0,11647	34,495
3552	-2,31	-33,116	-0,11647	34,495
3553	4,8639	11,113	-0,11647	12,587
3553	4,8639	11,113	-0,11647	12,587
3554	13,274	-17,106	-0,11647	16,618
3554	13,274	-17,106	-0,11647	16,618
3555	5,4717	48,307	-0,11647	24,238
3555	5,4717	48,307	-0,11647	24,238
3556	-5,2569	-43,062	-0,11647	37,284
3556	-5,2569	-43,062	-0,11647	37,284
3557	14,457	31,595	-0,11647	21,723
3557	14,457	31,595	-0,11647	21,723
3558	-12,075	-4,2407e-003	-0,11647	17,969
3558	-12,075	-4,2407e-003	-0,11647	17,969
3559	-5,5253	-10,752	-0,11647	12,838
3559	-5,5253	-10,752	-0,11647	12,838
3560	-20,484	-20,661	-0,11647	15,989
3560	-20,484	-20,661	-0,11647	15,989
3561	-6,331	17,058	-0,11647	14,682
3561	-6,331	17,058	-0,11647	14,682
3562	-3,0215	10,304	-0,11647	12,192
3562	-3,0215	10,304	-0,11647	12,192
3563	5,4143	43,254	-0,11647	63,012
3563	5,4143	43,254	-0,11647	63,012
3564	-4,8897	-32,511	-0,11647	30,583
3564	-4,8897	-32,511	-0,11647	30,583
3565	-8,953	9,67	-0,11647	14,084
3565	-8,953	9,67	-0,11647	14,084
3566	6,455	35,687	-0,11647	32,57
3566	6,455	35,687	-0,11647	32,57
3567	-28,137	5,0669	-0,11647	35,609
3567	-28,137	5,0669	-0,11647	35,609
3568	8,925	39,843	-0,11647	34,935
3568	8,925	39,843	-0,11647	34,935
3569	-10,524	-3,3025	-0,11647	16,29
3569	-10,524	-3,3025	-0,11647	16,29
3570	18,778	-25,927	-0,11647	16,224
3570	18,778	-25,927	-0,11647	16,224
3571	-4,0428	-19,405	-0,11647	16,028
3571	-4,0428	-19,405	-0,11647	16,028
3572	23,379	7,6013	-0,11647	31,262
3572	23,379	7,6013	-0,11647	31,262
3573	-0,50283	37,012	-0,11647	34,607
3573	-0,50283	37,012	-0,11647	34,607
3574	-13,942	15,617	-0,11647	16,605
3574	-13,942	15,617	-0,11647	16,605
3575	18,786	-5,0114	-0,11647	27,259
3575	18,786	-5,0114	-0,11647	27,259
3576	26,396	-9,6821	-0,11647	25,292
3576	26,396	-9,6821	-0,11647	25,292
3577	26,532	9,4163	-0,11647	25,279
3577	26,532	9,4163	-0,11647	25,279
3578	30,336	2,4405	-0,11647	24,475
3578	30,336	2,4405	-0,11647	24,475
3579	5,8639	44,548	-0,11647	55,498
3579	5,8639	44,548	-0,11647	55,498
3580	-18,396	-4,8401	-0,11647	26,454
3580	-18,396	-4,8401	-0,11647	26,454
3581	-15,205	-7,9755	-0,11647	19,35
3581	-15,205	-7,9755	-0,11647	19,35
3582	-30,805	-2,1517	-0,11647	22,88
3582	-30,805	-2,1517	-0,11647	22,88
3583	13,05	32,082	-0,11647	23,044
3583	13,05	32,082	-0,11647	23,044
3584	-13,486	-6,7905	-0,11647	18,004
3584	-13,486	-6,7905	-0,11647	18,004
3585	1,5716	50,955	-0,11647	11,707
3585	1,5716	50,955	-0,11647	11,707
3586	12,152	16,842	-0,11647	16,189
3586	12,152	16,842	-0,11647	16,189
3587	0,24671	-39,317	-0,11647	65,897
3587	0,24671	-39,317	-0,11647	65,897
3588	4,5358	45,935	-0,11647	71,807
3588	4,5358	45,935	-0,11647	71,807
3589	-3,2616	30,504	-0,11647	26,094
3589	-3,2616	30,504	-0,11647	26,094
3590	-10,341	-16,235	-0,11647	15,591
3590	-10,341	-16,235	-0,11647	15,591
3591	6,3945	10,688	-0,11647	13,017
3591	6,3945	10,688	-0,11647	13,017
3592	-10,418	-14,012	-0,11647	15,117
3592	-10,418	-14,012	-0,11647	15,117
3593	14,702	-5,1077	-0,11647	20,026
3593	14,702	-5,1077	-0,11647	20,026
3594	-22,702	-6,4423	-0,11647	36,346
3594	-22,702	-6,4423	-0,11647	36,346
3595	-3,8757	14,46	-0,11647	13,072
3595	-3,8757	14,46	-0,11647	13,072
3596	-20,991	-19,728	-0,11647	16,081
3596	-20,991	-19,728	-0,11647	16,081
3597	-2,31	-20,512	-0,11647	16,813
3597	-2,31	-20,512	-0,11647	16,813
3598	-4,4954	20,661	-0,11647	16,649
3598	-4,4954	20,661	-0,11647	16,649
3599	8,3055	43,362	-0,11647	36,572
3599	8,3055	43,362	-0,11647	36,572
3600	8,9938	-2,8142	-0,11647	15,337
3600	8,9938	-2,8142	-0,11647	15,337
3601	3,0023e-002	-18,022	-0,11647	14,968
3601	3,0023e-002	-18,022	-0,11647	14,968
3602	-0,65664	11,17	-0,11647	11,995
3602	-0,65664	11,17	-0,11647	11,995
3603	11,14	-14,806	-0,11647	15,531
3603	11,14	-14,806	-0,11647	15,531
3604	-17,507	-17,766	-0,11647	17,247
3604	-17,507	-17,766	-0,11647	17,247
3605	11,355	2,9245	-0,11647	16,936
3605	11,355	2,9245	-0,11647	16,936
3606	-20,993	21,605	-0,11647	15,713
3606	-20,993	21,605	-0,11647	15,713
3607	-22,724	12,019	-0,11647	21,223
3607	-22,724	12,019	-0,11647	21,223
3608	20,321	-3,336	-0,11647	33,998
3608	20,321	-3,336	-0,11647	33,998
3609	11,034	20,965	-0,11647	17,436
3609	11,034	20,965	-0,11647	17,436
3610	11,368	37,344	-0,11647	28,681
3610	11,368	37,344	-0,11647	28,681
3611	16,444	2,5679	-0,11647	23,586
3611	16,444	2,5679	-0,11647	23,586
3612	-0,98147	-8,6254	-0,11647	12,153
3612	-0,98147	-8,6254	-0,11647	12,153
3613	-14,254	-7,6961	-0,11647	18,435
3613	-14,254	-7,6961	-0,11647	18,435
3614	16,645	25,396	-0,11647	17,92
3614	16,645	25,396	-0,11647	17,92
3615	0,34874	26,345	-0,11647	21,577
3615	0,34874	26,345	-0,11647	21,577
3616	-15,49	-21,445	-0,11647	17,304
3616	-15,49	-21,445	-0,11647	17,304
3617	3,2181	6,4938	-0,11647	12,652
3617	3,2181	6,4938	-0,11647	12,652
3618	-2,5508	37,494	-0,11647	37,378
3618	-2,5508	37,494	-0,11647	37,378
3619	13,682	-33,278	-0,11647	20,941
3619	13,682	-33,278	-0,11647	20,941
3620	18,284	-3,0288	-0,11647	27,3
3620	18,284	-3,0288	-0,11647	27,3
3621	-2,1977	-31,7	-0,11647	31,427
3621	-2,1977	-31,7	-0,11647	31,427
3622	-3,0143	-33,697	-0,11647	35,208
3622	-3,0143	-33,697	-0,11647	35,208
3623	0,17229	-32,03	-0,11647	32,783
3623	0,17229	-32,03	-0,11647	32,783
3624	2,473	-32,039	-0,11647	31,959
3624	2,473	-32,039	-0,11647	31,959
3625	2,6092	-33,426	-0,11647	34,974
3625	2,6092	-33,426	-0,11647	34,974
3626	5,0243	-33,096	-0,11647	31,351
3626	5,0243	-33,096	-0,11647	31,351
3627	-12,208	-29,553	-0,11647	20,984
3627	-12,208	-29,553	-0,11647	20,984
3628	6,7029	-36,043	-0,11647	32,313
3628	6,7029	-36,043	-0,11647	32,313
3629	3,2054	34,02	-0,11647	30,95
3629	3,2054	34,02	-0,11647	30,95
3630	-5,6754	-33,074	-0,11647	30,44
3630	-5,6754	-33,074	-0,11647	30,44
3631	-1,405	10,448	-0,11647	12,009
3631	-1,405	10,448	-0,11647	12,009
3632	-3,923	10,924	-0,11647	12,367
3632	-3,923	10,924	-0,11647	12,367
3633	11,249	-20,883	-0,11647	17,45
3633	11,249	-20,883	-0,11647	17,45
3634	-27,525	5,9457	-0,11647	35,136
3634	-27,525	5,9457	-0,11647	35,136
3635	-2,6393	29,894	-0,11647	25,436
3635	-2,6393	29,894	-0,11647	25,436
3636	-12,486	-18,574	-0,11647	16,767
3636	-12,486	-18,574	-0,11647	16,767
3637	-2,6659	-25,939	-0,11647	22,406
3637	-2,6659	-25,939	-0,11647	22,406
3638	0,20585	39,205	-0,11647	34,654
3638	0,20585	39,205	-0,11647	34,654
3639	-20,808	-10,681	-0,11647	22,454
3639	-20,808	-10,681	-0,11647	22,454
3640	-3,2279	-18,815	-0,11647	15,517
3640	-3,2279	-18,815	-0,11647	15,517
3641	17,836	-7,6715	-0,11647	22,817
3641	17,836	-7,6715	-0,11647	22,817
3642	-11,299	14,171	-0,11647	15,383
3642	-11,299	14,171	-0,11647	15,383
3643	-3,5612	22,511	-0,11647	17,994
3643	-3,5612	22,511	-0,11647	17,994
3644	-10,826	-15,357	-0,11647	15,532
3644	-10,826	-15,357	-0,11647	15,532
3645	9,0925	0,3377	-0,11647	15,504
3645	9,0925	0,3377	-0,11647	15,504
3646	2,3059	30,414	-0,11647	26,157
3646	2,3059	30,414	-0,11647	26,157
3647	-8,8847	33,652	-0,11647	27,613
3647	-8,8847	33,652	-0,11647	27,613
3648	-2,5135	36,171	-0,11647	34,575
3648	-2,5135	36,171	-0,11647	34,575
3649	-30,123	0,58845	-0,11647	20,085
3649	-30,123	0,58845	-0,11647	20,085
3650	17,246	-6,5425	-0,11647	22,87
3650	17,246	-6,5425	-0,11647	22,87
3651	8,5904	31,866	-0,11647	25,878
3651	8,5904	31,866	-0,11647	25,878
3652	21,294	7,7072	-0,11647	27,813
3652	21,294	7,7072	-0,11647	27,813
3653	20,455	-8,6621	-0,11647	25,133
3653	20,455	-8,6621	-0,11647	25,133
3654	-21,49	-18,804	-0,11647	16,263
3654	-21,49	-18,804	-0,11647	16,263
3655	-9,2811	-26,49	-0,11647	20,969
3655	-9,2811	-26,49	-0,11647	20,969
3656	27,636	-5,6769	-0,11647	36,548
3656	27,636	-5,6769	-0,11647	36,548
3657	2,6169e-002	3,7602	-0,11647	12,911
3657	2,6169e-002	3,7602	-0,11647	12,911
3658	11,107	-23,292	-0,11647	18,559
3658	11,107	-23,292	-0,11647	18,559
3659	16,606	-5,4707	-0,11647	22,594
3659	16,606	-5,4707	-0,11647	22,594
3660	16,661	5,3813	-0,11647	22,529
3660	16,661	5,3813	-0,11647	22,529
3661	-5,6334	-46,052	-0,11647	19,768
3661	-5,6334	-46,052	-0,11647	19,768
3662	-12,906	-5,7433	-0,11647	17,761
3662	-12,906	-5,7433	-0,11647	17,761
3663	-26,496	9,2939	-0,11647	25,646
3663	-26,496	9,2939	-0,11647	25,646
3664	16,967	-0,10623	-0,11647	25,014
3664	16,967	-0,10623	-0,11647	25,014
3665	-24,846	16,605	-0,11647	16,084
3665	-24,846	16,605	-0,11647	16,084
3666	4,2667	6,3409	-0,11647	12,818
3666	4,2667	6,3409	-0,11647	12,818
3667	1,1426	-10,542	-0,11647	12,062
3667	1,1426	-10,542	-0,11647	12,062
3668	-2,8117	8,8787	-0,11647	12,236
3668	-2,8117	8,8787	-0,11647	12,236
3669	-17,077	5,2494	-0,11647	23,267
3669	-17,077	5,2494	-0,11647	23,267
3670	-5,4228	18,851	-0,11647	15,521
3670	-5,4228	18,851	-0,11647	15,521
3671	-3,7786	17,651	-0,11647	14,56
3671	-3,7786	17,651	-0,11647	14,56
3672	3,5321	28,526	-0,11647	23,811
3672	3,5321	28,526	-0,11647	23,811
3673	15,005	-6,9335	-0,11647	19,614
3673	15,005	-6,9335	-0,11647	19,614
3674	-6,3204	28,039	-0,11647	22,88
3674	-6,3204	28,039	-0,11647	22,88
3675	9,6854	-0,68881	-0,11647	15,944
3675	9,6854	-0,68881	-0,11647	15,944
3676	-13,364	-19,06	-0,11647	16,989
3676	-13,364	-19,06	-0,11647	16,989
3677	29,234	3,1569	-0,11647	30,46
3677	29,234	3,1569	-0,11647	30,46
3678	3,6125	19,873	-0,11647	15,993
3678	3,6125	19,873	-0,11647	15,993
3679	20,807	-7,8278	-0,11647	27,374
3679	20,807	-7,8278	-0,11647	27,374
3680	3,2057	-9,615	-0,11647	12,31
3680	3,2057	-9,615	-0,11647	12,31
3681	-2,1122	9,6956	-0,11647	12,09
3681	-2,1122	9,6956	-0,11647	12,09
3682	18,047	7,6906	-0,11647	22,73
3682	18,047	7,6906	-0,11647	22,73
3683	15,29	-21,829	-0,11647	17,377
3683	15,29	-21,829	-0,11647	17,377
3684	1,579	39,045	-0,11647	38,468
3684	1,579	39,045	-0,11647	38,468
3685	-14,92	-6,0038	-0,11647	19,933
3685	-14,92	-6,0038	-0,11647	19,933
3686	11,15	33,481	-0,11647	25,58
3686	11,15	33,481	-0,11647	25,58
3687	-17,122	-16,386	-0,11647	17,481
3687	-17,122	-16,386	-0,11647	17,481
3688	8,9477e-002	30,729	-0,11647	26,559
3688	8,9477e-002	30,729	-0,11647	26,559
3689	-2,4462	34,818	-0,11647	32,212
3689	-2,4462	34,818	-0,11647	32,212
3690	12,558	-29,057	-0,11647	20,54
3690	12,558	-29,057	-0,11647	20,54
3691	-16,506	-19,598	-0,11647	17,095
3691	-16,506	-19,598	-0,11647	17,095
3692	5,3928	18,712	-0,11647	15,43
3692	5,3928	18,712	-0,11647	15,43
3693	1,6583	10,327	-0,11647	12,032
3693	1,6583	10,327	-0,11647	12,032
3694	8,924	33,358	-0,11647	27,252
3694	8,924	33,358	-0,11647	27,252
3695	15,945	-4,4369	-0,11647	22,099
3695	15,945	-4,4369	-0,11647	22,099
3696	3,7266	17,503	-0,11647	14,458
3696	3,7266	17,503	-0,11647	14,458
3697	20,078	21,161	-0,11647	16,23
3697	20,078	21,161	-0,11647	16,23
3698	18,061	16,501	-0,11647	17,536
3698	18,061	16,501	-0,11647	17,536
3699	4,0231	-17,552	-0,11647	14,73
3699	4,0231	-17,552	-0,11647	14,73
3700	-22,783	-20,67	-0,11647	14,815
3700	-22,783	-20,67	-0,11647	14,815
3701	15,987	-7,1516	-0,11647	20,684
3701	15,987	-7,1516	-0,11647	20,684
3702	-17,396	-10,865	-0,11647	19,893
3702	-17,396	-10,865	-0,11647	19,893
3703	1,3179	-16,316	-0,11647	13,825
3703	1,3179	-16,316	-0,11647	13,825
3704	7,5151	43,069	-0,11647	41,239
3704	7,5151	43,069	-0,11647	41,239
3705	8,0604	18,043	-0,11647	15,556
3705	8,0604	18,043	-0,11647	15,556
3706	17,787	12,879	-0,11647	18,763
3706	17,787	12,879	-0,11647	18,763
3707	-13,917	2,185	-0,11647	19,83
3707	-13,917	2,185	-0,11647	19,83
3708	-11,849	6,7813	-0,11647	16,424
3708	-11,849	6,7813	-0,11647	16,424
3709	-13,42	6,0805	-0,11647	18,037
3709	-13,42	6,0805	-0,11647	18,037
3710	-14,936	3,7132	-0,11647	20,823
3710	-14,936	3,7132	-0,11647	20,823
3711	-13,468	8,1038	-0,11647	17,406
3711	-13,468	8,1038	-0,11647	17,406
3712	-11,872	11,178	-0,11647	15,621
3712	-11,872	11,178	-0,11647	15,621
3713	-12,764	9,6501	-0,11647	16,405
3713	-12,764	9,6501	-0,11647	16,405
3714	-2,3567	33,443	-0,11647	30,094
3714	-2,3567	33,443	-0,11647	30,094
3715	0,63441	21,173	-0,11647	16,835
3715	0,63441	21,173	-0,11647	16,835
3716	0,76864	22,547	-0,11647	18,192
3716	0,76864	22,547	-0,11647	18,192
3717	-19,752	6,184	-0,11647	27,719
3717	-19,752	6,184	-0,11647	27,719
3718	18,332	-16,168	-0,11647	17,697
3718	18,332	-16,168	-0,11647	17,697
3719	-10,146	-27,005	-0,11647	20,92
3719	-10,146	-27,005	-0,11647	20,92
3720	-5,3268	32,231	-0,11647	27,874
3720	-5,3268	32,231	-0,11647	27,874
3721	-0,45896	-21,523	-0,11647	17,776
3721	-0,45896	-21,523	-0,11647	17,776
3722	15,408	-8,7793	-0,11647	19,176
3722	15,408	-8,7793	-0,11647	19,176
3723	-7,6636	-9,337	-0,11647	13,628
3723	-7,6636	-9,337	-0,11647	13,628
3724	19,061	-4,0969	-0,11647	28,838
3724	19,061	-4,0969	-0,11647	28,838
3725	-10,604	-19,91	-0,11647	17,01
3725	-10,604	-19,91	-0,11647	17,01
3726	-9,2319	-20,324	-0,11647	17,107
3726	-9,2319	-20,324	-0,11647	17,107
3727	0,62592	30,018	-0,11647	25,677
3727	0,62592	30,018	-0,11647	25,677
3728	21,076	19,311	-0,11647	16,285
3728	21,076	19,311	-0,11647	16,285
3729	10,12	35,385	-0,11647	28,327
3729	10,12	35,385	-0,11647	28,327
3730	-9,262	20,139	-0,11647	16,852
3730	-9,262	20,139	-0,11647	16,852
3731	18,68	21,632	-0,11647	16,726
3731	18,68	21,632	-0,11647	16,726
3732	-15,873	12,076	-0,11647	18,011
3732	-15,873	12,076	-0,11647	18,011
3733	15,283	-11,441	-0,11647	17,97
3733	15,283	-11,441	-0,11647	17,97
3734	12,934	-11,223	-0,11647	16,415
3734	12,934	-11,223	-0,11647	16,415
3735	11,502	-11,759	-0,11647	15,503
3735	11,502	-11,759	-0,11647	15,503
3736	15,184	-9,57	-0,11647	18,606
3736	15,184	-9,57	-0,11647	18,606
3737	13,871	-11,709	-0,11647	16,981
3737	13,871	-11,709	-0,11647	16,981
3738	-8,4498	43,047	-0,11647	36,59
3738	-8,4498	43,047	-0,11647	36,59
3739	-21,004	-5,7298	-0,11647	32,856
3739	-21,004	-5,7298	-0,11647	32,856
3740	8,3667	27,993	-0,11647	22,34
3740	8,3667	27,993	-0,11647	22,34
3741	19,851	-11,164	-0,11647	21,376
3741	19,851	-11,164	-0,11647	21,376
3742	17,035	-14,384	-0,11647	17,979
3742	17,035	-14,384	-0,11647	17,979
3743	-1,5284	-17,705	-0,11647	14,668
3743	-1,5284	-17,705	-0,11647	14,668
3744	15,475	-2,6111	-0,11647	22,038
3744	15,475	-2,6111	-0,11647	22,038
3745	27,441	-7,8794	-0,11647	28,932
3745	27,441	-7,8794	-0,11647	28,932
3746	-1,7887	25,252	-0,11647	20,488
3746	-1,7887	25,252	-0,11647	20,488
3747	15,794	16,469	-0,11647	17,149
3747	15,794	16,469	-0,11647	17,149
3748	-18,632	8,9593	-0,11647	22,3
3748	-18,632	8,9593	-0,11647	22,3
3749	-13,059	15,143	-0,11647	16,241
3749	-13,059	15,143	-0,11647	16,241
3750	-7,4578	44,885	-0,11647	37,159
3750	-7,4578	44,885	-0,11647	37,159
3751	-6,757	40,132	-0,11647	41,959
3751	-6,757	40,132	-0,11647	41,959
3752	-11,604	-18,09	-0,11647	16,477
3752	-11,604	-18,09	-0,11647	16,477
3753	13,136	15,074	-0,11647	16,265
3753	13,136	15,074	-0,11647	16,265
3754	15,703	-12,679	-0,11647	17,875
3754	15,703	-12,679	-0,11647	17,875
3755	16,97	-10,22	-0,11647	19,849
3755	16,97	-10,22	-0,11647	19,849
3756	4,5217	31,456	-0,11647	27,054
3756	4,5217	31,456	-0,11647	27,054
3757	11,635	7,4148	-0,11647	16,105
3757	11,635	7,4148	-0,11647	16,105
3758	12,055	6,4289	-0,11647	16,683
3758	12,055	6,4289	-0,11647	16,683
3759	10,469	-11,43	-0,11647	14,933
3759	10,469	-11,43	-0,11647	14,933
3760	12,018	-15,258	-0,11647	15,95
3760	12,018	-15,258	-0,11647	15,95
3761	12,955	-13,467	-0,11647	16,253
3761	12,955	-13,467	-0,11647	16,253
3762	12,246	14,624	-0,11647	15,855
3762	12,246	14,624	-0,11647	15,855
3763	13,349	10,915	-0,11647	16,611
3763	13,349	10,915	-0,11647	16,611
3764	14,072	6,7024	-0,11647	18,475
3764	14,072	6,7024	-0,11647	18,475
3765	16,08	7,1245	-0,11647	20,58
3765	16,08	7,1245	-0,11647	20,58
3766	16,414	9,1201	-0,11647	19,77
3766	16,414	9,1201	-0,11647	19,77
3767	14,711	4,9406	-0,11647	19,968
3767	14,711	4,9406	-0,11647	19,968
3768	14,42	2,965	-0,11647	20,54
3768	14,42	2,965	-0,11647	20,54
3769	15,393	6,0278	-0,11647	20,323
3769	15,393	6,0278	-0,11647	20,323
3770	14,773	7,7252	-0,11647	18,767
3770	14,773	7,7252	-0,11647	18,767
3771	10,88	9,3607	-0,11647	15,226
3771	10,88	9,3607	-0,11647	15,226
3772	-5,0087	34,483	-0,11647	31,376
3772	-5,0087	34,483	-0,11647	31,376
3773	14,686	10,448	-0,11647	17,666
3773	14,686	10,448	-0,11647	17,666
3774	5,6993	37,533	-0,11647	37,339
3774	5,6993	37,533	-0,11647	37,339
3775	-2,534	7,4661	-0,11647	12,393
3775	-2,534	7,4661	-0,11647	12,393
3776	-5,1142	-15,68	-0,11647	13,942
3776	-5,1142	-15,68	-0,11647	13,942
3777	-16,61	17,017	-0,11647	17,271
3777	-16,61	17,017	-0,11647	17,271
3778	-16,012	20,246	-0,11647	17,264
3778	-16,012	20,246	-0,11647	17,264
3779	-16,763	12,503	-0,11647	18,396
3779	-16,763	12,503	-0,11647	18,396
3780	11,958	-6,2859	-0,11647	16,767
3780	11,958	-6,2859	-0,11647	16,767
3781	5,5011	10,229	-0,11647	12,731
3781	5,5011	10,229	-0,11647	12,731
3782	-4,6114	31,655	-0,11647	27,303
3782	-4,6114	31,655	-0,11647	27,303
3783	-1,6208	31,385	-0,11647	27,331
3783	-1,6208	31,385	-0,11647	27,331
3784	-14,243	-19,547	-0,11647	17,133
3784	-14,243	-19,547	-0,11647	17,133
3785	-5,0319	41,534	-0,11647	56,793
3785	-5,0319	41,534	-0,11647	56,793
3786	8,7192	29,461	-0,11647	23,498
3786	8,7192	29,461	-0,11647	23,498
3787	16,829	-27,408	-0,11647	17,506
3787	16,829	-27,408	-0,11647	17,506
3788	23,05	15,656	-0,11647	17,589
3788	23,05	15,656	-0,11647	17,589
3789	22,072	17,478	-0,11647	16,72
3789	22,072	17,478	-0,11647	16,72
3790	-1,6908	32,793	-0,11647	29,192
3790	-1,6908	32,793	-0,11647	29,192
3791	27,381	9,8689	-0,11647	23,863
3791	27,381	9,8689	-0,11647	23,863
3792	15,617	27,3	-0,11647	18,992
3792	15,617	27,3	-0,11647	18,992
3793	-1,2531	1,3378	-0,11647	13,264
3793	-1,2531	1,3378	-0,11647	13,264
3794	-11,209	16,466	-0,11647	15,808
3794	-11,209	16,466	-0,11647	15,808
3795	-3,3657	50,053	-0,11647	13,74
3795	-3,3657	50,053	-0,11647	13,74
3796	25,909	-6,723	-0,11647	37,932
3796	25,909	-6,723	-0,11647	37,932
3797	27,281	-10,169	-0,11647	23,761
3797	27,281	-10,169	-0,11647	23,761
3798	-14,467	-23,315	-0,11647	17,844
3798	-14,467	-23,315	-0,11647	17,844
3799	4,1429	32,349	-0,11647	28,335
3799	4,1429	32,349	-0,11647	28,335
3800	-17,277	-6,9893e-002	-0,11647	25,76
3800	-17,277	-6,9893e-002	-0,11647	25,76
3801	10,084	29,06	-0,11647	22,603
3801	10,084	29,06	-0,11647	22,603
3802	16,309	-19,917	-0,11647	17,096
3802	16,309	-19,917	-0,11647	17,096
3803	8,4485	-13,569	-0,11647	14,175
3803	8,4485	-13,569	-0,11647	14,175
3804	0,49409	16,324	-0,11647	13,591
3804	0,49409	16,324	-0,11647	13,591
3805	-8,2259	-22,142	-0,11647	18,198
3805	-8,2259	-22,142	-0,11647	18,198
3806	3,8216	30,915	-0,11647	26,506
3806	3,8216	30,915	-0,11647	26,506
3807	-13,611	22,603	-0,11647	18,032
3807	-13,611	22,603	-0,11647	18,032
3808	9,2159	28,536	-0,11647	22,52
3808	9,2159	28,536	-0,11647	22,52
3809	-21,657	-3,7379	-0,11647	42,396
3809	-21,657	-3,7379	-0,11647	42,396
3810	9,2949	19,955	-0,11647	16,758
3810	9,2949	19,955	-0,11647	16,758
3811	10,956	-6,0598	-0,11647	16,008
3811	10,956	-6,0598	-0,11647	16,008
3812	-14,987	11,666	-0,11647	17,552
3812	-14,987	11,666	-0,11647	17,552
3813	-12,178	14,658	-0,11647	15,829
3813	-12,178	14,658	-0,11647	15,829
3814	-10,864	12,766	-0,11647	15,061
3814	-10,864	12,766	-0,11647	15,061
3815	-12,739	11,646	-0,11647	16,1
3815	-12,739	11,646	-0,11647	16,1
3816	-13,158	-13,187	-0,11647	16,376
3816	-13,158	-13,187	-0,11647	16,376
3817	-6,1333	21,808	-0,11647	17,617
3817	-6,1333	21,808	-0,11647	17,617
3818	-13,227	-6,5702e-002	-0,11647	19,158
3818	-13,227	-6,5702e-002	-0,11647	19,158
3819	21,104	11,076	-0,11647	21,908
3819	21,104	11,076	-0,11647	21,908
3820	-5,4874	29,868	-0,11647	24,956
3820	-5,4874	29,868	-0,11647	24,956
3821	24,016	-11,967	-0,11647	21,593
3821	24,016	-11,967	-0,11647	21,593
3822	10,389	24,258	-0,11647	19,22
3822	10,389	24,258	-0,11647	19,22
3823	13,837	10,148	-0,11647	16,984
3823	13,837	10,148	-0,11647	16,984
3824	10,953	12,866	-0,11647	15,103
3824	10,953	12,866	-0,11647	15,103
3825	9,3283	2,5655	-0,11647	15,51
3825	9,3283	2,5655	-0,11647	15,51
3826	12,846	11,633	-0,11647	16,195
3826	12,846	11,633	-0,11647	16,195
3827	-11,386	37,32	-0,11647	28,645
3827	-11,386	37,32	-0,11647	28,645
3828	2,0568	-5,9945	-0,11647	12,659
3828	2,0568	-5,9945	-0,11647	12,659
3829	3,1154	-4,24	-0,11647	13,11
3829	3,1154	-4,24	-0,11647	13,11
3830	-4,7019	6,3275	-0,11647	12,98
3830	-4,7019	6,3275	-0,11647	12,98
3831	3,9144	-19,898	-0,11647	16,39
3831	3,9144	-19,898	-0,11647	16,39
3832	-20,622	-6,6695	-0,11647	29,438
3832	-20,622	-6,6695	-0,11647	29,438
3833	-12,587	3,42	-0,11647	17,984
3833	-12,587	3,42	-0,11647	17,984
3834	-10,16	7,6279	-0,11647	15,047
3834	-10,16	7,6279	-0,11647	15,047
3835	-9,7278	-5,4062	-0,11647	15,337
3835	-9,7278	-5,4062	-0,11647	15,337
3836	-13,454	33,473	-0,11647	23,684
3836	-13,454	33,473	-0,11647	23,684
3837	-14,484	31,558	-0,11647	21,686
3837	-14,484	31,558	-0,11647	21,686
3838	-17,596	6,4602	-0,11647	23,215
3838	-17,596	6,4602	-0,11647	23,215
3839	12,702	-0,30103	-0,11647	18,607
3839	12,702	-0,30103	-0,11647	18,607
3840	2,667	34,811	-0,11647	32,219
3840	2,667	34,811	-0,11647	32,219
3841	6,1701	27,813	-0,11647	22,688
3841	6,1701	27,813	-0,11647	22,688
3842	25,792	7,0199	-0,11647	33,128
3842	25,792	7,0199	-0,11647	33,128
3843	14,971	30,643	-0,11647	20,838
3843	14,971	30,643	-0,11647	20,838
3844	5,0214	36,448	-0,11647	35,21
3844	5,0214	36,448	-0,11647	35,21
3845	-12,061	-10,539	-0,11647	15,914
3845	-12,061	-10,539	-0,11647	15,914
3846	10,203	41,672	-0,11647	32,554
3846	10,203	41,672	-0,11647	32,554
3847	-12,734	22,121	-0,11647	17,936
3847	-12,734	22,121	-0,11647	17,936
3848	0,88452	9,6982	-0,11647	11,998
3848	0,88452	9,6982	-0,11647	11,998
3849	-10,131	-39,851	-0,11647	24,089
3849	-10,131	-39,851	-0,11647	24,089
3850	-5,6917	-20,543	-0,11647	17,006
3850	-5,6917	-20,543	-0,11647	17,006
3851	8,5942	-28,069	-0,11647	22,454
3851	8,5942	-28,069	-0,11647	22,454
3852	8,1367	7,838	-0,11647	13,902
3852	8,1367	7,838	-0,11647	13,902
3853	5,2651	21,074	-0,11647	17,012
3853	5,2651	21,074	-0,11647	17,012
3854	11,463	-39,52	-0,11647	22,545
3854	11,463	-39,52	-0,11647	22,545
3855	-6,3176	5,8641	-0,11647	13,544
3855	-6,3176	5,8641	-0,11647	13,544
3856	6,1002	9,329	-0,11647	12,948
3856	6,1002	9,329	-0,11647	12,948
3857	9,368	-13,928	-0,11647	14,636
3857	9,368	-13,928	-0,11647	14,636
3858	0,34567	7,5304	-0,11647	12,235
3858	0,34567	7,5304	-0,11647	12,235
3859	12,325	29,156	-0,11647	21,612
3859	12,325	29,156	-0,11647	21,612
3860	-9,9333	31,678	-0,11647	24,88
3860	-9,9333	31,678	-0,11647	24,88
3861	20,357	-2,3987	-0,11647	34,912
3861	20,357	-2,3987	-0,11647	34,912
3862	-6,2153	37,544	-0,11647	36,717
3862	-6,2153	37,544	-0,11647	36,717
3863	-1,7741	-35,336	-0,11647	41,536
3863	-1,7741	-35,336	-0,11647	41,536
3864	10,252	-14,373	-0,11647	15,09
3864	10,252	-14,373	-0,11647	15,09
3865	12,364	-5,3637	-0,11647	17,421
3865	12,364	-5,3637	-0,11647	17,421
3866	14,023	15,533	-0,11647	16,627
3866	14,023	15,533	-0,11647	16,627
3867	16,678	16,938	-0,11647	17,282
3867	16,678	16,938	-0,11647	17,282
3868	15,672	-7,9732	-0,11647	19,866
3868	15,672	-7,9732	-0,11647	19,866
3869	-11,241	-4,5492	-0,11647	16,615
3869	-11,241	-4,5492	-0,11647	16,615
3870	11,271	16,366	-0,11647	15,8
3870	11,271	16,366	-0,11647	15,8
3871	10,389	15,886	-0,11647	15,376
3871	10,389	15,886	-0,11647	15,376
3872	-16,98	-2,6221	-0,11647	24,701
3872	-16,98	-2,6221	-0,11647	24,701
3873	-15,827	2,9868	-0,11647	22,365
3873	-15,827	2,9868	-0,11647	22,365
3874	20,182	18,861	-0,11647	16,719
3874	20,182	18,861	-0,11647	16,719
3875	3,8506	-8,7699	-0,11647	12,508
3875	3,8506	-8,7699	-0,11647	12,508
3876	-18,504	-15,944	-0,11647	17,811
3876	-18,504	-15,944	-0,11647	17,811
3877	10,481	36,86	-0,11647	29,356
3877	10,481	36,86	-0,11647	29,356
3878	13,411	18,719	-0,11647	16,9
3878	13,411	18,719	-0,11647	16,9
3879	2,466	-8,9457	-0,11647	12,253
3879	2,466	-8,9457	-0,11647	12,253
3880	-1,8208	35,558	-0,11647	33,256
3880	-1,8208	35,558	-0,11647	33,256
3881	-2,9376	19,495	-0,11647	15,666
3881	-2,9376	19,495	-0,11647	15,666
3882	-2,5951	17,981	-0,11647	14,637
3882	-2,5951	17,981	-0,11647	14,637
3883	-8,6261	-9,7135	-0,11647	14,05
3883	-8,6261	-9,7135	-0,11647	14,05
3884	-6,9073	4,9506	-0,11647	13,931
3884	-6,9073	4,9506	-0,11647	13,931
3885	-4,3561	30,204	-0,11647	25,565
3885	-4,3561	30,204	-0,11647	25,565
3886	-8,9112	11,849	-0,11647	14,063
3886	-8,9112	11,849	-0,11647	14,063
3887	4,3932	33,781	-0,11647	30,386
3887	4,3932	33,781	-0,11647	30,386
3888	20,061	12,874	-0,11647	19,72
3888	20,061	12,874	-0,11647	19,72
3889	1,2149	30,626	-0,11647	26,424
3889	1,2149	30,626	-0,11647	26,424
3890	-17,845	-8,8219	-0,11647	21,832
3890	-17,845	-8,8219	-0,11647	21,832
3891	-20,896	-3,4034	-0,11647	36,673
3891	-20,896	-3,4034	-0,11647	36,673
3892	6,818	-39,848	-0,11647	33,668
3892	6,818	-39,848	-0,11647	33,668
3893	-3,4078	-31,387	-0,11647	30,048
3893	-3,4078	-31,387	-0,11647	30,048
3894	-1,7077	-33,935	-0,11647	37,123
3894	-1,7077	-33,935	-0,11647	37,123
3895	1,8548	-31,357	-0,11647	30,892
3895	1,8548	-31,357	-0,11647	30,892
3896	3,2855	-34,054	-0,11647	35,708
3896	3,2855	-34,054	-0,11647	35,708
3897	5,1317	-30,68	-0,11647	27,593
3897	5,1317	-30,68	-0,11647	27,593
3898	-1,9937	21,229	-0,11647	16,918
3898	-1,9937	21,229	-0,11647	16,918
3899	-15,356	-15,448	-0,11647	17,185
3899	-15,356	-15,448	-0,11647	17,185
3900	-26,07	-8,1693	-0,11647	30,023
3900	-26,07	-8,1693	-0,11647	30,023
3901	10,71	0,56786	-0,11647	16,693
3901	10,71	0,56786	-0,11647	16,693
3902	9,1067	-33,469	-0,11647	25,957
3902	9,1067	-33,469	-0,11647	25,957
3903	28,47	-6,1791	-0,11647	31,277
3903	28,47	-6,1791	-0,11647	31,277
3904	2,2112	4,4903	-0,11647	12,896
3904	2,2112	4,4903	-0,11647	12,896
3905	-8,9848	16,348	-0,11647	15,073
3905	-8,9848	16,348	-0,11647	15,073
3906	-7,1896	17,619	-0,11647	15,148
3906	-7,1896	17,619	-0,11647	15,148
3907	0,8695	-51,486	-0,11647	5,4604
3907	0,8695	-51,486	-0,11647	5,4604
3908	-9,9261	12,258	-0,11647	14,572
3908	-9,9261	12,258	-0,11647	14,572
3909	-14,273	-32,139	-0,11647	20,217
3909	-14,273	-32,139	-0,11647	20,217
3910	-8,7705	-7,4014	-0,11647	14,394
3910	-8,7705	-7,4014	-0,11647	14,394
3911	1,7901	31,281	-0,11647	27,191
3911	1,7901	31,281	-0,11647	27,191
3912	20,369	3,1868	-0,11647	34,076
3912	20,369	3,1868	-0,11647	34,076
3913	-20,147	1,7042	-0,11647	32,932
3913	-20,147	1,7042	-0,11647	32,932
3914	16,335	-9,0597	-0,11647	19,966
3914	16,335	-9,0597	-0,11647	19,966
3915	3,2315	30,552	-0,11647	26,081
3915	3,2315	30,552	-0,11647	26,081
3916	-4,5665	15,892	-0,11647	13,755
3916	-4,5665	15,892	-0,11647	13,755
3917	-5,4624	16,48	-0,11647	14,213
3917	-5,4624	16,48	-0,11647	14,213
3918	6,237	-42,957	-0,11647	30,495
3918	6,237	-42,957	-0,11647	30,495
3919	-12,698	-35,061	-0,11647	22,131
3919	-12,698	-35,061	-0,11647	22,131
3920	7,202	17,539	-0,11647	15,113
3920	7,202	17,539	-0,11647	15,113
3921	19,052	14,691	-0,11647	18,336
3921	19,052	14,691	-0,11647	18,336
3922	-8,1689	24,366	-0,11647	19,506
3922	-8,1689	24,366	-0,11647	19,506
3923	19,073	-7,0733	-0,11647	25,462
3923	19,073	-7,0733	-0,11647	25,462
3924	-2,557	-37,3	-0,11647	47,956
3924	-2,557	-37,3	-0,11647	47,956
3925	-1,2436	40,203	-0,11647	37,359
3925	-1,2436	40,203	-0,11647	37,359
3926	21,325	3,4558	-0,11647	39,213
3926	21,325	3,4558	-0,11647	39,213
3927	6,1193	-10,846	-0,11647	13,02
3927	6,1193	-10,846	-0,11647	13,02
3928	-19,982	-21,591	-0,11647	15,982
3928	-19,982	-21,591	-0,11647	15,982
3929	8,3026	2,337	-0,11647	14,962
3929	8,3026	2,337	-0,11647	14,962
3930	-7,5216	-19,313	-0,11647	16,349
3930	-7,5216	-19,313	-0,11647	16,349
3931	-5,8302	-18,284	-0,11647	15,476
3931	-5,8302	-18,284	-0,11647	15,476
3932	-18,746	-19,663	-0,11647	16,773
3932	-18,746	-19,663	-0,11647	16,773
3933	-9,3729	26,353	-0,11647	20,788
3933	-9,3729	26,353	-0,11647	20,788
3934	7,5104	4,2575	-0,11647	14,288
3934	7,5104	4,2575	-0,11647	14,288
3935	0,9108	-38,512	-0,11647	59,466
3935	0,9108	-38,512	-0,11647	59,466
3936	-6,4818	23,284	-0,11647	18,742
3936	-6,4818	23,284	-0,11647	18,742
3937	-3,4347	24,866	-0,11647	20,136
3937	-3,4347	24,866	-0,11647	20,136
3938	-18,122	-14,559	-0,11647	18,282
3938	-18,122	-14,559	-0,11647	18,282
3939	14,082	30,161	-0,11647	21,178
3939	14,082	30,161	-0,11647	21,178
3940	-14,901	-8,8413	-0,11647	18,64
3940	-14,901	-8,8413	-0,11647	18,64
3941	-2,6608	26,807	-0,11647	22,069
3941	-2,6608	26,807	-0,11647	22,069
3942	4,621	1,508	-0,11647	13,704
3942	4,621	1,508	-0,11647	13,704
3943	5,3893	-0,79548	-0,11647	13,949
3943	5,3893	-0,79548	-0,11647	13,949
3944	-26,25	6,3543	-0,11647	38,051
3944	-26,25	6,3543	-0,11647	38,051
3945	17,998	-23,128	-0,11647	16,638
3945	17,998	-23,128	-0,11647	16,638
3946	16,129	26,35	-0,11647	18,417
3946	16,129	26,35	-0,11647	18,417
3947	27,428	4,4709	-0,11647	45,791
3947	27,428	4,4709	-0,11647	45,791
3948	-0,46554	31,433	-0,11647	27,427
3948	-0,46554	31,433	-0,11647	27,427
3949	-4,4385	42,422	-0,11647	73,094
3949	-4,4385	42,422	-0,11647	73,094
3950	-16,028	28,675	-0,11647	19,268
3950	-16,028	28,675	-0,11647	19,268
3951	-6,2504	30,458	-0,11647	25,401
3951	-6,2504	30,458	-0,11647	25,401
3952	5,6696	-18,669	-0,11647	15,687
3952	5,6696	-18,669	-0,11647	15,687
3953	-15,816	-9,1792	-0,11647	19,389
3953	-15,816	-9,1792	-0,11647	19,389
3954	-2,848	-23,525	-0,11647	19,67
3954	-2,848	-23,525	-0,11647	19,67
3955	-0,54536	-4,9274	-0,11647	12,737
3955	-0,54536	-4,9274	-0,11647	12,737
3956	-6,3906	14,742	-0,11647	13,703
3956	-6,3906	14,742	-0,11647	13,703
3957	-16,505	4,1003	-0,11647	23,005
3957	-16,505	4,1003	-0,11647	23,005
3958	-13,06	-1,1902	-0,11647	18,999
3958	-13,06	-1,1902	-0,11647	18,999
3959	8,4267	40,892	-0,11647	37,079
3959	8,4267	40,892	-0,11647	37,079
3960	0,14836	11,869	-0,11647	12,052
3960	0,14836	11,869	-0,11647	12,052
3961	2,4021	17,709	-0,11647	14,434
3961	2,4021	17,709	-0,11647	14,434
3962	-19,381	-16,417	-0,11647	17,681
3962	-19,381	-16,417	-0,11647	17,681
3963	8,3293	-17,934	-0,11647	15,729
3963	8,3293	-17,934	-0,11647	15,729
3964	10,179	-16,614	-0,11647	15,649
3964	10,179	-16,614	-0,11647	15,649
3965	2,2959	-18,639	-0,11647	15,34
3965	2,2959	-18,639	-0,11647	15,34
3966	5,4554	24,891	-0,11647	20,089
3966	5,4554	24,891	-0,11647	20,089
3967	-0,72386	-23,228	-0,11647	19,394
3967	-0,72386	-23,228	-0,11647	19,394
3968	-30,695	1,4875	-0,11647	23,337
3968	-30,695	1,4875	-0,11647	23,337
3969	4,2575	-2,4888	-0,11647	13,568
3969	4,2575	-2,4888	-0,11647	13,568
3970	22,868	-8,173	-0,11647	29,477
3970	22,868	-8,173	-0,11647	29,477
3971	25,844	5,0769	-0,11647	54,535
3971	25,844	5,0769	-0,11647	54,535
3972	-5,7488	-42,148	-0,11647	36,92
3972	-5,7488	-42,148	-0,11647	36,92
3973	-2,468	3,7243	-0,11647	13,08
3973	-2,468	3,7243	-0,11647	13,08
3974	-30,01	2,9611	-0,11647	26,13
3974	-30,01	2,9611	-0,11647	26,13
3975	2,9303	8,798	-0,11647	12,264
3975	2,9303	8,798	-0,11647	12,264
3976	7,0704	19,834	-0,11647	16,376
3976	7,0704	19,834	-0,11647	16,376
3977	-17,693	-6,709	-0,11647	23,447
3977	-17,693	-6,709	-0,11647	23,447
3978	-3,8832	-21,737	-0,11647	17,921
3978	-3,8832	-21,737	-0,11647	17,921
3979	18,389	-24,52	-0,11647	16,437
3979	18,389	-24,52	-0,11647	16,437
3980	19,417	-22,621	-0,11647	16,055
3980	19,417	-22,621	-0,11647	16,055
3981	-5,7997	31,368	-0,11647	26,601
3981	-5,7997	31,368	-0,11647	26,601
3982	9,0409	14,107	-0,11647	14,443
3982	9,0409	14,107	-0,11647	14,443
3983	-29,829	-3,4969	-0,11647	26,762
3983	-29,829	-3,4969	-0,11647	26,762
3984	7,3378	-19,743	-0,11647	16,588
3984	7,3378	-19,743	-0,11647	16,588
3985	9,378	-22,276	-0,11647	18,213
3985	9,378	-22,276	-0,11647	18,213
3986	-28,821	5,6711	-0,11647	30,381
3986	-28,821	5,6711	-0,11647	30,381
3987	-13,982	-11,452	-0,11647	17,078
3987	-13,982	-11,452	-0,11647	17,078
3988	2,6709	-20,174	-0,11647	16,541
3988	2,6709	-20,174	-0,11647	16,541
3989	8,841	44,369	-0,11647	32,635
3989	8,841	44,369	-0,11647	32,635
3990	2,4861	-16,579	-0,11647	13,81
3990	2,4861	-16,579	-0,11647	13,81
3991	-27,912	-6,9374	-0,11647	30,786
3991	-27,912	-6,9374	-0,11647	30,786
3992	-22,486	-16,955	-0,11647	16,927
3992	-22,486	-16,955	-0,11647	16,927
3993	4,905	49,056	-0,11647	19,277
3993	4,905	49,056	-0,11647	19,277
3994	-5,4068	-31,596	-0,11647	28,614
3994	-5,4068	-31,596	-0,11647	28,614
3995	4,194	-50,073	-0,11647	7,8293
3995	4,194	-50,073	-0,11647	7,8293
3996	-11,321	7,7346	-0,11647	15,768
3996	-11,321	7,7346	-0,11647	15,768
3997	-13,94	5,1431	-0,11647	18,975
3997	-13,94	5,1431	-0,11647	18,975
3998	-4,6925	26,896	-0,11647	22,016
3998	-4,6925	26,896	-0,11647	22,016
3999	-1,7499	-50,547	-0,11647	5,4403
3999	-1,7499	-50,547	-0,11647	5,4403
4000	-13,455	-4,5909	-0,11647	18,876
4000	-13,455	-4,5909	-0,11647	18,876
4001	-19,473	-22,531	-0,11647	16,053
4001	-19,473	-22,531	-0,11647	16,053
4002	-4,4297	-4,8586	-0,11647	13,227
4002	-4,4297	-4,8586	-0,11647	13,227
4003	-1,9175	-1,1415	-0,11647	13,339
4003	-1,9175	-1,1415	-0,11647	13,339
4004	-30,269	-2,6677	-0,11647	24,508
4004	-30,269	-2,6677	-0,11647	24,508
4005	-7,0833	19,986	-0,11647	16,471
4005	-7,0833	19,986	-0,11647	16,471
4006	2,0612	-50,199	-0,11647	5,3816
4006	2,0612	-50,199	-0,11647	5,3816
4007	5,6758	-8,5875	-0,11647	12,824
4007	5,6758	-8,5875	-0,11647	12,824
4008	-5,9424	-16,182	-0,11647	14,341
4008	-5,9424	-16,182	-0,11647	14,341
4009	20,439	-20,737	-0,11647	15,975
4009	20,439	-20,737	-0,11647	15,975
4010	-10,948	29,762	-0,11647	22,733
4010	-10,948	29,762	-0,11647	22,733
4011	-10,583	28,315	-0,11647	21,842
4011	-10,583	28,315	-0,11647	21,842
4012	-20,219	-7,6027	-0,11647	26,756
4012	-20,219	-7,6027	-0,11647	26,756
4013	-13,918	-5,8539	-0,11647	18,845
4013	-13,918	-5,8539	-0,11647	18,845
4014	-0,80366	-19,245	-0,11647	15,635
4014	-0,80366	-19,245	-0,11647	15,635
4015	-1,7249	-10,648	-0,11647	12,11
4015	-1,7249	-10,648	-0,11647	12,11
4016	-23,969	-14,213	-0,11647	18,817
4016	-23,969	-14,213	-0,11647	18,817
4017	-12,882	-2,3173	-0,11647	18,658
4017	-12,882	-2,3173	-0,11647	18,658
4018	9,6093	36,343	-0,11647	29,929
4018	9,6093	36,343	-0,11647	29,929
4019	-4,87	4,068	-0,11647	13,441
4019	-4,87	4,068	-0,11647	13,441
4020	29,827	0,3979	-0,11647	17,077
4020	29,827	0,3979	-0,11647	17,077
4021	3,1339	10,102	-0,11647	12,214
4021	3,1339	10,102	-0,11647	12,214
4022	13,143	-19,468	-0,11647	17,052
4022	13,143	-19,468	-0,11647	17,052
4023	10,033	-18,924	-0,11647	16,503
4023	10,033	-18,924	-0,11647	16,503
4024	-22,383	-19,268	-0,11647	15,666
4024	-22,383	-19,268	-0,11647	15,666
4025	-5,0062	11,36	-0,11647	12,619
4025	-5,0062	11,36	-0,11647	12,619
4026	2,569	-10,414	-0,11647	12,2
4026	2,569	-10,414	-0,11647	12,2
4027	-8,2905	21,986	-0,11647	17,86
4027	-8,2905	21,986	-0,11647	17,86
4028	-5,1648	23,626	-0,11647	19,024
4028	-5,1648	23,626	-0,11647	19,024
4029	-5,5714	-4,2575	-0,11647	13,671
4029	-5,5714	-4,2575	-0,11647	13,671
4030	9,852	-5,9069	-0,11647	15,283
4030	9,852	-5,9069	-0,11647	15,283
4031	29,68	-0,92092	-0,11647	19,42
4031	29,68	-0,92092	-0,11647	19,42
4032	-25,934	-10,51	-0,11647	23,748
4032	-25,934	-10,51	-0,11647	23,748
4033	-2,9765	-5,3213	-0,11647	12,909
4033	-2,9765	-5,3213	-0,11647	12,909
4034	1,505	19,487	-0,11647	15,581
4034	1,505	19,487	-0,11647	15,581
4035	-11,01	-27,528	-0,11647	20,781
4035	-11,01	-27,528	-0,11647	20,781
4036	16,379	6,2538	-0,11647	21,524
4036	16,379	6,2538	-0,11647	21,524
4037	15,773	7,9629	-0,11647	19,731
4037	15,773	7,9629	-0,11647	19,731
4038	-5,9045	-39,94	-0,11647	38,337
4038	-5,9045	-39,94	-0,11647	38,337
4039	5,9099	-31,289	-0,11647	27,706
4039	5,9099	-31,289	-0,11647	27,706
4040	8,1828	-20,276	-0,11647	16,995
4040	8,1828	-20,276	-0,11647	16,995
4041	-8,3735	-19,821	-0,11647	16,747
4041	-8,3735	-19,821	-0,11647	16,747
4042	-10,238	18,296	-0,11647	16,158
4042	-10,238	18,296	-0,11647	16,158
4043	-3,8542	-6,5427	-0,11647	12,841
4043	-3,8542	-6,5427	-0,11647	12,841
4044	2,3546	-7,4615	-0,11647	12,426
4044	2,3546	-7,4615	-0,11647	12,426
4045	16,303	-6,3148	-0,11647	21,607
4045	16,303	-6,3148	-0,11647	21,607
4046	15,552	0,85104	-0,11647	22,48
4046	15,552	0,85104	-0,11647	22,48
4047	2,4771	49,815	-0,11647	12,137
4047	2,4771	49,815	-0,11647	12,137
4048	3,1769	5,2932	-0,11647	12,886
4048	3,1769	5,2932	-0,11647	12,886
4049	5,2225	-3,0456	-0,11647	13,738
4049	5,2225	-3,0456	-0,11647	13,738
4050	-3,7524	-34,269	-0,11647	35,552
4050	-3,7524	-34,269	-0,11647	35,552
4051	-9,7418	4,3466	-0,11647	15,466
4051	-9,7418	4,3466	-0,11647	15,466
4052	15,248	-3,4341	-0,11647	21,477
4052	15,248	-3,4341	-0,11647	21,477
4053	-1,8753	38,219	-0,11647	37,877
4053	-1,8753	38,219	-0,11647	37,877
4054	21,984	19,766	-0,11647	15,722
4054	21,984	19,766	-0,11647	15,722
4055	-10,776	40,64	-0,11647	31,509
4055	-10,776	40,64	-0,11647	31,509
4056	-1,1736	-1,9574	-0,11647	13,232
4056	-1,1736	-1,9574	-0,11647	13,232
4057	0,24329	-5,0239	-0,11647	12,715
4057	0,24329	-5,0239	-0,11647	12,715
4058	-4,1944	47,615	-0,11647	43,177
4058	-4,1944	47,615	-0,11647	43,177
4059	2,7965	-26,618	-0,11647	23,206
4059	2,7965	-26,618	-0,11647	23,206
4060	-9,8851	40,208	-0,11647	32,982
4060	-9,8851	40,208	-0,11647	32,982
4061	-7,3935	-49,002	-0,11647	10,272
4061	-7,3935	-49,002	-0,11647	10,272
4062	1,1733	6,7547	-0,11647	12,401
4062	1,1733	6,7547	-0,11647	12,401
4063	-15,646	27,26	-0,11647	18,97
4063	-15,646	27,26	-0,11647	18,97
4064	10,524	-7,0428	-0,11647	15,488
4064	10,524	-7,0428	-0,11647	15,488
4065	11,976	-23,786	-0,11647	18,604
4065	11,976	-23,786	-0,11647	18,604
4066	-0,52218	-39,861	-0,11647	73,054
4066	-0,52218	-39,861	-0,11647	73,054
4067	12,117	-36,2	-0,11647	22,794
4067	12,117	-36,2	-0,11647	22,794
4068	6,3415	17,001	-0,11647	14,664
4068	6,3415	17,001	-0,11647	14,664
4069	20,296	-12,486	-0,11647	20,335
4069	20,296	-12,486	-0,11647	20,335
4070	7,1518	25,99	-0,11647	20,888
4070	7,1518	25,99	-0,11647	20,888
4071	9,4158	32,413	-0,11647	25,906
4071	9,4158	32,413	-0,11647	25,906
4072	16,271	23,968	-0,11647	17,764
4072	16,271	23,968	-0,11647	17,764
4073	-11,356	22,57	-0,11647	18,209
4073	-11,356	22,57	-0,11647	18,209
4074	7,6013	-15,259	-0,11647	14,396
4074	7,6013	-15,259	-0,11647	14,396
4075	-17,738	-13,181	-0,11647	18,786
4075	-17,738	-13,181	-0,11647	18,786
4076	4,7284	47,933	-0,11647	31,102
4076	4,7284	47,933	-0,11647	31,102
4077	23,527	-12,878	-0,11647	20,397
4077	23,527	-12,878	-0,11647	20,397
4078	24,515	-11,054	-0,11647	23,045
4078	24,515	-11,054	-0,11647	23,045
4079	4,0265	7,2817	-0,11647	12,617
4079	4,0265	7,2817	-0,11647	12,617
4080	-30,714	-1,3112	-0,11647	21,335
4080	-30,714	-1,3112	-0,11647	21,335
4081	0,60234	6,0157	-0,11647	12,515
4081	0,60234	6,0157	-0,11647	12,515
4082	-8,4059	19,617	-0,11647	16,445
4082	-8,4059	19,617	-0,11647	16,445
4083	4,6205	-49,32	-0,11647	9,2821
4083	4,6205	-49,32	-0,11647	9,2821
4084	5,2785	-25,873	-0,11647	21,777
4084	5,2785	-25,873	-0,11647	21,777
4085	4,3484	-27,716	-0,11647	24,142
4085	4,3484	-27,716	-0,11647	24,142
4086	-18,62	11,148	-0,11647	20,337
4086	-18,62	11,148	-0,11647	20,337
4087	8,5937	-8,6827	-0,11647	14,097
4087	8,5937	-8,6827	-0,11647	14,097
4088	5,8015	-9,6211	-0,11647	12,926
4088	5,8015	-9,6211	-0,11647	12,926
4089	-1,15	34,924	-0,11647	32,15
4089	-1,15	34,924	-0,11647	32,15
4090	-6,9196	45,732	-0,11647	36,549
4090	-6,9196	45,732	-0,11647	36,549
4091	2,8217	3,711	-0,11647	13,113
4091	2,8217	3,711	-0,11647	13,113
4092	10,954	-40,469	-0,11647	22,389
4092	10,954	-40,469	-0,11647	22,389
4093	-3,0437	34,067	-0,11647	31,027
4093	-3,0437	34,067	-0,11647	31,027
4094	18,448	26,315	-0,11647	17,104
4094	18,448	26,315	-0,11647	17,104
4095	17,537	25,864	-0,11647	17,561
4095	17,537	25,864	-0,11647	17,561
4096	13,221	-25,687	-0,11647	18,936
4096	13,221	-25,687	-0,11647	18,936
4097	5,9178e-002	21,862	-0,11647	17,419
4097	5,9178e-002	21,862	-0,11647	17,419
4098	-9,2428	-8,6921	-0,11647	14,446
4098	-9,2428	-8,6921	-0,11647	14,446
4099	-6,1318	-9,8742	-0,11647	13,029
4099	-6,1318	-9,8742	-0,11647	13,029
4100	21,58	-8,4018	-0,11647	27,366
4100	21,58	-8,4018	-0,11647	27,366
4101	-1,0586	32,119	-0,11647	28,307
4101	-1,0586	32,119	-0,11647	28,307
4102	-5,3663	14,217	-0,11647	13,298
4102	-5,3663	14,217	-0,11647	13,298
4103	0,20843	-20,629	-0,11647	16,854
4103	0,20843	-20,629	-0,11647	16,854
4104	2,8006	36,203	-0,11647	34,711
4104	2,8006	36,203	-0,11647	34,711
4105	-0,68267	-17,162	-0,11647	14,185
4105	-0,68267	-17,162	-0,11647	14,185
4106	15,395	15,108	-0,11647	17,136
4106	15,395	15,108	-0,11647	17,136
4107	1,4555	-17,947	-0,11647	14,789
4107	1,4555	-17,947	-0,11647	14,789
4108	-11,658	-36,985	-0,11647	23,263
4108	-11,658	-36,985	-0,11647	23,263
4109	-5,8888	-37,922	-0,11647	36,668
4109	-5,8888	-37,922	-0,11647	36,668
4110	5,715	46,056	-0,11647	47,427
4110	5,715	46,056	-0,11647	47,427
4111	-15,32	15,178	-0,11647	17,106
4111	-15,32	15,178	-0,11647	17,106
4112	14,906	-20,414	-0,11647	17,236
4112	14,906	-20,414	-0,11647	17,236
4113	13,199	29,666	-0,11647	21,439
4113	13,199	29,666	-0,11647	21,439
4114	4,218	11,979	-0,11647	12,517
4114	4,218	11,979	-0,11647	12,517
4115	-20,369	-22,997	-0,11647	15,529
4115	-20,369	-22,997	-0,11647	15,529
4116	24,499	5,7881	-0,11647	44,87
4116	24,499	5,7881	-0,11647	44,87
4117	-11,308	-14,476	-0,11647	15,568
4117	-11,308	-14,476	-0,11647	15,568
4118	3,1102	-19,294	-0,11647	15,868
4118	3,1102	-19,294	-0,11647	15,868
4119	3,7566	9,2938	-0,11647	12,357
4119	3,7566	9,2938	-0,11647	12,357
4120	13,672	-7,5394	-0,11647	17,96
4120	13,672	-7,5394	-0,11647	17,96
4121	-15,12	-20,034	-0,11647	17,191
4121	-15,12	-20,034	-0,11647	17,191
4122	20,679	17,944	-0,11647	16,905
4122	20,679	17,944	-0,11647	16,905
4123	8,4273	19,445	-0,11647	16,355
4123	8,4273	19,445	-0,11647	16,355
4124	27,842	8,9691	-0,11647	25,378
4124	27,842	8,9691	-0,11647	25,378
4125	-5,028	1,7709	-0,11647	13,791
4125	-5,028	1,7709	-0,11647	13,791
4126	4,8748	-41,292	-0,11647	46,401
4126	4,8748	-41,292	-0,11647	46,401
4127	-5,3087	21,239	-0,11647	17,141
4127	-5,3087	21,239	-0,11647	17,141
4128	0,9358	11,104	-0,11647	12,005
4128	0,9358	11,104	-0,11647	12,005
4129	-14,155	-1,2297	-0,11647	20,339
4129	-14,155	-1,2297	-0,11647	20,339
4130	-12,4	-6,8267	-0,11647	17,043
4130	-12,4	-6,8267	-0,11647	17,043
4131	-5,5274	33,659	-0,11647	29,832
4131	-5,5274	33,659	-0,11647	29,832
4132	12,172	31,578	-0,11647	23,319
4132	12,172	31,578	-0,11647	23,319
4133	11,979	-38,572	-0,11647	22,479
4133	11,979	-38,572	-0,11647	22,479
4134	14,226	27,756	-0,11647	19,895
4134	14,226	27,756	-0,11647	19,895
4135	3,9116	34,618	-0,11647	31,87
4135	3,9116	34,618	-0,11647	31,87
4136	25,364	-7,6623	-0,11647	32,709
4136	25,364	-7,6623	-0,11647	32,709
4137	7,0256	28,362	-0,11647	23,031
4137	7,0256	28,362	-0,11647	23,031
4138	25,387	7,6481	-0,11647	31,407
4138	25,387	7,6481	-0,11647	31,407
4139	-0,82912	6,0862	-0,11647	12,504
4139	-0,82912	6,0862	-0,11647	12,504
4140	-7,1281	-47,7	-0,11647	12,403
4140	-7,1281	-47,7	-0,11647	12,403
4141	8,9377	-29,555	-0,11647	23,363
4141	8,9377	-29,555	-0,11647	23,363
4142	-25,715	-6,7153	-0,11647	38,213
4142	-25,715	-6,7153	-0,11647	38,213
4143	-20,876	-22,064	-0,11647	15,444
4143	-20,876	-22,064	-0,11647	15,444
4144	-10,623	-38,908	-0,11647	24,004
4144	-10,623	-38,908	-0,11647	24,004
4145	-21,175	-9,2972	-0,11647	24,944
4145	-21,175	-9,2972	-0,11647	24,944
4146	1,8744	20,993	-0,11647	16,734
4146	1,8744	20,993	-0,11647	16,734
4147	-27,296	-10,113	-0,11647	23,894
4147	-27,296	-10,113	-0,11647	23,894
4148	11,037	-17,084	-0,11647	16,034
4148	11,037	-17,084	-0,11647	16,034
4149	9,3185	-16,152	-0,11647	15,237
4149	9,3185	-16,152	-0,11647	15,237
4150	-20,032	-3,0533	-0,11647	32,457
4150	-20,032	-3,0533	-0,11647	32,457
4151	-11,57	-3,4035	-0,11647	17,144
4151	-11,57	-3,4035	-0,11647	17,144
4152	7,5682	18,932	-0,11647	15,926
4152	7,5682	18,932	-0,11647	15,926
4153	8,1575	15,812	-0,11647	14,612
4153	8,1575	15,812	-0,11647	14,612
4154	-17,619	-15,482	-0,11647	17,815
4154	-17,619	-15,482	-0,11647	17,815
4155	-8,01	5,2015	-0,11647	14,346
4155	-8,01	5,2015	-0,11647	14,346
4156	-10,836	-7,9127	-0,11647	15,587
4156	-10,836	-7,9127	-0,11647	15,587
4157	-5,4634	48,685	-0,11647	21,481
4157	-5,4634	48,685	-0,11647	21,481
4158	-4,3304	-33,413	-0,11647	32,877
4158	-4,3304	-33,413	-0,11647	32,877
4159	-3,2154	-36,496	-0,11647	42,888
4159	-3,2154	-36,496	-0,11647	42,888
4160	-4,1677	-7,7286	-0,11647	12,687
4160	-4,1677	-7,7286	-0,11647	12,687
4161	5,5453	-29,77	-0,11647	26,081
4161	5,5453	-29,77	-0,11647	26,081
4162	3,8188	-33,28	-0,11647	33,28
4162	3,8188	-33,28	-0,11647	33,28
4163	11,674	-0,43972	-0,11647	17,565
4163	11,674	-0,43972	-0,11647	17,565
4164	3,135	-8,1142	-0,11647	12,443
4164	3,135	-8,1142	-0,11647	12,443
4165	-3,2193e-002	-24,256	-0,11647	20,565
4165	-3,2193e-002	-24,256	-0,11647	20,565
4166	0,28478	-51,409	-0,11647	5,4911
4166	0,28478	-51,409	-0,11647	5,4911
4167	2,8308	31,164	-0,11647	26,964
4167	2,8308	31,164	-0,11647	26,964
4168	-4,8646	-19,983	-0,11647	16,528
4168	-4,8646	-19,983	-0,11647	16,528
4169	-11,21	-16,713	-0,11647	15,99
4169	-11,21	-16,713	-0,11647	15,99
4170	2,2734	-38,358	-0,11647	54,358
4170	2,2734	-38,358	-0,11647	54,358
4171	-4,2732	25,427	-0,11647	20,629
4171	-4,2732	25,427	-0,11647	20,629
4172	-3,7092	20,076	-0,11647	16,155
4172	-3,7092	20,076	-0,11647	16,155
4173	-2,5607	24,491	-0,11647	19,791
4173	-2,5607	24,491	-0,11647	19,791
4174	-7,4431	21,45	-0,11647	17,455
4174	-7,4431	21,45	-0,11647	17,455
4175	28,693	7,1525	-0,11647	28,077
4175	28,693	7,1525	-0,11647	28,077
4176	-19,493	-14,123	-0,11647	18,877
4176	-19,493	-14,123	-0,11647	18,877
4177	-14,464	-14,986	-0,11647	16,902
4177	-14,464	-14,986	-0,11647	16,902
4178	13,566	31,121	-0,11647	22,07
4178	13,566	31,121	-0,11647	22,07
4179	-19,156	-2,008	-0,11647	29,451
4179	-19,156	-2,008	-0,11647	29,451
4180	5,5617	33,455	-0,11647	29,462
4180	5,5617	33,455	-0,11647	29,462
4181	17,388	2,6895	-0,11647	25,286
4181	17,388	2,6895	-0,11647	25,286
4182	6,0963	21,637	-0,11647	17,487
4182	6,0963	21,637	-0,11647	17,487
4183	2,3938	31,954	-0,11647	28,014
4183	2,3938	31,954	-0,11647	28,014
4184	7,7602	31,308	-0,11647	25,729
4184	7,7602	31,308	-0,11647	25,729
4185	4,3676	29,053	-0,11647	24,313
4185	4,3676	29,053	-0,11647	24,313
4186	11,535	-9,0623	-0,11647	15,905
4186	11,535	-9,0623	-0,11647	15,905
4187	-3,9243	3,4804	-0,11647	13,331
4187	-3,9243	3,4804	-0,11647	13,331
4188	-1,4933	18,25	-0,11647	14,688
4188	-1,4933	18,25	-0,11647	14,688
4189	-21,278	4,4966	-0,11647	36,883
4189	-21,278	4,4966	-0,11647	36,883
4190	-9,3083	43,461	-0,11647	33,186
4190	-9,3083	43,461	-0,11647	33,186
4191	-3,7464	5,801	-0,11647	12,878
4191	-3,7464	5,801	-0,11647	12,878
4192	5,0814	40,476	-0,11647	50,047
4192	5,0814	40,476	-0,11647	50,047
4193	-28,222	6,5473	-0,11647	30,343
4193	-28,222	6,5473	-0,11647	30,343
4194	-28,434	-6,1028	-0,11647	31,495
4194	-28,434	-6,1028	-0,11647	31,495
4195	4,4411	20,484	-0,11647	16,512
4195	4,4411	20,484	-0,11647	16,512
4196	-11,347	-6,8202	-0,11647	16,205
4196	-11,347	-6,8202	-0,11647	16,205
4197	-7,653	-17,086	-0,11647	15,171
4197	-7,653	-17,086	-0,11647	15,171
4198	-20,102	21,126	-0,11647	16,234
4198	-20,102	21,126	-0,11647	16,234
4199	6,6653	6,1467	-0,11647	13,589
4199	6,6653	6,1467	-0,11647	13,589
4200	-1,1875	-0,33208	-0,11647	13,313
4200	-1,1875	-0,33208	-0,11647	13,313
4201	-11,45	3,3926	-0,11647	16,91
4201	-11,45	3,3926	-0,11647	16,91
4202	-5,5467	-36,789	-0,11647	36,664
4202	-5,5467	-36,789	-0,11647	36,664
4203	-2,418	-18,208	-0,11647	15,037
4203	-2,418	-18,208	-0,11647	15,037
4204	-5,597	0,9296	-0,11647	13,998
4204	-5,597	0,9296	-0,11647	13,998
4205	2,3213	-15,504	-0,11647	13,478
4205	2,3213	-15,504	-0,11647	13,478
4206	1,814	-9,7539	-0,11647	12,125
4206	1,814	-9,7539	-0,11647	12,125
4207	-24,462	-13,296	-0,11647	19,747
4207	-24,462	-13,296	-0,11647	19,747
4208	11,	35,894	-0,11647	27,862
4208	11,	35,894	-0,11647	27,862
4209	3,6767	-3,3712	-0,11647	13,343
4209	3,6767	-3,3712	-0,11647	13,343
4210	-22,086	17,459	-0,11647	16,737
4210	-22,086	17,459	-0,11647	16,737
4211	-17,995	16,558	-0,11647	17,524
4211	-17,995	16,558	-0,11647	17,524
4212	-17,659	12,928	-0,11647	18,689
4212	-17,659	12,928	-0,11647	18,689
4213	-19,604	-20,177	-0,11647	16,435
4213	-19,604	-20,177	-0,11647	16,435
4214	0,83534	-19,834	-0,11647	16,056
4214	0,83534	-19,834	-0,11647	16,056
4215	4,17	49,642	-0,11647	15,869
4215	4,17	49,642	-0,11647	15,869
4216	-25,989	10,232	-0,11647	23,857
4216	-25,989	10,232	-0,11647	23,857
4217	-26,426	-9,5984	-0,11647	25,513
4217	-26,426	-9,5984	-0,11647	25,513
4218	13,736	-24,721	-0,11647	18,429
4218	13,736	-24,721	-0,11647	18,429
4219	13,982	-6,7329	-0,11647	18,574
4219	13,982	-6,7329	-0,11647	18,574
4220	-10,313	-24,606	-0,11647	19,437
4220	-10,313	-24,606	-0,11647	19,437
4221	20,577	20,236	-0,11647	16,213
4221	20,577	20,236	-0,11647	16,213
4222	-21,353	-4,7666	-0,11647	37,077
4222	-21,353	-4,7666	-0,11647	37,077
4223	16,074	-9,8794	-0,11647	19,24
4223	16,074	-9,8794	-0,11647	19,24
4224	11,948	-10,861	-0,11647	15,791
4224	11,948	-10,861	-0,11647	15,791
4225	-18,196	-7,9129	-0,11647	23,115
4225	-18,196	-7,9129	-0,11647	23,115
4226	-19,06	8,0614	-0,11647	23,807
4226	-19,06	8,0614	-0,11647	23,807
4227	-10,36	24,459	-0,11647	19,347
4227	-10,36	24,459	-0,11647	19,347
4228	-11,957	27,839	-0,11647	20,975
4228	-11,957	27,839	-0,11647	20,975
4229	11,227	8,4024	-0,11647	15,606
4229	11,227	8,4024	-0,11647	15,606
4230	15,429	8,8035	-0,11647	18,974
4230	15,429	8,8035	-0,11647	18,974
4231	-15,002	22,124	-0,11647	17,694
4231	-15,002	22,124	-0,11647	17,694
4232	-4,5951	18,266	-0,11647	15,035
4232	-4,5951	18,266	-0,11647	15,035
4233	-1,0266	30,708	-0,11647	26,504
4233	-1,0266	30,708	-0,11647	26,504
4234	22,561	16,567	-0,11647	17,095
4234	22,561	16,567	-0,11647	17,095
4235	-13,572	-14,525	-0,11647	16,547
4235	-13,572	-14,525	-0,11647	16,547
4236	-16,592	-4,4071	-0,11647	23,107
4236	-16,592	-4,4071	-0,11647	23,107
4237	-9,7233	27,816	-0,11647	21,779
4237	-9,7233	27,816	-0,11647	21,779
4238	-9,1519	5,3683	-0,11647	14,904
4238	-9,1519	5,3683	-0,11647	14,904
4239	1,1588	15,408	-0,11647	13,148
4239	1,1588	15,408	-0,11647	13,148
4240	4,5569	18,138	-0,11647	14,947
4240	4,5569	18,138	-0,11647	14,947
4241	-5,065	30,776	-0,11647	26,101
4241	-5,065	30,776	-0,11647	26,101
4242	11,353	14,16	-0,11647	15,414
4242	11,353	14,16	-0,11647	15,414
4243	14,224	11,263	-0,11647	17,109
4243	14,224	11,263	-0,11647	17,109
4244	-11,905	36,356	-0,11647	27,287
4244	-11,905	36,356	-0,11647	27,287
4245	8,1067	39,314	-0,11647	36,389
4245	8,1067	39,314	-0,11647	36,389
4246	-13,972	32,513	-0,11647	22,645
4246	-13,972	32,513	-0,11647	22,645
4247	-12,36	20,694	-0,11647	17,396
4247	-12,36	20,694	-0,11647	17,396
4248	2,1506	8,1925	-0,11647	12,244
4248	2,1506	8,1925	-0,11647	12,244
4249	12,122	-21,377	-0,11647	17,627
4249	12,122	-21,377	-0,11647	17,627
4250	4,8186	-1,6414	-0,11647	13,772
4250	4,8186	-1,6414	-0,11647	13,772
4251	12,676	1,9837	-0,11647	18,373
4251	12,676	1,9837	-0,11647	18,373
4252	-13,056	-10,99	-0,11647	16,535
4252	-13,056	-10,99	-0,11647	16,535
4253	30,717	8,8651e-002	-0,11647	21,142
4253	30,717	8,8651e-002	-0,11647	21,142
4254	-30,569	2,3519	-0,11647	24,121
4254	-30,569	2,3519	-0,11647	24,121
4255	1,7654	11,718	-0,11647	12,113
4255	1,7654	11,718	-0,11647	12,113
4256	10,161	20,46	-0,11647	17,122
4256	10,161	20,46	-0,11647	17,122
4257	-14,797	-31,167	-0,11647	19,595
4257	-14,797	-31,167	-0,11647	19,595
4258	2,7856	19,229	-0,11647	15,473
4258	2,7856	19,229	-0,11647	15,473
4259	22,41	-8,9297	-0,11647	26,92
4259	22,41	-8,9297	-0,11647	26,92
4260	-4,7047	-22,314	-0,11647	18,433
4260	-4,7047	-22,314	-0,11647	18,433
4261	18,906	-23,564	-0,11647	16,21
4261	18,906	-23,564	-0,11647	16,21
4262	9,9705	14,556	-0,11647	14,901
4262	9,9705	14,556	-0,11647	14,901
4263	-9,0171	24,89	-0,11647	19,802
4263	-9,0171	24,89	-0,11647	19,802
4264	5,297	0,80214	-0,11647	13,925
4264	5,297	0,80214	-0,11647	13,925
4265	-4,3344	23,063	-0,11647	18,534
4265	-4,3344	23,063	-0,11647	18,534
4266	2,1272	-35,555	-0,11647	41,852
4266	2,1272	-35,555	-0,11647	41,852
4267	-9,9538	14,566	-0,11647	14,88
4267	-9,9538	14,566	-0,11647	14,88
4268	-29,426	4,8341	-0,11647	29,322
4268	-29,426	4,8341	-0,11647	29,322
4269	-29,464	-4,4216	-0,11647	29,566
4269	-29,464	-4,4216	-0,11647	29,566
4270	-14,999	30,595	-0,11647	20,804
4270	-14,999	30,595	-0,11647	20,804
4271	-4,954	-8,1621	-0,11647	12,818
4271	-4,954	-8,1621	-0,11647	12,818
4272	5,7552	11,607	-0,11647	12,871
4272	5,7552	11,607	-0,11647	12,871
4273	13,068	6,5594	-0,11647	17,53
4273	13,068	6,5594	-0,11647	17,53
4274	28,401	4,9767	-0,11647	34,205
4274	28,401	4,9767	-0,11647	34,205
4275	-16,544	27,726	-0,11647	18,616
4275	-16,544	27,726	-0,11647	18,616
4276	-13,228	-34,083	-0,11647	21,499
4276	-13,228	-34,083	-0,11647	21,499
4277	20,239	10,62	-0,11647	21,941
4277	20,239	10,62	-0,11647	21,941
4278	-0,39406	-2,811	-0,11647	13,108
4278	-0,39406	-2,811	-0,11647	13,108
4279	12,641	24,328	-0,11647	18,889
4279	12,641	24,328	-0,11647	18,889
4280	11,598	-37,168	-0,11647	23,316
4280	11,598	-37,168	-0,11647	23,316
4281	-1,9815	-5,3271	-0,11647	12,787
4281	-1,9815	-5,3271	-0,11647	12,787
4282	-6,3675	46,489	-0,11647	34,65
4282	-6,3675	46,489	-0,11647	34,65
4283	17,348	-26,44	-0,11647	17,09
4283	17,348	-26,44	-0,11647	17,09
4284	-6,6263	-46,466	-0,11647	15,748
4284	-6,6263	-46,466	-0,11647	15,748
4285	-25,506	11,133	-0,11647	22,329
4285	-25,506	11,133	-0,11647	22,329
4286	25,902	-10,604	-0,11647	23,577
4286	25,902	-10,604	-0,11647	23,577
4287	-19,601	22,058	-0,11647	16,333
4287	-19,601	22,058	-0,11647	16,333
4288	-18,59	23,933	-0,11647	16,778
4288	-18,59	23,933	-0,11647	16,778
4289	26,041	10,297	-0,11647	23,637
4289	26,041	10,297	-0,11647	23,637
4290	-18,446	-24,42	-0,11647	16,418
4290	-18,446	-24,42	-0,11647	16,418
4291	19,931	-21,673	-0,11647	15,975
4291	19,931	-21,673	-0,11647	15,975
4292	1,5259	37,675	-0,11647	36,338
4292	1,5259	37,675	-0,11647	36,338
4293	-12,941	34,428	-0,11647	24,802
4293	-12,941	34,428	-0,11647	24,802
4294	-6,7946	-16,633	-0,11647	14,749
4294	-6,7946	-16,633	-0,11647	14,749
4295	6,2869	-9,0071	-0,11647	13,128
4295	6,2869	-9,0071	-0,11647	13,128
4296	-3,1389	6,6594	-0,11647	12,619
4296	-3,1389	6,6594	-0,11647	12,619
4297	-3,1465	35,442	-0,11647	33,348
4297	-3,1465	35,442	-0,11647	33,348
4298	19,573	22,09	-0,11647	16,334
4298	19,573	22,09	-0,11647	16,334
4299	-25,445	-11,443	-0,11647	22,195
4299	-25,445	-11,443	-0,11647	22,195
4300	-23,478	-15,122	-0,11647	18,051
4300	-23,478	-15,122	-0,11647	18,051
4301	-27,035	8,3514	-0,11647	27,547
4301	-27,035	8,3514	-0,11647	27,547
4302	-21,596	18,368	-0,11647	16,466
4302	-21,596	18,368	-0,11647	16,466
4303	-15,719	16,55	-0,11647	17,135
4303	-15,719	16,55	-0,11647	17,135
4304	21,45	-18,867	-0,11647	16,236
4304	21,45	-18,867	-0,11647	16,236
4305	19,268	-3,1953	-0,11647	29,992
4305	19,268	-3,1953	-0,11647	29,992
4306	-27,412	-7,7934	-0,11647	29,311
4306	-27,412	-7,7934	-0,11647	29,311
4307	-5,5005	40,608	-0,11647	48,918
4307	-5,5005	40,608	-0,11647	48,918
4308	-3,0331	29,125	-0,11647	24,457
4308	-3,0331	29,125	-0,11647	24,457
4309	10,035	-40,05	-0,11647	24,107
4309	10,035	-40,05	-0,11647	24,107
4310	-9,8998	1,1852	-0,11647	16,047
4310	-9,8998	1,1852	-0,11647	16,047
4311	-17,995	-2,7912	-0,11647	26,732
4311	-17,995	-2,7912	-0,11647	26,732
4312	21,576	18,391	-0,11647	16,453
4312	21,576	18,391	-0,11647	16,453
4313	12,945	-6,5295	-0,11647	17,616
4313	12,945	-6,5295	-0,11647	17,616
4314	5,411	-40,395	-0,11647	41,477
4314	5,411	-40,395	-0,11647	41,477
4315	-15,871	-6,2186	-0,11647	21,075
4315	-15,871	-6,2186	-0,11647	21,075
4316	-10,875	38,286	-0,11647	30,065
4316	-10,875	38,286	-0,11647	30,065
4317	-11,141	-37,942	-0,11647	23,705
4317	-11,141	-37,942	-0,11647	23,705
4318	12,637	-35,229	-0,11647	22,207
4318	12,637	-35,229	-0,11647	22,207
4319	13,94	32,561	-0,11647	22,686
4319	13,94	32,561	-0,11647	22,686
4320	23,953	6,714	-0,11647	36,441
4320	23,953	6,714	-0,11647	36,441
4321	-6,2021	-32,157	-0,11647	28,505
4321	-6,2021	-32,157	-0,11647	28,505
4322	1,3341	-32,079	-0,11647	32,621
4322	1,3341	-32,079	-0,11647	32,621
4323	6,6736	-31,889	-0,11647	27,619
4323	6,6736	-31,889	-0,11647	27,619
4324	-16,901	20,71	-0,11647	17,191
4324	-16,901	20,71	-0,11647	17,191
4325	-6,5337	31,978	-0,11647	27,063
4325	-6,5337	31,978	-0,11647	27,063
4326	7,9865	41,944	-0,11647	39,297
4326	7,9865	41,944	-0,11647	39,297
4327	-3,0957	-21,136	-0,11647	17,376
4327	-3,0957	-21,136	-0,11647	17,376
4328	-9,3708	17,787	-0,11647	15,744
4328	-9,3708	17,787	-0,11647	15,744
4329	-7,3264	23,827	-0,11647	19,149
4329	-7,3264	23,827	-0,11647	19,149
4330	27,726	6,6825	-0,11647	31,719
4330	27,726	6,6825	-0,11647	31,719
4331	11,888	36,379	-0,11647	27,314
4331	11,888	36,379	-0,11647	27,314
4332	6,2129	7,0779	-0,11647	13,268
4332	6,2129	7,0779	-0,11647	13,268
4333	5,6489	39,648	-0,11647	44,274
4333	5,6489	39,648	-0,11647	44,274
4334	7,9685	3,3297	-0,11647	14,646
4334	7,9685	3,3297	-0,11647	14,646
4335	-8,0811	-3,9477	-0,11647	14,663
4335	-8,0811	-3,9477	-0,11647	14,663
4336	-14,514	-12,769	-0,11647	17,162
4336	-14,514	-12,769	-0,11647	17,162
4337	14,02	-19,948	-0,11647	17,187
4337	14,02	-19,948	-0,11647	17,187
4338	0,26668	19,785	-0,11647	15,805
4338	0,26668	19,785	-0,11647	15,805
4339	12,416	20,539	-0,11647	17,339
4339	12,416	20,539	-0,11647	17,339
4340	1,4005	34,928	-0,11647	32,197
4340	1,4005	34,928	-0,11647	32,197
4341	-12,693	30,652	-0,11647	22,356
4341	-12,693	30,652	-0,11647	22,356
4342	-5,3147	-5,1203	-0,11647	13,411
4342	-5,3147	-5,1203	-0,11647	13,411
4343	-23,205	11,12	-0,11647	22,541
4343	-23,205	11,12	-0,11647	22,541
4344	8,0742	13,696	-0,11647	13,988
4344	8,0742	13,696	-0,11647	13,988
4345	-8,4178	13,677	-0,11647	13,926
4345	-8,4178	13,677	-0,11647	13,926
4346	10,242	-22,79	-0,11647	18,427
4346	10,242	-22,79	-0,11647	18,427
4347	6,4989	-19,208	-0,11647	16,149
4347	6,4989	-19,208	-0,11647	16,149
4348	-0,22633	6,8032	-0,11647	12,357
4348	-0,22633	6,8032	-0,11647	12,357
4349	-0,59954	-6,6123	-0,11647	12,454
4349	-0,59954	-6,6123	-0,11647	12,454
4350	6,2258	19,291	-0,11647	15,915
4350	6,2258	19,291	-0,11647	15,915
4351	-5,3373	-35,406	-0,11647	34,812
4351	-5,3373	-35,406	-0,11647	34,812
4352	13,679	-0,18516	-0,11647	19,776
4352	13,679	-0,18516	-0,11647	19,776
4353	-6,2501	19,425	-0,11647	16,002
4353	-6,2501	19,425	-0,11647	16,002
4354	-18,183	9,8525	-0,11647	21,02
4354	-18,183	9,8525	-0,11647	21,02
4355	17,902	-10,556	-0,11647	20,424
4355	17,902	-10,556	-0,11647	20,424
4356	-16,707	-9,5175	-0,11647	20,101
4356	-16,707	-9,5175	-0,11647	20,101
4357	8,1042	-29,022	-0,11647	23,531
4357	8,1042	-29,022	-0,11647	23,531
4358	-7,7308	-29,327	-0,11647	24,067
4358	-7,7308	-29,327	-0,11647	24,067
