Node Number	X Location (mm)	Y Location (mm)	Z Location (mm)	Equivalent (von-Mises) Stress (MPa)
1	-16,73	-0,91128	1,183e-002	13,644
2	-11,623	-0,97965	5,4739	9,998
3	-17,473	-0,8797	-9,3136e-003	14,064
4	-13,002	-0,95314	5,0148	10,707
5	-14,29	-0,95593	4,4545	11,484
6	-18,394	-0,89648	-6,1335e-002	14,48
7	-20,453	-1,0547	1,9984	15,716
8	-19,249	-0,95103	-1,8343e-002	14,643
9	-11,99	-0,9571	4,7292	10,322
10	-13,273	-0,9651	4,1973	11,035
11	-14,592	-0,9452	3,6466	11,854
12	-20,224	-0,99311	0,94007	14,717
13	-12,255	-0,99766	3,8861	10,62
14	-13,576	-0,94604	3,4187	11,362
15	-20,17	-0,98899	-8,4683e-003	14,415
16	-14,806	-0,96182	2,8052	12,163
17	-12,551	-0,95369	3,1119	10,907
18	-13,821	-0,93757	2,5953	11,651
19	-20,192	-0,99427	-0,9567	14,721
20	-12,813	-0,93819	2,3238	11,162
21	-15,026	-0,95482	1,9695	12,442
22	-19,195	-0,94142	-0,94283	14,707
23	-20,395	-1,0517	-2,0139	15,569
24	-14,06	-0,93538	1,8001	11,902
25	-19,076	-0,98009	-1,865	14,715
26	-18,259	-0,91232	-0,89924	14,416
27	-15,223	-0,93957	1,0988	12,67
28	-17,315	-0,89754	-0,77624	13,959
29	-18,089	-0,94404	-1,7441	14,299
30	-16,451	-0,91116	-0,49566	13,464
31	-13,061	-0,92195	1,5854	11,382
32	-15,402	-0,92682	5,7776e-002	12,832
33	-17,089	-0,93016	-1,5616	13,756
34	-14,274	-0,93083	0,97983	12,113
35	-16,134	-0,93327	-1,2698	13,22
36	-13,266	-0,90066	0,8082	11,551
37	-14,285	-0,92438	5,5611e-002	12,156
38	-15,146	-0,93502	-0,97757	12,642
39	-13,374	-0,87539	6,4932e-002	11,637
40	-14,261	-0,91089	-0,81756	12,123
41	-13,369	-0,86034	-0,75814	11,622
42	-12,699	-0,89516	-0,72377	11,264
43	-12,452	-0,84256	-0,19916	11,151
44	-12,313	-0,88416	0,45489	11,079
45	-12,069	-0,91604	1,2567	10,912
46	-11,823	-0,94156	1,9775	10,726
47	-11,525	-0,98134	2,7276	10,493
48	-11,222	-0,99927	3,5285	10,233
49	-10,947	-0,97515	4,3031	9,9756
50	-10,623	-0,96252	5,1244	9,6844
51	-9,5672	-0,95376	7,5235	8,8121
52	-9,9169	-0,96987	6,7145	9,094
53	-10,302	-0,95523	5,9203	9,3976
54	-1,1809	-0,96223	39,923	16,424
55	-1,8018	-0,97023	39,195	17,018
56	-2,4779	-0,95544	38,366	17,051
57	-3,1043	-0,95455	37,591	16,704
58	-3,7147	-0,97905	36,79	16,139
59	-4,3045	-0,9559	35,981	15,505
60	-5,0566	-0,97304	35,213	14,855
61	-5,6389	-0,94973	35,824	15,086
62	-5,9769	-0,93835	36,298	15,283
63	-4,8892	-0,928	36,545	15,84
64	-5,5799	-0,91407	36,922	15,919
65	-4,3997	-0,95096	37,326	16,598
66	-5,0814	-0,91291	37,824	16,929
67	-3,7877	-0,91912	38,161	17,454
68	-4,5902	-0,90117	38,75	18,156
69	-3,1627	-0,92682	38,963	18,161
70	-4,7425	-0,88146	39,613	19,277
71	-3,7417	-0,9048	39,493	19,216
72	-2,5185	-0,95797	39,728	18,448
73	-4,3487	-0,89437	40,112	20,214
74	-3,1483	-0,91691	40,327	20,141
75	-1,8048	-1,0376	40,483	17,642
76	-3,8652	-0,93764	40,879	21,737
77	-2,6784	-0,98252	41,046	20,225
78	-3,3891	-0,972	41,659	22,948
79	-4,0249	-0,97401	42,34	25,437
80	-4,5315	-0,94023	41,502	22,785
81	-4,6529	-1,1276	43,283	27,501
82	-5,2077	-0,94053	42,035	22,561
83	-5,4499	-1,0079	43,535	23,718
84	-4,9483	-0,90818	40,638	20,757
85	-5,2424	-0,85803	44,418	25,501
86	-5,2804	-0,8834	39,795	19,194
87	-5,6074	-0,90249	41,115	20,595
88	-5,8809	-0,94505	42,484	21,454
89	-5,9801	-0,8982	40,238	18,987
90	-5,8925	-0,93043	44,56	21,62
91	-6,335	-0,93348	41,566	19,66
92	-6,1014	-0,94787	44,043	20,893
93	-5,5766	-0,89732	39,003	17,981
94	-6,6031	-0,93869	42,914	19,491
95	-6,3552	-0,92149	39,316	17,58
96	-6,7286	-0,92737	40,647	18,228
97	-7,0657	-0,93259	41,994	18,233
98	-7,1542	-0,9413	39,73	16,952
99	-7,5213	-0,94781	41,076	17,074
100	-5,8965	-0,91255	38,126	16,825
101	-7,9354	-0,95414	40,155	16,07
102	-6,7331	-0,93739	38,423	16,431
103	-7,5428	-0,95435	38,809	15,885
104	-6,2785	-0,92669	37,229	15,81
105	27,598	-1,0052	4,916	20,92
106	-8,3422	-0,96437	39,235	15,17
107	28,015	-0,97319	5,1857	19,296
108	-7,0817	-0,94696	37,524	15,477
109	26,884	-0,95729	5,5436	19,554
110	-7,9074	-0,97013	37,909	15,006
111	-6,6401	-0,94506	36,26	14,91
112	-8,7508	-0,97767	38,323	14,368
113	27,589	-0,97103	5,8655	17,831
114	-7,4356	-0,96742	36,565	14,628
115	-5,8143	-1,0119	34,431	14,193
116	-8,3023	-0,98455	36,985	14,209
117	-7,0791	-0,96847	35,145	14,072
118	26,288	-0,96057	6,2844	17,676
119	-7,8254	-0,98944	35,602	13,879
120	-9,1689	-0,99139	37,423	13,658
121	27,092	-0,95493	6,6967	16,06
122	-6,4246	-1,0093	33,6	13,558
123	-8,7188	-0,99947	36,069	13,51
124	-7,0024	-1,0041	32,722	12,972
125	-9,6079	-0,99912	36,554	13,026
126	-7,347	-1,0106	34,152	13,452
127	25,78	-0,94543	7,1379	15,473
128	-8,2438	-1,0276	34,66	13,234
129	-7,8715	-1,0078	33,263	12,858
130	-9,1637	-1,0164	35,157	12,883
131	26,606	-0,95117	7,5342	14,425
132	-10,06	-1,008	35,672	12,455
133	-8,7438	-1,0208	33,784	12,644
134	-7,5094	-1,0089	31,86	12,468
135	25,267	-0,94773	7,9581	13,861
136	-8,3719	-1,0113	32,389	12,336
137	-9,6381	-1,0137	34,29	12,329
138	26,116	-0,95447	8,3664	13,005
139	-10,534	-1,0089	34,8	11,934
140	24,769	-0,95426	8,7747	12,577
141	-9,2422	-1,0102	32,909	12,123
142	-8,0069	-1,0004	30,988	12,006
143	25,633	-0,95937	9,1969	11,819
144	-10,124	-1,0087	33,418	11,827
145	24,285	-0,96012	9,5969	11,556
146	-11,009	-1,0075	33,927	11,465
147	-8,8582	-1,0021	31,521	11,873
148	23,802	-0,96524	10,424	10,732
149	-9,7253	-1,0033	32,034	11,661
150	25,146	-0,96464	10,027	10,844
151	-8,4877	-0,99493	30,125	11,589
152	-10,599	-1,0048	32,548	11,382
153	-9,3425	-0,99723	30,658	11,452
154	-11,483	-1,0055	33,054	11,038
155	23,324	-0,97016	11,264	10,058
156	-8,9476	-0,9922	29,265	11,212
157	-10,2	-0,99983	31,172	11,248
158	24,668	-0,96992	10,862	10,046
159	-9,8039	-0,99517	29,785	11,072
160	-11,078	-1,0024	31,678	10,974
161	-10,673	-0,99836	30,301	10,869
162	-11,957	-1,0038	32,181	10,647
163	24,187	-0,97517	11,694	9,4045
164	-11,551	-1,0013	30,809	10,604
165	-9,4245	-0,99166	28,405	10,859
166	22,848	-0,97511	12,112	9,5064
167	-9,8924	-0,99189	27,546	10,535
168	-12,431	-1,0028	31,308	10,285
169	-10,366	-0,99236	26,688	10,235
170	-10,284	-0,9946	28,93	10,721
171	23,724	-0,9809	12,554	8,8588
172	-11,146	-0,99783	29,437	10,522
173	-12,844	-1,0021	32,673	10,273
174	-10,748	-0,99449	28,056	10,399
175	-12,024	-1,0008	29,938	10,262
176	-11,227	-0,99455	27,197	10,101
177	-11,619	-0,99749	28,565	10,203
178	-13,317	-1,0015	31,798	9,922
179	-12,092	-0,99729	27,698	9,9092
180	-12,497	-1,0005	29,068	9,9474
181	-12,904	-1,0023	30,435	9,9503
182	22,375	-0,97982	12,966	9,0559
183	-13,378	-1,0023	29,561	9,6389
184	-12,961	-1,0004	28,194	9,6602
185	-13,79	-1,0011	30,923	9,5926
186	23,253	-0,98474	13,416	8,4246
187	-12,372	-1,0031	33,548	10,647
188	21,902	-0,98412	13,826	8,689
189	-14,267	-1,0017	30,051	9,2819
190	-13,851	-1,0024	28,687	9,3501
191	-13,726	-1,0007	33,162	9,8751
192	-13,255	-1,0014	34,04	10,233
193	-14,199	-1,0002	32,285	9,5324
194	-14,602	-0,9997	33,646	9,4729
195	22,782	-0,98844	14,282	8,0776
196	-14,139	-0,99975	34,526	9,8169
197	-15,075	-0,99967	32,769	9,1323
198	-14,74	-1,0018	29,175	8,9925
199	-10,828	-0,99266	25,816	9,9599
200	-11,899	-1,0039	34,423	11,048
201	21,43	-0,98665	14,689	8,395
202	-14,673	-1,0004	31,409	9,205
203	-12,784	-1,0021	34,916	10,608
204	20,958	-0,99013	15,554	8,1647
205	22,311	-0,99148	15,153	7,8045
206	-13,666	-0,99994	35,403	10,172
207	21,839	-0,99389	16,026	7,5972
208	-15,553	-0,9999	31,888	8,7998
209	-11,306	-0,9927	24,958	9,7085
210	-15,146	-1,0003	30,532	8,894
211	-11,426	-1,0037	35,298	11,48
212	-11,692	-0,99458	26,322	9,8302
213	-16,022	-0,99929	31,014	8,4845
214	-12,565	-0,99714	26,825	9,6399
215	-10,954	-1,0024	36,173	11,951
216	-12,171	-0,99448	25,46	9,5817
217	-13,435	-1,0003	27,321	9,3925
218	-15,62	-1,0002	29,656	8,5995
219	-14,324	-1,0024	27,812	9,0829
220	-13,038	-0,99695	25,957	9,3947
221	-16,495	-0,99896	30,137	8,1802
222	-10,485	-0,99945	37,044	12,464
223	-13,909	-1,0001	26,449	9,148
224	-10,029	-0,99233	37,919	13,023
225	-12,312	-1,0014	35,792	11,001
226	-14,798	-1,0021	26,937	8,8374
227	-13,194	-1,0001	36,281	10,53
228	-9,585	-0,98283	38,801	13,632
229	20,486	-0,99406	16,421	7,9904
230	-11,775	-0,99282	24,088	9,4822
231	-9,1507	-0,97281	39,696	14,295
232	-15,212	-1,0019	28,299	8,7228
233	-8,7251	-0,96468	40,602	15,
234	21,366	-0,99557	16,9	7,4467
235	-12,247	-0,9931	23,225	9,282
236	-16,099	-0,99972	28,781	8,3194
237	-12,714	-0,99335	22,353	9,109
238	-16,968	-0,9987	29,259	7,8909
239	-12,638	-0,99448	24,586	9,3595
240	-11,84	-1,0002	36,667	11,415
241	-13,503	-0,99691	25,085	9,1764
242	-15,685	-1,0016	27,422	8,4728
243	-12,72	-0,9998	37,153	10,889
244	-14,383	-0,99984	25,576	8,9267
245	-16,571	-0,99958	27,903	8,0606
246	-13,115	-0,99464	23,722	9,1614
247	-15,271	-1,0017	26,062	8,6136
248	-13,985	-0,99686	24,214	8,9774
249	-13,583	-0,99472	22,849	8,991
250	-14,858	-0,99953	24,703	8,7291
251	-17,441	-0,99859	28,381	7,6176
252	-15,744	-1,0012	25,187	8,4125
253	-14,451	-0,9967	23,343	8,8088
254	-16,157	-1,0013	26,545	8,2431
255	-11,369	-0,99745	37,542	11,852
256	-15,332	-0,99904	23,83	8,5563
257	-13,189	-0,99339	21,491	8,9644
258	-12,246	-0,99861	38,031	11,247
259	-14,059	-0,99549	21,979	8,8474
260	-16,63	-1,0008	25,669	8,0344
261	-14,932	-0,99638	22,472	8,6633
262	-17,043	-0,99943	27,026	7,8204
263	-15,811	-0,99856	22,954	8,408
264	-16,218	-1,0005	24,312	8,2348
265	-8,2987	-0,9586	41,513	15,728
266	-16,692	-0,99981	23,437	8,0817
267	-17,914	-0,99856	27,503	7,3612
268	2,921	-1,037	9,7786	7,0715
269	-17,103	-1,0003	24,792	7,8479
270	3,5898	-1,0707	8,9296	7,2639
271	-17,516	-0,99927	26,148	7,5997
272	4,2142	-1,0857	8,0622	7,4924
273	-18,387	-0,99854	26,626	7,1229
274	20,015	-0,99551	17,296	7,8642
275	-7,8542	-0,94969	42,423	16,463
276	-17,576	-0,99982	23,916	7,6846
277	4,8608	-1,0663	7,1182	7,7683
278	-17,988	-0,99907	25,27	7,3996
279	19,544	-0,99603	18,17	7,7845
280	5,4761	-1,0571	6,2411	8,0469
281	-18,861	-0,99849	25,748	6,9036
282	-7,3926	-0,9428	43,314	17,176
283	6,088	-1,0463	5,3904	8,3309
284	-18,461	-0,99886	24,393	7,2213
285	6,678	-1,0547	4,551	8,6117
286	-19,334	-0,99843	24,87	6,7043
287	7,2682	-1,0315	3,6885	8,8996
288	-6,9605	-0,94139	44,201	17,695
289	20,893	-0,99642	17,774	7,3465
290	-10,898	-0,99477	38,416	12,314
291	7,8472	-1,0266	2,8403	9,1696
292	-10,436	-0,98878	39,295	12,798
293	20,42	-0,99674	18,649	7,2907
294	2,1611	-1,061	9,0548	7,1044
295	8,451	-1,004	1,9955	9,4394
296	-11,774	-0,99702	38,914	11,599
297	9,0066	-1,0001	1,2031	9,6763
298	2,7762	-1,067	8,1701	7,3054
299	-11,301	-0,99382	39,786	11,94
300	3,4083	-1,0971	7,2841	7,5377
301	-9,9762	-0,98166	40,176	13,305
302	-13,657	-0,99335	20,621	8,8513
303	-10,838	-0,98926	40,664	12,253
304	4,0323	-1,0857	6,3845	7,7926
305	9,6764	-0,97139	0,42351	9,9444
306	-9,5406	-0,97466	41,066	13,788
307	-14,531	-0,99448	21,113	8,7347
308	-10,378	-0,98383	41,544	12,527
309	-9,0996	-0,96882	41,965	14,249
310	4,637	-1,0796	5,4949	8,0548
311	-15,4	-0,99584	21,603	8,5498
312	-9,9243	-0,97867	42,43	12,731
313	-14,132	-0,99298	19,758	8,7707
314	-16,281	-0,9976	22,085	8,2899
315	-14,626	-0,9913	18,895	8,724
316	5,2328	-1,0924	4,6376	8,3126
317	-15,005	-0,99376	20,246	8,6534
318	-17,165	-0,999	22,562	7,9548
319	-15,879	-0,99472	20,731	8,4643
320	-15,49	-0,99183	19,382	8,6045
321	-16,755	-0,99628	21,213	8,1996
322	-18,049	-0,99925	23,039	7,5459
323	-16,362	-0,99252	19,864	8,4107
324	10,394	-0,94631	-0,31363	10,221
325	-17,23	-0,99427	20,343	8,1405
326	-18,933	-0,99862	23,515	7,066
327	1,3993	-1,0412	8,3118	7,1834
328	-8,6559	-0,96339	42,862	14,639
329	0,44402	-0,93563	7,6144	7,2857
330	-9,4729	-0,97477	43,319	12,837
331	-19,807	-0,99836	23,993	6,5262
332	-8,2072	-0,95682	43,751	14,91
333	5,8349	-1,0887	3,781	8,5664
334	-9,0098	-0,97204	44,208	12,838
335	-7,7103	-0,95328	44,623	15,16
336	2,0126	-1,0951	7,4137	7,3879
337	-8,5261	-0,97073	45,091	12,76
338	2,5689	-1,0727	6,5101	7,6114
339	-17,639	-0,99792	21,688	7,8557
340	1,1924	-1,0654	6,5929	7,5105
341	-0,22161	-0,96832	6,4734	7,5129
342	3,1959	-1,0781	5,6207	7,8476
343	1,8278	-1,1295	5,6965	7,7232
344	0,37575	-1,0543	5,6804	7,6758
345	2,4548	-1,0872	4,7676	7,9465
346	-18,522	-0,9986	22,163	7,4335
347	3,8345	-1,108	4,7063	8,0944
348	1,0733	-1,1074	4,7975	7,8638
349	3,1175	-1,0946	3,8474	8,1643
350	-18,113	-0,99649	20,814	7,7864
351	4,4649	-1,105	3,8214	8,3304
352	-18,995	-0,99779	21,287	7,3493
353	1,7491	-1,123	3,8536	8,0589
354	-19,406	-0,99835	22,638	6,9352
355	2,4525	-1,1229	2,9263	8,2416
356	-20,28	-0,99827	23,115	6,3705
357	5,1472	-1,0873	2,9183	8,5686
358	3,7738	-1,1239	2,9441	8,3676
359	-19,878	-0,99805	21,76	6,8307
360	3,1323	-1,1445	2,0116	8,402
361	-20,754	-0,99817	22,238	6,2388
362	4,4923	-1,1058	2,0366	8,5637
363	11,224	-0,93038	-0,85161	10,553
364	-6,5163	-0,95068	45,012	18,198
365	19,071	-0,99761	19,047	7,7469
366	6,5061	-1,0331	2,8871	8,8333
367	12,118	-0,92175	-1,2332	10,947
368	5,7682	-1,0915	2,0709	8,7731
369	-15,097	-0,98838	18,038	8,7176
370	13,07	-0,92233	-1,5405	11,403
371	-15,975	-0,98899	18,519	8,5924
372	14,024	-0,93451	-1,692	11,913
373	5,1682	-1,107	1,1734	8,7341
374	-16,837	-0,99191	18,995	8,3941
375	-7,2172	-0,96746	45,456	15,353
376	7,1313	-1,0326	2,0326	9,0764
377	-17,704	-0,99207	19,473	8,1151
378	-8,0293	-0,98143	45,946	12,678
379	-18,587	-0,9951	19,941	7,749
380	6,5019	-1,058	1,1965	8,9905
381	19,946	-0,99685	19,525	7,275
382	-19,468	-0,99692	20,411	7,2955
383	5,9664	-1,0508	0,27634	8,9114
384	-7,5433	-0,97082	46,808	12,633
385	-15,562	-0,98539	17,177	8,7522
386	-20,351	-0,9977	20,883	6,7547
387	-6,708	-0,96165	46,312	15,448
388	7,7952	-1,0158	1,1962	9,3108
389	-16,435	-0,98632	17,658	8,6228
390	7,2522	-1,0108	0,36441	9,2005
391	-16,015	-0,98302	16,325	8,8298
392	-17,31	-0,98758	18,132	8,4154
393	-16,897	-0,98431	16,798	8,6946
394	-18,182	-0,99181	18,602	8,1252
395	-7,0947	-0,96671	47,64	12,693
396	-17,768	-0,98576	17,277	8,4783
397	-6,2788	-0,97225	47,157	15,389
398	-18,651	-0,98821	17,741	8,1755
399	-19,06	-0,99479	19,068	7,7463
400	8,4398	-1,0205	0,40389	9,5301
401	-19,533	-0,99208	18,198	7,7815
402	7,9432	-1,0373	-0,44041	9,3835
403	6,6822	-1,0728	-0,52606	9,0576
404	-19,942	-0,99638	19,536	7,2746
405	7,7646	-0,94391	-1,1473	9,3075
406	9,265	-0,97961	-0,32248	9,8005
407	3,8574	-1,135	1,1024	8,5461
408	8,8138	-0,98942	-1,1441	9,6198
409	-20,414	-0,99446	18,661	7,2897
410	8,4167	-0,98045	-1,9832	9,4361
411	10,007	-0,96357	-1,0572	10,045
412	-5,9006	-0,96951	47,872	15,513
413	-20,823	-0,99721	20,006	6,7096
414	10,906	-0,94256	-1,6007	10,369
415	-6,5736	-0,96382	48,495	13,128
416	-21,295	-0,99626	19,131	6,6983
417	-21,229	-0,99881	21,357	6,1319
418	4,6542	-1,0721	0,22264	8,6826
419	-21,702	-0,99851	20,48	6,0547
420	9,6822	-0,97243	-1,7857	9,8741
421	-22,174	-0,9974	19,605	6,0085
422	9,3233	-0,98948	-2,5927	9,6634
423	18,601	-0,99595	19,921	7,7469
424	5,4649	-1,0499	-0,63765	8,8056
425	-1,068	-0,98879	5,4368	7,7397
426	11,852	-0,93251	-2,0158	10,75
427	10,587	-0,9578	-2,3729	10,16
428	12,834	-0,93328	-2,3222	11,191
429	11,564	-0,94637	-2,7914	10,522
430	13,807	-0,95005	-2,5062	11,678
431	12,54	-0,97372	-3,0738	10,932
432	18,129	-0,99574	20,797	7,7823
433	13,533	-0,976	-3,3399	11,383
434	-0,39499	-1,062	4,7213	7,8622
435	6,2963	-1,0289	-1,4377	8,9309
436	0,35038	-1,1758	3,8671	8,011
437	-8,6356	-0,94355	7,0945	8,619
438	7,1149	-1,0518	-2,2011	9,0536
439	10,267	-0,96714	-3,1628	9,9298
440	8,0334	-1,0193	-2,8871	9,221
441	11,263	-0,95537	-3,5704	10,27
442	8,9621	-0,98749	-3,4136	9,4324
443	-8,9959	-0,95361	6,3336	8,8823
444	12,249	-0,9821	-3,89	10,647
445	-9,3252	-0,94557	5,5213	9,1526
446	13,264	-0,96669	-4,1626	11,075
447	9,9215	-1,0072	-3,9077	9,6826
448	-9,6194	-0,93069	4,7388	9,4054
449	10,896	-1,0055	-4,3392	9,9803
450	-16,476	-0,98088	15,477	8,9518
451	19,476	-0,99848	20,399	7,2943
452	11,973	-0,95306	-4,6933	10,358
453	-17,359	-0,98901	15,946	8,8096
454	12,951	-0,95868	-4,9789	10,741
455	-18,239	-0,98378	16,42	8,5824
456	19,	-0,99699	21,277	7,3489
457	-19,122	-0,9856	16,879	8,2671
458	-16,933	-0,97875	14,632	9,122
459	-5,8548	-0,96587	45,672	19,959
460	-17,387	-0,97784	13,797	9,3406
461	-17,818	-0,9803	15,101	8,9711
462	-18,702	-0,98116	15,574	8,7319
463	-19,591	-0,98224	16,023	8,4039
464	-4,9478	-1,0783	45,116	27,887
465	-20,005	-0,98833	17,332	7,857
466	-5,4786	-0,98503	46,683	19,297
467	-20,475	-0,98442	16,472	7,976
468	-20,887	-0,99114	17,791	7,3436
469	-5,0404	-0,99571	47,456	18,996
470	-18,275	-0,97861	14,272	9,1787
471	-21,361	-0,98765	16,922	7,4405
472	-19,168	-0,97861	14,732	8,9291
473	-4,6749	-0,90115	48,289	17,903
474	-20,055	-0,97896	15,175	8,5889
475	-5,8926	-0,94946	49,101	14,111
476	-20,942	-0,98078	15,625	8,1406
477	-4,8157	-0,97838	49,424	15,967
478	-17,847	-0,97878	12,961	9,6142
479	-21,829	-0,98543	16,068	7,5829
480	-18,729	-0,97831	13,427	9,4449
481	-5,7812	-0,9936	49,914	13,599
482	-19,621	-0,98424	13,873	9,1899
483	-7,7197	-0,93996	6,6304	8,4609
484	-20,514	-0,97632	14,338	8,8255
485	-7,9987	-0,97499	5,7981	8,7021
486	-21,405	-0,97858	14,777	8,3611
487	-5,2178	-0,99003	50,139	14,504
488	1,0876	-1,1419	2,9103	8,1687
489	-22,3	-0,98066	15,216	7,7771
490	-8,3525	-0,94584	5,0626	8,9448
491	1,8339	-1,1408	1,9659	8,3073
492	-8,6308	-0,80651	4,4639	9,1429
493	-9,8282	-0,92262	3,9213	9,6273
494	2,5572	-1,1615	1,045	8,4197
495	-8,8899	-0,7694	3,7011	9,3577
496	-6,7542	-0,93323	6,0467	8,3482
497	3,3628	-1,0826	0,13736	8,5186
498	-10,244	-0,9725	3,097	9,9143
499	4,1243	-1,0438	-0,73872	8,5919
500	-9,3078	-0,98988	2,6126	9,6465
501	-5,8786	-0,9129	5,4959	8,2685
502	-7,0604	-0,94058	5,2534	8,5707
503	-10,558	-0,97053	2,3608	10,136
504	-7,3754	-0,92509	4,5126	8,7854
505	-9,6223	-0,99818	1,7737	9,8457
506	-5,0109	-0,90521	4,9618	8,2164
507	-7,9968	-0,90168	3,907	9,0546
508	-6,1471	-0,93914	4,6784	8,4762
509	4,9629	-1,0286	-1,589	8,6692
510	-5,2468	-0,94605	4,0899	8,4073
511	-4,6425	-0,9931	46,27	27,199
512	-4,1659	-0,96149	4,4492	8,1832
513	-6,6551	-0,95083	3,9666	8,7096
514	-4,3639	-1,0184	3,491	8,3687
515	-1,9062	-1,0147	4,6202	7,9332
516	-5,561	-1,0481	3,2165	8,5994
517	-1,2025	-1,0581	3,8045	8,0422
518	-6,7758	-0,91361	3,0866	8,871
519	-8,0892	-0,94319	2,9194	9,2287
520	-4,6744	-1,064	2,521	8,5399
521	-5,7891	-0,94059	2,3127	8,7556
522	-7,1752	-0,97035	2,1785	9,0719
523	-5,0099	-1,1121	1,5647	8,6836
524	-6,2504	-0,99293	1,4051	8,9245
525	-0,34645	-1,1986	2,9343	8,1482
526	-3,2211	-1,0398	3,9269	8,1599
527	0,44412	-1,1965	1,9737	8,2585
528	-3,4102	-1,016	2,7581	8,3512
529	5,8379	-1,086	-2,3708	8,752
530	-3,7679	-1,0597	1,7327	8,496
531	-5,2271	-1,1679	0,54205	8,7674
532	1,2149	-1,1875	1,007	8,3443
533	6,7446	-1,021	-3,08	8,8617
534	2,0371	-1,0826	5,6125e-002	8,4057
535	-4,1554	-1,1626	0,72027	8,6012
536	2,8282	-1,0399	-0,84551	8,4508
537	-4,6177	-1,1543	-0,2978	8,6759
538	-4,2879	-0,99328	47,196	24,616
539	3,4301	-0,96709	-1,7248	8,448
540	-8,3699	-1,0258	2,0181	9,4127
541	4,5369	-1,0352	-2,5435	8,5086
542	-10,873	-0,95343	1,517	10,353
543	5,4586	-1,0247	-3,3132	8,5608
544	-9,9319	-0,98261	0,98091	10,016
545	-8,7435	-1,0083	1,1179	9,5969
546	-3,7949	-0,94934	47,995	21,519
547	-9,1528	-0,99812	0,25135	9,7633
548	-7,4354	-1,0388	1,2829	9,2112
549	-11,136	-0,9286	0,7858	10,514
550	-6,698	-1,0343	0,45918	9,0623
551	6,3695	-0,9864	-3,9859	8,641
552	-5,5595	-0,98947	-0,27594	8,8353
553	-10,298	-0,95614	0,14863	10,183
554	-3,9936	-0,97797	49,57	16,678
555	-9,6056	-0,97735	-0,55802	9,9182
556	7,654	-0,97415	-3,7194	8,9986
557	-4,3551	-0,94195	50,584	15,639
558	8,6278	-0,97494	-4,247	9,1909
559	7,2933	-0,96216	-4,5483	8,7655
560	-5,151	-1,0821	-1,2657	8,7219
561	8,2974	-0,98353	-5,0563	8,9488
562	-7,8695	-1,0539	0,36862	9,3649
563	-3,2161	-0,97849	49,967	17,295
564	-7,1753	-1,0184	-0,4745	9,18
565	9,6263	-0,96876	-4,7293	9,4327
566	-6,4588	-1,0456	-1,3391	8,9726
567	9,2981	-0,96527	-5,4982	9,1757
568	-5,6817	-1,1223	-2,243	8,7374
569	-3,7093	-0,97996	50,892	16,083
570	-2,6553	-0,93672	49,098	17,939
571	-2,5038	-0,9705	50,46	17,17
572	2,4344	-1,0282	49,044	17,504
573	17,658	-0,99545	21,673	7,85
574	-1,7783	-0,96598	49,687	16,672
575	1,6805	-1,	49,483	16,221
576	-2,9539	-0,98235	51,272	16,461
577	17,186	-0,9952	22,549	7,9477
578	-18,305	-0,98124	12,109	9,9533
579	0,76592	-0,96677	49,759	15,919
580	-19,177	-0,97932	12,584	9,7716
581	-1,6242	-0,84798	50,398	16,833
582	-20,067	-0,98077	13,04	9,5024
583	-0,37802	-0,89077	49,94	16,325
584	-20,962	-0,97406	13,516	9,1158
585	16,715	-0,99498	23,426	8,0733
586	-21,862	-0,97971	13,934	8,6425
587	-1,8714	-0,90358	50,914	16,716
588	-0,6054	-0,85356	50,689	16,453
589	-21,768	-0,99419	18,256	6,7237
590	-2,191	-0,99844	51,615	16,708
591	-22,647	-0,9962	18,728	5,9966
592	-1,1766	-0,79069	51,243	16,661
593	16,243	-0,99482	24,302	8,2251
594	-22,243	-0,9911	17,386	6,7888
595	-1,5115	-0,96003	51,968	16,932
596	-8,416	-1,0138	-0,50791	9,5215
597	-22,76	-0,97919	14,37	8,0356
598	-22,715	-0,98789	16,522	6,9006
599	-11,438	-0,88813	4,75e-002	10,666
600	-23,121	-0,99422	17,851	6,0245
601	-23,187	-0,98466	15,66	7,0655
602	-11,745	-0,85026	-0,63309	10,802
603	-10,775	-0,91672	-0,61123	10,373
604	-23,595	-0,99375	16,98	6,0948
605	-10,18	-0,96298	-1,3349	10,095
606	-24,07	-0,98892	16,108	6,2187
607	-11,311	-0,91541	-1,2926	10,568
608	-8,9348	-1,0075	-1,3368	9,6493
609	-7,6986	-1,0353	-1,3489	9,2784
610	-10,844	-0,97298	-2,0143	10,306
611	-9,4787	-0,98869	-2,125	9,7712
612	-7,0361	-1,0599	-2,2244	9,0332
613	-8,2937	-1,0314	-2,1659	9,3809
614	-10,224	-0,96692	-2,7978	9,9633
615	-7,6348	-1,067	-3,0632	9,0866
616	-8,9324	-1,0189	-2,9391	9,4892
617	-6,3848	-1,092	-3,1241	8,7743
618	-8,4675	-1,0401	-3,7664	9,2229
619	-7,1243	-1,0756	-3,9425	8,8273
620	-9,8256	-0,9943	-3,5609	9,7067
621	15,772	-0,99484	25,178	8,4014
622	-9,2953	-1,0308	-4,4217	9,3777
623	15,302	-0,99538	26,053	8,601
624	-7,9032	-1,0748	-4,6924	8,9036
625	-23,656	-0,98153	14,805	7,2924
626	-8,8407	-1,0459	-5,2583	9,076
627	-12,229	-0,84137	-1,2808	10,999
628	18,526	-0,99698	22,153	7,4329
629	-11,982	-0,9068	-1,8498	10,829
630	-18,768	-0,98442	11,237	10,369
631	-11,593	-0,95475	-2,5708	10,566
632	-19,632	-0,98781	11,712	10,18
633	-11,164	-0,96617	-3,3252	10,268
634	-20,509	-0,98425	12,195	9,888
635	-10,738	-1,0001	-4,1059	9,9602
636	-21,405	-0,97967	12,662	9,4931
637	-10,238	-1,0159	-4,9554	9,609
638	-22,316	-0,97127	13,115	8,9806
639	-9,8172	-1,0509	-5,7648	9,299
640	-23,223	-0,97432	13,534	8,358
641	18,053	-0,99696	23,029	7,545
642	-24,541	-0,98617	15,247	6,4016
643	17,58	-0,99685	23,906	7,6835
644	14,83	-0,9953	26,928	8,8235
645	-19,234	-0,99343	10,347	10,875
646	17,107	-0,99665	24,782	7,8466
647	-24,123	-0,97886	13,952	7,5935
648	16,644	-0,99669	25,659	8,0284
649	-20,063	-0,98843	10,864	10,656
650	-25,015	-0,98386	14,377	6,666
651	-20,92	-0,97701	11,396	10,327
652	16,173	-0,99643	26,537	8,2359
653	-21,826	-0,96935	11,881	9,9072
654	14,361	-0,99496	27,804	9,0671
655	-22,753	-0,96849	12,305	9,3942
656	15,701	-0,99635	27,414	8,465
657	-23,673	-0,97589	12,688	8,7763
658	-1,8919	-1,0859	2,8994	8,2058
659	15,23	-0,99622	28,291	8,7143
660	-2,4595	-1,052	1,9081	8,3542
661	-13,123	-0,95311	-1,4859	11,435
662	-2,8964	-1,0795	0,84082	8,4587
663	-14,026	-0,91178	-1,7063	11,911
664	-3,3424	-1,2108	-0,19394	8,5147
665	-24,584	-0,97764	13,103	7,984
666	-3,8891	-1,1298	-1,2295	8,5391
667	-12,817	-0,95296	-2,2405	11,194
668	-25,48	-0,98288	13,524	7,0178
669	-4,3909	-1,1635	-2,2312	8,5256
670	-12,445	-0,94042	-3,0081	10,898
671	10,587	-0,98505	-5,1013	9,7115
672	-5,0323	-1,1369	-3,1807	8,5062
673	11,606	-0,96156	-5,4545	10,043
674	-5,8036	-1,0906	-4,0332	8,5154
675	12,631	-0,95544	-5,7587	10,404
676	10,306	-0,95622	-5,8881	9,4457
677	-6,5201	-1,1023	-4,8877	8,5207
678	-12,041	-0,9569	-3,8103	10,568
679	11,294	-0,95468	-6,229	9,7455
680	-11,691	-0,99951	-4,5678	10,263
681	-0,97458	-1,1099	1,9697	8,2703
682	12,282	-0,94568	-6,5454	10,065
683	-1,5442	-1,2478	0,99367	8,3576
684	-14,934	-0,93834	-1,8936	12,416
685	-2,0539	-1,0881	-0,14184	8,4093
686	-7,4074	-1,0573	-5,586	8,6057
687	-2,5865	-1,0965	-1,2229	8,408
688	13,889	-0,99464	28,679	9,333
689	-11,234	-1,0045	-5,3959	9,902
690	13,418	-0,99458	29,557	9,6208
691	-8,3442	-1,076	-6,2223	8,7415
692	-3,0814	-1,2233	-2,2229	8,3662
693	-9,3978	-1,0603	-6,6634	8,9786
694	-10,862	-1,0494	-6,2088	9,5833
695	12,946	-0,99478	30,429	9,9306
696	-10,475	-1,0693	-7,0866	9,2564
697	-13,725	-0,95425	-2,5285	11,63
698	12,477	-0,99462	31,308	10,264
699	-13,395	-0,94221	-3,358	11,31
700	-14,675	-0,96584	-2,7643	12,12
701	14,758	-0,99618	29,166	8,9833
702	-19,671	-0,98325	9,4259	11,494
703	-14,366	-0,95529	-3,608	11,771
704	-20,521	-0,95643	9,9669	11,259
705	12,006	-0,99439	32,184	10,623
706	-21,379	-0,95012	10,525	10,904
707	14,286	-0,99612	30,044	9,2721
708	-22,279	-0,93457	11,038	10,449
709	13,815	-0,99622	30,919	9,5801
710	11,535	-0,99459	33,06	11,012
711	-20,057	-0,97322	8,4399	12,265
712	13,343	-0,9961	31,795	9,9087
713	11,063	-0,99678	33,939	11,437
714	12,871	-0,99607	32,671	10,258
715	-0,12908	-1,1051	0,96534	8,3244
716	10,589	-1,0028	34,82	11,904
717	-0,69951	-1,1058	-5,4586e-002	8,3514
718	10,1	-1,0122	35,719	12,439
719	-20,435	-0,97291	7,4519	13,189
720	-1,2282	-1,0972	-1,1504	8,3307
721	-20,712	-0,95801	6,4273	14,288
722	-1,7577	-1,1394	-2,2614	8,2613
723	12,399	-0,99584	33,55	10,632
724	-21,034	-0,95334	5,4459	15,614
725	11,926	-0,99731	34,427	11,032
726	-21,863	-0,9425	5,7892	16,231
727	-2,3828	-1,1071	-3,3224	8,1667
728	-3,7125	-1,1844	-3,2277	8,3088
729	11,453	-1,0021	35,305	11,464
730	-4,4025	-1,1446	-4,1304	8,2591
731	-21,51	-0,96368	6,7518	14,528
732	9,5812	-1,023	36,635	13,068
733	-3,0977	-1,1256	-4,2708	8,0748
734	10,967	-1,0101	36,195	11,945
735	-3,816	-1,1416	-5,087	8,007
736	-5,1952	-1,0896	-4,9617	8,2424
737	-21,231	-0,94651	7,7032	13,311
738	-4,616	-1,1029	-5,8947	7,9639
739	-6,0005	-1,0644	-5,7535	8,2447
740	10,452	-1,0194	37,101	12,499
741	-21,088	-0,94992	8,9121	12,154
742	-5,4297	-1,0781	-6,6796	7,9568
743	-21,759	-0,92433	8,7001	12,474
744	-23,194	-0,95254	11,465	9,9254
745	-6,839	-1,0468	-6,4961	8,2907
746	-24,121	-0,97224	11,874	9,2696
747	-21,923	-0,92191	7,8736	13,405
748	-21,868	-0,92281	9,7718	11,512
749	-6,2477	-1,0151	-7,3825	7,9918
750	-22,698	-0,93682	10,266	11,045
751	-22,312	-0,95489	7,0713	14,637
752	-23,63	-0,94917	10,644	10,548
753	-25,041	-0,97818	12,256	8,482
754	-24,556	-0,97299	11,033	9,9054
755	-22,687	-0,94078	6,1523	16,589
756	-22,269	-0,93075	9,1475	12,105
757	-25,944	-0,98357	12,667	7,4874
758	-23,116	-0,94794	9,5286	11,742
759	-25,48	-0,98014	11,408	9,1177
760	-24,054	-0,95134	9,8342	11,32
761	-7,8118	-1,0551	-7,1908	8,4076
762	-24,99	-0,97463	10,198	10,69
763	-6,988	-0,98541	-8,1306	8,028
764	0,69497	-1,0952	-1,5878e-002	8,3505
765	-25,919	-0,98227	10,553	9,9176
766	-8,1181	-0,99282	-8,2913	8,3045
767	0,15551	-1,1573	-1,0293	8,3152
768	1,5074	-1,0492	-0,94403	8,3521
769	-4,8977	-1,036	-7,5485	7,6976
770	1,0219	-1,0329	-1,9438	8,2623
771	-5,6681	-1,0292	-8,2589	7,7199
772	-0,34966	-1,0959	-2,0966	8,233
773	-6,4313	-0,97853	-8,9484	7,7819
774	-4,1078	-1,0638	-6,8236	7,7094
775	-7,7161	-0,96042	-8,7985	8,1102
776	-3,3158	-1,0937	-6,0845	7,7514
777	0,55617	-1,0427	-2,9572	8,1311
778	-0,85841	-1,1226	-3,2104	8,1043
779	-22,739	-0,92679	8,3035	13,121
780	9,0739e-002	-1,1595	-4,0652	7,9532
781	-7,1925	-0,96319	-9,5959	7,8661
782	-2,4297	-1,1586	-5,3761	7,8044
783	-23,126	-0,93601	7,4119	14,525
784	-1,4371	-1,1125	-4,6587	7,8822
785	-23,492	-0,97189	6,5331	16,469
786	-0,2614	-1,1432	-5,0725	7,7668
787	-0,64428	-0,9582	-6,2719	7,534
788	-1,1778	-1,032	-6,2003	7,5652
789	-0,36297	-0,97415	-7,0178	7,3779
790	-23,587	-0,94654	8,6591	12,767
791	-1,9889	-1,0478	-6,5471	7,5397
792	-24,471	-0,96189	9,0032	12,288
793	-2,8187	-1,0715	-7,1028	7,4997
794	-25,408	-0,97785	9,348	11,654
795	-3,5982	-1,0177	-7,8041	7,4557
796	-9,0838	-1,0421	-7,5472	8,709
797	-4,3813	-1,0205	-8,4689	7,4558
798	2,3843	-1,0705	-1,8475	8,343
799	-26,402	-0,98551	11,801	8,1126
800	1,9195	-1,0212	-2,8198	8,2028
801	-26,356	-0,9875	9,6911	10,886
802	1,4922	-1,007	-3,8153	8,0316
803	-26,855	-0,98886	10,935	8,91
804	1,0961	-1,0728	-4,8065	7,8372
805	-0,88342	-0,99716	-7,229	7,3514
806	-27,302	-0,99402	10,065	9,9135
807	0,79373	-1,0621	-5,7882	7,6351
808	-1,6095	-1,0171	-7,6148	7,3044
809	-8,8072	-1,0095	-8,509	8,4594
810	-5,1677	-1,0084	-9,1435	7,4922
811	0,61137	-1,027	-6,7282	7,4415
812	-10,098	-1,0506	-7,9998	8,947
813	-2,3757	-1,0102	-8,1398	7,2686
814	-8,4407	-0,98165	-9,4138	8,22
815	-9,6999	-1,0087	-8,9288	8,6575
816	-3,1678	-1,0163	-8,7346	7,2498
817	-8,0072	-0,96874	-10,215	8,0095
818	-9,2956	-1,0018	-9,8364	8,4052
819	-3,921	-1,0022	-9,3843	7,2585
820	-8,8548	-0,988	-10,705	8,1899
821	-4,7197	-0,99177	-10,022	7,3125
822	0,50015	-0,96253	-7,3945	7,3058
823	-13,058	-0,98462	-4,1383	10,979
824	-0,35386	-0,96686	-8,1611	7,1646
825	-12,641	-0,97933	-4,9552	10,6
826	-1,1328	-0,97049	-8,5802	7,1154
827	-12,26	-0,99608	-5,7768	10,239
828	-1,955	-0,98409	-9,0741	7,0873
829	-11,909	-1,0404	-6,5994	9,9008
830	-23,97	-0,95829	7,785	14,133
831	-11,513	-1,0657	-7,4827	9,5475
832	-2,7396	-0,98466	-9,6561	7,0829
833	-14,039	-0,98373	-4,4388	11,399
834	-5,9381	-0,99287	-9,7865	7,566
835	-13,674	-0,99021	-5,2653	11,004
836	-3,5242	-0,98108	-10,257	7,116
837	-13,296	-0,99781	-6,0967	10,609
838	-24,29	-0,96798	6,9124	15,976
839	-24,878	-0,96991	8,1469	13,553
840	-12,906	-1,0082	-6,9457	10,22
841	-25,229	-0,97894	7,2689	15,256
842	-11,092	-1,035	-8,4271	9,2003
843	-12,512	-1,0216	-7,8207	9,8456
844	-10,627	-1,0224	-9,3573	8,8788
845	-12,014	-1,0364	-8,8334	9,4353
846	-10,172	-1,0222	-10,293	8,6037
847	-11,525	-1,033	-9,8058	9,0907
848	-5,4986	-0,97923	-10,664	7,4069
849	-11,022	-1,0137	-10,763	8,7959
850	-25,82	-0,96992	8,4983	12,841
851	-4,3039	-0,97572	-10,877	7,1887
852	-26,78	-0,97959	8,8392	12,066
853	-5,0874	-0,97	-11,495	7,3023
854	-26,195	-0,99834	7,6245	14,359
855	-15,895	-0,96048	-2,1361	12,954
856	-27,742	-1,001	9,1936	11,132
857	-15,646	-0,95394	-3,0113	12,635
858	-9,7122	-0,9881	-11,184	8,3841
859	-27,204	-0,98852	7,9733	13,441
860	-10,552	-0,99584	-11,679	8,5721
861	-15,352	-0,96006	-3,8738	12,253
862	-25,45	-1,0002	6,4438	17,483
863	-15,009	-0,96616	-4,7235	11,827
864	-28,183	-1,0092	8,3223	12,532
865	-14,643	-0,97819	-5,5621	11,39
866	-26,215	-0,97766	5,5577	20,365
867	-26,585	-1,0152	6,7537	16,203
868	-16,865	-0,95254	-2,3941	13,497
869	-6,7311	-0,97243	-10,459	7,6825
870	-16,617	-0,96175	-3,2613	13,149
871	-27,626	-1,0201	7,0959	15,008
872	-6,3147	-0,97747	-11,265	7,546
873	-28,63	-1,0176	7,4496	14,057
874	-16,323	-0,96535	-4,1322	12,728
875	-14,256	-0,9767	-6,4035	10,953
876	-15,981	-0,96695	-4,999	12,257
877	-27,112	-0,98747	5,9278	18,137
878	-15,609	-0,96709	-5,8579	11,769
879	-7,5573	-0,98542	-11,023	7,8359
880	-28,091	-1,0064	6,2341	16,582
881	-7,1179	-0,98618	-11,853	7,7101
882	-8,4091	-0,97348	-11,558	8,0217
883	-29,089	-1,0234	6,5689	15,596
884	-7,9638	-0,97234	-12,395	7,9036
885	-5,8847	-0,97525	-12,104	7,4537
886	-0,77724	-0,78405	51,652	16,812
887	-9,253	-0,98075	-12,066	8,2165
888	-17,859	-0,98283	-2,59	14,031
889	-10,094	-0,9859	-12,573	8,4109
890	-0,71972	-0,80482	52,129	17,214
891	-8,7953	-0,98597	-12,932	8,1038
892	-17,59	-0,98517	-3,4828	13,678
893	-9,6444	-0,97928	-13,444	8,3067
894	-13,871	-0,98818	-7,2472	10,537
895	-6,6939	-0,96556	-12,686	7,6356
896	-17,284	-0,97209	-4,3892	13,201
897	-7,5271	-0,96744	-13,238	7,8391
898	-16,934	-0,96884	-5,281	12,668
899	-8,3561	-0,97058	-13,778	8,0488
900	-16,552	-0,96509	-6,1533	12,123
901	-9,1947	-0,97642	-14,3	8,2564
902	-15,217	-0,9672	-6,6997	11,292
903	-13,421	-0,99968	-8,1349	10,113
904	-14,826	-0,96916	-7,5372	10,843
905	-16,165	-0,9617	-7,0082	11,602
906	-14,41	-0,96875	-8,3473	10,426
907	-26,802	-0,97998	4,9308	22,478
908	3,2467	-1,0056	-2,6838	8,3299
909	-14,049	-0,95598	-9,0931	10,086
910	-12,966	-1,0055	-9,165	9,6956
911	-14,188	-0,95545	-9,8368	9,9366
912	-27,535	-0,9737	5,0654	20,42
913	-13,739	-0,96353	-10,266	9,6969
914	4,1838	-1,0778	-3,5241	8,3238
915	-28,541	-0,98821	5,3479	18,212
916	2,8524	-1,01	-3,6743	8,1512
917	-15,787	-0,95802	-7,8352	11,128
918	3,781	-1,0191	-4,532	8,1038
919	-12,337	-1,0255	-10,323	9,2534
920	-15,453	-0,96565	-8,6471	10,712
921	5,0739	-1,0971	-4,2803	8,3429
922	-15,145	-0,93541	-9,3944	10,365
923	6,0199	-1,0532	-4,9568	8,3972
924	-14,895	-0,92999	-10,158	10,06
925	4,7047	-0,99294	-5,3034	8,095
926	-13,187	-0,97787	-10,992	9,3846
927	6,9836	-0,94616	-5,4227	8,5333
928	4,9123	-1,1156	43,195	25,736
929	-14,444	-0,94923	-10,893	9,7477
930	5,3833	-0,96332	-5,965	8,0858
931	-13,971	-0,97481	-11,616	9,4725
932	6,7029	-0,93867	-6,2906	8,2935
933	9,0278	-1,0359	37,543	13,818
934	5,613	-1,0425	42,012	21,606
935	7,9925	-0,9588	-5,8391	8,7132
936	8,4655	-1,0515	38,463	14,713
937	9,9331	-1,0289	38,003	13,124
938	-29,533	-1,0263	5,7038	16,928
939	6,1976	-1,0189	41,047	19,479
940	7,6948	-0,94019	-6,6368	8,4815
941	8,9615	-0,96959	-6,2508	8,9212
942	7,9168	-1,0335	39,317	15,716
943	9,9736	-0,95175	-6,649	9,1735
944	7,2686	-1,0303	40,409	17,194
945	10,955	-0,9646	-7,0066	9,4459
946	7,4545	-1,0218	41,249	17,232
947	11,935	-0,96242	-7,3424	9,7415
948	8,6669	-0,93974	-7,0283	8,6812
949	9,3959	-1,0378	38,896	13,847
950	9,6384	-0,94408	-7,4297	8,9075
951	6,9948	-1,0197	41,738	18,325
952	10,6	-0,95054	-7,7887	9,1575
953	6,42	-1,0377	42,572	20,006
954	11,548	-0,96144	-8,1481	9,4192
955	-28,945	-1,0263	4,444	19,492
956	8,8769	-1,0368	39,782	14,66
957	8,3279	-0,92688	-7,7936	8,4416
958	8,4883	-1,0102	40,607	15,354
959	-29,503	-0,97039	3,553	20,549
960	9,2861	-0,93456	-8,1913	8,6546
961	8,1919	-0,98026	41,467	15,907
962	-30,017	-0,99682	4,852	18,075
963	10,196	-0,95155	-8,5644	8,8767
964	7,7496	-0,98057	42,298	16,709
965	11,131	-0,96796	-8,9454	9,1121
966	7,4326	-0,92089	-7,415	8,2667
967	7,1894	-1,0083	43,065	17,821
968	6,3858	-0,95096	-7,0023	8,0907
969	-30,463	-0,99793	3,9974	19,083
970	-18,878	-0,9953	-2,7806	14,641
971	6,3494	-0,98164	-7,7034	7,9564
972	27,426	-1,8769	4,9582	21,317
973	6,9436	-0,92261	-8,2693	7,9967
974	-18,576	-0,9911	-3,7115	14,215
975	-27,325	-0,89282	-4,5336	23,526
976	7,9476	-0,91281	-8,5199	8,2133
977	-18,221	-0,98015	-4,6527	13,67
978	-30,875	-0,96708	3,1401	20,009
979	-31,15	-0,98807	2,4939	20,491
980	-27,718	-0,89152	-5,009	20,2
981	-17,855	-0,97193	-5,5725	13,05
982	8,8598	-0,9304	-8,9332	8,4051
983	-17,478	-0,96525	-6,4649	12,439
984	-27,662	-0,90998	-5,5575	18,429
985	-31,609	-0,97672	1,4341	20,837
986	-29,969	-0,9686	2,6893	21,266
987	-28,445	-0,96132	-5,657	17,607
988	-30,354	-0,98354	1,772	21,779
989	-31,908	-0,97742	0,87343	20,642
990	-28,389	-0,87494	-5,0225	18,975
991	-30,777	-0,98638	0,57038	21,777
992	-31,621	-0,9773	0,28211	20,904
993	-30,549	-0,9884	-0,82325	21,977
994	-17,1	-0,9603	-7,3313	11,869
995	-31,532	-0,9844	-0,80352	20,904
996	-16,744	-0,95681	-8,1724	11,36
997	-16,399	-0,94742	-8,9814	10,913
998	-31,517	-0,98811	-1,7604	20,686
999	-16,089	-0,93658	-9,7814	10,523
1000	-30,325	-1,0153	-2,1041	21,515
1001	-15,723	-0,98215	-10,584	10,158
1002	-11,838	-1,0142	-11,301	8,9615
1003	-15,312	-0,9787	-11,357	9,8399
1004	6,0329	-1,0197	43,413	21,211
1005	-14,866	-0,97626	-12,137	9,5603
1006	-11,393	-1,0014	-12,192	8,752
1007	-12,698	-0,98783	-11,861	9,1176
1008	-10,938	-0,98762	-13,086	8,5958
1009	-12,231	-0,99345	-12,729	8,9091
1010	-13,523	-0,98555	-12,417	9,2318
1011	-10,487	-0,98154	-13,957	8,4963
1012	-11,786	-0,9891	-13,605	8,7602
1013	-13,088	-0,98599	-13,266	9,0388
1014	-10,039	-0,97555	-14,817	8,4509
1015	-12,643	-0,98389	-14,116	8,8943
1016	6,7505	-1,0268	43,949	18,625
1017	-14,409	-0,97581	-12,946	9,3211
1018	-11,34	-0,9814	-14,465	8,6651
1019	-13,958	-0,98062	-13,773	9,1294
1020	-10,89	-0,98073	-15,322	8,6211
1021	-13,512	-0,98147	-14,619	8,987
1022	9,7763	-0,94035	-9,3438	8,6143
1023	-12,196	-0,98351	-14,972	8,8007
1024	10,686	-0,96576	-9,7542	8,8348
1025	-11,742	-0,97789	-15,826	8,7566
1026	-13,062	-0,9802	-15,467	8,8935
1027	2,4436	-0,99814	-4,6505	7,9458
1028	-12,612	-0,97887	-16,316	8,8483
1029	-29,697	-0,99785	-3,3338	20,688
1030	2,0636	-0,98474	-5,582	7,7381
1031	-29,339	-0,9911	-4,2691	19,375
1032	5,4952	-1,0889	44,256	23,757
1033	1,7086	-0,99735	-6,5034	7,53
1034	-29,08	-0,78673	-5,1721	18,087
1035	6,2181	-1,034	44,781	19,787
1036	-26,621	-0,96636	-6,2602	17,334
1037	-28,786	-0,96221	-5,9791	16,719
1038	3,3896	-0,97263	-5,4927	7,8776
1039	-26,337	-0,97413	-7,2671	15,065
1040	3,0047	-0,96223	-6,3629	7,6634
1041	5,7956	-1,0157	45,337	20,771
1042	2,6165	-0,95055	-7,2411	7,4535
1043	1,4041	-1,0186	-7,4421	7,3276
1044	-26,027	-0,97172	-8,1276	13,441
1045	2,1742	-1,0117	-8,0696	7,264
1046	0,97433	-0,98744	-8,2143	7,1664
1047	0,3275	-0,95137	-9,03	7,028
1048	-0,73497	-0,96254	-9,4938	6,9708
1049	-0,46989	-0,90192	-10,234	6,8901
1050	-1,5393	-0,95106	-9,9514	6,9564
1051	0,41048	-0,86932	-10,049	6,9051
1052	-1,2102	-0,92056	-10,777	6,8784
1053	0,32883	-0,91577	-10,864	6,8497
1054	1,7611	-0,97732	-8,9424	7,0957
1055	-2,3434	-0,95732	-10,514	6,9694
1056	1,3792	-0,95572	-9,7813	6,9637
1057	-3,0969	-0,97736	-11,123	7,0174
1058	1,0749	-0,92924	-10,595	6,8838
1059	-3,892	-0,96111	-11,726	7,1132
1060	-1,9463	-0,93629	-11,363	6,9052
1061	0,7615	-0,91565	-11,297	6,8469
1062	4,2968	-0,94937	-6,2665	7,8444
1063	-0,11496	-0,91671	-11,14	6,8373
1064	-2,7179	-0,94447	-11,944	6,9768
1065	0,27544	-0,90147	-11,923	6,8403
1066	-0,82717	-0,90992	-11,581	6,847
1067	5,4298	-0,91979	-7,0822	7,8805
1068	-0,34198	-0,91815	-12,473	6,8675
1069	-1,5052	-0,95351	-12,185	6,8911
1070	-4,6721	-0,96024	-12,343	7,2473
1071	6,044	-0,93832	-8,0393	7,833
1072	-1,0961	-0,93527	-13,018	6,9363
1073	-2,3095	-0,93472	-12,752	6,9852
1074	3,9057	-0,92975	-7,1371	7,6207
1075	-1,9056	-0,92848	-13,525	7,0432
1076	4,7313	-0,91744	-7,8998	7,6071
1077	3,4479	-0,96542	-7,9489	7,4121
1078	5,5057	-0,91256	-8,6399	7,628
1079	4,2137	-0,97439	-8,6684	7,3996
1080	-19,763	-1,0175	-3,0857	15,251
1081	-3,4854	-0,94859	-12,553	7,0912
1082	-21,008	-1,0586	-3,3712	17,138
1083	-3,0584	-0,97719	-13,359	7,1191
1084	6,722	-0,91024	-8,6847	7,8814
1085	-2,6867	-0,93085	-14,139	7,201
1086	5,0326	-0,94882	-9,3591	7,4405
1087	-4,2606	-0,95072	-13,165	7,2459
1088	6,2807	-0,92303	-9,3243	7,6941
1089	2,9625	-0,99929	-8,7592	7,224
1090	-19,472	-0,99475	-3,9741	14,829
1091	5,8313	-0,94681	-10,019	7,5222
1092	-20,608	-0,88742	-4,3396	15,988
1093	3,7553	-0,98275	-9,4613	7,2259
1094	-3,8461	-0,96813	-13,959	7,2937
1095	-5,4636	-0,9731	-12,931	7,4162
1096	-3,4349	-0,97597	-14,752	7,3926
1097	-5,0527	-0,96464	-13,747	7,4322
1098	2,5806	-0,97369	-9,612	7,0709
1099	-4,6518	-0,94646	-14,558	7,5012
1100	4,5569	-0,96624	-10,133	7,2779
1101	2,1885	-0,96486	-10,428	6,9615
1102	5,3643	-0,95531	-10,781	7,3753
1103	-6,2838	-0,96057	-13,505	7,615
1104	3,3475	-0,96611	-10,26	7,0937
1105	-7,0961	-0,96798	-14,067	7,8275
1106	2,9696	-0,97394	-11,066	7,0048
1107	-5,8649	-0,95527	-14,332	7,6457
1108	7,5775	-0,91678	-9,2382	8,0121
1109	-6,6618	-0,97841	-14,892	7,8667
1110	4,1409	-0,96026	-10,913	7,1624
1111	-5,4454	-0,95053	-15,145	7,7263
1112	8,4544	-0,9342	-9,7105	8,1836
1113	-6,2345	-0,9758	-15,712	7,9575
1114	9,3284	-0,94407	-10,127	8,3809
1115	4,9456	-0,9552	-11,553	7,2772
1116	3,7326	-0,95428	-11,702	7,0912
1117	-19,12	-0,98695	-4,9277	14,159
1118	-4,2125	-0,97667	-15,354	7,6126
1119	-18,757	-0,97473	-5,883	13,416
1120	-20,02	-0,99329	-5,2281	14,725
1121	-5,0149	-0,94665	-15,956	7,8544
1122	-19,638	-0,97525	-6,2108	13,756
1123	-5,8128	-0,95141	-16,529	8,0965
1124	-18,382	-0,96785	-6,7927	12,712
1125	-5,3662	-0,97942	-17,328	8,2729
1126	-18,019	-0,96377	-7,6781	12,076
1127	-19,267	-0,97486	-7,1462	12,922
1128	-4,5711	-0,98156	-16,745	8,0217
1129	-18,926	-0,97592	-8,0385	12,216
1130	1,8009	-0,93388	-11,204	6,8983
1131	-3,7956	-0,97248	-16,148	7,7739
1132	2,563	-0,96618	-11,855	6,9596
1133	1,4049	-0,93499	-11,966	6,8772
1134	3,3164	-0,9491	-12,493	7,067
1135	-7,9183	-0,97735	-14,613	8,0457
1136	2,1303	-0,9498	-12,626	6,9605
1137	-8,7578	-0,97231	-15,146	8,2603
1138	-27,621	-1,0691	-6,5973	16,06
1139	4,5259	-0,95354	-12,334	7,224
1140	-9,592	-0,98713	-15,665	8,4561
1141	-3,0279	-0,97222	-15,537	7,5385
1142	4,0946	-0,9516	-13,126	7,2188
1143	0,90108	-0,93348	-12,722	6,8999
1144	-2,2977	-0,92257	-14,917	7,3293
1145	2,8865	-0,94793	-13,273	7,0912
1146	-1,548	-0,91643	-14,273	7,1456
1147	3,6727	-0,9509	-13,905	7,2643
1148	-0,76267	-0,92767	-13,857	7,0401
1149	1,6834	-0,9503	-13,391	7,0101
1150	0,29637	-0,93803	-13,456	6,9714
1151	2,4563	-0,95178	-14,045	7,165
1152	-27,303	-0,97485	-7,6872	13,927
1153	1,252	-0,95175	-14,129	7,105
1154	-10,443	-0,98525	-16,174	8,6272
1155	2,0501	-0,95503	-14,819	7,2897
1156	-11,306	-0,97592	-16,669	8,7616
1157	3,2756	-0,97682	-14,684	7,3622
1158	7,1051	-0,93401	-9,9334	7,8138
1159	-26,928	-0,98222	-8,5619	12,49
1160	2,8356	-0,95429	-15,473	7,5061
1161	7,983	-0,94329	-10,446	7,9834
1162	8,8687	-0,95527	-10,928	8,1764
1163	0,22157	-0,94101	-14,551	7,1646
1164	-26,524	-0,98604	-9,4046	11,254
1165	-17,681	-0,95974	-8,5334	11,523
1166	0,95809	-0,94171	-14,953	7,2686
1167	-17,35	-0,95451	-9,3669	11,038
1168	1,698	-0,95746	-15,626	7,473
1169	-25,611	-0,96687	-8,9824	12,15
1170	-18,621	-0,97297	-8,9084	11,614
1171	-25,178	-0,97383	-9,8289	11,09
1172	-18,288	-0,96705	-9,7592	11,083
1173	-26,068	-0,98457	-10,271	10,207
1174	-19,22	-0,98208	-10,154	11,04
1175	-24,719	-0,98054	-10,678	10,226
1176	10,237	-0,96571	-10,582	8,5898
1177	-24,251	-0,98623	-11,541	9,5143
1178	-25,603	-0,98608	-11,122	9,3653
1179	-20,159	-0,99394	-10,56	10,89
1180	-21,085	-0,99531	-10,976	10,623
1181	9,7447	-0,96713	-11,389	8,3771
1182	-21,999	-0,99161	-11,453	10,191
1183	-16,998	-0,96445	-10,19	10,603
1184	-7,4804	-0,98386	-15,445	8,0935
1185	-17,929	-0,96148	-10,603	10,617
1186	-22,899	-0,98973	-11,927	9,6319
1187	-8,3089	-0,99087	-15,982	8,3115
1188	-18,842	-0,9734	-11,017	10,541
1189	-23,782	-0,98943	-12,4	8,9418
1190	-25,138	-0,98832	-11,991	8,6672
1191	-7,0407	-0,99277	-16,267	8,1892
1192	-24,67	-0,99004	-12,857	8,1128
1193	-7,869	-0,99322	-16,811	8,4113
1194	-9,149	-0,9927	-16,507	8,5109
1195	6,6496	-0,94638	-10,645	7,6479
1196	-9,9992	-0,9893	-17,021	8,681
1197	7,5094	-0,95072	-11,191	7,8171
1198	-6,6049	-0,98971	-17,084	8,3309
1199	8,3864	-0,95873	-11,703	8,011
1200	-7,4312	-0,98609	-17,633	8,5552
1201	9,2551	-0,96777	-12,193	8,2136
1202	-8,7098	-0,989	-17,342	8,6116
1203	-10,853	-0,98707	-17,528	8,8119
1204	-8,2782	-0,96473	-18,175	8,7563
1205	-9,5657	-0,97629	-17,863	8,7801
1206	-0,55212	-0,92282	-14,59	7,1764
1207	-9,1095	-0,98229	-18,697	8,9181
1208	-19,758	-0,983	-11,422	10,377
1209	-10,412	-0,98068	-18,376	8,9057
1210	-20,658	-0,98828	-11,85	10,096
1211	-0,15046	-0,90439	-15,283	7,3376
1212	-21,55	-0,99045	-12,307	9,6871
1213	-12,166	-0,97774	-17,17	8,8496
1214	-22,433	-0,98991	-12,789	9,1437
1215	-9,9666	-0,97162	-19,215	9,0389
1216	0,41659	-0,95105	-15,787	7,4795
1217	2,3828	-0,96022	-16,274	7,701
1218	1,1055	-0,96132	-16,431	7,6923
1219	-11,71	-0,98655	-18,027	8,8948
1220	1,942	-0,97931	-17,076	7,9367
1221	-11,263	-0,98328	-18,881	8,9822
1222	-23,32	-0,99034	-13,261	8,476
1223	-10,817	-0,97436	-19,731	9,1084
1224	-24,204	-0,99134	-13,724	7,6721
1225	-6,1674	-0,98853	-17,897	8,5151
1226	6,2009	-0,95215	-11,388	7,5182
1227	-6,9864	-0,98819	-18,452	8,7397
1228	7,044	-0,95482	-11,952	7,6929
1229	-7,8186	-0,98404	-18,995	8,9365
1230	7,9114	-0,96065	-12,484	7,8928
1231	5,7647	-0,954	-12,155	7,4323
1232	8,7661	-0,96779	-12,997	8,0986
1233	6,6011	-0,95634	-12,73	7,6188
1234	-31,555	-0,99237	-2,3872	20,343
1235	7,4473	-0,96127	-13,275	7,8248
1236	-30,934	-0,97942	-2,768	20,299
1237	-1,2053	-0,90272	-15,048	7,3004
1238	-16,614	-0,9851	-11,008	10,218
1239	-30,631	-1,0015	-3,7595	19,363
1240	8,2995	-0,97061	-13,801	8,0387
1241	-30,215	-0,99343	-4,703	18,252
1242	-17,523	-0,95998	-11,429	10,213
1243	-1,8713	-0,97656	-15,681	7,497
1244	5,3355	-0,95405	-12,939	7,3948
1245	-18,413	-0,97923	-11,856	10,123
1246	6,159	-0,95666	-13,517	7,5933
1247	-19,323	-0,97752	-12,282	9,9446
1248	6,9902	-0,96122	-14,076	7,8087
1249	-20,207	-0,98412	-12,72	9,6619
1250	7,8289	-0,96671	-14,619	8,0302
1251	-21,086	-0,99174	-13,189	9,2593
1252	-2,6132	-0,97181	-16,313	7,7267
1253	4,9072	-0,95361	-13,727	7,4072
1254	-3,3735	-0,97817	-16,933	7,9765
1255	5,722	-0,95662	-14,312	7,6195
1256	-21,971	-0,98982	-13,652	8,7442
1257	6,5484	-0,96095	-14,878	7,8461
1258	4,8894	-1,073	44,999	28,351
1259	7,3792	-0,96592	-15,434	8,0758
1260	-22,852	-0,99117	-14,132	8,0967
1261	-4,1672	-0,9428	-17,549	8,2404
1262	-23,737	-0,99312	-14,594	7,3246
1263	-4,9523	-0,94771	-18,139	8,4974
1264	-5,7517	-0,95874	-18,708	8,7408
1265	-16,195	-0,96848	-11,805	9,8861
1266	-6,5618	-0,95794	-19,273	8,9659
1267	-15,748	-0,97425	-12,613	9,5987
1268	-7,3811	-0,96322	-19,817	9,1569
1269	-15,291	-0,97343	-13,426	9,3605
1270	-29,8	-0,98742	-5,588	17,086
1271	-0,11164	-0,81272	51,249	16,589
1272	4,4776	-0,9535	-14,515	7,4699
1273	-29,268	-0,96778	-6,444	15,799
1274	-2,8241e-002	-0,91309	52,062	17,091
1275	-17,082	-0,96899	-12,248	9,8672
1276	0,44595	-0,83553	51,09	16,686
1277	-16,633	-0,96914	-13,07	9,5762
1278	-28,773	-0,97155	-7,2823	14,327
1279	-16,173	-0,98099	-13,904	9,335
1280	0,71971	-0,95067	51,892	16,945
1281	-28,362	-1,0034	-8,1041	12,893
1282	5,3047	-0,97435	-15,104	7,6979
1283	4,0663	-0,97256	-15,301	7,5836
1284	-17,982	-0,97047	-12,683	9,7743
1285	6,1057	-0,9606	-15,688	7,9344
1286	4,8703	-0,97423	-15,901	7,8233
1287	-17,519	-0,97425	-13,522	9,4795
1288	6,9398	-0,96498	-16,248	8,1718
1289	5,6855	-0,97586	-16,486	8,0703
1290	-17,058	-0,97881	-14,353	9,2425
1291	6,5088	-0,97791	-17,057	8,3137
1292	3,6106	-0,95492	-16,102	7,7441
1293	1,1136	-0,92781	50,622	16,745
1294	4,4186	-0,95759	-16,704	7,9951
1295	3,1687	-0,95845	-16,885	7,946
1296	1,4976	-0,97255	51,659	16,834
1297	5,2304	-0,96046	-17,297	8,251
1298	-18,863	-0,97714	-13,123	9,5923
1299	6,0515	-0,96369	-17,875	8,4992
1300	-19,741	-0,99117	-13,593	9,3041
1301	-27,862	-0,99554	-8,9994	11,406
1302	-20,628	-0,98807	-14,034	8,9263
1303	-18,398	-0,98424	-13,984	9,2954
1304	-27,417	-0,99297	-9,851	10,181
1305	-19,281	-0,98928	-14,443	9,0206
1306	2,0217	-0,98683	50,381	17,162
1307	-20,167	-0,98843	-14,897	8,6493
1308	2,3347	-0,98679	51,368	16,665
1309	-14,839	-0,98113	-14,265	9,1688
1310	-21,508	-0,99049	-14,521	8,418
1311	-15,717	-0,98355	-14,743	9,1452
1312	-21,043	-0,99034	-15,385	8,1605
1313	-22,387	-0,99093	-14,996	7,7986
1314	-17,939	-0,98302	-14,823	9,0632
1315	3,4115	-1,0798	48,599	19,257
1316	-18,819	-0,99021	-15,3	8,7917
1317	3,9975	-0,97487	-17,495	8,2094
1318	-19,705	-0,9891	-15,761	8,4297
1319	4,8139	-0,97939	-18,093	8,472
1320	-20,578	-0,99032	-16,249	7,9601
1321	5,6281	-0,97986	-18,681	8,7242
1322	-21,923	-0,99161	-15,858	7,5665
1323	2,9907	-1,0231	49,953	17,107
1324	-21,456	-0,99315	-16,725	7,389
1325	3,2086	-0,98278	51,087	16,422
1326	-26,952	-0,99029	-10,72	9,1334
1327	-23,27	-0,99446	-15,463	7,0568
1328	-26,487	-0,98985	-11,588	8,2896
1329	-8,6584	-0,98235	-19,528	9,096
1330	-22,804	-0,9945	-16,329	6,8557
1331	-9,5097	-0,97161	-20,056	9,2103
1332	-26,021	-0,99062	-12,444	7,6346
1333	-8,2066	-0,98641	-20,359	9,3112
1334	4,7692	-1,0226	46,152	26,081
1335	-9,0465	-0,98881	-20,891	9,4175
1336	4,5788	-1,0512	47,245	22,416
1337	-25,555	-0,99142	-13,312	7,1132
1338	-22,337	-0,99555	-17,196	6,7098
1339	4,6819	-1,0037	48,289	17,936
1340	-16,597	-0,98584	-15,215	9,0504
1341	2,7454	-0,96605	-17,664	8,1887
1342	-17,479	-0,98551	-15,68	8,877
1343	4,1568	-0,94578	49,153	17,126
1344	-18,359	-0,98866	-16,156	8,6145
1345	3,5515	-0,95899	-18,286	8,4608
1346	-19,242	-0,98932	-16,625	8,2616
1347	4,3823	-0,97876	-18,894	8,731
1348	3,9707	-0,95738	49,921	16,704
1349	5,1943	-0,98074	-19,489	8,986
1350	-20,113	-0,99015	-17,114	7,8097
1351	4,0313	-0,97415	50,827	15,761
1352	-20,99	-0,99302	-17,59	7,2608
1353	-10,349	-0,98646	-20,572	9,2712
1354	-21,87	-0,99552	-18,063	6,6113
1355	-9,8926	-0,9901	-21,414	9,4693
1356	-0,74464	-0,97131	-15,809	7,4912
1357	2,3351	-0,95681	-18,433	8,4598
1358	-0,2197	-0,93706	-16,545	7,7145
1359	3,14	-0,95682	-19,079	8,7489
1360	1,5183	-0,94555	-17,902	8,2275
1361	-25,089	-0,99176	-14,18	6,7126
1362	1,9903	-0,95333	-19,251	8,7866
1363	1,19	-0,93	-18,72	8,5455
1364	-24,618	-0,99571	-15,066	6,4007
1365	-14,387	-0,98094	-15,112	9,0264
1366	0,42054	-0,9485	-17,245	7,9594
1367	-15,264	-0,98223	-15,586	9,0044
1368	0,29336	-0,86173	-18,55	8,4661
1369	-16,142	-0,98436	-16,066	8,9105
1370	-24,151	-0,99696	-15,935	6,1791
1371	0,28316	-0,92203	-19,075	8,6831
1372	2,7535	-0,95819	-19,873	9,0672
1373	0,85517	-0,89231	-19,356	8,8124
1374	-23,684	-0,99611	-16,802	6,023
1375	1,5411	-0,92638	-20,044	9,1247
1376	-1,4381	-0,9811	-16,438	7,7045
1377	-23,217	-0,99606	-17,669	5,9198
1378	-0,98778	-0,95151	-17,183	7,9446
1379	-13,927	-0,98124	-15,958	8,9325
1380	2,3029	-0,96346	-20,662	9,4097
1381	-2,193	-0,96497	-17,08	7,9521
1382	4,4933	-0,9298	49,931	15,897
1383	3,936	-0,95851	-19,702	9,0265
1384	-0,62866	-0,94137	-17,845	8,1856
1385	4,7411	-0,96168	-20,304	9,2842
1386	-0,34408	-0,92422	-18,704	8,5282
1387	4,7344	-0,95897	50,47	15,142
1388	-1,7959	-0,94131	-17,835	8,2101
1389	-9,9575e-003	-0,91636	-19,544	8,8929
1390	-1,4229	-0,9437	-18,598	8,4995
1391	3,5007	-0,95755	-20,504	9,3506
1392	-0,84484	-0,92509	-19,557	8,9004
1393	4,3009	-0,96177	-21,114	9,6115
1394	-17,02	-0,98648	-16,541	8,739
1395	-22,751	-0,99603	-18,535	5,8612
1396	-17,9	-0,98803	-17,016	8,4835
1397	-0,60416	-0,93028	-20,186	9,1808
1398	-18,779	-0,98901	-17,489	8,1398
1399	0,45954	-0,93158	-20,201	9,187
1400	-14,814	-0,98307	-16,434	8,9101
1401	-19,647	-0,98982	-17,979	7,7039
1402	1,101	-0,96345	-20,811	9,4706
1403	-15,679	-0,98501	-16,921	8,8167
1404	-20,524	-0,99176	-18,454	7,1758
1405	-16,557	-0,9866	-17,4	8,6473
1406	-21,404	-0,99553	-18,929	6,5536
1407	-17,436	-0,98762	-17,877	8,3964
1408	-2,9596	-0,968	-17,716	8,2181
1409	-18,315	-0,98844	-18,354	8,0603
1410	3,064	-0,95703	-21,291	9,6954
1411	1,8449	-0,98291	-21,449	9,7721
1412	3,8627	-0,96249	-21,906	9,9589
1413	-19,181	-0,98943	-18,843	7,6383
1414	-22,284	-0,99603	-19,402	5,8398
1415	-0,1221	-0,9448	-20,963	9,5431
1416	-20,058	-0,99164	-19,32	7,1284
1417	-3,7492	-0,94339	-18,346	8,4939
1418	-20,937	-0,99489	-19,795	6,5313
1419	-4,5277	-0,94775	-18,947	8,758
1420	-21,817	-0,99585	-20,269	5,8506
1421	0,56914	-0,97581	-21,581	9,8406
1422	-2,5649	-0,9423	-18,504	8,4974
1423	2,6071	-0,96525	-22,085	10,067
1424	-3,3325	-0,94515	-19,144	8,7819
1425	3,4166	-0,96743	-22,708	10,335
1426	-4,1028	-0,95548	-19,744	9,0477
1427	1,3451	-1,0112	-22,207	10,145
1428	-2,1696	-0,94543	-19,292	8,8072
1429	4,7901	-0,95065	49,396	16,127
1430	-13,48	-0,98059	-16,807	8,8855
1431	-1,7161	-0,95783	-20,091	9,1465
1432	-13,025	-0,98395	-17,662	8,8825
1433	5,3513	-0,93843	49,972	14,451
1434	-14,352	-0,98308	-17,296	8,8602
1435	2,1383	-0,97646	-22,873	10,456
1436	-13,892	-0,98286	-18,142	8,854
1437	-1,2944	-0,95012	-20,881	9,5058
1438	2,982	-0,97381	-23,502	10,731
1439	-0,75936	-0,98063	-21,709	9,9011
1440	-2,9158	-0,94814	-19,943	9,1009
1441	-1,9187e-002	-1,0014	-22,346	10,219
1442	-3,6806	-0,95157	-20,561	9,3766
1443	0,82809	-1,0024	-23,023	10,555
1444	-12,569	-0,98655	-18,519	8,9223
1445	1,7069	-0,99101	-23,656	10,861
1446	-15,225	-0,98539	-17,782	8,7655
1447	-13,434	-0,98237	-19,	8,8879
1448	2,5648	-0,99553	-24,315	11,156
1449	-5,3235	-0,9527	-19,525	9,0041
1450	-16,101	-0,98687	-18,258	8,5967
1451	-6,1305	-0,95801	-20,09	9,2257
1452	-16,982	-0,9876	-18,733	8,3482
1453	-12,116	-0,98549	-19,377	9,0023
1454	-17,852	-0,98812	-19,218	8,0191
1455	-12,976	-0,98924	-19,866	8,9604
1456	-6,9464	-0,96684	-20,643	9,4138
1457	-18,715	-0,98919	-19,708	7,609
1458	-7,7641	-0,98424	-21,192	9,5619
1459	-4,8958	-0,95545	-20,334	9,2981
1460	-8,5969	-0,99089	-21,73	9,66
1461	-5,6985	-0,9578	-20,909	9,5194
1462	-9,443	-0,98806	-22,257	9,7004
1463	-19,592	-0,99057	-20,186	7,1149
1464	-4,4613	-0,96163	-21,149	9,6244
1465	-20,47	-0,99413	-20,661	6,5403
1466	-5,2667	-0,95888	-21,736	9,8475
1467	-21,349	-0,99669	-21,137	5,8896
1468	-2,4707	-0,96684	-20,733	9,4423
1469	-6,5044	-0,97394	-21,473	9,7052
1470	-3,2274	-0,98	-21,353	9,7217
1471	-2,0107	-0,96971	-21,539	9,8147
1472	-4,0345	-0,957	-21,973	9,9838
1473	-2,8	-0,96821	-22,17	10,103
1474	-4,8254	-0,97148	-22,548	10,198
1475	-6,0747	-0,9629	-22,307	10,029
1476	-14,759	-0,98578	-18,638	8,7572
1477	-5,6376	-0,96958	-23,125	10,377
1478	-14,308	-0,9858	-19,492	8,7856
1479	5,8879	-0,75262	49,31	13,966
1480	2,1714	-0,99885	-25,124	11,596
1481	-15,645	-0,98764	-19,116	8,5851
1482	1,3059	-0,99937	-24,467	11,295
1483	-16,518	-0,98821	-19,596	8,3383
1484	5,7016	-0,67844	48,313	15,444
1485	-17,388	-0,9883	-20,083	8,0132
1486	6,5275	-0,96924	49,201	12,542
1487	-15,18	-0,98813	-19,985	8,6109
1488	6,6488	-0,98183	48,613	12,823
1489	-16,058	-0,98877	-20,461	8,3616
1490	-13,846	-0,98505	-20,345	8,8511
1491	-16,924	-0,98848	-20,948	8,0398
1492	-14,711	-0,98762	-20,845	8,673
1493	-18,249	-0,98913	-20,574	7,6127
1494	-15,587	-0,98843	-21,33	8,4202
1495	-3,5836	-0,97961	-22,764	10,354
1496	-16,455	-0,98976	-21,817	8,098
1497	-4,4073	-0,95881	-23,369	10,58
1498	-17,787	-0,99057	-21,438	7,6452
1499	1,5863	-1,0086	-26,019	12,115
1500	-5,2128	-0,96045	-23,955	10,758
1501	0,82551	-0,98019	-25,331	11,773
1502	-17,322	-0,98947	-22,303	7,7061
1503	-19,124	-0,99064	-21,055	7,1322
1504	5,7848	-1,0039	47,444	16,419
1505	-18,657	-0,99063	-21,921	7,177
1506	0,42967	-0,99343	-23,769	10,944
1507	-1,4734	-0,99262	-22,376	10,225
1508	-18,192	-0,99158	-22,785	7,2466
1509	-0,75445	-0,97486	-23,336	10,721
1510	6,9128	-1,0063	47,762	12,992
1511	-11,667	-0,98024	-20,226	9,1191
1512	6,5317e-002	-0,9646	-24,713	11,452
1513	-11,204	-0,98684	-21,079	9,2731
1514	-7,3317	-0,97281	-22,025	9,8454
1515	-10,754	-0,9783	-21,929	9,4594
1516	-8,1618	-0,9786	-22,568	9,9337
1517	-0,73261	-0,93282	-24,484	11,317
1518	-10,296	-0,98572	-22,775	9,6783
1519	-2,3215	-0,98204	-22,964	10,496
1520	-6,8971	-0,96698	-22,864	10,162
1521	-0,74395	-0,92301	-25,096	11,647
1522	-20,004	-0,99331	-21,527	6,577
1523	-0,32686	-0,9399	-25,488	11,87
1524	-7,7208	-0,97072	-23,411	10,24
1525	0,2346	-0,97662	-26,155	12,245
1526	-12,517	-0,99099	-20,724	9,0693
1527	-6,4529	-0,97186	-23,691	10,506
1528	-13,392	-0,98429	-21,21	8,9498
1529	1,1936	-1,088	-27,108	12,758
1530	-7,2786	-0,96928	-24,251	10,577
1531	-6,0198	-0,96372	-24,526	10,882
1532	1,0119	-0,95654	-27,955	13,269
1533	-6,8426	-0,9677	-25,086	10,943
1534	-19,538	-0,993	-22,393	6,6384
1535	-1,8916	-0,94463	-23,833	10,946
1536	-19,07	-0,99299	-23,261	6,7224
1537	0,84752	-0,96016	-28,961	13,908
1538	-14,253	-0,98834	-21,705	8,7646
1539	-12,061	-0,98994	-21,58	9,2118
1540	-15,127	-0,98756	-22,195	8,5065
1541	-20,882	-0,99609	-22,004	5,953
1542	-15,997	-0,98745	-22,678	8,1806
1543	-12,934	-0,98406	-22,072	9,0815
1544	-20,416	-0,99588	-22,871	6,0378
1545	-13,794	-0,9876	-22,568	8,8866
1546	-19,949	-0,99577	-23,738	6,1422
1547	-14,663	-0,987	-23,057	8,622
1548	-16,855	-0,99132	-23,171	7,793
1549	-15,526	-0,9883	-23,547	8,2936
1550	-1,5639	-0,93424	-24,668	11,391
1551	-17,725	-0,99314	-23,652	7,3393
1552	-1,2613	-0,93805	-25,42	11,806
1553	-18,604	-0,99173	-24,127	6,8261
1554	-16,391	-0,98903	-24,034	7,9023
1555	-3,1708	-0,96336	-23,565	10,752
1556	-9,0054	-0,9748	-23,105	9,9631
1557	-2,7657	-0,96326	-24,352	11,161
1558	-8,5609	-0,97396	-23,949	10,257
1559	-3,9845	-0,95944	-24,171	10,977
1560	-17,26	-0,98988	-24,517	7,4526
1561	-3,5711	-0,95801	-24,981	11,402
1562	-11,61	-0,98453	-22,431	9,3852
1563	-18,136	-0,99142	-24,994	6,9488
1564	-12,474	-0,98408	-22,93	9,2442
1565	-19,485	-0,99276	-24,598	6,2631
1566	-13,336	-0,98503	-23,434	9,0372
1567	-11,156	-0,98089	-23,282	9,59
1568	-14,201	-0,98601	-23,921	8,7634
1569	-0,89094	-0,94565	-26,15	12,223
1570	-15,071	-0,9862	-24,408	8,4251
1571	-12,021	-0,98283	-23,785	9,4342
1572	-9,8503	-0,97785	-23,625	9,9271
1573	-12,878	-0,98403	-24,286	9,2147
1574	-10,704	-0,98013	-24,135	9,824
1575	-13,736	-0,98528	-24,784	8,9315
1576	-19,015	-0,99463	-25,472	6,4001
1577	-14,609	-0,98562	-25,273	8,5823
1578	-9,3991	-0,97711	-24,48	10,209
1579	-15,928	-0,98854	-24,9	8,0333
1580	-10,251	-0,9803	-24,99	10,088
1581	-4,7858	-0,9591	-24,777	11,162
1582	-15,467	-0,98619	-25,765	8,1833
1583	-16,795	-0,99	-25,383	7,5845
1584	-4,3658	-0,95799	-25,59	11,589
1585	-16,325	-0,98817	-26,255	7,736
1586	-5,5833	-0,97156	-25,348	11,281
1587	-0,48265	-0,96401	-26,917	12,675
1588	-5,1683	-0,9607	-26,179	11,712
1589	-6,3979	-0,96596	-25,923	11,341
1590	-8,1102	-0,97275	-24,794	10,582
1591	-5,9669	-0,96477	-26,755	11,766
1592	-0,14675	-0,96316	-27,759	13,185
1593	6,1201	-1,0128	46,202	17,479
1594	0,14305	-0,96072	-28,644	13,739
1595	7,3495	-1,0002	46,835	13,003
1596	0,25378	-0,95951	-29,39	14,222
1597	-17,669	-0,99101	-25,861	7,087
1598	6,9927	-1,0323	45,304	16,192
1599	-17,202	-0,99059	-26,728	7,2399
1600	-18,547	-0,9956	-26,341	6,55
1601	7,8612	-1,022	45,91	13,111
1602	-7,6722	-0,97166	-25,632	10,935
1603	-18,08	-0,99541	-27,208	6,7111
1604	-2,3742	-0,95275	-25,187	11,616
1605	-8,9528	-0,97615	-25,322	10,517
1606	-3,1725	-0,95271	-25,792	11,85
1607	-8,5081	-0,97546	-26,167	10,855
1608	7,568	-1,0227	44,474	15,704
1609	-11,562	-0,9828	-24,642	9,6542
1610	8,404	-1,0319	45,048	13,07
1611	-2,0109	-0,94325	-25,993	12,071
1612	-9,8027	-0,97958	-25,845	10,38
1613	-1,6242	-0,94967	-26,793	12,546
1614	-9,3481	-0,97907	-26,699	10,704
1615	-1,252	-0,95766	-27,615	13,053
1616	-7,2197	-0,9757	-26,468	11,321
1617	-0,90364	-0,96032	-28,44	13,579
1618	-6,7776	-0,96968	-27,314	11,742
1619	-8,052	-0,97756	-27,01	11,228
1620	-0,60962	-0,9361	-29,268	14,126
1621	-7,6043	-0,97362	-27,856	11,633
1622	-0,22769	-0,90635	-30,15	14,744
1623	-12,421	-0,98415	-25,145	9,4187
1624	-8,895	-0,97854	-27,546	11,057
1625	-13,28	-0,98495	-25,645	9,1206
1626	-8,4322	-0,97789	-28,396	11,447
1627	-14,146	-0,98522	-26,137	8,7612
1628	-3,9558	-0,95609	-26,407	12,044
1629	-15,002	-0,98569	-26,631	8,354
1630	-4,7409	-0,96099	-27,009	12,175
1631	-15,861	-0,98756	-27,117	7,9015
1632	-5,5296	-0,96514	-27,592	12,229
1633	-16,735	-0,99018	-27,594	7,4058
1634	-11,103	-0,9828	-25,501	9,9024
1635	-17,613	-0,99535	-28,076	6,882
1636	-10,646	-0,98238	-26,361	10,178
1637	-6,3325	-0,97437	-28,152	12,197
1638	-2,7762	-0,9487	-26,617	12,329
1639	-10,199	-0,98198	-27,22	10,479
1640	-2,3948	-0,95114	-27,449	12,834
1641	-9,7402	-0,98137	-28,075	10,812
1642	-7,1539	-0,97427	-28,704	12,075
1643	-2,016	-0,95596	-28,279	13,362
1644	-7,9777	-0,97835	-29,247	11,868
1645	-1,6214	-0,96043	-29,117	13,936
1646	8,078	-1,0077	43,624	15,312
1647	-1,2453	-0,97116	-29,951	14,53
1648	8,9336	-1,0115	44,161	13,034
1649	-3,5451	-0,95723	-27,241	12,536
1650	-9,2695	-0,98044	-28,92	11,179
1651	-4,3196	-0,96224	-27,85	12,675
1652	-8,8143	-0,98046	-29,777	11,574
1653	-0,78135	-0,96402	-30,759	15,15
1654	-11,964	-0,98415	-26,006	9,6484
1655	-5,0877	-0,97537	-28,433	12,732
1656	-11,511	-0,9838	-26,868	9,9025
1657	-12,825	-0,9847	-26,504	9,3326
1658	-11,056	-0,98355	-27,726	10,182
1659	-12,363	-0,98422	-27,371	9,5707
1660	-13,684	-0,98483	-27,002	8,9608
1661	-10,588	-0,98319	-28,59	10,495
1662	-11,905	-0,98412	-28,227	9,8292
1663	-13,223	-0,98439	-27,866	9,1807
1664	-10,113	-0,98232	-29,446	10,839
1665	-11,44	-0,98418	-29,096	10,115
1666	-12,761	-0,98433	-28,73	9,4203
1667	-10,965	-0,98377	-29,95	10,43
1668	-12,289	-0,9846	-29,591	9,6849
1669	-14,539	-0,98535	-27,496	8,5425
1670	-11,827	-0,98457	-30,455	9,9639
1671	-15,402	-0,98729	-27,982	8,0791
1672	-5,8847	-0,97798	-29,003	12,696
1673	-16,271	-0,9913	-28,462	7,5821
1674	-6,7038	-0,97723	-29,558	12,559
1675	-17,146	-0,99517	-28,943	7,061
1676	-7,5268	-0,98088	-30,106	12,328
1677	-14,074	-0,98503	-28,362	8,7484
1678	-9,6549	-0,98201	-30,296	11,202
1679	-13,609	-0,98493	-29,226	8,9711
1680	-14,929	-0,98706	-28,849	8,2775
1681	-10,502	-0,98341	-30,806	10,762
1682	-13,145	-0,98509	-30,09	9,2094
1683	-14,471	-0,98691	-29,714	8,4812
1684	-11,364	-0,98424	-31,314	10,263
1685	-12,683	-0,98504	-30,955	9,4608
1686	-13,998	-0,98682	-30,58	8,7044
1687	-15,805	-0,99121	-29,328	7,7692
1688	-12,213	-0,98472	-31,819	9,732
1689	-13,54	-0,9866	-31,445	8,9298
1690	-16,679	-0,9951	-29,81	7,2463
1691	-13,069	-0,98617	-32,313	9,1719
1692	-15,338	-0,99112	-30,195	7,9659
1693	8,5878	-0,98781	42,781	14,812
1694	-16,212	-0,99525	-30,677	7,436
1695	9,4329	-0,99551	43,274	12,941
1696	-3,1254	-0,95461	-28,079	13,065
1697	-14,872	-0,9909	-31,062	8,169
1698	-2,5061	-0,96944	-28,867	13,638
1699	-3,8929	-0,96346	-28,703	13,219
1700	-14,402	-0,98935	-31,928	8,3808
1701	-15,745	-0,99511	-31,544	7,6286
1702	-3,4764	-0,96396	-29,571	13,817
1703	-4,6502	-0,97844	-29,291	13,284
1704	-15,279	-0,99488	-32,411	7,8219
1705	-4,21	-0,97819	-30,161	13,89
1706	-5,4313	-0,98495	-29,864	13,247
1707	-2,3235	-0,96547	-29,77	14,228
1708	-4,9764	-0,9855	-30,74	13,858
1709	-1,8955	-0,97414	-30,615	14,874
1710	-3,045	-0,96315	-30,435	14,457
1711	-6,2412	-0,98358	-30,423	13,098
1712	-2,5653	-0,97485	-31,277	15,156
1713	-7,0668	-0,9853	-30,97	12,837
1714	-8,3569	-0,98442	-30,633	12,003
1715	-5,7745	-0,98624	-31,306	13,699
1716	-7,8938	-0,98843	-31,496	12,476
1717	-9,2005	-0,98541	-31,154	11,593
1718	-3,7681	-0,97327	-31,05	14,567
1719	-8,7553	-0,98636	-32,017	12,01
1720	-3,2632	-0,98413	-31,895	15,309
1721	-10,054	-0,98383	-31,666	11,11
1722	-1,4051	-0,93975	-31,47	15,597
1723	-9,6023	-0,98533	-32,538	11,484
1724	-10,905	-0,98413	-32,177	10,577
1725	-4,511	-0,98381	-31,64	14,549
1726	-10,446	-0,9845	-33,041	10,907
1727	-11,758	-0,98448	-32,683	10,005
1728	-13,935	-0,98879	-32,794	8,5949
1729	-11,293	-0,98461	-33,55	10,297
1730	-12,61	-0,98588	-33,176	9,4137
1731	-14,814	-0,99346	-33,277	8,0132
1732	-12,146	-0,98606	-34,04	9,6642
1733	-2,054	-0,95541	-32,134	15,943
1734	-13,477	-0,98881	-33,658	8,8063
1735	9,0544	-0,98512	41,891	14,346
1736	-13,012	-0,98846	-34,526	9,0217
1737	-6,5907	-0,99077	-31,844	13,408
1738	9,9179	-0,99258	42,403	12,756
1739	-14,349	-0,99328	-34,144	8,2022
1740	-7,4192	-0,99245	-32,362	13,001
1741	-2,7448	-0,97262	-32,767	16,157
1742	-8,2786	-0,99025	-32,882	12,482
1743	-13,882	-0,99466	-35,013	8,3871
1744	-3,9948	-0,99299	-32,501	15,324
1745	-9,1337	-0,98754	-33,396	11,892
1746	-5,2844	-0,99306	-32,195	14,38
1747	-9,9827	-0,98535	-33,905	11,257
1748	9,4682	-1,0005	41,054	13,892
1749	-10,828	-0,98498	-34,413	10,595
1750	10,368	-0,99748	41,531	12,544
1751	-11,679	-0,98643	-34,907	9,9189
1752	9,8824	-1,017	40,194	13,412
1753	-12,546	-0,99035	-35,392	9,2362
1754	-3,4534	-0,99309	-33,408	16,238
1755	10,818	-1,0055	40,659	12,274
1756	-13,415	-0,99461	-35,879	8,5662
1757	-6,0927	-0,99599	-32,717	14,054
1758	-0,3997	-0,95332	-39,833	25,537
1759	-6,9301	-0,99742	-33,235	13,589
1760	-0,92569	-1,0085	-39,197	25,001
1761	-7,8011	-0,99373	-33,742	12,993
1762	-4,7631	-1,0031	-33,1	15,173
1763	10,341	-1,0218	39,33	12,895
1764	-8,6656	-0,98945	-34,256	12,326
1765	10,84	-1,0192	38,452	12,365
1766	-9,5135	-0,98624	-34,767	11,624
1767	-4,2213	-0,99685	-33,956	16,06
1768	-10,36	-0,98543	-35,278	10,9
1769	11,275	-1,0103	39,789	11,961
1770	-11,212	-0,98691	-35,771	10,171
1771	11,757	-1,0108	38,912	11,611
1772	11,347	-1,0117	37,564	11,869
1773	12,238	-1,0081	38,034	11,253
1774	-5,5879	-1,001	-33,602	14,785
1775	-12,078	-0,98937	-36,258	9,4453
1776	-1,6023	-0,98728	-38,581	23,318
1777	-5,0819	-0,99359	-34,498	15,616
1778	-6,45	-0,99927	-34,108	14,231
1779	-2,3114	-0,99338	-37,899	21,488
1780	-5,9816	-0,98981	-35,003	14,944
1781	-2,9693	-0,98867	-37,116	19,745
1782	-12,947	-0,99488	-36,746	8,7386
1783	-3,6116	-0,98222	-36,352	18,263
1784	-1,319	-1,0203	-39,649	25,492
1785	-4,5315	-0,99426	-35,472	16,664
1786	-7,3248	-0,99595	-34,601	13,546
1787	-5,6145	-0,97768	-35,915	15,627
1788	-8,2016	-0,98976	-35,117	12,781
1789	-4,6987	-0,96356	-36,463	16,964
1790	-9,046	-0,98629	-35,632	11,999
1791	11,84	-1,006	36,675	11,416
1792	-9,8904	-0,98567	-36,142	11,204
1793	-6,8798	-0,99353	-35,467	14,118
1794	-10,742	-0,98739	-36,637	10,417
1795	12,726	-1,0042	37,15	10,885
1796	-11,601	-0,98997	-37,124	9,6517
1797	-6,4724	-0,9808	-36,353	14,695
1798	-7,742	-0,98734	-35,984	13,255
1799	-4,2	-0,96625	-37,034	17,942
1800	-7,2832	-0,98106	-36,87	13,751
1801	-3,6265	-0,98308	-37,826	19,355
1802	-12,479	-0,99476	-37,612	8,9016
1803	-3,0222	-0,99886	-38,654	21,099
1804	-8,5788	-0,98484	-36,503	12,378
1805	-2,1496	-1,0311	-39,711	24,293
1806	-8,1065	-0,98215	-37,375	12,761
1807	-9,4153	-0,9853	-37,007	11,504
1808	12,32	-1,0016	35,79	10,996
1809	-10,264	-0,98768	-37,501	10,654
1810	13,198	-1,0008	36,272	10,527
1811	-11,134	-0,99026	-37,989	9,8347
1812	-8,935	-0,98459	-37,874	11,793
1813	-12,011	-0,99455	-38,477	9,0536
1814	-9,7943	-0,98775	-38,361	10,861
1815	-5,2706	-0,96722	-36,804	16,324
1816	-10,667	-0,99008	-38,852	9,9958
1817	-6,0506	-0,96565	-37,267	15,334
1818	12,793	-0,9984	34,913	10,603
1819	-4,8556	-0,95794	-37,686	17,224
1820	-6,8291	-0,97411	-37,764	14,261
1821	-4,3129	-0,99873	-38,447	18,472
1822	-5,5663	-0,96233	-38,154	16,123
1823	13,672	-0,99898	35,394	10,167
1824	-6,3388	-0,9752	-38,665	14,863
1825	-3,6991	-1,0299	-39,286	20,167
1826	-7,6251	-0,98036	-38,256	13,152
1827	-3,1807	-1,028	-39,934	22,34
1828	-11,55	-0,99063	-39,331	9,1911
1829	-7,1346	-0,98238	-39,14	13,554
1830	-8,4573	-0,98443	-38,739	12,057
1831	-4,7319	-0,9651	-39,3	17,821
1832	13,266	-0,99759	34,035	10,227
1833	-7,9805	-0,98609	-39,61	12,297
1834	14,144	-0,99883	34,516	9,8126
1835	-4,279	-1,0538	-39,663	19,037
1836	-9,3176	-0,98772	-39,225	11,042
1837	13,738	-0,99774	33,158	9,8683
1838	-8,8433	-0,98815	-40,076	11,192
1839	14,618	-0,99882	33,639	9,4637
1840	-3,9573	-1,0588	-40,812	20,628
1841	-10,203	-0,98955	-39,712	10,129
1842	-5,8116	-0,98718	-39,56	15,609
1843	-11,089	-0,98956	-40,188	9,3167
1844	14,211	-0,99794	32,281	9,5256
1845	-9,7327	-0,98923	-40,555	10,243
1846	-6,6283	-0,98932	-40,028	14,029
1847	-10,634	-0,98916	-41,037	9,4293
1848	15,091	-0,99896	32,761	9,1233
1849	-7,4862	-0,98894	-40,48	12,551
1850	-5,2559	-1,0124	-40,437	16,711
1851	-8,3728	-0,98944	-40,926	11,315
1852	-6,1035	-0,99861	-40,917	14,648
1853	-9,2728	-0,98935	-41,398	10,325
1854	-4,7853	-1,0349	-41,371	18,15
1855	-10,167	-0,9895	-41,881	9,5446
1856	-6,9898	-0,99335	-41,339	12,867
1857	14,684	-0,99797	31,403	9,1988
1858	-7,9043	-0,99044	-41,767	11,44
1859	-5,5522	-0,99638	-41,814	15,754
1860	-8,8159	-0,98938	-42,233	10,391
1861	15,564	-0,99898	31,883	8,7935
1862	-9,7056	-0,98971	-42,727	9,6457
1863	15,156	-0,99792	30,526	8,8883
1864	-6,5207	-0,98495	-42,222	13,28
1865	16,037	-0,99893	31,006	8,476
1866	15,629	-0,99787	29,649	8,5944
1867	-7,4376	-0,98559	-42,651	11,579
1868	-4,8687	-1,1263	-42,73	18,397
1869	-8,3362	-0,98834	-43,108	10,453
1870	16,51	-0,99874	30,128	8,172
1871	-4,8838	-1,006	-43,479	18,844
1872	-6,0956	-0,97264	-43,087	13,851
1873	16,101	-0,99789	28,771	8,3177
1874	-7,0056	-0,98549	-43,471	11,771
1875	-9,2453	-0,98872	-43,579	9,7253
1876	-7,8993	-0,98716	-43,924	10,497
1877	16,982	-0,99861	29,25	7,883
1878	-5,7028	-0,86131	-43,777	14,766
1879	-8,7903	-0,98653	-44,416	9,7621
1880	-6,5457	-0,96604	-44,246	12,166
1881	16,574	-0,99792	27,894	8,0589
1882	-7,4175	-0,98067	-44,777	10,508
1883	17,455	-0,99874	28,372	7,6102
1884	17,046	-0,99799	27,016	7,8188
1885	-8,3142	-0,98843	-45,295	9,7107
1886	17,927	-0,9989	27,494	7,3543
1887	17,521	-0,99802	26,138	7,5971
1888	-6,994	-0,979	-45,57	10,448
1889	-7,9147	-0,97371	-46,057	9,5589
1890	-6,0176	-0,99127	-45,178	12,41
1891	18,4	-0,99899	26,616	7,1165
1892	17,992	-0,99844	25,261	7,3985
1893	-6,5983	-0,95502	-46,373	10,221
1894	-7,5135	-0,95185	-46,847	9,3208
1895	-5,6329	-0,98341	-46,186	12,094
1896	18,872	-0,99902	25,738	6,8977
1897	-6,2117	-0,96738	-47,321	9,7147
1898	-7,1363	-0,91881	-47,607	9,0631
1899	18,464	-0,99864	24,383	7,2202
1900	-5,8582	-0,93513	-48,033	9,2076
1901	19,345	-0,99903	24,86	6,6991
1902	-5,8815	-1,0208	-48,598	8,604
1903	-6,633	-0,98963	-48,475	8,6359
1904	-5,0999	-0,95813	-48,023	9,6826
1905	18,937	-0,99862	23,506	7,0651
1906	-6,2498	-1,0581	-49,071	8,2319
1907	19,817	-0,99905	23,982	6,5215
1908	19,41	-0,99846	22,628	6,9345
1909	-5,3481	-0,94896	-48,759	8,5746
1910	-5,2666	-1,0029	-47,126	11,058
1911	-5,727	-0,88232	-49,575	7,8447
1912	20,293	-0,9986	23,103	6,3649
1913	-3,487	-0,52825	-49,011	8,1502
1914	-4,7684	-0,82069	-49,28	7,957
1915	19,882	-0,99909	21,751	6,8302
1916	-5,1228	-0,91363	-50,141	7,4086
1917	-4,1752	-0,44546	-49,831	7,4273
1918	20,763	-0,99892	22,226	6,2354
1919	-4,4757	-0,58338	-50,58	7,0692
1920	20,355	-0,99799	20,873	6,7543
1921	-3,3054	-0,7494	-49,419	7,3181
1922	21,235	-0,99892	21,348	6,1305
1923	-3,5169	-0,84564	-50,188	6,8925
1924	20,827	-0,99954	19,997	6,7093
1925	-3,8508	-0,96768	-51,092	6,6822
1926	21,708	-0,99884	20,47	6,0538
1927	21,3	-0,99935	19,12	6,6984
1928	-3,0832	-0,98695	-51,49	6,3634
1929	-2,3116	-0,99546	-51,92	6,149
1930	-2,7844	-0,97567	-50,437	6,3349
1931	-1,7931	-0,98491	-52,303	6,043
1932	22,18	-0,99888	19,593	6,0082
1933	21,773	-0,99706	18,241	6,726
1934	-1,6953	-0,98182	-50,991	5,9194
1935	-1,224	-0,98286	-52,142	5,9599
1936	22,653	-0,99863	18,715	5,9977
1937	-0,62026	-0,98945	-50,918	5,5226
1938	22,246	-0,99651	17,364	6,7961
1939	0,30811	-0,96715	-50,896	5,4138
1940	-0,48032	-0,97319	-51,998	5,8692
1941	1,2962	-0,8921	-50,184	5,2448
1942	23,125	-0,99857	17,837	6,0271
1943	0,41814	-0,96554	-51,937	5,8733
1944	22,718	-0,99647	16,491	6,9136
1945	1,2487	-0,92935	-50,999	5,7446
1946	23,598	-0,9988	16,96	6,1023
1947	23,19	-0,99481	15,614	7,089
1948	1,3446	-0,95547	-51,944	5,9584
1949	2,0197	-0,94519	-51,038	5,9618
1950	24,07	-0,99798	16,082	6,2329
1951	2,5544	-0,95993	-51,09	6,2012
1952	2,015	-0,88642	-51,864	6,0823
1953	2,0748	-0,93358	-50,229	6,1616
1954	23,661	-0,99265	14,739	7,3306
1955	2,8307	-0,9727	-51,625	6,2797
1956	24,543	-0,99581	15,198	6,4333
1957	2,9461	-1,1174	-50,245	6,5495
1958	24,133	-0,98979	13,868	7,6486
1959	3,4976	-1,0083	-51,262	6,553
1960	25,014	-0,99382	14,319	6,711
1961	24,603	-0,98669	13,001	8,0582
1962	4,1577	-1,0081	-50,773	6,878
1963	3,3147	-1,0879	-49,869	7,0606
1964	25,49	-0,99095	13,454	7,0731
1965	25,074	-0,98139	12,146	8,5707
1966	4,8672	-1,0149	-50,233	7,3556
1967	3,9357	-1,0262	-49,373	7,8577
1968	25,96	-0,98752	12,586	7,5598
1969	5,6208	-1,0226	-49,767	7,6596
1970	25,546	-0,97637	11,294	9,2106
1971	5,0513	-1,0244	-48,725	8,7246
1972	26,432	-0,98337	11,722	8,1866
1973	6,1933	-1,0362	-49,511	7,9337
1974	5,4002	-1,0143	-46,467	12,009
1975	5,3617	-1,0682	-44,52	15,78
1976	6,3836	-1,0262	-48,862	8,4405
1977	5,59	-1,0149	-47,286	10,317
1978	26,013	-0,97107	10,445	10,009
1979	5,679	-1,0108	-45,843	12,39
1980	26,904	-0,97869	10,878	8,959
1981	6,0715	-1,0111	-45,026	12,559
1982	26,497	-0,96596	9,6148	10,953
1983	6,4637	-1,0132	-46,446	10,362
1984	6,7066	-1,0317	-47,957	8,924
1985	27,372	-0,97404	10,023	9,942
1986	6,9144	-1,0149	-45,627	10,489
1987	26,978	-0,96143	8,7777	12,1
1988	7,2614	-1,0263	-47,098	9,2745
1989	27,844	-0,96996	9,1799	11,109
1990	27,45	-0,95724	7,9417	13,425
1991	7,7709	-1,0173	-46,201	9,5562
1992	28,321	-0,96624	8,3371	12,464
1993	27,934	-0,95418	7,1147	14,861
1994	8,2352	-1,0129	-45,328	9,7314
1995	28,81	-0,96296	7,4914	13,952
1996	28,409	-0,96143	6,296	16,305
1997	8,6979	-1,0092	-44,469	9,7894
1998	29,277	-0,96601	6,6293	15,475
1999	9,1701	-1,0048	-43,619	9,7576
2000	28,862	-0,98561	5,5554	17,494
2001	28,963	-0,99413	4,4968	19,412
2002	29,684	-0,99225	5,7398	16,898
2003	27,914	-1,0451	3,9477	24,112
2004	9,6509	-0,99969	-42,773	9,6688
2005	30,072	-1,0001	4,839	18,058
2006	28,678	-1,0018	3,0952	23,694
2007	29,514	-0,99163	3,6003	20,461
2008	10,135	-0,99447	-41,921	9,5561
2009	29,123	-1,0408	2,2357	23,362
2010	30,502	-1,0005	3,9719	19,117
2011	10,606	-0,99061	-41,077	9,4392
2012	29,918	-1,0409	2,6661	21,343
2013	29,461	-1,0465	1,3488	22,73
2014	30,867	-1,0221	3,0917	20,042
2015	11,071	-0,98897	-40,218	9,3226
2016	30,275	-1,0213	1,7714	21,741
2017	29,681	-1,0054	0,39147	22,334
2018	31,137	-0,97671	2,2344	20,65
2019	30,528	-0,97971	0,80684	21,854
2020	11,541	-0,99327	-39,345	9,1943
2021	31,428	-1,0095	1,2932	20,883
2022	29,695	-0,97822	-0,4939	22,304
2023	12,004	-0,99409	-38,483	9,057
2024	15,07	-0,95303	-1,912	12,495
2025	30,664	-0,96783	-2,666e-002	21,768
2026	14,845	-0,94844	-2,7705	12,223
2027	29,608	-1,0111	-1,4575	22,429
2028	31,731	-0,96055	0,44375	20,857
2029	12,46	-0,99064	-37,637	8,9099
2030	30,616	-0,88733	-0,81426	21,756
2031	16,077	-0,95919	-2,1051	13,07
2032	12,929	-0,99228	-36,767	8,7474
2033	17,022	-0,95595	-2,2759	13,613
2034	31,618	-0,93279	-0,37484	20,899
2035	18,007	-0,95803	-2,4782	14,138
2036	14,541	-0,96329	-3,5844	11,868
2037	13,389	-0,993	-35,9	8,5808
2038	14,304	-0,94852	-4,4256	11,539
2039	18,984	-0,97241	-2,6937	14,699
2040	15,827	-0,95239	-2,9626	12,751
2041	29,521	-0,84901	-2,5006	22,139
2042	15,58	-0,94981	-3,8151	12,397
2043	15,261	-0,96831	-4,6654	11,975
2044	13,866	-0,9967	-35,026	8,3954
2045	16,818	-0,95418	-3,1642	13,295
2046	28,798	-1,0104	-2,9612	23,544
2047	16,564	-0,95207	-4,0327	12,899
2048	28,084	-0,98916	-3,8015	23,842
2049	30,144	-0,84001	-1,9668	21,56
2050	16,235	-0,96561	-4,9012	12,427
2051	17,795	-0,95827	-3,3666	13,835
2052	14,334	-0,99559	-34,161	8,209
2053	17,486	-0,96636	-4,2675	13,363
2054	18,757	-0,96596	-3,5686	14,382
2055	17,182	-0,96522	-5,151	12,855
2056	19,822	-0,95875	-3,0013	15,333
2057	20,623	-1,0339	-3,4203	16,373
2058	18,455	-0,95674	-4,4937	13,883
2059	14,801	-0,99832	-33,292	8,0193
2060	18,143	-0,95241	-5,4056	13,293
2061	15,262	-0,99268	-32,434	7,8295
2062	21,53	-1,0468	-3,4643	18,722
2063	22,332	-0,9686	-3,9768	21,321
2064	23,291	-0,9775	-4,384	24,193
2065	15,735	-0,99654	-31,56	7,6333
2066	24,209	-0,9717	-4,6571	25,897
2067	30,868	-0,87455	-1,4171	21,258
2068	16,201	-0,9954	-30,693	7,4409
2069	25,384	-1,0182	-4,9623	25,118
2070	27,17	-1,0942	-4,5973	23,567
2071	16,669	-0,99703	-29,825	7,251
2072	31,69	-0,83986	-1,0299	20,794
2073	19,617	-0,97063	-3,8517	14,993
2074	17,123	-0,99188	-28,971	7,0714
2075	19,346	-0,95363	-4,7585	14,417
2076	31,029	-0,89164	-1,8048	20,953
2077	25,886	-1,0107	-5,4588	21,247
2078	31,554	-0,92669	-1,7965	20,627
2079	30,595	-0,9244	-2,3783	20,851
2080	17,602	-0,99693	-28,091	6,8866
2081	19,034	-0,94873	-5,6904	13,695
2082	31,259	-0,85897	-2,5664	20,409
2083	20,481	-0,96889	-4,1171	15,919
2084	18,07	-0,99569	-27,224	6,7152
2085	30,155	-0,94846	-2,8772	20,79
2086	18,537	-0,99605	-26,356	6,5536
2087	30,909	-0,91238	-3,3114	19,835
2088	20,16	-0,96757	-5,0743	14,966
2089	19,005	-0,99609	-25,489	6,4035
2090	21,281	-0,96468	-4,4373	17,157
2091	19,87	-0,96008	-6,0125	14,06
2092	26,869	-1,0219	-5,4475	19,973
2093	21,001	-0,91348	-5,3441	15,714
2094	19,471	-0,99558	-24,623	6,2669
2095	20,697	-0,98392	-6,3167	14,429
2096	22,099	-0,96239	-4,8036	18,516
2097	19,929	-0,99218	-23,767	6,1487
2098	27,515	-0,95307	-5,7613	18,26
2099	22,963	-0,88455	-5,0962	19,903
2100	20,405	-0,99497	-22,889	6,0406
2101	21,794	-0,88588	-5,6075	16,453
2102	29,562	-0,97623	-3,6265	20,365
2103	22,575	-0,95308	-5,9263	16,972
2104	21,476	-0,97295	-6,5269	14,819
2105	30,511	-0,98124	-4,0115	19,038
2106	22,042	-0,99143	-6,585	15,224
2107	29,025	-0,98629	-4,3324	19,634
2108	23,832	-0,89099	-5,3873	20,634
2109	28,435	-0,98086	-5,2636	18,285
2110	24,662	-0,92664	-5,7038	20,169
2111	21,741	-1,0026	-7,2901	14,052
2112	23,412	-0,87665	-6,1716	17,357
2113	25,495	-0,94228	-5,9877	19,142
2114	30,045	-0,98997	-4,8006	18,12
2115	26,278	-0,94542	-6,2942	17,622
2116	29,623	-0,96879	-5,6757	16,945
2117	27,112	-0,93529	-6,6288	16,215
2118	22,913	-0,86516	-6,7785	15,579
2119	24,208	-0,91211	-6,4727	17,155
2120	22,376	-0,92869	-7,5789	13,999
2121	23,703	-0,89855	-7,2459	15,095
2122	20,872	-0,99495	-22,021	5,9551
2123	28,398	-0,94315	-6,3194	16,23
2124	21,34	-0,99492	-21,154	5,8911
2125	29,236	-0,97872	-6,5157	15,671
2126	23,076	-0,90663	-7,9795	13,674
2127	25,026	-0,9254	-6,7558	16,554
2128	27,956	-0,94842	-6,9972	15,088
2129	21,807	-0,99483	-20,286	5,8517
2130	25,824	-0,92949	-7,0552	15,663
2131	28,835	-0,96917	-7,3584	14,187
2132	22,274	-0,99465	-19,419	5,8401
2133	24,516	-0,92618	-7,5863	14,6
2134	26,669	-0,93668	-7,402	14,683
2135	25,308	-0,99463	-8,1955	13,445
2136	27,526	-0,95479	-7,8111	13,643
2137	24,019	-0,95889	-8,331	13,293
2138	28,372	-0,9661	-8,2153	12,669
2139	26,184	-0,94643	-8,2315	13,225
2140	22,741	-0,99432	-18,552	5,8608
2141	24,819	-0,95083	-8,7125	12,7
2142	27,041	-0,95061	-8,6139	12,356
2143	23,209	-0,99381	-17,684	5,9189
2144	25,69	-0,9517	-9,1117	11,935
2145	27,905	-0,96938	-9,0687	11,269
2146	26,563	-0,95941	-9,4707	11,142
2147	23,676	-0,99311	-16,817	6,0212
2148	27,431	-0,9724	-9,9253	10,054
2149	24,143	-0,99218	-15,951	6,1753
2150	26,957	-0,97568	-10,779	9,0466
2151	24,611	-0,99101	-15,085	6,3933
2152	26,484	-0,97949	-11,636	8,2332
2153	25,079	-0,98956	-14,22	6,6884
2154	25,547	-0,98777	-13,356	7,0794
2155	26,016	-0,98547	-12,494	7,5851
2156	26,088	-0,96833	-10,349	10,093
2157	25,612	-0,97281	-11,194	9,2781
2158	25,138	-0,97688	-12,045	8,6141
2159	24,669	-0,9803	-12,899	8,0774
2160	24,199	-0,98321	-13,753	7,653
2161	23,732	-0,98564	-14,62	7,3105
2162	23,263	-0,98983	-15,481	7,0503
2163	22,796	-0,99092	-16,344	6,8525
2164	22,328	-0,99023	-17,21	6,7089
2165	21,862	-0,99099	-18,077	6,6108
2166	21,395	-0,99141	-18,944	6,5535
2167	20,928	-0,99165	-19,811	6,5316
2168	20,461	-0,99171	-20,678	6,541
2169	19,995	-0,99497	-21,543	6,578
2170	19,527	-0,99465	-22,411	6,6403
2171	19,06	-0,99175	-23,279	6,7243
2172	18,593	-0,99359	-24,146	6,829
2173	18,127	-0,99409	-25,012	6,9511
2174	17,66	-0,99681	-25,878	7,0897
2175	17,193	-0,99753	-26,744	7,2428
2176	16,726	-0,99668	-27,612	7,4094
2177	16,256	-0,99261	-28,483	7,5883
2178	15,792	-0,99615	-29,346	7,7751
2179	15,324	-0,99242	-30,218	7,972
2180	14,856	-0,99485	-31,081	8,1767
2181	14,384	-0,99381	-31,954	8,3896
2182	13,923	-0,99908	-32,812	8,601
2183	13,457	-0,99996	-33,676	8,8178
2184	12,989	-0,99868	-34,542	9,0358
2185	12,522	-0,99713	-35,408	9,251
2186	12,051	-0,99136	-36,286	9,4606
2187	11,586	-0,98887	-37,141	9,6601
2188	7,3644	-1,01	-44,752	10,587
2189	11,132	-0,99159	-37,987	9,8367
2190	7,8184	-1,0092	-43,898	10,58
2191	10,675	-0,98507	-38,844	9,9911
2192	8,2895	-1,0036	-43,054	10,515
2193	10,214	-0,98529	-39,697	10,125
2194	8,787	-0,99758	-42,219	10,419
2195	9,2777	-0,99176	-41,382	10,327
2196	9,7472	-0,99007	-40,536	10,238
2197	6,5055	-1,0051	-44,194	12,25
2198	6,9657	-1,002	-43,35	11,923
2199	7,4391	-0,99978	-42,472	11,676
2200	7,9393	-0,99272	-41,645	11,457
2201	8,4242	-0,98639	-40,811	11,313
2202	8,8902	-0,98821	-39,997	11,177
2203	9,3526	-0,99064	-39,169	11,028
2204	9,8086	-0,98837	-38,327	10,857
2205	10,264	-0,9872	-37,479	10,658
2206	10,721	-0,99023	-36,628	10,435
2207	11,179	-0,99003	-35,777	10,196
2208	11,648	-0,99675	-34,914	9,941
2209	12,107	-0,9937	-34,059	9,6903
2210	12,579	-1,0007	-33,188	9,4333
2211	13,046	-1,0012	-32,324	9,1855
2212	13,511	-0,99555	-31,462	8,9458
2213	13,981	-0,99493	-30,596	8,7133
2214	14,45	-0,9939	-29,729	8,492
2215	14,918	-0,99303	-28,862	8,283
2216	15,385	-0,99259	-27,996	8,0872
2217	15,852	-0,99243	-27,129	7,9054
2218	16,316	-0,99245	-26,266	7,7393
2219	16,783	-0,9944	-25,399	7,5885
2220	17,25	-0,99384	-24,532	7,4555
2221	17,718	-0,99226	-23,663	7,3412
2222	18,185	-0,99206	-22,797	7,2482
2223	18,65	-0,99322	-21,933	7,1782
2224	19,117	-0,99285	-21,067	7,1329
2225	19,585	-0,99163	-20,198	7,115
2226	20,052	-0,99118	-19,332	7,1279
2227	20,518	-0,99014	-18,466	7,1746
2228	20,985	-0,98867	-17,601	7,2593
2229	21,452	-0,98683	-16,735	7,3868
2230	21,917	-0,98457	-15,872	7,5627
2231	22,386	-0,98219	-15,016	7,7883
2232	22,853	-0,9818	-14,162	8,0775
2233	23,321	-0,987	-13,305	8,4428
2234	23,792	-0,9747	-12,455	8,8926
2235	24,259	-0,97897	-11,611	9,4447
2236	24,737	-0,96801	-10,772	10,12
2237	25,217	-0,96278	-9,9402	10,938
2238	13,996	-0,94971	-5,2345	11,169
2239	14,943	-0,96992	-5,4965	11,558
2240	15,947	-0,95203	-5,741	11,979
2241	16,889	-0,9524	-6,012	12,348
2242	21,306	-0,87287	-7,4828	13,626
2243	17,81	-0,95153	-6,2949	12,686
2244	20,527	-0,91637	-7,2994	13,424
2245	19,595	-0,94618	-6,9145	13,244
2246	18,72	-0,94861	-6,5955	12,991
2247	13,659	-0,95257	-6,0363	10,79
2248	24,332	-0,96079	-9,5498	11,629
2249	14,64	-0,95489	-6,3049	11,159
2250	23,173	-0,95548	-8,9724	12,416
2251	15,6	-0,95663	-6,5851	11,506
2252	22,144	-0,87908	-8,4675	12,857
2253	16,545	-0,95715	-6,8723	11,825
2254	21,631	-0,87206	-8,1409	13,052
2255	17,474	-0,95499	-7,1668	12,106
2256	20,285	-0,93714	-8,0644	12,676
2257	19,336	-0,94519	-7,7965	12,519
2258	18,375	-0,95269	-7,4741	12,329
2259	13,282	-0,95839	-6,8478	10,402
2260	14,272	-0,96276	-7,1386	10,739
2261	15,225	-0,96751	-7,4365	11,043
2262	16,137	-0,9702	-7,7536	11,298
2263	17,07	-0,95608	-8,0471	11,532
2264	18,037	-0,94657	-8,3199	11,749
2265	19,032	-0,94443	-8,5868	11,919
2266	20,046	-0,9477	-8,8934	11,991
2267	21,056	-0,95752	-9,1868	11,953
2268	21,83	-0,93075	-9,2677	11,996
2269	22,904	-0,97142	-9,91	11,396
2270	23,849	-0,96629	-10,362	10,799
2271	12,923	-0,96534	-7,6642	10,042
2272	13,882	-0,97464	-7,9829	10,331
2273	14,836	-0,98524	-8,3092	10,598
2274	15,747	-0,9828	-8,6531	10,813
2275	16,703	-0,95926	-8,9313	11,031
2276	17,687	-0,94428	-9,1354	11,236
2277	18,735	-0,92874	-9,3488	11,397
2278	19,687	-0,93994	-9,6495	11,409
2279	20,428	-0,97074	-9,8278	11,4
2280	23,379	-0,96856	-11,191	10,115
2281	21,565	-0,95212	-10,346	11,074
2282	22,489	-0,96591	-10,767	10,655
2283	22,907	-0,98662	-12,018	9,5578
2284	22,021	-0,98137	-11,593	10,084
2285	21,148	-0,95505	-11,199	10,467
2286	20,217	-0,9596	-10,786	10,754
2287	19,328	-0,93981	-10,427	10,9
2288	18,492	-0,90326	-10,075	10,966
2289	17,459	-0,91924	-9,8473	10,855
2290	17,497	-0,92603	-10,514	10,578
2291	18,135	-0,89371	-10,762	10,575
2292	22,442	-0,98868	-12,862	9,0904
2293	18,958	-0,91279	-11,203	10,461
2294	21,563	-0,98334	-12,434	9,6025
2295	19,827	-0,93806	-11,622	10,269
2296	20,701	-0,95453	-12,034	9,983
2297	21,977	-0,97309	-13,717	8,7035
2298	21,105	-0,96616	-13,286	9,2012
2299	20,232	-0,96081	-12,853	9,5906
2300	19,362	-0,96081	-12,415	9,8801
2301	18,522	-0,9293	-11,988	10,072
2302	17,717	-0,93267	-11,494	10,214
2303	12,518	-0,97264	-8,4969	9,6902
2304	17,032	-0,94366	-10,936	10,325
2305	13,424	-0,99199	-8,8518	9,9289
2306	16,334	-0,97736	-9,9994	10,509
2307	14,351	-0,99777	-9,2143	10,154
2308	15,359	-1,0138	-9,5511	10,38
2309	12,084	-0,97737	-9,3386	9,3577
2310	13,016	-0,99425	-9,7122	9,5885
2311	13,938	-1,0127	-10,085	9,794
2312	14,806	-1,0032	-10,523	9,9365
2313	15,639	-0,98774	-11,061	9,993
2314	16,44	-0,97756	-11,642	9,9764
2315	17,212	-0,95701	-12,254	9,8783
2316	18,045	-0,95325	-12,774	9,7423
2317	18,899	-0,95832	-13,243	9,5414
2318	21,509	-0,97578	-14,567	8,3937
2319	19,768	-0,96401	-13,691	9,2565
2320	20,636	-0,98099	-14,12	8,8822
2321	21,043	-0,97901	-15,415	8,1469
2322	20,17	-0,98755	-14,964	8,6196
2323	19,297	-0,9705	-14,517	8,9897
2324	18,427	-0,96894	-14,061	9,2662
2325	17,562	-0,97089	-13,582	9,4608
2326	16,731	-0,98123	-13,051	9,5886
2327	15,907	-0,99818	-12,5	9,6482
2328	15,094	-1,0005	-11,964	9,6429
2329	11,62	-0,97948	-10,18	9,0578
2330	14,285	-1,0214	-11,434	9,5824
2331	12,526	-0,99568	-10,577	9,2668
2332	13,379	-1,0047	-11,008	9,4333
2333	11,126	-0,97985	-11,007	8,7966
2334	12,013	-0,99361	-11,448	8,9901
2335	12,883	-1,0051	-11,891	9,1578
2336	13,727	-1,0053	-12,37	9,282
2337	14,573	-1,0093	-12,865	9,3612
2338	15,406	-0,99866	-13,382	9,3815
2339	16,24	-0,98879	-13,913	9,3361
2340	20,577	-0,98237	-16,278	7,949
2341	17,097	-0,98104	-14,421	9,2238
2342	19,703	-0,98638	-15,816	8,4097
2343	17,966	-0,97704	-14,901	9,037
2344	18,832	-0,9763	-15,365	8,7678
2345	20,108	-0,98775	-17,135	7,8037
2346	19,236	-0,98243	-16,675	8,2473
2347	18,362	-0,98583	-16,209	8,5989
2348	17,497	-0,98213	-15,752	8,857
2349	16,623	-0,99179	-15,259	9,0396
2350	15,763	-0,99326	-14,766	9,1419
2351	14,906	-0,99681	-14,265	9,174
2352	14,06	-1,001	-13,759	9,145
2353	10,62	-0,97893	-11,843	8,5788
2354	13,211	-1,0019	-13,26	9,0613
2355	11,496	-0,98968	-12,307	8,7688
2356	12,354	-0,99788	-12,778	8,9319
2357	10,125	-0,97707	-12,674	8,4157
2358	10,98	-0,98542	-13,16	8,6031
2359	11,843	-0,99152	-13,644	8,7698
2360	12,703	-0,99459	-14,134	8,9027
2361	13,558	-0,99479	-14,633	8,9908
2362	14,417	-0,9927	-15,131	9,0259
2363	15,278	-0,99105	-15,629	8,9985
2364	19,639	-0,98727	-17,998	7,7011
2365	16,145	-0,98737	-16,134	8,8986
2366	18,763	-0,98619	-17,533	8,1324
2367	17,015	-0,98814	-16,595	8,7282
2368	17,888	-0,98657	-17,064	8,4741
2369	19,17	-0,99056	-18,863	7,6376
2370	18,285	-0,98933	-18,388	8,0614
2371	17,41	-0,98767	-17,926	8,3924
2372	16,537	-0,98678	-17,455	8,6414
2373	15,66	-0,98721	-16,975	8,8114
2374	14,786	-0,98842	-16,492	8,905
2375	9,6302	-0,97524	-13,501	8,3049
2376	13,926	-0,98972	-15,992	8,9301
2377	10,49	-0,98281	-13,998	8,4976
2378	13,067	-0,99045	-15,492	8,8929
2379	11,351	-0,98691	-14,496	8,6672
2380	12,21	-0,98974	-14,994	8,8023
2381	9,143	-0,97358	-14,325	8,2481
2382	10,002	-0,97907	-14,837	8,4458
2383	10,86	-0,98343	-15,346	8,6179
2384	11,719	-0,98635	-15,85	8,7547
2385	12,579	-0,9875	-16,35	8,8462
2386	13,446	-0,98737	-16,843	8,884
2387	14,319	-0,98891	-17,336	8,8592
2388	15,185	-0,98703	-17,825	8,7658
2389	16,06	-0,98779	-18,307	8,5974
2390	18,704	-0,99164	-19,728	7,6093
2391	16,937	-0,9893	-18,788	8,3502
2392	17,815	-0,99091	-19,267	8,0212
2393	18,237	-0,99187	-20,593	7,6139
2394	17,348	-0,99129	-20,129	8,019
2395	16,47	-0,98988	-19,648	8,3438
2396	15,595	-0,98842	-19,165	8,5899
2397	14,72	-0,98727	-18,679	8,7598
2398	13,845	-0,98643	-18,189	8,8562
2399	8,6833	-0,97201	-15,149	8,248
2400	12,974	-0,98592	-17,697	8,8836
2401	9,5363	-0,97652	-15,672	8,4488
2402	12,112	-0,98538	-17,199	8,8487
2403	10,396	-0,98637	-16,185	8,6225
2404	11,24	-0,98338	-16,701	8,7583
2405	8,2274	-0,97052	-15,973	8,2985
2406	9,0843	-0,98474	-16,501	8,5019
2407	9,9219	-0,97784	-17,03	8,675
2408	10,777	-0,98101	-17,543	8,8094
2409	11,652	-0,98756	-18,046	8,8957
2410	12,517	-0,98506	-18,549	8,9258
2411	13,386	-0,98643	-19,045	8,8929
2412	17,771	-0,99212	-21,458	7,6485
2413	14,257	-0,98778	-19,536	8,7919
2414	16,88	-0,9916	-20,992	8,049
2415	15,135	-0,99332	-20,021	8,6181
2416	16,008	-0,99372	-20,506	8,3707
2417	17,304	-0,99254	-22,323	7,7106
2418	16,413	-0,99203	-21,855	8,1088
2419	15,537	-0,99066	-21,369	8,4321
2420	14,672	-0,99586	-20,879	8,6806
2421	13,795	-0,99156	-20,391	8,8601
2422	12,929	-0,99292	-19,895	8,9671
2423	12,061	-0,99134	-19,397	9,0074
2424	11,188	-0,98232	-18,895	8,9848
2425	7,7876	-0,98104	-16,794	8,3981
2426	10,321	-0,97951	-18,389	8,9051
2427	8,6142	-0,97267	-17,338	8,6015
2428	9,4602	-0,97614	-17,863	8,7729
2429	7,3407	-0,98059	-17,615	8,5423
2430	8,1677	-0,97178	-18,166	8,7463
2431	9,0118	-0,97536	-18,699	8,9149
2432	9,8678	-0,97878	-19,224	9,0401
2433	10,729	-0,98513	-19,738	9,1129
2434	11,588	-0,98434	-20,249	9,1286
2435	12,462	-0,99166	-20,749	9,079
2436	16,838	-0,99296	-23,189	7,7981
2437	13,332	-0,99341	-21,247	8,9625
2438	15,946	-0,99245	-22,718	8,1963
2439	14,199	-0,99178	-21,741	8,7775
2440	15,073	-0,99231	-22,23	8,5215
2441	16,371	-0,99329	-24,054	7,9091
2442	15,478	-0,99277	-23,581	8,3097
2443	14,608	-0,99313	-23,091	8,6392
2444	13,732	-0,98953	-22,603	8,9042
2445	12,856	-0,98825	-22,107	9,1004
2446	12,005	-0,99702	-21,599	9,2228
2447	11,123	-0,98422	-21,099	9,2854
2448	10,262	-0,98146	-20,585	9,2798
2449	6,8766	-0,96736	-18,445	8,7307
2450	9,4039	-0,97831	-20,064	9,2148
2451	7,7173	-0,97124	-18,994	8,9322
2452	8,5593	-0,9749	-19,537	9,0971
2453	6,4501	-0,98082	-19,253	8,9547
2454	7,2833	-0,9847	-19,812	9,1536
2455	8,1171	-0,98278	-20,36	9,313
2456	8,9653	-0,98743	-20,895	9,4231
2457	9,8171	-0,98978	-21,422	9,4784
2458	10,677	-0,99339	-21,941	9,4723
2459	11,538	-0,99392	-22,452	9,4014
2460	15,905	-0,99343	-24,92	8,0419
2461	12,404	-0,9945	-22,957	9,2632
2462	15,011	-0,99292	-24,445	8,4474
2463	13,272	-0,99461	-23,456	9,0568
2464	14,142	-0,99414	-23,951	8,7839
2465	15,439	-0,99339	-25,786	8,195
2466	14,544	-0,99299	-25,309	8,6082
2467	13,672	-0,99118	-24,817	8,9556
2468	12,798	-0,98948	-24,318	9,2423
2469	11,931	-0,98824	-23,817	9,4615
2470	11,066	-0,9865	-23,312	9,614
2471	6,0132	-0,98432	-20,069	9,2162
2472	10,202	-0,98378	-22,797	9,6988
2473	6,8407	-0,98745	-20,635	9,412
2474	9,356	-0,98515	-22,267	9,7137
2475	7,6701	-0,98569	-21,191	9,5658
2476	8,5012	-0,97738	-21,739	9,6705
2477	5,5556	-0,96531	-20,893	9,515
2478	6,3703	-0,96955	-21,47	9,7092
2479	7,2211	-0,98423	-22,022	9,8525
2480	8,0465	-0,97696	-22,579	9,9499
2481	8,8978	-0,9821	-23,111	9,9811
2482	9,7483	-0,98291	-23,643	9,9516
2483	10,603	-0,98588	-24,167	9,8548
2484	14,972	-0,99344	-26,651	8,3673
2485	11,471	-0,98907	-24,671	9,6847
2486	14,087	-0,99323	-26,169	8,7864
2487	12,34	-0,99205	-25,174	9,4489
2488	13,206	-0,9914	-25,68	9,1505
2489	14,506	-0,9938	-27,517	8,5578
2490	13,621	-0,9937	-27,032	8,99
2491	12,737	-0,99179	-26,537	9,3705
2492	11,869	-0,98955	-26,035	9,6868
2493	11,011	-0,99076	-25,523	9,9358
2494	10,14	-0,98516	-25,009	10,123
2495	9,2828	-0,98192	-24,489	10,238
2496	8,4412	-0,97966	-23,953	10,28
2497	5,1322	-0,98182	-21,701	9,8377
2498	7,5994	-0,9761	-23,413	10,258
2499	5,9285	-0,96883	-22,298	10,035
2500	6,7745	-0,98446	-22,852	10,17
2501	4,6902	-0,9814	-22,511	10,19
2502	5,506	-0,98312	-23,103	10,38
2503	6,3118	-0,97168	-23,686	10,522
2504	7,1453	-0,97515	-24,248	10,599
2505	7,9809	-0,97806	-24,804	10,614
2506	14,04	-0,99667	-28,377	8,7654
2507	8,8287	-0,98044	-25,33	10,552
2508	13,16	-0,99713	-27,888	9,2111
2509	9,683	-0,98461	-25,859	10,421
2510	12,274	-0,99216	-27,401	9,6119
2511	10,548	-0,99058	-26,376	10,216
2512	11,41	-0,98987	-26,898	9,9467
2513	13,574	-0,99855	-29,24	8,9899
2514	12,692	-0,99656	-28,752	9,456
2515	11,819	-0,99621	-28,253	9,8722
2516	10,95	-0,99435	-27,745	10,231
2517	10,074	-0,98723	-27,23	10,53
2518	9,2172	-0,98359	-26,709	10,752
2519	4,2321	-0,96776	-23,326	10,573
2520	8,3647	-0,97993	-26,177	10,901
2521	5,0481	-0,96871	-23,925	10,763
2522	7,5309	-0,97786	-25,63	10,969
2523	5,866	-0,97103	-24,511	10,899
2524	6,6899	-0,97413	-25,085	10,973
2525	3,8071	-0,98037	-24,129	10,973
2526	4,6213	-0,98287	-24,736	11,165
2527	5,428	-0,9785	-25,326	11,3
2528	6,2379	-0,97307	-25,906	11,371
2529	7,0776	-0,97672	-26,464	11,36
2530	7,9158	-0,97817	-27,019	11,276
2531	8,7612	-0,98169	-27,554	11,111
2532	9,6256	-0,99006	-28,079	10,863
2533	10,487	-0,99503	-28,599	10,545
2534	13,105	-0,99941	-30,104	9,2315
2535	11,34	-0,99191	-29,12	10,169
2536	12,223	-0,99707	-29,613	9,7214
2537	12,623	-0,9957	-30,974	9,4961
2538	11,756	-0,99731	-30,473	10,006
2539	10,87	-0,99056	-29,976	10,485
2540	10,027	-0,99414	-29,453	10,885
2541	9,1714	-0,99088	-28,929	11,227
2542	8,3079	-0,97923	-28,398	11,501
2543	3,3643	-0,97753	-24,947	11,407
2544	7,4661	-0,97635	-27,852	11,684
2545	4,1813	-0,99164	-25,555	11,6
2546	6,6262	-0,9743	-27,296	11,784
2547	4,9667	-0,97218	-26,149	11,739
2548	5,7842	-0,97279	-26,735	11,805
2549	2,9214	-1,0027	-25,773	11,868
2550	3,7277	-0,9941	-26,383	12,069
2551	4,517	-0,97598	-26,964	12,204
2552	5,3642	-0,9819	-27,548	12,258
2553	6,2019	-0,98593	-28,12	12,231
2554	12,169	-1,0007	-31,831	9,7592
2555	7,0391	-0,98705	-28,681	12,115
2556	11,29	-0,9962	-31,332	10,309
2557	7,8699	-0,98375	-29,235	11,916
2558	10,411	-0,9882	-30,831	10,819
2559	8,7194	-0,99036	-29,774	11,623
2560	9,5638	-0,99028	-30,306	11,255
2561	11,702	-0,9996	-32,693	10,043
2562	10,826	-0,99495	-32,19	10,629
2563	9,9495	-0,98522	-31,683	11,179
2564	9,0901	-0,98047	-31,16	11,662
2565	8,2746	-0,99016	-30,619	12,048
2566	7,4435	-0,992	-30,072	12,362
2567	6,6096	-0,99047	-29,513	12,587
2568	5,7437	-0,97118	-28,946	12,729
2569	2,4384	-1,0091	-26,644	12,382
2570	4,9058	-0,97425	-28,38	12,766
2571	3,2612	-0,98904	-27,212	12,572
2572	4,0932	-0,97813	-27,798	12,705
2573	1,9852	-1,0063	-27,52	12,928
2574	2,835	-1,001	-28,074	13,117
2575	3,6861	-0,98842	-28,658	13,25
2576	4,5043	-0,96825	-29,223	13,302
2577	5,3352	-0,96708	-29,764	13,247
2578	6,191	-0,99142	-30,346	13,095
2579	7,0115	-0,99102	-30,913	12,851
2580	11,227	-0,99173	-33,56	10,343
2581	7,8278	-0,98369	-31,467	12,512
2582	10,346	-0,98737	-33,055	10,979
2583	8,6472	-0,97724	-32,007	12,082
2584	9,4947	-0,98224	-32,533	11,559
2585	10,773	-0,99308	-34,412	10,637
2586	9,9115	-0,99255	-33,899	11,312
2587	9,0532	-0,98539	-33,383	11,954
2588	8,1974	-0,97404	-32,864	12,54
2589	7,3884	-0,9759	-32,32	13,013
2590	6,579	-0,9724	-31,767	13,391
2591	5,7709	-0,96278	-31,194	13,656
2592	4,9658	-0,95755	-30,6	13,798
2593	1,6223	-0,94424	-28,317	13,436
2594	4,1885	-0,95968	-30,084	13,864
2595	2,3404	-0,95803	-28,952	13,719
2596	3,1271	-0,90185	-29,741	14,015
2597	3,2604	-0,96805	-30,562	14,463
2598	3,9651	-0,93735	-30,871	14,382
2599	4,6254	-0,9474	-31,459	14,396
2600	10,312	-0,99107	-35,266	10,939
2601	5,3858	-0,95709	-32,059	14,258
2602	9,4539	-0,99014	-34,752	11,674
2603	6,1464	-0,96298	-32,636	13,989
2604	8,6017	-0,98444	-34,236	12,379
2605	6,9505	-0,96666	-33,184	13,562
2606	7,7594	-0,97069	-33,716	13,024
2607	9,8561	-0,98817	-36,117	11,237
2608	8,9944	-0,9838	-35,604	12,047
2609	8,1371	-0,97276	-35,091	12,84
2610	7,3207	-0,96818	-34,575	13,546
2611	6,5204	-0,96423	-34,048	14,154
2612	5,7357	-0,95986	-33,509	14,633
2613	4,9891	-0,95342	-32,945	14,943
2614	4,2605	-0,94154	-32,349	15,079
2615	3,578	-0,93343	-31,778	15,091
2616	2,9914	-0,94553	-31,153	14,933
2617	1,2986	-0,90007	-29,293	14,086
2618	2,3623	-0,93726	-30,391	14,619
2619	1,8195	-0,92619	-29,747	14,31
2620	0,8189	-0,96248	-30,096	14,672
2621	1,3672	-0,90967	-30,712	15,043
2622	1,9198	-0,9273	-31,346	15,386
2623	2,523	-0,95353	-31,974	15,664
2624	3,1623	-0,93524	-32,627	15,852
2625	3,8383	-0,93688	-33,228	15,881
2626	4,5546	-0,94454	-33,81	15,713
2627	5,3026	-0,95624	-34,375	15,358
2628	6,0781	-0,96385	-34,917	14,821
2629	6,8705	-0,96732	-35,444	14,123
2630	9,4002	-0,98445	-36,966	11,525
2631	7,6894	-0,97035	-35,947	13,31
2632	8,537	-0,97427	-36,45	12,425
2633	8,9482	-0,9844	-37,809	11,795
2634	8,0972	-0,9715	-37,285	12,785
2635	7,2319	-0,98622	-36,798	13,812
2636	6,409	-0,97006	-36,298	14,764
2637	5,5941	-0,97207	-35,777	15,596
2638	4,8359	-0,96058	-35,245	16,222
2639	4,0945	-0,95233	-34,675	16,618
2640	3,372	-0,94055	-34,069	16,771
2641	0,2909	-0,96293	-30,815	15,224
2642	2,6944	-0,93351	-33,454	16,714
2643	0,85143	-0,92013	-31,512	15,715
2644	2,0472	-0,94189	-32,816	16,482
2645	1,4371	-0,94499	-32,165	16,132
2646	-3,6096	-0,99476	-34,823	17,145
2647	-2,8348	-0,98928	-34,246	17,275
2648	-0,26471	-0,97729	-31,52	15,764
2649	-2,1691	-0,96842	-33,575	17,071
2650	-0,85987	-0,96785	-32,218	16,282
2651	-1,4947	-0,9829	-32,887	16,72
2652	0,30527	-0,92537	-32,255	16,368
2653	-2,9609	-0,9852	-35,646	18,382
2654	-0,28298	-0,93413	-32,992	17,02
2655	-2,2435	-0,98982	-34,984	18,327
2656	-0,90386	-0,9489	-33,682	17,593
2657	-1,5582	-0,96367	-34,354	18,06
2658	0,90433	-0,98452	-32,926	16,885
2659	0,32751	-0,9857	-33,662	17,653
2660	-0,28744	-0,99045	-34,369	18,387
2661	-2,289	-0,98605	-36,436	19,796
2662	-0,93362	-0,9883	-35,062	19,04
2663	-1,6081	-0,98669	-35,743	19,532
2664	-1,6534	-0,98274	-37,182	21,31
2665	-0,94911	-0,96987	-36,488	20,82
2666	-0,28474	-0,98205	-35,786	20,064
2667	0,35891	-0,95382	-35,095	19,2
2668	1,5309	-0,96314	-33,599	17,342
2669	0,96145	-0,96486	-34,353	18,255
2670	-0,96498	-0,97899	-37,873	22,869
2671	-0,27777	-0,97183	-37,208	22,085
2672	2,1824	-0,94009	-34,254	17,672
2673	0,38502	-0,9695	-36,493	21,008
2674	1,6199	-0,96901	-35,016	18,716
2675	1,0204	-0,95742	-35,773	19,859
2676	2,87	-0,94807	-34,899	17,804
2677	-0,24742	-0,97535	-38,578	24,289
2678	2,3104	-0,95404	-35,686	18,983
2679	0,41769	-0,9747	-37,912	23,167
2680	1,709	-0,96025	-36,453	20,317
2681	1,0667	-0,97752	-37,162	21,713
2682	0,36882	-0,96609	-39,12	25,248
2683	1,0711	-0,98608	-38,553	23,894
2684	1,77	-0,97131	-37,827	22,066
2685	2,4153	-0,966	-37,07	20,374
2686	3,5826	-0,95671	-35,504	17,667
2687	3,0232	-0,96177	-36,303	18,914
2688	8,4985	-0,98278	-38,633	12,044
2689	7,6357	-0,97746	-38,112	13,17
2690	6,7728	-0,97297	-37,615	14,347
2691	4,3096	-0,96601	-36,067	17,241
2692	5,9194	-0,97622	-37,154	15,505
2693	5,0801	-0,98761	-36,621	16,53
2694	5,667	-0,928	-43,832	14,728
2695	6,1092	-1,0076	-42,753	14,058
2696	8,0356	-0,98217	-39,451	12,292
2697	6,6169	-0,9917	-41,898	13,241
2698	7,0957	-0,98213	-41,06	12,84
2699	7,5774	-0,97779	-40,248	12,533
2700	7,187	-0,97084	-38,898	13,554
2701	6,2837	-0,9706	-38,387	14,985
2702	5,3743	-0,98388	-37,952	16,429
2703	4,5189	-0,99034	-37,453	17,674
2704	3,7636	-0,97119	-36,895	18,474
2705	6,7187	-0,96245	-39,697	13,989
2706	6,2416	-0,96155	-40,444	14,568
2707	5,8572	-0,95015	-39,131	15,593
2708	3,1339	-0,96761	-37,654	20,011
2709	5,4775	-0,93173	-39,794	16,232
2710	3,8953	-0,96529	-38,24	19,16
2711	4,8155	-0,91184	-39,575	17,676
2712	4,7434	-0,96184	-38,925	17,743
2713	5,8174	-0,9539	-41,325	15,162
2714	5,0567	-0,93849	-40,718	17,134
2715	4,2909	-0,91458	-40,067	19,041
2716	2,4814	-0,96728	-38,424	21,812
2717	3,7752	-0,92377	-39,524	20,075
2718	3,1922	-0,95004	-38,985	21,025
2719	1,7771	-0,97682	-39,184	24,2
2720	2,4905	-0,9832	-39,761	23,651
2721	3,1805	-0,92606	-40,327	22,585
2722	3,8862	-0,92908	-40,782	20,898
2723	4,575	-0,9592	-41,522	18,99
2724	5,3344	-0,9569	-42,219	16,476
2725	2,6962	-0,97923	-41,038	24,305
2726	3,4101	-0,98519	-41,667	23,643
2727	2,7083	-1,993	-41,031	22,806
2728	1,841	-0,98508	-40,47	25,123
2729	4,0606	-0,98176	-42,392	22,573
2730	3,4372	-1,9886	-41,654	22,434
2731	1,8876	-2,0041	-40,525	23,237
2732	0,90372	-1,0714	-40,046	25,655
2733	4,0904	-1,9774	-42,396	21,648
2734	4,8944	-1,018	-43,535	19,015
2735	0,77948	-1,9966	-40,06	23,938
2736	4,7108	-1,9786	-43,565	19,752
2737	0,77586	-2,9987	-40,052	23,981
2738	4,842	-2,9613	-43,372	18,654
2739	1,8895	-3,0045	-40,526	23,225
2740	4,1507	-2,9924	-42,382	21,144
2741	2,7234	-3,0021	-41,019	22,812
2742	3,4798	-2,997	-41,643	22,257
2743	19,198	-4,0356	7,8944	12,345
2744	19,521	-4,0488	6,952	13,124
2745	19,849	-4,054	5,9994	14,009
2746	20,197	-4,0498	5,05	14,999
2747	20,509	-4,0346	4,0981	16,018
2748	20,775	-3,9267	2,8471	16,737
2749	18,279	-4,0296	7,5686	12,174
2750	17,398	-4,0334	7,2237	11,981
2751	18,664	-4,0429	6,6324	12,888
2752	17,753	-4,0368	6,3238	12,589
2753	19,011	-4,0463	5,698	13,635
2754	18,129	-4,046	5,412	13,242
2755	19,34	-4,0429	4,7549	14,379
2756	16,521	-4,0451	6,8983	11,74
2757	18,415	-4,0399	4,5098	13,829
2758	15,563	-4,046	6,5973	11,421
2759	16,876	-4,0482	6,0271	12,283
2760	14,614	-4,0487	6,3054	11,085
2761	19,578	-4,0222	3,815	14,976
2762	13,625	-4,039	6,0217	10,719
2763	18,766	-4,0389	3,5721	14,374
2764	12,632	-4,0385	5,754	10,352
2765	17,212	-4,0505	5,1527	12,831
2766	11,631	-4,0389	5,442	10,007
2767	19,699	-4,0304	2,9127	15,268
2768	15,913	-4,0481	5,756	11,903
2769	18,898	-4,0296	2,6817	14,645
2770	16,266	-4,0563	4,9103	12,399
2771	17,473	-4,0318	4,2822	13,321
2772	19,995	-3,9579	1,9056	15,221
2773	14,992	-4,0575	5,4888	11,534
2774	16,52	-4,0369	4,066	12,831
2775	13,96	-4,0442	5,2322	11,102
2776	17,81	-4,0539	3,3963	13,816
2777	12,957	-4,0357	4,9584	10,7
2778	15,294	-4,0609	4,6791	11,95
2779	11,957	-4,0446	4,6621	10,318
2780	15,581	-4,0662	3,8657	12,351
2781	18,04	-4,0597	2,5283	14,159
2782	14,298	-4,0635	4,4505	11,491
2783	16,773	-4,0281	3,2215	13,23
2784	13,3	-4,0622	4,2171	11,042
2785	19,089	-4,0414	1,79	14,751
2786	12,27	-4,0518	3,8931	10,626
2787	15,811	-4,0607	3,0489	12,699
2788	17,058	-4,0782	2,3992	13,6
2789	14,576	-4,0698	3,6611	11,843
2790	18,209	-4,0722	1,6629	14,358
2791	14,834	-4,0804	2,8793	12,165
2792	13,574	-4,0696	3,4391	11,357
2793	16,077	-4,0909	2,2609	13,029
2794	12,552	-4,0653	3,1571	10,9
2795	17,199	-4,0722	1,557	13,819
2796	15,072	-4,0982	2,1141	12,447
2797	13,821	-4,0812	2,6714	11,638
2798	16,274	-4,1122	1,472	13,276
2799	12,821	-4,0792	2,391	11,156
2800	14,069	-4,0985	1,9149	11,895
2801	15,294	-4,1255	1,3694	12,685
2802	13,059	-4,0817	1,6238	11,376
2803	14,31	-4,1286	1,1988	12,116
2804	13,297	-4,0939	0,87248	11,565
2805	13,433	-4,1106	0,20836	11,667
2806	13,847	-4,031	-0,18193	11,899
2807	14,467	-4,0944	0,4626	12,251
2808	14,513	-4,0666	-0,15039	12,287
2809	15,412	-4,1278	0,59392	12,822
2810	15,449	-4,1392	-9,8917e-002	12,856
2811	16,414	-4,1333	0,69879	13,435
2812	16,444	-4,1411	-8,4519e-002	13,478
2813	17,305	-4,072	0,73995	13,952
2814	17,369	-4,1133	-7,6335e-002	14,01
2815	18,302	-4,0856	0,80423	14,442
2816	18,309	-4,0898	-6,6478e-002	14,453
2817	19,257	-4,0624	0,86197	14,721
2818	19,229	-4,0348	-2,5676e-002	14,648
2819	20,361	-4,0431	1,0343	14,85
2820	20,164	-4,0096	-3,9868e-003	14,402
2821	10,622	-4,0466	5,1505	9,6815
2822	20,188	-4,0104	-0,97458	14,751
2823	9,6115	-4,0314	4,7575	9,399
2824	10,95	-4,0423	4,4132	9,9566
2825	19,184	-4,0539	-0,95588	14,706
2826	9,9314	-4,0299	4,026	9,644
2827	11,243	-4,0485	3,6376	10,223
2828	18,24	-4,0822	-0,94485	14,406
2829	10,235	-4,0323	3,2073	9,8932
2830	11,523	-4,059	2,8706	10,473
2831	17,265	-4,0791	-0,87655	13,922
2832	10,521	-4,0458	2,4583	10,109
2833	11,803	-4,0711	2,1282	10,702
2834	16,359	-4,1291	-0,8675	13,393
2835	10,815	-4,0585	1,7235	10,309
2836	12,069	-4,0737	1,3449	10,901
2837	15,348	-4,0806	-0,80274	12,771
2838	11,096	-4,0686	1,0694	10,483
2839	12,338	-4,0706	0,63283	11,083
2840	14,411	-4,0593	-0,75369	12,205
2841	11,506	-4,0495	0,18662	10,695
2842	13,552	-4,0368	-0,627	11,722
2843	11,782	-4,0295	-0,27037	10,824
2844	12,648	-4,0411	-0,23669	11,247
2845	20,313	-3,9092	-2,1224	15,59
2846	19,068	-4,033	-1,9016	14,71
2847	18,077	-4,043	-1,7961	14,288
2848	17,139	-4,0897	-1,7239	13,766
2849	8,612	-4,0248	4,3124	9,1611
2850	16,172	-4,1068	-1,6311	13,202
2851	8,9313	-4,0132	3,5644	9,3877
2852	15,169	-4,0864	-1,5081	12,6
2853	9,2573	-4,0167	2,7761	9,6069
2854	14,176	-4,0453	-1,4187	12,021
2855	9,5623	-4,0244	1,9665	9,8056
2856	13,195	-4,0735	-1,2878	11,489
2857	9,886	-4,0358	1,1656	9,9865
2858	12,249	-4,0249	-1,1272	11,016
2859	10,344	-3,9883	0,39328	10,196
2860	11,43	-4,005	-0,82618	10,644
2861	10,813	-3,984	-0,30626	10,389
2862	7,6536	-4,0287	3,8014	8,9789
2863	6,7203	-4,0093	3,2202	8,8369
2864	8,0034	-4,0169	2,9739	9,1949
2865	5,7838	-3,9979	2,604	8,7208
2866	7,068	-3,9991	2,3665	9,0246
2867	8,3014	-3,992	2,1971	9,3731
2868	6,1287	-3,9394	1,6969	8,8768
2869	7,4403	-3,9884	1,5054	9,1955
2870	8,6452	-3,9982	1,3466	9,5504
2871	4,8802	-3,9893	1,8886	8,636
2872	6,5249	-3,9429	0,79302	9,0153
2873	7,8471	-4,0099	0,64394	9,3519
2874	5,3016	-3,9749	0,938	8,7683
2875	9,0353	-4,0083	0,5174	9,7162
2876	6,9626	-3,9539	-9,3338e-002	9,1304
2877	8,2259	-3,9848	-0,18	9,4711
2878	9,5622	-3,9872	-0,27956	9,9045
2879	5,7506	-3,9583	1,9873e-002	8,8698
2880	10,024	-4,0193	-1,1049	10,048
2881	4,0242	-3,982	1,0933	8,5687
2882	7,5303	-4,0094	-0,93383	9,2554
2883	8,7216	-3,991	-1,0053	9,5971
2884	6,1891	-3,9368	-0,88936	8,9368
2885	9,3622	-3,9962	-1,8312	9,7573
2886	3,1774	-3,9733	0,26292	8,4984
2887	4,4881	-3,9711	0,1385	8,6584
2888	8,048	-3,9803	-1,7579	9,3441
2889	6,7991	-3,9911	-1,714	9,0233
2890	4,9796	-3,958	-0,79481	8,7171
2891	2,3614	-3,9577	-0,57582	8,4196
2892	3,6801	-3,9599	-0,70345	8,5386
2893	8,7265	-4,0036	-2,5586	9,4687
2894	5,4485	-3,9214	-1,7129	8,7421
2895	1,5758	-3,9403	-1,4576	8,326
2896	2,897	-3,9409	-1,5716	8,4086
2897	7,3801	-3,9742	-2,5335	9,0856
2898	4,1523	-3,8857	-1,6722	8,5413
2899	6,0534	-3,9421	-2,5614	8,7739
2900	4,7468	-3,9059	-2,5677	8,5385
2901	2,1506	-3,9539	-2,5049	8,2582
2902	3,4969	-3,9276	-2,5356	8,3738
2903	8,0304	-3,9948	-3,2858	9,1706
2904	6,7335	-3,9637	-3,3421	8,822
2905	5,4592	-3,9216	-3,3863	8,5502
2906	2,7993	-3,9269	-3,4646	8,1797
2907	7,4186	-3,9886	-4,0964	8,876
2908	4,0781	-3,8888	-3,4545	8,3199
2909	6,1173	-3,95	-4,1945	8,5523
2910	4,8169	-3,9252	-4,2861	8,2988
2911	3,4351	-3,874	-4,3694	8,0911
2912	6,8621	-3,981	-4,9403	8,5877
2913	5,5668	-3,957	-5,0433	8,2926
2914	4,2556	-3,9019	-5,1624	8,051
2915	6,0828	-4,0534	-5,7722	8,2612
2916	5,2291	-3,954	-5,6767	8,1116
2917	5,8823	-3,9814	-6,5943	8,0647
2918	6,4936	-4,0222	-6,9965	8,1151
2919	7,1457	-3,868	-6,5486	8,3551
2920	7,565	-3,9991	-5,6732	8,6316
2921	8,1183	-4,0157	-4,8571	8,9366
2922	8,7016	-4,0392	-4,069	9,2445
2923	9,3205	-4,0281	-3,3618	9,5606
2924	10,794	-4,0297	-1,7938	10,305
2925	-6,3447	-3,9428	4,4738	8,555
2926	9,9867	-3,7494	-2,6469	9,8898
2927	-6,9801	-3,9452	3,6766	8,8306
2928	9,8088	-4,0988	-4,0621	9,6194
2929	10,279	-4,0318	-3,7531	9,8442
2930	11,835	-4,0507	-1,9321	10,749
2931	9,3093	-4,0509	-4,7729	9,3182
2932	11,582	-4,0734	-2,7375	10,533
2933	10,699	-3,7753	-4,3258	9,9008
2934	11,466	-4,4253	-3,4277	10,389
2935	-5,6278	-3,918	3,6147	8,5528
2936	10,438	-3,9784	-4,75	9,7218
2937	11,33	-4,0459	-4,3588	10,154
2938	12,892	-4,0756	-2,0202	11,257
2939	9,9303	-4,0484	-5,3601	9,4193
2940	12,623	-4,077	-2,817	11,013
2941	11,022	-4,2758	-4,9984	9,9093
2942	12,401	-4,1118	-3,5854	10,776
2943	-7,597	-3,9411	2,8888	9,0972
2944	12,156	-4,1022	-4,3535	10,514
2945	-6,2825	-3,9115	2,7718	8,8012
2946	11,86	-4,0657	-5,1421	10,214
2947	-5,0174	-3,9392	2,7251	8,5714
2948	10,625	-4,0365	-5,7802	9,5846
2949	-6,9728	-3,9586	1,9814	9,0414
2950	13,917	-4,0925	-2,1527	11,793
2951	-5,7046	-3,9664	1,8564	8,782
2952	13,663	-4,0834	-2,9155	11,53
2953	-4,421	-3,9502	1,7721	8,5778
2954	13,404	-4,086	-3,6854	11,251
2955	11,471	-3,9246	-5,9709	9,8719
2956	13,119	-4,0893	-4,4748	10,935
2957	-6,4037	-3,9869	1,0351	8,9794
2958	12,774	-4,074	-5,2663	10,585
2959	-5,1416	-3,9831	0,90108	8,744
2960	12,465	-4,0619	-5,8891	10,299
2961	-3,8497	-3,9168	0,79814	8,5597
2962	12,213	-4,038	-6,8922	9,9541
2963	8,7561	-4,0466	-5,5595	8,9968
2964	-5,8819	-3,9883	6,2687e-002	8,8971
2965	-3,3009	-3,8418	-0,22387	8,509
2966	-4,6159	-3,9452	-7,0673e-002	8,6777
2967	8,2746	-4,0141	-6,4395	8,679
2968	9,3808	-4,0596	-6,2288	9,0627
2969	-5,4177	-4,0037	-0,8909	8,7888
2970	-4,1458	-3,9409	-1,0598	8,5808
2971	-2,8504	-3,8476	-1,2826	8,425
2972	8,8465	-4,0044	-7,0052	8,741
2973	0,66438	-3,8638	-2,5402	8,1891
2974	-4,959	-3,8991	-1,8948	8,6424
2975	10,091	-4,047	-6,7362	9,1963
2976	1,4392	-3,9409	-3,5195	8,0766
2977	-3,7058	-3,9425	-2,0713	8,4488
2978	9,5517	-4,021	-7,629	8,8436
2979	12,138	-4,028	-7,4877	9,7835
2980	11,11	-4,0304	-7,0924	9,4843
2981	2,1384	-3,9189	-4,4215	7,9648
2982	-4,5733	-4,0077	-2,8132	8,4827
2983	10,314	-4,032	-8,1326	8,9959
2984	14,928	-4,0609	-2,2497	12,355
2985	2,868	-3,9281	-5,2901	7,8613
2986	11,633	-4,0358	-7,9526	9,4943
2987	14,679	-4,0578	-3,029	12,075
2988	-2,4107	-3,8815	-2,3545	8,2922
2989	14,402	-4,0684	-3,833	11,734
2990	3,6526	-3,9099	-6,1258	7,7852
2991	7,8176	-3,945	-7,4313	8,3664
2992	14,074	-4,0799	-4,647	11,365
2993	-3,2501	-3,9222	-3,0923	8,2754
2994	13,767	-4,0518	-5,4292	11,006
2995	8,2399	-3,9851	-7,8721	8,4018
2996	13,42	-4,042	-6,2007	10,637
2997	4,5304	-3,9376	-6,8683	7,7625
2998	13,055	-4,0667	-6,9487	10,28
2999	8,9525	-4,008	-8,4799	8,5043
3000	12,738	-4,0266	-7,7333	9,9524
3001	-4,1407	-4,0099	-3,7886	8,2779
3002	5,9996	-3,9789	-7,5491	7,9076
3003	11,066	-4,035	-8,732	9,1311
3004	9,7677	-4,0183	-8,9978	8,6672
3005	-1,8964	-3,9146	-3,3538	8,1255
3006	6,8745	-3,9979	-8,2433	7,9863
3007	0,13063	-3,9385	-3,8067	7,9958
3008	-2,763	-3,9011	-4,1336	8,0639
3009	7,644	-3,9822	-8,7407	8,0989
3010	12,348	-4,0222	-8,5062	9,6282
3011	-1,0633	-3,9647	-4,3989	7,9126
3012	-3,7004	-3,9768	-4,7164	8,0597
3013	8,4155	-4,0045	-9,3352	8,2209
3014	-2,2671	-3,9237	-4,9668	7,8692
3015	10,577	-4,0298	-9,5724	8,8295
3016	0,72064	-3,9743	-4,5223	7,8795
3017	11,896	-4,0211	-9,2908	9,3046
3018	-3,3032	-3,9382	-5,6252	7,8391
3019	1,454	-3,7417	-5,2843	7,7608
3020	9,5438	-3,9467	-9,9605	8,4619
3021	-2,8599	-3,9688	-6,4523	7,6294
3022	-1,9029	-3,9661	-5,8379	7,6754
3023	2,287	-3,9422	-6,2407	7,6227
3024	11,425	-4,0219	-10,12	9,0075
3025	10,121	-4,0214	-10,414	8,5757
3026	-0,84777	-3,9556	-5,5543	7,6843
3027	3,0822	-3,9336	-7,0554	7,5343
3028	15,937	-4,052	-2,3765	12,935
3029	-0,66396	-3,9721	-6,2755	7,5321
3030	9,766e-002	-4,0061	-5,5508	7,672
3031	16,898	-4,0358	-2,5139	13,49
3032	-1,4652	-4,0277	-6,6389	7,488
3033	0,95448	-3,9764	-6,42	7,5139
3034	17,89	-4,0488	-2,6795	14,036
3035	-0,30222	-3,9891	-6,6726	7,4459
3036	4,2927	-3,9211	-7,8144	7,5515
3037	-0,92219	-4,0221	-7,3819	7,3216
3038	0,37148	-4,0183	-7,3109	7,3226
3039	18,866	-4,0243	-2,8292	14,619
3040	1,7285	-3,9464	-7,2164	7,3898
3041	4,3478	-3,9817	-9,0206	7,3706
3042	-0,27275	-4,0104	-8,0694	7,1782
3043	5,1623	-3,9475	-8,4841	7,5871
3044	2,4946	-3,9575	-8,0042	7,303
3045	-2,2812	-4,0131	-7,1924	7,4311
3046	4,9761	-3,9873	-9,3342	7,4336
3047	6,2213	-3,9959	-9,0218	7,7195
3048	-1,6923	-4,0334	-7,9488	7,2494
3049	1,1326	-3,953	-8,1387	7,1855
3050	7,0962	-3,9928	-9,5889	7,8494
3051	-1,0684	-4,0369	-8,6737	7,0978
3052	0,34088	-4,0101	-8,8178	7,0604
3053	3,2118	-3,9841	-8,8161	7,2431
3054	5,832	-3,9919	-9,8938	7,5346
3055	7,9621	-4,0122	-10,152	8,0048
3056	-0,53581	-4,0445	-9,3985	6,9775
3057	6,6947	-4,0003	-10,455	7,6712
3058	3,7566	-4,0023	-9,6098	7,2084
3059	10,971	-4,0204	-10,956	8,7591
3060	8,8302	-4,0084	-10,724	8,1816
3061	7,5469	-4,0255	-10,995	7,8359
3062	4,6572	-4,0144	-10,194	7,2893
3063	-9,4788e-002	-4,066	-10,142	6,8926
3064	9,6554	-4,029	-11,271	8,362
3065	5,498	-4,0402	-10,75	7,4024
3066	19,699	-4,021	-3,1181	15,228
3067	0,70408	-4,0403	-9,6361	6,9543
3068	20,516	-3,9652	-3,5715	16,169
3069	6,2951	-4,004	-11,297	7,54
3070	1,8749	-3,9951	-9,0557	7,0856
3071	8,384	-4,019	-11,562	8,0154
3072	7,1269	-4,0221	-11,845	7,7115
3073	2,7324	-4,0137	-9,601	7,0876
3074	0,82275	-4,0245	-10,33	6,8922
3075	1,6954	-4,0328	-10,222	6,94
3076	15,665	-4,0613	-3,1991	12,601
3077	3,4668	-4,0365	-10,361	7,1009
3078	0,37044	-4,0966	-10,885	6,8484
3079	16,633	-4,0295	-3,3567	13,134
3080	1,4691	-4,1186	-10,963	6,8848
3081	4,2692	-4,0102	-10,956	7,1801
3082	17,601	-4,0197	-3,5379	13,668
3083	9,226	-4,0263	-12,102	8,2089
3084	5,0924	-4,0391	-11,555	7,3026
3085	18,581	-4,0152	-3,7197	14,222
3086	1,0051	-4,1122	-11,512	6,8542
3087	5,9154	-4,0468	-12,122	7,4604
3088	7,9565	-4,0183	-12,398	7,9018
3089	19,466	-4,0045	-3,9832	14,814
3090	2,3866	-4,0191	-10,574	6,9693
3091	6,7165	-4,0287	-12,682	7,6399
3092	10,515	-4,0209	-11,795	8,555
3093	8,7921	-4,0261	-12,938	8,1032
3094	2,0605	-4,0579	-11,383	6,9138
3095	20,364	-3,9861	-4,2586	15,689
3096	7,5366	-4,0253	-13,234	7,8406
3097	15,368	-4,0701	-4,0165	12,222
3098	1,6837	-4,1041	-12,169	6,9006
3099	16,331	-4,0297	-4,2094	12,709
3100	3,1231	-4,0137	-11,135	7,0201
3101	10,075	-4,0231	-12,63	8,4049
3102	17,274	-4,0302	-4,4322	13,179
3103	8,3664	-4,0357	-13,779	8,051
3104	3,8902	-4,0175	-11,75	7,1132
3105	18,214	-4,0111	-4,665	13,659
3106	15,055	-4,0681	-4,8412	11,815
3107	4,6854	-4,0236	-12,352	7,25
3108	16,002	-4,0273	-5,0642	12,246
3109	19,118	-4,0086	-4,9463	14,149
3110	16,93	-4,0378	-5,3249	12,65
3111	5,5078	-4,05	-12,949	7,4256
3112	19,998	-3,9993	-5,2493	14,693
3113	17,86	-4,0079	-5,5881	13,045
3114	14,712	-4,0658	-5,67	11,392
3115	2,7525	-4,0218	-11,946	6,9802
3116	15,634	-4,0394	-5,931	11,755
3117	18,741	-4,0144	-5,9035	13,393
3118	16,557	-4,035	-6,2229	12,096
3119	6,3108	-4,045	-13,514	7,621
3120	17,477	-4,0089	-6,5121	12,415
3121	19,62	-4,0124	-6,2369	13,73
3122	2,3637	-4,04	-12,731	6,988
3123	18,388	-3,9935	-6,8369	12,689
3124	3,5298	-4,0718	-12,562	7,0974
3125	20,493	-4,0154	-6,5825	14,034
3126	19,267	-3,9979	-7,2131	12,882
3127	3,13	-4,073	-13,357	7,1266
3128	4,2876	-4,0357	-13,156	7,2488
3129	20,024	-4,1429	-7,8009	12,797
3130	21,35	-4,027	-6,9271	14,253
3131	5,076	-4,0291	-13,745	7,4355
3132	14,347	-4,0608	-6,4908	10,97
3133	20,946	-4,037	-8,1749	12,81
3134	15,259	-4,0455	-6,7911	11,281
3135	22,185	-4,0229	-7,2609	14,359
3136	16,165	-4,0308	-7,1178	11,559
3137	5,8769	-4,0257	-14,322	7,6463
3138	17,09	-4,0021	-7,4285	11,82
3139	21,802	-4,0289	-8,1088	13,127
3140	17,979	-4,0001	-7,7851	12,002
3141	3,8907	-4,0622	-13,962	7,2998
3142	22,559	-4,0487	-8,319	13,115
3143	18,895	-3,9876	-8,1657	12,125
3144	9,6352	-4,0229	-13,466	8,3053
3145	23,093	-4,0668	-7,6636	14,156
3146	19,835	-3,9834	-8,5358	12,188
3147	4,6581	-4,0346	-14,55	7,5005
3148	23,269	-4,0492	-7,9877	13,708
3149	21,108	-4,0688	-8,8903	12,225
3150	13,945	-4,057	-7,3159	10,549
3151	22,717	-4,1186	-8,7103	12,659
3152	14,869	-4,0255	-7,6393	10,828
3153	7,1153	-4,0269	-14,066	7,8309
3154	15,756	-4,0253	-8,0009	11,055
3155	22,011	-4,0495	-9,2547	12,026
3156	16,662	-4,0124	-8,3529	11,252
3157	5,4699	-4,0499	-15,145	7,73
3158	17,585	-3,9863	-8,7136	11,403
3159	13,528	-4,0523	-8,1119	10,161
3160	18,462	-3,9854	-9,0953	11,464
3161	14,459	-4,0209	-8,4925	10,402
3162	19,501	-3,9621	-9,4286	11,513
3163	15,333	-4,0185	-8,9001	10,586
3164	6,6872	-4,0222	-14,887	7,8702
3165	16,237	-4,0076	-9,2725	10,749
3166	20,52	-3,9635	-9,7692	11,445
3167	17,113	-3,9857	-9,6683	10,842
3168	7,9423	-4,0306	-14,613	8,0501
3169	18,027	-3,9779	-10,05	10,885
3170	21,508	-3,9656	-10,157	11,213
3171	18,99	-3,9838	-10,394	10,875
3172	9,1945	-4,0334	-14,31	8,257
3173	6,2741	-4,0456	-15,722	7,9654
3174	18,814	-3,9926	-11,151	10,469
3175	20,108	-3,9936	-10,621	10,849
3176	7,5087	-4,0195	-15,439	8,097
3177	13,17	-4,013	-8,932	9,8202
3178	19,781	-4,0092	-11,488	10,341
3179	14,004	-4,0265	-9,3686	9,9968
3180	21,081	-4,0009	-10,997	10,608
3181	14,941	-4,0116	-9,7626	10,187
3182	8,776	-4,0228	-15,144	8,2631
3183	15,836	-4,0021	-10,191	10,311
3184	20,665	-4,0142	-11,876	10,079
3185	16,738	-3,9876	-10,63	10,379
3186	7,0773	-4,0197	-16,262	8,1932
3187	17,714	-3,9829	-11,135	10,357
3188	12,704	-4,0237	-9,7769	9,4745
3189	18,433	-3,9985	-11,956	10,082
3190	13,609	-4,011	-10,214	9,6651
3191	19,312	-3,9979	-12,334	9,9175
3192	14,458	-4,0108	-10,673	9,8031
3193	8,3459	-4,021	-15,978	8,3164
3194	15,372	-3,9984	-11,113	9,919
3195	20,208	-4,0109	-12,751	9,6457
3196	16,208	-3,9868	-11,596	9,9494
3197	12,272	-4,0175	-10,617	9,1854
3198	17,093	-3,9877	-12,07	9,9257
3199	13,123	-4,02	-11,1	9,3474
3200	17,996	-3,9923	-12,635	9,7927
3201	14,03	-4,0104	-11,543	9,4993
3202	18,855	-4,0171	-13,146	9,5838
3203	14,893	-4,0063	-12,013	9,5919
3204	7,9255	-4,0367	-16,825	8,4215
3205	15,76	-3,9989	-12,489	9,6303
3206	19,753	-4,0193	-13,592	9,3029
3207	16,628	-3,9999	-12,987	9,5986
3208	11,803	-4,0266	-11,476	8,9307
3209	17,515	-4,0076	-13,482	9,4911
3210	11,365	-4,0275	-12,308	8,7369
3211	18,394	-4,0161	-13,969	9,3012
3212	10,921	-4,0289	-13,146	8,5907
3213	12,678	-4,0214	-11,96	9,0986
3214	10,484	-4,0301	-13,981	8,4963
3215	12,237	-4,0188	-12,795	8,9051
3216	10,042	-4,0307	-14,821	8,4519
3217	11,782	-4,0262	-13,642	8,7585
3218	9,6279	-4,0308	-15,666	8,462
3219	11,336	-4,0276	-14,482	8,6649
3220	9,2047	-4,0309	-16,511	8,5188
3221	10,909	-4,028	-15,324	8,6242
3222	8,7689	-4,0323	-17,354	8,6198
3223	10,482	-4,0276	-16,172	8,632
3224	19,286	-4,0165	-14,438	9,0222
3225	10,057	-4,0273	-17,025	8,6872
3226	13,554	-4,016	-12,424	9,2374
3227	9,6105	-4,0282	-17,872	8,7846
3228	14,431	-4,0127	-12,894	9,333
3229	13,099	-4,0199	-13,285	9,0386
3230	15,308	-4,0086	-13,38	9,371
3231	12,65	-4,0229	-14,132	8,8948
3232	13,976	-4,0175	-13,759	9,1336
3233	16,182	-4,0081	-13,86	9,3451
3234	13,526	-4,0198	-14,611	8,9892
3235	14,851	-4,0143	-14,241	9,1732
3236	17,061	-4,0123	-14,345	9,2446
3237	14,397	-4,014	-15,096	9,0286
3238	15,727	-4,0136	-14,723	9,1489
3239	17,943	-4,0146	-14,815	9,065
3240	15,272	-4,0119	-15,579	9,0053
3241	12,206	-4,018	-14,976	8,8022
3242	16,605	-4,0138	-15,198	9,0535
3243	11,768	-4,025	-15,821	8,7594
3244	17,485	-4,0135	-15,673	8,878
3245	11,333	-4,0189	-16,676	8,7643
3246	18,825	-4,0141	-15,287	8,7954
3247	10,89	-4,0144	-17,528	8,814
3248	16,148	-4,0143	-16,057	8,9115
3249	10,445	-4,0192	-18,375	8,9065
3250	17,025	-4,013	-16,533	8,7399
3251	13,074	-4,0117	-15,466	8,8946
3252	18,363	-4,0125	-16,147	8,6163
3253	12,628	-4,01	-16,32	8,8493
3254	13,945	-4,0132	-15,951	8,9334
3255	12,186	-4,0079	-17,176	8,8505
3256	14,814	-4,0166	-16,428	8,9107
3257	11,747	-4,0124	-18,032	8,8959
3258	15,687	-4,0149	-16,916	8,8167
3259	11,3	-4,0164	-18,884	8,9823
3260	16,56	-4,0133	-17,395	8,6476
3261	13,496	-4,0093	-16,809	8,8855
3262	17,902	-4,0117	-17,01	8,4842
3263	13,053	-4,0097	-17,67	8,8825
3264	14,368	-4,0171	-17,291	8,8598
3265	12,616	-4,0168	-18,532	8,9217
3266	15,228	-4,0157	-17,777	8,7655
3267	12,177	-4,0194	-19,398	9,0007
3268	16,102	-4,0144	-18,256	8,5969
3269	13,923	-4,0173	-18,156	8,8519
3270	17,439	-4,012	-17,872	8,3967
3271	14,79	-4,0165	-18,644	8,753
3272	13,49	-4,0176	-19,03	8,8835
3273	15,655	-4,0158	-19,119	8,5828
3274	13,036	-4,0185	-19,894	8,9548
3275	14,338	-4,0131	-19,511	8,7804
3276	16,979	-4,0132	-18,736	8,3485
3277	15,198	-4,0117	-19,994	8,6065
3278	13,881	-4,0128	-20,375	8,8453
3279	16,524	-4,015	-19,602	8,3359
3280	14,736	-4,0099	-20,859	8,6665
3281	16,062	-4,0115	-20,473	8,3592
3282	15,605	-4,018	-21,34	8,4143
3283	15,139	-4,0176	-22,208	8,5021
3284	14,669	-4,0162	-23,062	8,6199
3285	14,203	-4,0148	-23,919	8,7628
3286	13,738	-4,0115	-24,782	8,9308
3287	13,28	-4,0146	-25,648	9,1206
3288	12,817	-4,0121	-26,507	9,3356
3289	12,359	-4,0155	-27,374	9,5723
3290	11,906	-4,0163	-28,232	9,8293
3291	11,442	-4,0157	-29,092	10,114
3292	10,985	-4,016	-29,956	10,419
3293	10,523	-4,0121	-30,818	10,75
3294	10,058	-4,0075	-31,678	11,108
3295	9,5903	-4,0047	-32,535	11,492
3296	9,1118	-4,0023	-33,39	11,908
3297	8,6234	-4,0014	-34,255	12,361
3298	14,27	-4,0112	-21,716	8,7601
3299	8,1136	-3,9873	-35,102	12,861
3300	13,805	-4,0171	-22,564	8,8836
3301	7,6086	-3,9952	-35,946	13,399
3302	13,337	-4,0157	-23,427	9,0368
3303	7,1901	-4,0131	-36,846	13,859
3304	6,0172	-4,0538	-37,353	15,376
3305	12,881	-4,0153	-24,282	9,2138
3306	6,7859	-4,0174	-37,748	14,326
3307	5,3563	-4,0646	-37,326	16,333
3308	5,6071	-4,0676	-38,333	16,069
3309	6,3697	-4,0335	-38,722	14,802
3310	12,418	-4,0156	-25,15	9,42
3311	4,9427	-4,0635	-37,897	17,132
3312	5,8769	-4,0338	-39,637	15,482
3313	5,0991	-4,0593	-39,178	17,049
3314	11,961	-4,0148	-26,005	9,6494
3315	5,3492	-4,0246	-40,513	16,407
3316	4,4016	-4,0366	-38,674	18,364
3317	4,5877	-4,0125	-39,987	18,303
3318	4,8436	-3,9072	-43,153	19,
3319	4,7878	-3,9835	-41,411	18,159
3320	3,822	-4,0571	-39,499	19,981
3321	4,0435	-4,0007	-40,836	20,406
3322	4,1501	-3,9977	-42,324	21,66
3323	11,044	-4,0172	-27,722	10,187
3324	3,2685	-4,0214	-40,27	22,306
3325	3,4787	-4,006	-41,638	23,306
3326	10,588	-4,0136	-28,584	10,495
3327	2,7289	-4,0115	-41,031	24,282
3328	10,135	-4,0141	-29,448	10,828
3329	9,6944	-4,021	-30,321	11,183
3330	1,8337	-4,0117	-40,461	25,128
3331	9,2147	-4,0046	-31,162	11,585
3332	2,4812	-4,0136	-39,727	23,66
3333	8,7454	-4,001	-32,012	12,015
3334	3,0949	-4,0547	-38,955	21,202
3335	8,2706	-4,0051	-32,863	12,485
3336	3,6757	-4,0695	-38,165	19,484
3337	7,7731	-4,0023	-33,718	13,012
3338	4,3171	-4,0472	-37,44	17,972
3339	7,2346	-3,9854	-34,543	13,621
3340	5,0236	-4,0404	-36,823	16,663
3341	6,724	-4,0039	-35,353	14,265
3342	6,4401	-4,0751	-36,256	14,73
3343	0,89577	-3,9241	-40,025	25,671
3344	1,7309	-4,0179	-39,157	24,228
3345	2,3892	-4,0419	-38,386	21,908
3346	3,0469	-4,0251	-37,6	20,085
3347	3,7124	-4,0501	-36,818	18,482
3348	4,4448	-4,0291	-36,165	17,134
3349	5,1677	-4,0023	-35,426	15,966
3350	5,8073	-4,011	-34,718	15,022
3351	6,3892	-4,0079	-33,928	14,231
3352	6,9411	-4,0115	-33,153	13,559
3353	7,4348	-4,0073	-32,309	12,977
3354	7,913	-4,0025	-31,473	12,459
3355	8,3799	-4,0048	-30,631	11,99
3356	8,8371	-4,0077	-29,781	11,562
3357	9,2916	-4,0134	-28,928	11,17
3358	9,7373	-4,0108	-28,067	10,811
3359	10,196	-4,0197	-27,214	10,479
3360	10,654	-4,0185	-26,355	10,175
3361	11,103	-4,0134	-25,497	9,9022
3362	11,565	-4,0174	-24,639	9,6529
3363	12,021	-4,0171	-23,782	9,4339
3364	12,477	-4,0157	-22,926	9,243
3365	13,416	-4,0169	-21,227	8,9455
3366	12,941	-4,0131	-22,077	9,0802
3367	-8,2409	-3,9349	2,0404	9,3729
3368	-7,6451	-3,9659	1,1489	9,2743
3369	-7,1388	-3,9958	0,21942	9,1746
3370	-6,664	-4,0078	-0,718	9,0509
3371	-6,2451	-4,0181	-1,6414	8,9043
3372	-5,8491	-4,0066	-2,5779	8,7312
3373	-5,4766	-3,989	-3,5356	8,5319
3374	-5,0735	-4,026	-4,4439	8,3122
3375	-4,6681	-4,0114	-5,3275	8,0858
3376	-4,2339	-4,0015	-6,1932	7,8461
3377	-3,7378	-3,9928	-7,0516	7,6141
3378	-3,1134	-4,0292	-7,8202	7,396
3379	-2,4516	-4,0311	-8,4888	7,2165
3380	-1,8329	-4,0481	-9,2518	7,0544
3381	-1,3072	-4,0541	-10,024	6,9374
3382	-0,80786	-4,0625	-10,79	6,8624
3383	-0,23218	-4,0771	-11,482	6,8356
3384	0,49428	-4,0939	-12,189	6,8517
3385	1,2279	-4,0837	-12,85	6,9252
3386	1,9691	-4,0752	-13,521	7,0461
3387	2,7001	-4,0644	-14,153	7,2048
3388	3,4607	-4,0563	-14,766	7,3984
3389	4,224	-4,0335	-15,347	7,6122
3390	5,0311	-4,049	-15,941	7,8528
3391	5,8398	-4,0463	-16,52	8,0974
3392	6,6308	-4,011	-17,072	8,3307
3393	7,4652	-4,0245	-17,629	8,5575
3394	8,3008	-4,0349	-18,177	8,7583
3395	12,557	-4,0198	-20,74	9,0652
3396	9,1429	-4,0304	-18,701	8,9204
3397	11,699	-4,0187	-20,235	9,1173
3398	9,9924	-4,0265	-19,217	9,0393
3399	10,847	-4,0234	-19,731	9,1073
3400	12,085	-4,0202	-21,579	9,2079
3401	11,614	-4,0195	-22,422	9,3835
3402	11,228	-4,0223	-21,074	9,2699
3403	11,157	-4,0141	-23,277	9,5888
3404	10,763	-4,022	-21,916	9,456
3405	10,698	-4,0096	-24,132	9,8249
3406	10,306	-4,0218	-22,772	9,676
3407	10,376	-4,0248	-20,563	9,2681
3408	9,8554	-4,0227	-23,62	9,9251
3409	9,523	-4,0162	-20,047	9,2079
3410	9,9091	-4,0142	-21,403	9,4656
3411	8,678	-4,0165	-19,522	9,0946
3412	9,4572	-4,0187	-22,246	9,6963
3413	7,8467	-4,0371	-18,991	8,937
3414	9,0113	-4,0261	-23,096	9,96
3415	9,0646	-4,015	-20,88	9,414
3416	7,0197	-4,0417	-18,449	8,7415
3417	8,2203	-4,0078	-20,349	9,3081
3418	8,6115	-4,0125	-21,717	9,6555
3419	7,3905	-4,0111	-19,808	9,154
3420	8,1664	-4,0152	-22,557	9,93
3421	6,1887	-4,0103	-17,88	8,5121
3422	7,7734	-4,0062	-21,179	9,5577
3423	6,5723	-4,0194	-19,256	8,9605
3424	6,9543	-4,0181	-20,632	9,41
3425	7,3326	-4,0104	-22,013	9,8413
3426	5,384	-4,0252	-17,312	8,2699
3427	5,7544	-4,0138	-18,69	8,7347
3428	6,1395	-4,0202	-20,073	9,2196
3429	6,5229	-4,0235	-21,459	9,6997
3430	4,5706	-4,021	-16,73	8,0174
3431	4,957	-4,0463	-18,126	8,4933
3432	5,3268	-4,013	-19,5	8,9946
3433	5,7138	-4,0235	-20,893	9,5133
3434	4,1495	-4,0432	-17,529	8,2329
3435	3,7725	-4,0254	-16,143	7,7705
3436	4,5498	-4,0502	-18,923	8,7501
3437	4,9072	-4,0152	-20,313	9,2892
3438	3,3074	-4,027	-16,957	7,9802
3439	3,738	-4,0506	-18,334	8,4895
3440	4,1445	-4,0574	-19,734	9,0455
3441	2,9149	-4,0387	-17,801	8,2468
3442	3,3371	-4,0378	-19,142	8,7814
3443	2,9906	-4,0269	-15,543	7,5371
3444	2,5556	-4,049	-18,602	8,5372
3445	2,2429	-4,0416	-14,92	7,326
3446	2,4513	-4,0509	-16,354	7,7291
3447	1,9541	-4,0405	-18,285	8,3867
3448	1,528	-4,0636	-14,274	7,1445
3449	1,7957	-4,0391	-15,753	7,5136
3450	1,6011	-4,1203	-17,494	8,0759
3451	-8,8491	-3,9479	1,2144	9,6258
3452	0,79614	-4,0621	-13,571	6,997
3453	1,0702	-4,0667	-15,027	7,2903
3454	1,0842	-4,0482	-16,511	7,7172
3455	-8,3594	-3,9683	0,32834	9,5078
3456	0,4301	-4,0833	-14,326	7,1186
3457	0,51179	-4,0405	-15,777	7,4774
3458	3,2163e-002	-4,0903	-12,904	6,903
3459	-7,8974	-3,9791	-0,5633	9,3699
3460	-8,0367e-002	-4,0748	-15,06	7,2819
3461	-0,30351	-4,1116	-13,674	7,0037
3462	-7,4613	-3,9475	-1,5505	9,1993
3463	-0,61069	-4,105	-14,431	7,1434
3464	-7,1127	-3,9983	-2,3468	9,0386
3465	-1,0061	-4,1106	-14,026	7,0743
3466	-6,7591	-4,0146	-3,2421	8,8435
3467	-0,99133	-4,1235	-13,222	6,9562
3468	-6,4027	-4,0106	-4,1537	8,6217
3469	-1,1901	-4,1406	-12,369	6,8848
3470	-6,0288	-4,0318	-5,0528	8,384
3471	-1,8326	-4,0437	-11,53	6,8965
3472	-5,6265	-4,0147	-5,9134	8,1361
3473	-2,0962	-4,0413	-10,647	6,941
3474	-5,1833	-4,0198	-6,7651	7,8946
3475	-2,5208	-4,0622	-9,8797	7,0381
3476	-4,6831	-3,9975	-7,6307	7,646
3477	-3,1199	-4,0532	-9,141	7,1856
3478	-3,8916	-4,1001	-8,6408	7,3566
3479	-4,0486	-4,0208	-9,4325	7,269
3480	-3,7878	-4,0701	-9,8644	7,1875
3481	-3,3032	-4,0624	-10,533	7,0687
3482	-2,814	-4,0641	-11,276	6,9834
3483	-2,4382	-4,0473	-12,03	6,9529
3484	-2,0519	-4,0592	-12,831	6,9726
3485	-1,7426	-4,1098	-13,553	7,0363
3486	-1,4599	-4,0853	-14,388	7,1639
3487	-1,0628	-4,1237	-15,159	7,3229
3488	-0,57417	-4,087	-15,816	7,4899
3489	-5,4977e-002	-4,0543	-16,543	7,7122
3490	0,55004	-4,041	-17,376	8,0075
3491	0,88316	-4,0239	-18,081	8,2824
3492	1,5801	-4,018	-18,728	8,5575
3493	2,4407	-4,0226	-19,453	8,8805
3494	2,959	-4,0111	-19,925	9,092
3495	3,7125	-4,0321	-20,534	9,3646
3496	4,4886	-4,0106	-21,124	9,6136
3497	5,2826	-4,0176	-21,711	9,8367
3498	6,0885	-4,0204	-22,285	10,02
3499	6,9014	-4,0192	-22,846	10,156
3500	7,7315	-4,0319	-23,405	10,237
3501	10,245	-4,0103	-24,985	10,089
3502	8,5712	-4,0276	-23,938	10,252
3503	9,3993	-4,014	-24,465	10,205
3504	9,7927	-4,0106	-25,838	10,382
3505	8,9517	-4,0148	-25,313	10,514
3506	8,1274	-4,0292	-24,783	10,576
3507	7,2942	-4,0335	-24,241	10,572
3508	6,4764	-4,0335	-23,68	10,499
3509	5,6678	-4,0424	-23,12	10,373
3510	4,8746	-4,0474	-22,543	10,194
3511	4,0697	-4,0204	-21,942	9,9684
3512	3,3392	-4,0616	-21,361	9,7251
3513	2,5922	-4,0716	-20,752	9,4521
3514	1,8384	-4,0149	-20,071	9,1388
3515	1,0801	-4,0157	-19,44	8,8512
3516	0,39456	-4,0141	-18,751	8,5491
3517	-0,23521	-4,0311	-17,994	8,2407
3518	-0,77797	-4,0245	-17,229	7,9572
3519	-1,2647	-4,071	-16,485	7,7137
3520	-1,7209	-4,0948	-15,762	7,5124
3521	-2,1421	-4,0413	-14,965	7,3292
3522	-2,4863	-4,066	-14,181	7,1917
3523	-2,8671	-4,031	-13,399	7,1047
3524	-3,2407	-4,0396	-12,638	7,0683
3525	-3,6102	-4,0682	-11,891	7,0781
3526	-4,0407	-4,0815	-11,193	7,1389
3527	-4,4855	-4,0659	-10,457	7,2395
3528	-4,825	-4,0703	-9,7395	7,3608
3529	-5,1729	-4,0255	-8,9591	7,5165
3530	-5,6168	-3,9851	-8,1357	7,7286
3531	-6,1724	-3,9708	-7,3415	7,9811
3532	-6,5883	-3,9706	-6,4772	8,2354
3533	-6,9752	-3,9758	-5,6226	8,4898
3534	-7,3315	-3,9814	-4,7657	8,7377
3535	-7,6967	-3,9836	-3,9469	8,9723
3536	-8,0215	-3,9918	-3,0051	9,2017
3537	-9,6176	-3,9928	0,37131	9,923
3538	-8,3563	-3,9781	-2,2177	9,3927
3539	-9,1319	-3,9866	-0,4357	9,753
3540	-8,7176	-3,9801	-1,2866	9,5807
3541	-10,326	-4,0172	-0,34797	10,194
3542	-9,9119	-4,0236	-1,1648	10,003
3543	-9,6118	-4,018	-1,9134	9,8371
3544	-9,2941	-4,0074	-2,8183	9,624
3545	-8,9817	-4,0071	-3,6301	9,4057
3546	-8,6514	-4,0054	-4,4463	9,1652
3547	-8,3176	-4,0004	-5,2769	8,9136
3548	-7,9736	-4,0206	-6,1067	8,6582
3549	-7,5982	-3,9887	-7,0031	8,3843
3550	-7,1064	-4,0333	-7,7992	8,1152
3551	-6,6229	-4,0396	-8,637	7,8647
3552	-6,1065	-4,0339	-9,4177	7,6477
3553	-5,7176	-4,0648	-10,233	7,4755
3554	9,3435	-4,0128	-26,691	10,704
3555	-5,3073	-4,0733	-11,002	7,3545
3556	8,893	-4,0094	-27,544	11,057
3557	8,5075	-4,0168	-26,162	10,854
3558	-4,8692	-4,0751	-11,762	7,265
3559	8,077	-4,0296	-27,016	11,222
3560	7,6848	-4,0267	-25,622	10,928
3561	-4,4325	-4,0671	-12,494	7,2179
3562	7,2511	-4,0281	-26,462	11,311
3563	6,8633	-4,0354	-25,077	10,935
3564	-4,0559	-4,0382	-13,236	7,225
3565	6,4434	-4,0375	-25,907	11,325
3566	6,0441	-4,0302	-24,509	10,871
3567	-3,6624	-4,0331	-14,004	7,2789
3568	5,2336	-4,0285	-23,938	10,748
3569	5,6276	-4,0396	-25,343	11,272
3570	-3,2484	-4,0694	-14,795	7,3827
3571	4,4253	-4,0196	-23,352	10,57
3572	4,7936	-4,0174	-24,76	11,153
3573	-2,851	-4,0755	-15,581	7,5359
3574	3,6427	-4,0212	-22,758	10,349
3575	4,0228	-4,0385	-24,191	10,983
3576	-2,4248	-4,0733	-16,371	7,7326
3577	2,9154	-4,0561	-22,173	10,102
3578	3,1992	-4,0173	-23,575	10,753
3579	-2,0055	-4,0276	-17,118	7,9565
3580	2,158	-4,0686	-21,515	9,804
3581	2,4874	-4,044	-22,996	10,506
3582	-1,4951	-4,0438	-17,894	8,2225
3583	1,7393	-4,0605	-22,285	10,177
3584	1,4625	-4,0691	-20,843	9,4875
3585	-0,99991	-4,0247	-18,682	8,527
3586	0,63182	-4,2624	-20,199	9,1902
3587	1,0528	-4,1019	-21,609	9,8548
3588	-0,3219	-4,0462	-19,689	8,956
3589	0,43971	-4,1687	-20,937	9,5309
3590	-0,28373	-4,0216	-20,248	9,2125
3591	-0,32294	-4,0674	-21,331	9,7165
3592	-0,1029	-4,1016	-21,674	9,8818
3593	0,62727	-4,0932	-22,395	10,24
3594	1,289	-4,0576	-23,123	10,6
3595	2,0078	-4,0301	-23,797	10,921
3596	2,7723	-4,0189	-24,436	11,203
3597	3,5678	-4,027	-25,012	11,417
3598	4,3604	-4,0182	-25,585	11,588
3599	8,4473	-4,0064	-28,393	11,439
3600	5,1857	-4,0253	-26,163	11,701
3601	7,6296	-4,0168	-27,852	11,622
3602	6,0051	-4,0288	-26,733	11,748
3603	6,8157	-4,0237	-27,298	11,724
3604	8,0049	-4,008	-29,245	11,855
3605	7,5546	-4,0068	-30,086	12,308
3606	7,1942	-4,0192	-28,694	12,055
3607	7,0969	-4,0096	-30,921	12,805
3608	6,7458	-4,0135	-29,524	12,528
3609	6,4122	-4,0406	-28,136	12,163
3610	6,3025	-4,0302	-30,354	13,041
3611	5,9458	-4,0193	-28,954	12,653
3612	5,6057	-4,0461	-27,566	12,197
3613	5,5112	-4,0339	-29,77	13,173
3614	4,8011	-4,0476	-26,985	12,152
3615	5,1557	-4,0234	-28,376	12,686
3616	3,9218	-4,0106	-26,417	12,055
3617	4,3747	-4,0063	-27,792	12,633
3618	4,76	-4,0701	-29,182	13,194
3619	3,6203	-4,0673	-27,196	12,503
3620	4,0264	-4,0837	-28,602	13,132
3621	3,3447	-4,0987	-28,005	12,978
3622	3,0996	-4,0287	-25,825	11,875
3623	2,743	-4,0994	-27,672	12,911
3624	2,2236	-4,	-25,244	11,657
3625	2,5947	-4,0781	-26,844	12,476
3626	1,6917	-4,0362	-26,072	12,141
3627	1,3424	-4,0819	-26,794	12,567
3628	1,7999	-4,2703	-27,301	12,826
3629	2,3446	-4,0982	-28,079	13,201
3630	2,8943	-4,1093	-28,763	13,499
3631	6,6196	-4,0171	-31,741	13,356
3632	3,5708	-4,0764	-29,351	13,663
3633	5,8291	-4,0418	-31,158	13,608
3634	4,3216	-4,0733	-29,972	13,751
3635	5,066	-4,0569	-30,571	13,737
3636	6,123	-4,0262	-32,558	13,977
3637	5,3266	-4,042	-31,949	14,244
3638	4,5682	-4,0578	-31,339	14,365
3639	3,8343	-4,073	-30,725	14,354
3640	3,1165	-4,0891	-30,103	14,233
3641	2,4323	-4,1054	-29,443	14,002
3642	1,8352	-4,0861	-28,724	13,659
3643	1,358	-4,1097	-28,018	13,281
3644	1,1717	-4,0095	-27,3	12,87
3645	1,4731	-3,9954	-24,654	11,389
3646	0,7042	-4,0491	-26,488	12,425
3647	0,65006	-4,04	-23,918	11,023
3648	0,34582	-4,0312	-25,53	11,897
3649	0,14084	-4,0508	-23,189	10,639
3650	-6,8056e-002	-4,0344	-24,668	11,425
3651	-0,48004	-4,16	-22,385	10,238
3652	-0,35862	-4,1488	-24,071	11,105
3653	-0,93732	-4,0081	-21,625	9,859
3654	-0,80534	-4,1242	-23,193	10,646
3655	-1,1143	-4,0931	-20,849	9,4907
3656	-1,4971	-4,0586	-22,301	10,187
3657	-1,409	-4,0588	-20,141	9,1668
3658	-1,881	-4,071	-21,483	9,7886
3659	-1,8076	-4,0365	-19,325	8,8128
3660	-2,2333	-4,0502	-20,688	9,4214
3661	-2,2898	-4,032	-18,524	8,4952
3662	-2,6407	-4,0409	-19,919	9,0861
3663	-2,7523	-4,0357	-17,742	8,2163
3664	-3,0693	-4,0433	-19,145	8,7729
3665	-3,2026	-4,0336	-16,961	7,973
3666	-3,5138	-4,0488	-18,359	8,4859
3667	-3,6118	-4,0622	-16,187	7,7684
3668	-3,9566	-4,0526	-17,573	8,2327
3669	-11,114	-4,0456	-0,93389	10,5
3670	-4,0365	-4,0609	-15,397	7,603
3671	-4,3976	-4,0542	-16,78	8,0158
3672	-10,817	-4,0227	-1,6534	10,325
3673	-4,4713	-4,0223	-14,599	7,4844
3674	-4,8265	-4,0544	-15,988	7,8402
3675	-10,553	-4,0307	-2,419	10,141
3676	-4,871	-4,0359	-13,824	7,4144
3677	-5,2798	-4,0165	-15,179	7,7098
3678	-10,276	-4,0393	-3,2392	9,9235
3679	-5,2663	-4,0626	-13,069	7,3935
3680	-5,6945	-4,0271	-14,393	7,6275
3681	-9,9813	-4,0467	-4,0268	9,686
3682	-5,6905	-4,0659	-12,303	7,422
3683	-6,0917	-4,0561	-13,621	7,592
3684	-9,6569	-4,0418	-4,8436	9,4222
3685	-6,1305	-4,067	-11,53	7,5016
3686	-6,522	-4,0576	-12,838	7,6085
3687	-9,3063	-4,0187	-5,6842	9,1434
3688	-6,5513	-4,0599	-10,742	7,6239
3689	-6,9559	-4,0584	-12,053	7,6743
3690	-8,9759	-4,0157	-6,5618	8,8643
3691	-7,0129	-4,056	-9,9495	7,7832
3692	-7,4116	-4,0469	-11,249	7,7905
3693	-8,5549	-4,0215	-7,3624	8,5865
3694	-7,4869	-4,0652	-9,1688	7,9995
3695	-7,7952	-4,056	-10,488	7,9311
3696	-8,138	-4,0464	-8,2936	8,3023
3697	-8,1972	-4,0662	-9,7171	8,1134
3698	-8,891	-4,0877	-9,1838	8,3794
3699	-9,33	-4,1071	-8,8433	8,5592
3700	-9,4134	-4,1095	-8,3196	8,6735
3701	-9,636	-4,1096	-7,5844	8,8761
3702	-9,9646	-4,0408	-6,8046	9,1386
3703	-10,324	-4,0364	-6,033	9,423
3704	-10,645	-4,0606	-5,2094	9,7131
3705	-10,98	-4,0626	-4,3921	10,005
3706	-12,078	-4,289	-1,3882	10,918
3707	-11,28	-4,0415	-3,6831	10,255
3708	-11,807	-4,0396	-2,0726	10,721
3709	-11,561	-4,0476	-2,8376	10,514
3710	-13,019	-4,0335	-1,5765	11,37
3711	-12,796	-4,0194	-2,3589	11,167
3712	-12,584	-4,0534	-3,2008	10,933
3713	-12,309	-4,0486	-3,9907	10,655
3714	-11,966	-4,0543	-4,7233	10,352
3715	-11,648	-4,076	-5,5095	10,046
3716	-11,346	-4,0527	-6,3133	9,7462
3717	-10,992	-4,0583	-7,0635	9,4477
3718	-10,619	-4,133	-7,8028	9,1633
3719	-10,318	-4,0993	-8,4969	8,9276
3720	-9,9992	-4,1216	-9,1562	8,7144
3721	-9,5397	-4,1062	-9,7384	8,4891
3722	-9,116	-4,0696	-10,327	8,2995
3723	-8,6837	-4,0597	-11,03	8,1198
3724	-8,2295	-4,0559	-11,809	7,9701
3725	-7,8173	-4,0364	-12,562	7,8731
3726	-7,3633	-4,0504	-13,37	7,8142
3727	-6,9325	-4,0488	-14,166	7,809
3728	-6,5175	-4,0247	-14,951	7,8532
3729	-6,0906	-4,0178	-15,75	7,9454
3730	-5,6523	-4,0247	-16,554	8,0842
3731	-5,1892	-4,0469	-17,365	8,2679
3732	-4,7602	-4,0458	-18,165	8,4927
3733	-4,3152	-4,0442	-18,96	8,7524
3734	-3,879	-4,0433	-19,755	9,0461
3735	-3,4636	-4,0403	-20,538	9,3646
3736	-3,0486	-4,0483	-21,324	9,7102
3737	-2,6361	-4,0552	-22,121	10,083
3738	-2,2184	-4,0579	-22,919	10,477
3739	-1,752	-4,0484	-23,726	10,896
3740	-1,2978	-4,0391	-24,542	11,336
3741	-0,87962	-4,0273	-25,348	11,781
3742	-0,47195	-4,0212	-26,1	12,21
3743	-0,17513	-4,0502	-26,974	12,717
3744	0,31752	-4,048	-27,889	13,262
3745	0,78717	-4,0558	-28,677	13,734
3746	1,3179	-4,0651	-29,412	14,164
3747	1,9581	-4,0687	-30,134	14,543
3748	2,6228	-4,075	-30,809	14,83
3749	3,3107	-4,0706	-31,464	15,015
3750	5,5635	-4,0204	-33,31	14,689
3751	4,0351	-4,0564	-32,087	15,053
3752	4,7761	-4,0407	-32,699	14,961
3753	4,9841	-4,0155	-34,065	15,498
3754	4,1961	-4,0357	-33,444	15,773
3755	3,4622	-4,0494	-32,819	15,833
3756	2,7518	-4,0674	-32,184	15,732
3757	2,0874	-4,0671	-31,523	15,477
3758	1,4418	-4,0524	-30,833	15,121
3759	0,79992	-4,0387	-30,108	14,684
3760	0,21653	-4,0403	-29,346	14,193
3761	-0,32002	-4,0354	-28,525	13,658
3762	-0,80477	-4,0327	-27,663	13,106
3763	-1,2579	-4,0174	-26,787	12,567
3764	-1,6601	-4,0202	-25,95	12,074
3765	-2,0877	-4,0318	-25,14	11,611
3766	-2,5363	-4,0415	-24,336	11,168
3767	-2,9814	-4,0465	-23,54	10,749
3768	-3,4309	-4,0297	-22,741	10,35
3769	-3,8624	-4,0254	-21,943	9,9746
3770	-4,2851	-4,0257	-21,146	9,6246
3771	-4,6926	-4,0411	-20,357	9,3043
3772	-5,1256	-4,04	-19,556	9,0084
3773	-5,5661	-4,0399	-18,748	8,7434
3774	-6,0118	-4,0402	-17,938	8,515
3775	-6,449	-4,0403	-17,133	8,3274
3776	-6,9139	-4,0183	-16,306	8,181
3777	-7,3506	-4,0224	-15,498	8,0824
3778	-7,768	-4,0419	-14,701	8,0298
3779	-8,2165	-4,0444	-13,894	8,0296
3780	-8,6638	-4,0423	-13,096	8,0788
3781	-9,0997	-4,051	-12,326	8,1733
3782	-9,5457	-4,0576	-11,566	8,3144
3783	-9,9832	-4,0682	-10,856	8,4882
3784	-10,433	-4,0947	-10,202	8,6946
3785	-10,839	-4,1043	-9,5339	8,9179
3786	-11,211	-4,1173	-8,8064	9,1689
3787	-11,598	-4,1157	-8,0873	9,4495
3788	-14,076	-4,0474	-1,7838	11,928
3789	-12,003	-4,0679	-7,3444	9,7644
3790	-13,854	-4,0539	-2,6136	11,686
3791	-12,336	-4,0676	-6,5833	10,078
3792	-13,614	-4,0532	-3,4429	11,406
3793	-12,664	-4,0552	-5,8001	10,408
3794	-13,328	-4,052	-4,2377	11,09
3795	-12,988	-4,0467	-5,0032	10,747
3796	-14,997	-4,0121	-1,8956	12,451
3797	-14,811	-4,016	-2,7773	12,195
3798	-14,575	-4,0275	-3,6243	11,881
3799	-14,341	-4,0522	-4,4654	11,549
3800	-14,04	-4,0537	-5,2805	11,178
3801	-13,676	-4,05	-6,0713	10,788
3802	-13,334	-4,0565	-6,8605	10,421
3803	-12,985	-4,0668	-7,6364	10,075
3804	-12,568	-4,0943	-8,4051	9,7311
3805	-12,159	-4,0954	-9,1515	9,4219
3806	-11,732	-4,0943	-9,8869	9,1427
3807	-11,298	-4,0784	-10,606	8,8981
3808	-10,873	-4,0687	-11,35	8,6894
3809	-10,411	-4,0597	-12,081	8,5098
3810	-9,9748	-4,0451	-12,825	8,3782
3811	-9,5186	-4,0451	-13,62	8,2853
3812	-9,0714	-4,0396	-14,423	8,2425
3813	-8,6216	-4,0364	-15,231	8,2484
3814	-8,1899	-4,0216	-16,035	8,3037
3815	-7,7502	-4,017	-16,85	8,4058
3816	-7,2853	-4,0343	-17,681	8,5544
3817	-6,8361	-4,0345	-18,502	8,7447
3818	-6,4064	-4,0255	-19,306	8,9702
3819	-5,9612	-4,0288	-20,122	9,2344
3820	-5,5114	-4,0377	-20,945	9,5347
3821	-5,0781	-4,0399	-21,751	9,8594
3822	-4,6437	-4,0417	-22,555	10,212
3823	-4,2132	-4,0422	-23,354	10,587
3824	-3,7648	-4,0408	-24,153	10,988
3825	-3,3258	-4,0368	-24,954	11,414
3826	-2,9054	-4,0247	-25,762	11,865
3827	-2,4537	-4,0154	-26,603	12,36
3828	-1,9998	-4,007	-27,455	12,886
3829	-1,4817	-4,016	-28,353	13,475
3830	4,3533	-4,0252	-34,807	16,463
3831	-0,89014	-4,0422	-29,21	14,07
3832	3,6071	-4,0387	-34,169	16,675
3833	-0,3077	-4,0661	-30,043	14,667
3834	2,8839	-4,0529	-33,547	16,688
3835	0,26717	-4,0349	-30,807	15,219
3836	2,1793	-4,0643	-32,907	16,512
3837	0,88283	-4,0799	-31,566	15,757
3838	1,5216	-4,074	-32,248	16,185
3839	3,7041	-4,0308	-35,508	17,553
3840	2,9734	-4,0414	-34,901	17,729
3841	3,0318	-4,0282	-36,25	18,855
3842	2,2728	-4,0481	-34,268	17,638
3843	2,3388	-4,0434	-35,637	18,911
3844	1,595	-4,0618	-33,618	17,345
3845	1,6508	-4,0515	-34,995	18,682
3846	0,94218	-4,0588	-32,948	16,904
3847	0,98473	-4,0578	-34,337	18,238
3848	0,32272	-4,0642	-32,25	16,364
3849	0,34165	-4,049	-33,652	17,646
3850	-0,26867	-4,0735	-31,539	15,783
3851	-0,27119	-4,0498	-32,943	16,976
3852	-0,87357	-4,0223	-30,748	15,133
3853	-0,85213	-4,0715	-32,214	16,283
3854	-1,537	-4,0614	-30,072	14,574
3855	-1,4402	-4,0199	-31,442	15,566
3856	-1,9498	-4,034	-30,676	14,905
3857	-2,4013	-4,014	-30,174	14,462
3858	-2,2017	-4,0182	-29,002	13,774
3859	-2,7638	-4,0014	-28,099	13,142
3860	-3,2709	-4,0126	-27,184	12,555
3861	-3,7036	-4,0268	-26,379	12,072
3862	-4,1333	-4,0341	-25,567	11,613
3863	-4,5747	-4,0367	-24,759	11,182
3864	-5,0101	-4,0373	-23,955	10,78
3865	-5,4537	-4,0369	-23,14	10,4
3866	-5,8966	-4,0356	-22,329	10,049
3867	-6,3395	-4,0337	-21,515	9,7267
3868	-6,7852	-4,0319	-20,69	9,4313
3869	-7,2519	-4,0121	-19,857	9,1669
3870	-7,6809	-4,0297	-19,044	8,9445
3871	-8,1295	-4,0293	-18,219	8,7565
3872	-8,5985	-4,0122	-17,382	8,6089
3873	-9,0286	-4,0303	-16,571	8,5068
3874	-9,4884	-4,0251	-15,743	8,4503
3875	-9,9304	-4,0352	-14,934	8,4408
3876	-16,068	-4,0332	-2,0863	13,068
3877	-10,383	-4,0407	-14,122	8,4802
3878	-15,809	-4,0224	-2,9678	12,739
3879	-10,848	-4,0351	-13,308	8,5712
3880	-15,574	-4,033	-3,8373	12,388
3881	-11,295	-4,0542	-12,553	8,7037
3882	-15,342	-4,0505	-4,6915	12,014
3883	-11,756	-4,0524	-11,77	8,8851
3884	-15,005	-4,0523	-5,5208	11,582
3885	-12,227	-4,065	-11,027	9,1082
3886	-14,688	-4,0542	-6,3392	11,171
3887	-12,65	-4,0796	-10,268	9,3608
3888	-14,333	-4,0567	-7,146	10,763
3889	-13,078	-4,0873	-9,5066	9,6577
3890	-13,956	-4,0602	-7,9418	10,373
3891	-13,518	-4,076	-8,7373	9,9911
3892	-17,034	-4,0369	-2,2611	13,622
3893	-16,832	-4,0406	-3,164	13,303
3894	-16,587	-4,0449	-4,0493	12,907
3895	-16,301	-4,0476	-4,9193	12,459
3896	-15,987	-4,0492	-5,7765	11,987
3897	-15,647	-4,0501	-6,6176	11,517
3898	-15,286	-4,051	-7,449	11,064
3899	-14,897	-4,0528	-8,2682	10,634
3900	-14,444	-4,0617	-9,0819	10,227
3901	-14,035	-4,0563	-9,861	9,8796
3902	-13,55	-4,068	-10,655	9,557
3903	-13,094	-4,0559	-11,435	9,2798
3904	-12,639	-4,0468	-12,209	9,0586
3905	-12,181	-4,0375	-12,99	8,8774
3906	-11,717	-4,0336	-13,794	8,7405
3907	-11,254	-4,0357	-14,619	8,6528
3908	-10,807	-4,0229	-15,426	8,6151
3909	-10,36	-4,0105	-16,245	8,6244
3910	-9,9036	-4,0112	-17,076	8,6799
3911	-9,4443	-4,0159	-17,911	8,7804
3912	-8,9827	-4,0229	-18,746	8,9239
3913	-8,5332	-4,0191	-19,576	9,1066
3914	-8,0954	-4,0087	-20,399	9,3241
3915	-7,6408	-4,0127	-21,231	9,5793
3916	-7,1888	-4,0172	-22,06	9,8671
3917	-6,7354	-4,0227	-22,886	10,186
3918	-6,2753	-4,0319	-23,715	10,537
3919	-5,8279	-4,0326	-24,535	10,914
3920	-5,3831	-4,033	-25,355	11,32
3921	-4,9479	-4,0321	-26,167	11,751
3922	-4,5022	-4,0272	-26,983	12,216
3923	2,3694	-4,035	-36,997	20,341
3924	-4,0602	-4,0185	-27,815	12,721
3925	1,6878	-4,0418	-36,382	20,244
3926	-3,605	-4,0131	-28,673	13,281
3927	1,0151	-4,0465	-35,734	19,814
3928	-3,2077	-4,0196	-29,509	13,857
3929	0,35469	-4,0524	-35,062	19,164
3930	-2,9792	-4,0474	-30,521	14,528
3931	-0,28407	-4,0575	-34,374	18,397
3932	-2,5236	-4,0342	-31,325	15,202
3933	-0,89633	-4,0633	-33,625	17,541
3934	-2,0215	-4,0364	-32,097	15,922
3935	-1,4757	-4,067	-32,88	16,722
3936	-17,992	-4,0279	-2,4776	14,131
3937	-17,805	-4,0368	-3,3668	13,84
3938	-17,544	-4,0408	-4,2671	13,399
3939	-17,189	-4,024	-5,1817	12,847
3940	-16,866	-4,0237	-6,0621	12,315
3941	-16,52	-4,0232	-6,9279	11,79
3942	-16,156	-4,0242	-7,7782	11,295
3943	-15,82	-4,044	-8,6101	10,856
3944	-15,398	-4,045	-9,4345	10,431
3945	-14,932	-4,0465	-10,251	10,046
3946	-14,456	-4,0474	-11,051	9,7119
3947	-13,982	-4,0469	-11,858	9,4282
3948	-13,509	-4,0423	-12,661	9,1938
3949	-13,044	-4,041	-13,471	9,0111
3950	-12,583	-4,0359	-14,286	8,8764
3951	-12,123	-4,0308	-15,101	8,7905
3952	-11,676	-4,0182	-15,922	8,7529
3953	-11,214	-4,0203	-16,758	8,7608
3954	-10,76	-4,0148	-17,591	8,814
3955	1,7136	-4,0193	-37,755	22,029
3956	-10,307	-4,0097	-18,425	8,91
3957	1,0356	-4,0212	-37,104	21,645
3958	-9,8449	-4,013	-19,265	9,0477
3959	0,3659	-4,0173	-36,425	20,916
3960	-9,395	-4,0074	-20,099	9,2224
3961	-0,29676	-4,0298	-35,73	19,991
3962	-8,9422	-4,0057	-20,934	9,4335
3963	-0,94121	-4,0306	-35,012	18,984
3964	-8,4649	-4,0246	-21,784	9,6858
3965	-1,5599	-4,0317	-34,272	17,978
3966	-8,0298	-4,0113	-22,607	9,9595
3967	-2,1456	-4,0212	-33,505	17,021
3968	-7,5578	-4,0263	-23,453	10,277
3969	-2,6963	-4,0155	-32,707	16,133
3970	-7,1066	-4,0273	-24,277	10,616
3971	-3,1965	-4,0185	-31,886	15,331
3972	-6,6568	-4,0284	-25,109	10,988
3973	-3,6316	-4,0223	-31,018	14,602
3974	-6,2091	-4,0294	-25,932	11,388
3975	-4,037	-4,0175	-30,133	13,942
3976	-5,7643	-4,0295	-26,75	11,817
3977	-4,4276	-4,0164	-29,245	13,339
3978	-5,3128	-4,0271	-27,576	12,285
3979	-4,8584	-4,0212	-28,405	12,792
3980	1,0289	-4,0201	-38,52	23,877
3981	0,38805	-4,027	-37,849	23,075
3982	-0,30124	-4,0198	-37,104	21,925
3983	-0,97349	-4,0224	-36,385	20,672
3984	-1,6302	-4,0382	-35,674	19,444
3985	-2,2606	-4,0372	-34,923	18,258
3986	-2,8534	-4,0385	-34,142	17,179
3987	-3,4008	-4,0406	-33,331	16,219
3988	-3,9124	-4,0173	-32,453	15,34
3989	-4,3814	-4,0329	-31,589	14,59
3990	-4,8074	-4,0234	-30,701	13,919
3991	-5,238	-4,0202	-29,831	13,316
3992	-5,6928	-4,0186	-28,984	12,763
3993	-6,1451	-4,0193	-28,146	12,26
3994	-6,5947	-4,0222	-27,315	11,8
3995	-7,0391	-4,0257	-26,491	11,38
3996	-7,4982	-4,0221	-25,655	10,985
3997	-7,9403	-4,0233	-24,828	10,63
3998	-8,4033	-4,0222	-23,992	10,298
3999	-8,8603	-4,0215	-23,15	9,997
4000	-9,3338	-4,0082	-22,3	9,7239
4001	-9,7949	-4,0043	-21,457	9,4876
4002	-10,248	-4,0072	-20,619	9,2867
4003	-10,71	-4,0064	-19,776	9,1194
4004	-11,171	-4,0065	-18,932	8,9894
4005	-11,63	-4,008	-18,089	8,8991
4006	-12,077	-4,0216	-17,26	8,8507
4007	-12,536	-4,0234	-16,427	8,8448
4008	-12,999	-4,0264	-15,586	8,8845
4009	-18,982	-4,0114	-2,7023	14,696
4010	-13,455	-4,0303	-14,755	8,9704
4011	-18,771	-4,0286	-3,5746	14,391
4012	-13,912	-4,0345	-13,921	9,1053
4013	-18,429	-4,0252	-4,5281	13,854
4014	-14,383	-4,0378	-13,112	9,2889
4015	-18,118	-4,0244	-5,447	13,258
4016	-14,856	-4,0393	-12,294	9,5244
4017	-17,783	-4,0195	-6,3539	12,642
4018	-15,332	-4,039	-11,472	9,8141
4019	-17,45	-4,0221	-7,2401	12,06
4020	-15,813	-4,037	-10,655	10,158
4021	-17,098	-4,0279	-8,1122	11,515
4022	-16,288	-4,0347	-9,8227	10,561
4023	-16,702	-4,0302	-8,9725	11,011
4024	0,31738	-4,0328	-39,227	25,254
4025	-0,30224	-4,0245	-38,457	24,09
4026	-0,99165	-4,0199	-37,737	22,638
4027	-1,6747	-4,0359	-37,004	21,047
4028	-2,3564	-4,0253	-36,285	19,577
4029	-2,9993	-4,0199	-35,532	18,251
4030	-3,597	-4,0199	-34,732	17,084
4031	-4,1436	-4,0219	-33,882	16,075
4032	-4,6616	-4,0215	-33,019	15,203
4033	-5,1427	-4,0217	-32,15	14,449
4034	-5,6057	-4,019	-31,272	13,78
4035	-6,0582	-4,0186	-30,404	13,183
4036	-6,5086	-4,02	-29,552	12,646
4037	-6,9619	-4,0215	-28,712	12,157
4038	-7,4227	-4,0221	-27,876	11,707
4039	-7,8794	-4,0218	-27,042	11,295
4040	-8,34	-4,0185	-26,198	10,914
4041	-8,7957	-4,0196	-25,362	10,568
4042	-9,2483	-4,0186	-24,519	10,253
4043	-9,7161	-4,018	-23,676	9,9651
4044	-10,182	-4,0121	-22,825	9,7074
4045	-10,644	-4,0091	-21,978	9,4832
4046	-19,82	-4,0301	-3,0094	15,334
4047	-11,089	-4,0169	-21,14	9,2952
4048	-19,617	-4,0141	-3,8744	14,989
4049	-11,569	-4,0078	-20,285	9,1343
4050	-19,315	-4,0179	-4,8043	14,369
4051	-12,022	-4,0161	-19,443	9,0139
4052	-18,992	-4,0136	-5,7418	13,636
4053	-12,486	-4,0175	-18,599	8,9297
4054	-18,653	-4,0066	-6,6657	12,915
4055	-12,946	-4,0191	-17,751	8,8851
4056	-18,343	-4,0137	-7,5707	12,262
4057	-13,412	-4,0203	-16,91	8,8826
4058	-18,051	-4,0239	-8,4665	11,677
4059	-13,871	-4,0221	-16,068	8,924
4060	-17,579	-4,0124	-9,3532	11,103
4061	-14,327	-4,0248	-15,222	9,0115
4062	-17,127	-4,0103	-10,22	10,619
4063	-14,787	-4,0279	-14,391	9,1459
4064	-16,669	-4,0135	-11,067	10,207
4065	-15,257	-4,0307	-13,567	9,3291
4066	-16,198	-4,021	-11,904	9,8568
4067	-15,716	-4,0321	-12,734	9,5647
4068	-20,626	-3,9611	-3,4295	16,378
4069	-20,485	-4,0153	-4,1439	15,912
4070	-20,189	-4,0243	-5,1029	14,976
4071	-19,854	-4,0142	-6,0477	14,02
4072	-19,528	-4,0112	-6,9614	13,171
4073	-19,212	-4,01	-7,8891	12,41
4074	-18,879	-4,013	-8,8217	11,734
4075	-18,479	-4,0122	-9,7513	11,126
4076	-18,008	-4,008	-10,643	10,61
4077	-17,542	-4,0101	-11,502	10,186
4078	-17,072	-4,0161	-12,348	9,8324
4079	-16,596	-4,026	-13,189	9,5406
4080	-16,129	-4,0244	-14,029	9,3048
4081	-15,671	-4,0222	-14,869	9,1219
4082	-15,204	-4,0201	-15,705	8,9886
4083	-14,745	-4,0186	-16,55	8,901
4084	-14,282	-4,0178	-17,403	8,8576
4085	-13,823	-4,0151	-18,241	8,857
4086	-13,361	-4,0156	-19,087	8,8959
4087	-0,29236	-4,0586	-39,581	25,658
4088	-12,891	-4,0142	-19,945	8,9741
4089	-0,97583	-4,0322	-39,032	24,703
4090	-12,436	-4,0074	-20,785	9,0852
4091	-1,6887	-4,0419	-38,309	22,814
4092	-11,961	-4,0144	-21,644	9,2349
4093	-2,4085	-4,0326	-37,587	20,981
4094	-11,497	-4,0149	-22,501	9,4157
4095	-3,0925	-4,0095	-36,913	19,394
4096	-11,036	-4,0151	-23,346	9,6256
4097	-3,7694	-3,9976	-36,137	17,93
4098	-10,57	-4,0153	-24,196	9,8676
4099	-4,3693	-3,9995	-35,319	16,744
4100	-10,109	-4,0158	-25,046	10,139
4101	-4,9228	-4,005	-34,457	15,742
4102	-9,6487	-4,0163	-25,888	10,438
4103	-5,4529	-4,0114	-33,568	14,88
4104	-9,1804	-4,0169	-26,735	10,771
4105	-5,9348	-4,0117	-32,698	14,16
4106	-8,7177	-4,0177	-27,584	11,135
4107	-6,4215	-4,0132	-31,825	13,511
4108	-8,2604	-4,0182	-28,427	11,528
4109	-6,8818	-4,015	-30,958	12,94
4110	-7,7981	-4,018	-29,267	11,959
4111	-7,3405	-4,0169	-30,108	12,426
4112	4,8273	-2,0517	-45,052	17,836
4113	4,9765	-1,0035	-45,318	16,456
4114	5,0408	-2,9748	-45,063	16,527
4115	4,7465	-3,0331	-46,135	15,208
4116	4,4037	-3,2066	-47,075	13,119
4117	3,9543	-4,0168	-47,931	10,807
4118	4,6747	-1,0139	-46,217	15,327
4119	4,38	-2,0327	-47,144	12,938
4120	3,9317	-3,2381	-48,015	10,522
4121	4,2481	-1,0188	-47,149	13,245
4122	3,5459	-2,1082	-48,486	9,1896
4123	3,8362	-1,0129	-48,061	10,429
4124	3,0524	-0,88873	-48,982	7,948
4125	2,8906	-1,9906	-49,096	7,5828
4126	2,2662	-0,99657	-49,501	6,3204
4127	1,8449	-2,0891	-49,656	5,8697
4128	0,50352	-0,98998	-49,863	4,2357
4129	0,61604	-1,826	-49,916	4,4103
4130	-0,56913	-0,99465	-49,885	4,3813
4131	-0,58866	-1,979	-49,797	4,2368
4132	-1,5694	-0,99932	-49,692	5,3488
4133	-1,6344	-2,0105	-49,563	5,2627
4134	-0,82201	-3,0264	-40,259	22,916
4135	-1,8226	-3,0379	-40,648	22,779
4136	-4,3317	-3,9006	-42,493	21,213
4137	-3,4719	-3,0581	-41,696	22,624
4138	-2,5638	-1,0916	-49,443	6,7068
4139	-4,3773	-3,1379	-42,643	20,692
4140	-2,6956	-2,015	-48,95	7,5864
4141	-5,0656	-2,9701	-43,971	17,327
4142	-4,8822	-2,9958	-45,176	17,074
4143	-4,6477	-3,0002	-46,134	15,691
4144	3,0692	-2,8058	-48,946	7,9181
4145	-4,277	-3,0014	-47,076	13,495
4146	2,1182	-2,7435	-49,654	6,1205
4147	-3,6633	-2,9991	-48,003	10,861
4148	0,86749	-2,8277	-49,774	4,4155
4149	-2,9049	-2,91	-48,78	8,0833
4150	-0,60729	-3,1089	-49,709	3,9936
4151	-1,7625	-3,0105	-49,434	5,5129
4152	-24,694	-0,98187	5,9404	19,025
4153	-21,299	-0,98438	4,5019	17,119
4154	-23,907	-0,99571	5,6164	19,706
4155	-22,14	-0,96556	4,8751	18,46
4156	-23,011	-0,9857	5,2746	19,418
4157	11,505	-4,0163	-26,868	9,9048
4158	5,5784	-3,9939	-41,958	15,657
4159	6,1444	-4,0025	-40,998	14,557
4160	6,6713	-4,0148	-40,093	13,928
4161	7,1621	-4,014	-39,175	13,511
4162	7,6131	-4,005	-38,255	13,169
4163	8,0641	-3,9997	-37,362	12,812
4164	8,5239	-3,9905	-36,493	12,433
4165	11,01	-3,9887	33,919	11,462
4166	10,523	-3,9848	34,788	11,938
4167	8,997	-3,9973	-35,627	12,044
4168	11,485	-3,9925	33,047	11,036
4169	10,039	-3,9859	35,655	12,464
4170	9,4833	-4,0009	-34,763	11,649
4171	11,959	-3,9951	32,175	10,645
4172	9,5693	-3,9881	36,525	13,047
4173	9,9656	-4,0061	-33,905	11,27
4174	12,433	-3,9965	31,302	10,284
4175	9,1154	-3,9917	37,394	13,696
4176	10,435	-4,0053	-33,043	10,915
4177	12,906	-3,9972	30,429	9,9486
4178	8,7003	-4,0163	38,306	14,416
4179	10,905	-4,0105	-32,183	10,577
4180	13,38	-3,9977	29,555	9,6374
4181	8,3203	-4,023	39,197	15,179
4182	11,378	-4,0199	-31,321	10,254
4183	13,853	-3,9979	28,681	9,3485
4184	7,897	-4,065	40,141	16,126
4185	11,839	-4,0188	-30,458	9,9574
4186	14,327	-3,9979	27,806	9,0815
4187	7,5009	-4,0774	41,065	17,111
4188	12,299	-4,0175	-29,594	9,6798
4189	14,8	-3,9979	26,931	8,8359
4190	7,0765	-4,0783	41,98	18,205
4191	12,76	-4,0165	-28,73	9,4209
4192	15,274	-3,9983	26,056	8,6123
4193	6,6049	-4,0624	42,916	19,474
4194	13,221	-4,0157	-27,866	9,1814
4195	6,2141	-4,0659	43,759	20,633
4196	5,8592	-4,0592	44,587	21,438
4197	15,748	-3,9989	25,181	8,4113
4198	5,0479	-3,9859	45,096	27,094
4199	13,683	-4,015	-27,001	8,9616
4200	4,8509	-4,0156	46,29	24,766
4201	16,221	-3,9996	24,306	8,2336
4202	4,489	-3,6754	47,324	22,283
4203	14,145	-4,0145	-26,136	8,7617
4204	16,695	-4,0003	23,432	8,0806
4205	5,3869	-4,0372	47,474	17,701
4206	14,6	-4,0107	-25,274	8,5856
4207	5,4897	-4,1338	46,628	19,313
4208	17,169	-4,0011	22,557	7,9538
4209	5,6616	-4,1714	45,705	20,739
4210	15,063	-4,0116	-24,41	8,4281
4211	6,4415	-4,0574	44,955	18,565
4212	17,643	-4,0018	21,683	7,8548
4213	6,9689	-4,0665	44,185	17,689
4214	15,528	-4,0121	-23,547	8,2926
4215	7,4069	-4,0406	43,292	17,152
4216	18,117	-4,0026	20,808	7,7856
4217	7,869	-4,0445	42,417	16,434
4218	15,995	-4,0127	-22,683	8,1811
4219	8,3072	-4,0365	41,507	15,712
4220	18,59	-4,0035	19,934	7,7486
4221	8,7306	-4,0284	40,589	14,989
4222	16,463	-4,016	-21,809	8,096
4223	9,1453	-4,0183	39,679	14,3
4224	19,064	-4,0044	19,06	7,7464
4225	9,5598	-4,0074	38,785	13,655
4226	16,927	-4,0151	-20,943	8,0396
4227	10,007	-3,998	37,908	13,04
4228	19,538	-4,0053	18,187	7,7822
4229	10,472	-3,9946	37,035	12,473
4230	17,386	-4,0101	-20,087	8,0133
4231	10,948	-3,9894	36,166	11,953
4232	20,012	-4,0061	17,313	7,8597
4233	11,419	-3,9903	35,289	11,483
4234	17,849	-4,0091	-19,221	8,0195
4235	11,905	-3,9927	34,422	11,044
4236	20,486	-4,0066	16,44	7,9833
4237	12,378	-3,995	33,547	10,643
4238	18,312	-4,009	-18,355	8,0607
4239	12,851	-3,9966	32,672	10,269
4240	20,96	-4,0068	15,566	8,1584
4241	13,324	-3,9975	31,797	9,9185
4242	18,782	-4,0108	-17,484	8,1405
4243	13,797	-3,9981	30,922	9,5893
4244	21,433	-4,0063	14,692	8,3921
4245	14,269	-3,9984	30,046	9,2804
4246	19,245	-4,0112	-16,619	8,2626
4247	14,742	-3,9984	29,169	8,9911
4248	21,905	-4,0044	13,816	8,6929
4249	15,215	-3,9983	28,293	8,7213
4250	19,704	-4,0084	-15,768	8,4274
4251	15,687	-3,9984	27,416	8,4714
4252	22,376	-4,0008	12,937	9,0739
4253	16,16	-3,9987	26,54	8,2417
4254	20,168	-4,0138	-14,903	8,6465
4255	16,633	-3,9992	25,663	8,0332
4256	22,837	-3,9984	12,041	9,5624
4257	17,106	-3,9997	24,787	7,8467
4258	20,634	-4,0151	-14,04	8,9218
4259	17,579	-4,0003	23,91	7,6835
4260	23,299	-3,9942	11,142	10,169
4261	18,053	-4,0009	23,034	7,5449
4262	21,098	-4,0152	-13,186	9,2577
4263	18,526	-4,0014	22,158	7,4327
4264	23,759	-3,9964	10,242	10,926
4265	18,999	-4,002	21,281	7,3487
4266	21,555	-4,0125	-12,313	9,6823
4267	19,472	-4,0031	20,405	7,295
4268	24,224	-4,0012	9,3392	11,876
4269	19,945	-4,0034	19,529	7,2746
4270	21,992	-4,0068	-11,451	10,193
4271	20,418	-4,0041	18,653	7,2903
4272	24,697	-4,0041	8,4451	13,079
4273	20,891	-4,004	17,778	7,3458
4274	22,456	-4,0096	-10,593	10,806
4275	21,364	-4,0053	16,902	7,4465
4276	25,149	-4,0012	7,5401	14,671
4277	21,837	-4,0056	16,027	7,5973
4278	20,86	-4,0118	-5,6041	15,286
4279	22,31	-4,0047	15,152	7,8053
4280	22,938	-4,0421	-9,8103	11,491
4281	22,782	-4,0026	14,275	8,0811
4282	23,254	-4,0015	13,398	8,4358
4283	23,455	-4,0795	-9,0398	12,317
4284	23,722	-3,9977	12,506	8,8976
4285	21,709	-4,01	-5,976	15,806
4286	24,186	-3,9944	11,614	9,4775
4287	24,647	-3,9933	10,715	10,207
4288	23,714	-4,071	-8,0876	13,63
4289	25,099	-3,9948	9,8104	11,126
4290	22,608	-4,0302	-6,3708	16,146
4291	25,563	-3,9966	8,9195	12,239
4292	25,607	-3,996	6,6178	16,861
4293	26,012	-3,9966	8,0266	13,62
4294	26,158	-4,0172	5,666	19,851
4295	26,454	-3,9939	7,1415	15,301
4296	26,811	-3,9738	5,3126	20,766
4297	26,911	-3,9964	6,3188	17,114
4298	27,033	-3,9439	4,4339	25,193
4299	27,448	-4,0122	5,5902	18,792
4300	27,852	-4,0329	3,7271	25,494
4301	27,991	-4,0326	4,8931	20,046
4302	28,513	-4,0441	3,038	24,593
4303	28,571	-4,0543	4,1962	20,885
4304	29,004	-4,0204	2,2498	23,844
4305	29,126	-4,0434	3,4261	21,591
4306	28,585	-2,059	3,0545	24,15
4307	21,199	-4,0001	-4,6134	16,825
4308	29,487	-3,9468	2,5973	22,1
4309	22,093	-4,0106	-5,0184	18,079
4310	21,491	-3,9406	-3,5507	18,514
4311	29,76	-3,8562	1,8893	22,161
4312	23,589	-4,31	-7,119	15,279
4313	22,967	-4,0096	-5,4436	18,847
4314	30,383	-4,0402	1,5989	21,549
4315	22,33	-4,0027	-4,0495	21,141
4316	23,926	-3,9959	-5,7918	19,097
4317	30,178	-4,2802	1,1048	22,173
4318	23,3	-4,0009	-4,501	23,586
4319	29,831	-4,3101	0,56872	22,456
4320	24,212	-3,9871	-4,8007	24,743
4321	29,789	-4,027	-0,10275	22,243
4322	24,524	-4,058	-8,3604	13,244
4323	24,678	-4,0359	-7,2975	15,183
4324	24,893	-3,9989	-6,1852	18,206
4325	29,669	-4,0329	-1,1345	22,62
4326	25,436	-3,9853	-4,9869	24,567
4327	24,225	-4,0319	-9,3596	11,869
4328	29,393	-3,9857	-2,1248	22,69
4329	26,59	-4,0029	-4,439	27,047
4330	28,722	-4,0007	-3,0785	23,57
4331	26,761	-3,9951	-5,0928	21,813
4332	27,836	-4,0026	-4,0405	23,967
4333	26,25	-3,9938	-5,6316	20,099
4334	27,492	-4,0236	-5,1366	20,321
4335	25,509	-3,9532	-6,4705	17,353
4336	27,095	-4,004	-5,9675	17,994
4337	23,827	-4,023	-10,23	10,94
4338	26,402	-3,9848	-6,9458	15,835
4339	23,353	-4,0128	-11,072	10,228
4340	26,425	-4,0053	-7,4418	14,659
4341	22,896	-4,0098	-11,918	9,6398
4342	25,837	-4,0297	-7,7143	14,234
4343	22,434	-4,0081	-12,788	9,1438
4344	25,473	-4,0433	-8,8292	12,395
4345	21,975	-4,0111	-13,65	8,7441
4346	25,126	-3,996	-9,7269	11,236
4347	21,511	-4,0114	-14,515	8,4203
4348	24,698	-4,0082	-10,647	10,266
4349	21,046	-4,0111	-15,379	8,1623
4350	24,247	-4,0102	-11,526	9,5294
4351	20,581	-4,0106	-16,243	7,9613
4352	23,782	-4,0094	-12,388	8,952
4353	20,117	-4,0087	-17,105	7,8109
4354	23,321	-4,0089	-13,256	8,4788
4355	19,65	-4,01	-17,973	7,7045
4356	22,856	-4,0092	-14,123	8,1009
4357	19,184	-4,0103	-18,838	7,6386
4358	22,392	-4,0098	-14,985	7,8027
4359	18,72	-4,0078	-19,703	7,6085
4360	21,926	-4,0064	-15,852	7,568
4361	23,273	-4,0062	-15,455	7,0597
4362	22,807	-4,0058	-16,322	6,8579
4363	23,688	-4,0038	-16,793	6,0254
4364	24,154	-4,0037	-15,925	6,1824
4365	21,46	-4,0096	-16,716	7,3908
4366	18,252	-4,0115	-20,569	7,6125
4367	22,341	-4,0065	-17,188	6,7117
4368	23,739	-4,0059	-14,588	7,327
4369	23,221	-4,0038	-17,66	5,9216
4370	24,621	-4,0034	-15,058	6,4039
4371	20,993	-4,0092	-17,586	7,2613
4372	17,789	-4,0096	-21,433	7,6451
4373	21,874	-4,0058	-18,055	6,6125
4374	24,205	-4,0058	-13,721	7,6738
4375	22,754	-4,0039	-18,527	5,8621
4376	25,088	-4,0031	-14,191	6,7046
4377	20,526	-4,0092	-18,451	7,1759
4378	24,669	-4,0057	-12,854	8,117
4379	21,407	-4,0057	-18,921	6,5543
4380	17,323	-4,0099	-22,299	7,706
4381	22,287	-4,0039	-19,395	5,8404
4382	25,552	-4,0021	-13,323	7,1049
4383	20,06	-4,0093	-19,317	7,1284
4384	25,129	-4,007	-11,98	8,6835
4385	20,94	-4,0057	-19,788	6,5316
4386	16,858	-4,0104	-23,165	7,7925
4387	21,82	-4,0039	-20,262	5,8509
4388	26,015	-4,0022	-12,452	7,631
4389	19,595	-4,0082	-20,18	7,1151
4390	25,579	-4,0036	-11,1	9,4037
4391	20,473	-4,0052	-20,655	6,5402
4392	16,392	-4,0103	-24,031	7,9024
4393	21,353	-4,0038	-21,13	5,8895
4394	26,471	-4,0005	-11,576	8,3161
4395	19,128	-4,0093	-21,046	7,132
4396	26,016	-3,9918	-10,202	10,319
4397	20,007	-4,0052	-21,522	6,5767
4398	15,927	-4,0094	-24,897	8,034
4399	20,886	-4,0038	-21,997	5,9526
4400	26,921	-3,9957	-10,69	9,1974
4401	18,662	-4,0083	-21,913	7,1765
4402	26,429	-4,0227	-9,3336	11,406
4403	19,539	-4,0045	-22,39	6,6381
4404	15,467	-4,0133	-25,762	8,1835
4405	20,419	-4,0038	-22,865	6,0375
4406	27,364	-3,9933	-9,833	10,241
4407	18,195	-4,009	-22,779	7,2462
4408	26,829	-4,3007	-8,536	12,56
4409	19,073	-4,0045	-23,257	6,7218
4410	15,002	-4,0139	-26,629	8,3544
4411	19,952	-4,0038	-23,732	6,1415
4412	27,814	-4,0184	-9,0331	11,377
4413	17,729	-4,0097	-23,645	7,3387
4414	27,15	-4,1656	-7,9778	13,436
4415	18,606	-4,0061	-24,123	6,8256
4416	14,539	-4,0145	-27,493	8,5424
4417	19,485	-4,0038	-24,6	6,2627
4418	28,299	-4,0103	-8,1586	12,797
4419	17,26	-4,01	-24,515	7,4525
4420	27,696	-4,0221	-7,0785	15,022
4421	18,139	-4,0064	-24,99	6,9477
4422	14,074	-4,0152	-28,36	8,7483
4423	19,017	-4,0039	-25,468	6,3992
4424	28,718	-4,0024	-7,346	14,233
4425	16,794	-4,0105	-25,382	7,5851
4426	28,091	-4,011	-6,2459	16,575
4427	17,671	-4,0082	-25,856	7,0865
4428	13,611	-4,0157	-29,223	8,9702
4429	18,55	-4,0037	-26,337	6,5491
4430	29,138	-4,0073	-6,5343	15,646
4431	16,331	-4,0092	-26,246	7,7338
4432	28,537	-3,9867	-5,3138	18,287
4433	17,204	-4,0087	-26,723	7,2394
4434	13,148	-4,0167	-30,09	9,2077
4435	18,082	-4,0039	-27,205	6,7106
4436	29,563	-3,9742	-5,6264	17,041
4437	15,861	-4,0118	-27,115	7,9015
4438	29,028	-4,0143	-4,4231	19,467
4439	16,737	-4,0091	-27,591	7,4053
4440	12,685	-4,0159	-30,953	9,4597
4441	17,615	-4,0041	-28,072	6,8814
4442	30,035	-3,999	-4,7957	18,144
4443	15,4	-4,0103	-27,978	8,0801
4444	29,588	-3,9999	-3,5318	20,376
4445	16,27	-4,0094	-28,458	7,5828
4446	12,221	-4,0185	-31,82	9,7265
4447	17,148	-4,0043	-28,94	7,0605
4448	30,53	-3,9976	-3,9334	19,16
4449	14,935	-4,01	-28,845	8,2744
4450	30,149	-3,9731	-2,863	20,855
4451	15,805	-4,0063	-29,327	7,7695
4452	11,755	-4,0114	-32,68	10,008
4453	16,682	-4,0057	-29,805	7,2452
4454	30,987	-4,0296	-3,1182	20,01
4455	14,47	-4,0127	-29,71	8,4816
4456	30,5	-3,9754	-1,9784	21,276
4457	15,338	-4,0089	-30,193	7,9661
4458	11,289	-4,01	-33,544	10,3
4459	16,214	-4,0046	-30,674	7,4354
4460	31,269	-3,9743	-2,2527	20,53
4461	13,998	-4,0139	-30,581	8,7042
4462	30,513	-3,9727	-1,0845	21,722
4463	14,872	-4,0071	-31,061	8,1694
4464	10,82	-4,0075	-34,408	10,601
4465	15,747	-4,0049	-31,541	7,6279
4466	31,437	-3,9511	-1,4127	20,776
4467	13,532	-4,0146	-31,446	8,934
4468	30,279	-4,0538	-0,20685	22,073
4469	14,405	-4,0098	-31,926	8,3791
4470	10,346	-4,0037	-35,271	10,912
4471	15,28	-4,0036	-32,409	7,8212
4472	31,538	-3,9504	-0,61671	20,891
4473	13,076	-4,0123	-32,308	9,1678
4474	30,821	-4,0693	0,42221	21,569
4475	13,94	-4,0102	-32,792	8,5923
4476	-1,671	-4,0425	-39,545	24,961
4477	14,813	-4,0053	-33,275	8,0138
4478	31,681	-4,0311	0,18329	20,851
4479	-2,3642	-4,0492	-38,881	22,504
4480	12,61	-4,0104	-33,172	9,414
4481	31,24	-4,2189	1,0607	21,071
4482	13,475	-4,0067	-33,659	8,8077
4483	9,8787	-4,005	-36,142	11,214
4484	14,347	-4,0068	-34,141	8,2035
4485	31,842	-4,1055	1,0269	20,723
4486	-3,1288	-4,0529	-38,179	20,491
4487	12,144	-4,008	-34,037	9,6664
4488	-3,0997	-3,9266	-39,223	21,523
4489	13,003	-4,0112	-34,525	9,0282
4490	30,922	-4,1201	1,7938	21,033
4491	13,88	-4,0034	-35,01	8,3891
4492	-3,7166	-4,0771	-38,791	19,791
4493	31,623	-4,0256	1,7956	20,589
4494	-2,4064	-4,057	-40,028	24,183
4495	-4,0691	-4,0691	-39,245	19,288
4496	11,677	-4,009	-34,902	9,9212
4497	30,53	-3,7528	2,4476	20,785
4498	12,541	-4,0044	-35,392	9,2394
4499	-3,7258	-4,1475	-39,882	20,363
4500	13,412	-4,0048	-35,877	8,5687
4501	31,434	-3,8105	2,585	20,261
4502	9,3943	-4,002	-37,003	11,525
4503	11,212	-4,0106	-35,773	10,171
4504	30,284	-3,9836	3,0643	20,397
4505	12,073	-4,006	-36,257	9,4491
4506	-3,1969	-4,0669	-40,479	22,794
4507	12,946	-4,0043	-36,743	8,7401
4508	31,053	-4,1405	3,4287	19,74
4509	-2,7159	-3,0469	-41,076	22,962
4510	11,606	-4,0063	-37,123	9,6481
4511	29,853	-4,0467	3,8108	19,724
4512	12,479	-4,0051	-37,609	8,9021
4513	-3,9407	-4,0834	-41,02	20,921
4514	30,664	-4,0419	4,1382	18,912
4515	8,9285	-4,0023	-37,874	11,8
4516	29,368	-4,0563	4,5709	18,891
4517	10,264	-4,0063	-37,504	10,654
4518	-4,7066	-4,0209	-41,504	18,478
4519	11,136	-4,0049	-37,99	9,8327
4520	30,214	-4,0306	4,924	17,962
4521	12,011	-4,0042	-38,476	9,0536
4522	8,4588	-4,0041	-38,758	12,051
4523	28,85	-4,0447	5,3205	17,945
4524	-5,1538	-4,0231	-42,695	16,991
4525	29,73	-4,0229	5,7211	16,898
4526	-5,486	-3,9997	-41,976	16,022
4527	9,7908	-4,005	-38,371	10,862
4528	-4,3902	-4,0824	-40,212	18,801
4529	10,667	-4,0041	-38,857	9,9948
4530	28,326	-4,0293	6,0784	16,759
4531	11,543	-4,0024	-39,343	9,1937
4532	29,23	-4,0288	6,5357	15,637
4533	-5,1629	-4,0347	-40,578	16,893
4534	7,9749	-4,0062	-39,651	12,288
4535	27,827	-4,0099	6,8534	15,413
4536	9,3201	-4,0044	-39,244	11,034
4537	28,742	-4,0122	7,3315	14,26
4538	10,195	-4,0036	-39,726	10,131
4539	-5,9835	-3,9939	-41,049	14,872
4540	11,074	-4,0023	-40,21	9,3224
4541	27,358	-3,9998	7,667	13,963
4542	-4,7433	-4,1044	-38,997	17,748
4543	28,27	-4,0006	8,1707	12,794
4544	7,4891	-4,003	-40,552	12,526
4545	-5,5524	-4,0176	-39,656	16,13
4546	26,901	-3,9946	8,5174	12,56
4547	-3,877	-3,9931	-37,511	18,737
4548	27,806	-3,9937	9,0216	11,406
4549	-6,4349	-3,9844	-40,105	14,338
4550	-4,7643	-4,0063	-38,306	17,571
4551	8,8362	-4,0024	-40,122	11,184
4552	26,449	-3,992	9,404	11,283
4553	9,7182	-4,0012	-40,597	10,242
4554	27,348	-3,9906	9,9029	10,145
4555	10,602	-4,001	-41,077	9,4427
4556	-5,9511	-3,9753	-38,676	15,499
4557	-4,5853	-3,9958	-36,711	17,241
4558	25,994	-3,9944	10,302	10,202
4559	-6,8901	-3,9696	-39,184	13,903
4560	26,888	-3,9952	10,791	9,0891
4561	-5,4878	-3,9605	-37,303	16,141
4562	8,3492	-3,9978	-41,011	11,304
4563	6,9715	-3,9896	-41,462	12,828
4564	9,2356	-3,9975	-41,464	10,334
4565	-6,4177	-3,9581	-37,793	14,835
4566	10,132	-4,0001	-41,936	9,5546
4567	25,534	-3,992	11,192	9,33
4568	-7,3757	-3,9652	-38,289	13,459
4569	26,424	-3,9961	11,68	8,2433
4570	7,8411	-3,9881	-41,891	11,466
4571	-5,2044	-3,9761	-35,866	16,081
4572	8,7431	-3,9919	-42,334	10,41
4573	-6,0574	-3,9663	-36,403	15,205
4574	9,6502	-3,9973	-42,811	9,6622
4575	-5,7474	-3,9939	-34,985	15,169
4576	-6,9577	-3,9652	-36,912	14,137
4577	-6,5928	-3,9793	-35,517	14,425
4578	25,073	-3,9946	12,091	8,6234
4579	-7,8689	-3,9711	-37,406	13,022
4580	25,957	-3,9961	12,567	7,5816
4581	-7,4783	-3,9766	-36,028	13,532
4582	6,4085	-3,9952	-42,379	13,491
4583	-6,2715	-3,9999	-34,105	14,388
4584	7,2978	-3,9719	-42,79	11,686
4585	-7,1104	-3,9891	-34,631	13,749
4586	8,2542	-3,9868	-43,197	10,493
4587	-8,3808	-3,979	-36,526	12,574
4588	9,1782	-3,9968	-43,674	9,7401
4589	-7,9897	-3,9857	-35,147	12,98
4590	24,603	-3,998	12,98	8,0756
4591	5,997	-4,0138	-43,286	13,87
4592	25,49	-3,999	13,455	7,0714
4593	6,8077	-4,0031	-43,694	12,039
4594	-8,8748	-3,9862	-35,658	12,154
4595	7,781	-3,9873	-44,059	10,521
4596	24,132	-4,0011	13,858	7,6563
4597	8,7263	-4,0014	-44,509	9,7684
4598	25,015	-4,0002	14,33	6,7022
4599	-9,7735	-3,9887	-36,162	11,303
4600	23,66	-4,003	14,735	7,3337
4601	-6,759	-4,003	-33,234	13,723
4602	24,542	-4,001	15,208	6,427
4603	-7,6111	-3,9967	-33,752	13,152
4604	5,2858	-3,9602	-44,326	16,366
4605	-8,4859	-3,9937	-34,273	12,479
4606	6,3714	-3,9912	-44,57	12,156
4607	23,188	-4,0036	15,613	7,091
4608	7,3539	-4,0015	-44,916	10,505
4609	24,071	-4,0023	16,089	6,2282
4610	8,2932	-4,0127	-45,355	9,6969
4611	-9,3727	-3,9931	-34,789	11,741
4612	4,997	-3,9452	-45,07	16,861
4613	-9,2781	-3,9831	-37,03	11,628
4614	6,0027	-4,015	-45,43	12,201
4615	22,716	-4,0036	16,49	6,9151
4616	6,9396	-4,024	-45,802	10,336
4617	23,597	-4,0007	16,964	6,1012
4618	7,877	-4,0295	-46,195	9,5249
4619	-10,258	-3,994	-35,3	10,98
4620	4,7208	-4,0138	-46,104	15,521
4621	22,244	-4,0034	17,367	6,796
4622	5,6694	-4,0142	-46,327	11,66
4623	23,124	-4,0011	17,841	6,0261
4624	6,5785	-4,0587	-46,584	10,066
4625	-7,2473	-4,0076	-32,359	13,121
4626	7,4369	-3,994	-47,062	9,243
4627	-8,0989	-4,0033	-32,887	12,617
4628	21,771	-4,0031	18,245	6,7259
4629	4,368	-4,0221	-46,999	13,571
4630	22,651	-4,0022	18,722	5,9966
4631	5,6163	-4,1156	-47,247	10,392
4632	-8,9672	-4,0006	-33,41	12,021
4633	6,1842	-4,0467	-47,454	9,5889
4634	4,7274	-2,0252	-46,176	15,147
4635	7,009	-3,9789	-47,851	8,9503
4636	-9,839	-3,9989	-33,931	11,368
4637	4,9755	-4,0854	-47,904	9,9648
4638	21,299	-4,0028	19,122	6,6986
4639	3,9418	-4,1464	-48,374	9,4778
4640	22,178	-4,0017	19,596	6,0083
4641	5,771	-4,0354	-48,188	9,0808
4642	4,6378	-4,05	-48,406	9,2897
4643	6,5441	-4,0035	-48,599	8,5544
4644	-8,7902	-3,9776	-37,902	11,932
4645	5,2983	-4,0748	-48,854	8,4475
4646	20,826	-4,0025	20,	6,7093
4647	-10,727	-3,9981	-34,439	10,67
4648	21,705	-4,0014	20,474	6,0542
4649	6,0329	-4,0373	-49,298	8,0866
4650	3,4423	-4,2702	-48,741	8,4131
4651	-8,2931	-3,9734	-38,786	12,224
4652	-7,7249	-4,0114	-31,498	12,584
4653	4,07	-4,1722	-49,022	8,1859
4654	-8,581	-4,0083	-32,03	12,13
4655	4,8414	-4,1458	-49,398	7,9424
4656	20,352	-4,0022	20,879	6,7548
4657	-9,4349	-4,0054	-32,562	11,604
4658	21,23	-4,0019	21,354	6,1321
4659	5,5175	-4,1033	-49,907	7,6268
4660	-10,306	-4,0023	-33,076	11,008
4661	-8,1916	-4,014	-30,65	12,103
4662	19,881	-4,0019	21,755	6,83
4663	-9,039	-4,0111	-31,181	11,697
4664	20,76	-4,0008	22,23	6,2365
4665	-7,8077	-3,973	-39,676	12,483
4666	-9,9026	-4,0076	-31,703	11,211
4667	19,409	-4,0017	22,632	6,9343
4668	-11,195	-4,0003	-33,578	10,365
4669	20,287	-4,0005	23,107	6,3677
4670	-10,776	-4,0038	-32,216	10,663
4671	-7,3151	-3,976	-40,59	12,743
4672	4,3041	-4,138	-49,702	7,5464
4673	18,936	-4,0014	23,51	7,065
4674	4,8862	-4,0851	-50,441	7,2077
4675	19,814	-4,0002	23,985	6,5231
4676	-11,664	-4,0013	-32,716	10,068
4677	-6,8289	-3,9832	-41,509	13,065
4678	3,7742	-4,0628	-49,272	7,7902
4679	18,464	-4,0012	24,388	7,2202
4680	3,7112	-3,8502	-50,007	7,1089
4681	19,341	-4,0003	24,863	6,7008
4682	4,47	-4,1015	-50,769	6,9642
4683	-11,573	-4,0086	33,073	10,994
4684	17,991	-4,0009	25,265	7,3984
4685	-8,6524	-4,015	-29,808	11,665
4686	18,868	-4,0004	25,741	6,8997
4687	-9,5118	-4,012	-30,33	11,288
4688	3,1519	-4,0461	-51,547	6,4261
4689	2,7716	-4,0294	-51,667	6,289
4690	-10,37	-4,0083	-30,853	10,846
4691	2,1318	-4,0388	-52,076	6,1312
4692	2,608	-3,8725	-50,314	6,3178
4693	-11,243	-4,0043	-31,36	10,339
4694	2,0061	-3,962	-50,716	5,966
4695	1,6902	-4,0359	-52,386	6,0362
4696	-12,05	-4,0112	32,199	10,604
4697	17,519	-4,0007	26,143	7,5984
4698	1,4497	-3,9238	-51,241	5,8276
4699	18,395	-4,0005	26,619	7,1187
4700	1,0628	-4,1232	-52,097	5,9299
4701	-12,132	-4,0018	-31,855	9,7819
4702	17,042	-4,	27,019	7,8209
4703	-11,092	-4,0058	33,95	11,423
4704	17,923	-4,0004	27,497	7,3568
4705	-12,52	-4,011	31,321	10,245
4706	-6,2789	-3,9629	-42,463	13,698
4707	0,45663	-4,069	-52,039	5,8787
4708	16,57	-3,9998	27,896	8,061
4709	0,90698	-4,0455	-51,106	5,5736
4710	17,45	-4,0002	28,374	7,6128
4711	-0,37131	-4,0263	-51,987	5,8671
4712	2,8515	-4,0389	-49,193	7,2356
4713	3,8625e-002	-4,0256	-50,932	5,448
4714	1,6631	-4,2302	-49,884	5,4902
4715	-5,6816	-4,0015	-43,426	14,976
4716	0,65043	-4,0377	-49,857	4,2707
4717	-5,1646	-3,6613	-44,095	16,817
4718	-4,8388	-3,733	-45,245	17,272
4719	-10,612	-4,002	34,834	11,894
4720	-4,622	-3,9899	-46,158	15,816
4721	-12,987	-4,0095	30,441	9,9133
4722	-4,2187	-3,9993	-47,059	13,843
4723	16,102	-4,0002	28,776	8,3179
4724	-3,6348	-4,0031	-47,928	11,207
4725	16,976	-4,0001	29,252	7,8864
4726	-9,1167	-4,0149	-28,959	11,26
4727	-2,8303	-4,0048	-48,709	8,2735
4728	-9,9704	-4,0119	-29,479	10,918
4729	-10,121	-3,9992	35,719	12,425
4730	-1,9341	-4,045	-49,311	5,8251
4731	-10,836	-4,0082	-29,993	10,505
4732	15,62	-4,0001	29,65	8,599
4733	-0,8819	-4,0966	-49,861	4,5287
4734	16,497	-4,0006	30,132	8,179
4735	-0,97586	-4,0582	-50,876	5,6115
4736	-11,712	-4,0045	-30,499	10,032
4737	-1,1269	-4,0811	-52,151	5,9808
4738	15,147	-3,9998	30,527	8,8931
4739	-13,455	-4,0072	29,556	9,6043
4740	16,028	-3,9999	31,007	8,4806
4741	-12,6	-4,0022	-30,993	9,5098
4742	-9,6403	-3,9927	36,625	13,021
4743	14,674	-3,9998	31,404	9,2039
4744	-1,7669	-4,084	-50,314	5,777
4745	15,555	-4,	31,884	8,7983
4746	-1,8643	-4,097	-51,115	5,9532
4747	-13,921	-4,0047	28,666	9,3178
4748	-2,1104	-4,0434	-51,785	6,1029
4749	14,202	-3,9995	32,281	9,5305
4750	-9,5763	-4,0144	-28,115	10,891
4751	15,077	-4,0004	32,765	9,131
4752	-10,441	-4,0114	-28,626	10,571
4753	-9,1424	-3,9901	37,531	13,715
4754	-2,4841	-4,138	-49,958	6,3347
4755	-11,305	-4,0081	-29,14	10,189
4756	-2,8207	-4,0641	-50,676	6,428
4757	13,731	-3,9989	33,159	9,8724
4758	-2,9774	-4,0261	-51,549	6,3268
4759	14,611	-3,9996	33,64	9,4674
4760	-12,185	-4,0048	-29,637	9,7431
4761	13,26	-3,9978	34,034	10,23
4762	-3,7473	-4,034	-51,274	6,5962
4763	-4,5782	-4,0365	-50,981	6,8591
4764	14,14	-3,9993	34,517	9,8153
4765	-5,1383	-4,0222	-50,824	7,0554
4766	-3,6361	-4,0684	-50,393	6,8046
4767	-13,068	-4,0027	-30,13	9,2521
4768	12,786	-3,9967	34,911	10,606
4769	-4,3758	-4,1771	-50,043	7,3177
4770	13,668	-3,9995	35,399	10,17
4771	-14,389	-4,0031	27,762	9,0523
4772	-5,3853	-4,049	-50,304	7,365
4773	12,313	-3,9953	35,788	11,
4774	-8,6288	-3,9847	38,454	14,539
4775	13,195	-3,9987	36,277	10,529
4776	-3,4951	-4,1477	-49,359	7,5996
4777	11,838	-3,9948	36,664	11,416
4778	-10,037	-4,0138	-27,259	10,55
4779	12,719	-3,9982	37,154	10,89
4780	-10,901	-4,0111	-27,774	10,256
4781	11,359	-3,9963	37,539	11,858
4782	-4,7959	-4,1354	-49,146	8,2497
4783	12,235	-3,9988	38,029	11,255
4784	-5,7893	-4,0483	-49,559	7,9092
4785	10,893	-4,0003	38,41	12,318
4786	-11,768	-4,008	-28,279	9,8986
4787	11,773	-4,0008	38,909	11,6
4788	-14,858	-4,0032	26,868	8,8093
4789	10,435	-4,0067	39,286	12,799
4790	-12,65	-4,0051	-28,78	9,4782
4791	11,3	-4,0046	39,788	11,94
4792	-8,1211	-3,9804	39,391	15,496
4793	-10,507	-4,0137	-26,408	10,236
4794	9,9856	-4,0145	40,169	13,294
4795	-11,369	-4,0113	-26,918	9,9654
4796	10,831	-4,0101	40,662	12,261
4797	-13,536	-4,0032	-29,267	9,0099
4798	9,5458	-4,0225	41,062	13,781
4799	-12,24	-4,0084	-27,424	9,6289
4800	10,387	-4,0069	41,544	12,516
4801	-15,332	-4,0045	25,986	8,5872
4802	9,1094	-4,0296	41,96	14,234
4803	-13,119	-4,0055	-27,917	9,2316
4804	9,9338	-4,0073	42,428	12,719
4805	-7,5839	-3,9731	40,332	16,665
4806	-4,4236	-4,1359	-48,231	9,6811
4807	8,6707	-4,0359	42,858	14,613
4808	-5,2091	-4,0271	-48,142	9,379
4809	9,4786	-4,0099	43,312	12,834
4810	-6,2997	-4,0291	-48,769	8,4784
4811	8,2234	-4,0433	43,751	14,879
4812	-14,003	-4,0036	-28,403	8,7837
4813	9,0167	-4,0149	44,194	12,841
4814	-15,811	-4,0068	25,108	8,3862
4815	7,7328	-4,0318	44,603	15,132
4816	-7,0418	-3,9593	41,279	18,004
4817	8,5412	-4,0171	45,068	12,764
4818	-10,972	-4,0138	-25,557	9,9533
4819	-5,052	-4,0383	-47,257	11,195
4820	-11,833	-4,0116	-26,065	9,7032
4821	-5,7468	-4,0862	-47,347	10,083
4822	7,2262	-4,0591	45,482	15,288
4823	-6,8335	-4,0076	-47,998	8,879
4824	8,0895	-4,0429	45,936	12,55
4825	-12,701	-4,0089	-26,563	9,3868
4826	6,8158	-4,0693	46,307	15,079
4827	-16,295	-4,0099	24,248	8,2064
4828	7,644	-4,0529	46,783	12,446
4829	-13,586	-4,0061	-27,055	9,006
4830	-5,492	-4,0055	-46,423	11,916
4831	6,229	-4,0932	47,471	15,039
4832	-6,395	-4,0173	-46,748	10,117
4833	7,1709	-4,0381	47,631	12,549
4834	-7,3063	-4,0045	-47,179	9,2224
4835	6,1156	-4,0364	47,855	14,903
4836	-6,3637	-4,0793	42,077	19,966
4837	6,6949	-4,0279	48,366	12,913
4838	5,5241	-4,028	48,39	15,765
4839	-14,471	-4,0041	-27,539	8,5742
4840	-6,0856	-4,0039	43,004	20,969
4841	6,1038	-4,0179	48,999	13,741
4842	-5,7705	-3,897	44,187	22,21
4843	4,6327	-3,9899	48,66	16,943
4844	-5,0576	-3,7828	44,923	26,892
4845	-4,6189	-3,9797	46,257	27,673
4846	5,291	-3,9928	49,636	14,872
4847	-4,1044	-3,9808	47,257	25,935
4848	5,1546	-3,9974	50,421	14,364
4849	4,0715	-4,0003	48,697	18,062
4850	4,2059	-4,0447	49,722	16,539
4851	-3,5254	-3,9729	47,981	22,482
4852	4,5966	-3,9862	50,58	15,218
4853	-16,772	-4,0125	23,394	8,0531
4854	3,5388	-3,9833	49,853	17,039
4855	3,5626	-3,8577	48,789	17,966
4856	3,7314	-4,0626	50,93	16,009
4857	-11,442	-4,0135	-24,706	9,6977
4858	-5,868	-3,9737	-45,514	12,417
4859	-12,297	-4,0115	-25,213	9,4666
4860	-6,8311	-4,0079	-45,892	10,363
4861	2,7404	-4,0524	48,967	18,259
4862	-7,7583	-4,0087	-46,325	9,5009
4863	2,7562	-3,9994	50,121	16,977
4864	-13,175	-4,009	-25,705	9,1637
4865	3,006	-4,0042	51,152	16,547
4866	1,7659	-4,0067	50,49	17,098
4867	-14,045	-4,0064	-26,197	8,8045
4868	2,0866	-4,0076	51,474	16,693
4869	1,541	-4,0038	49,528	16,212
4870	1,2326	-4,0082	51,851	16,925
4871	-14,939	-4,0045	-26,675	8,382
4872	0,46687	-4,0064	49,769	15,791
4873	0,67367	-4,0104	52,181	17,121
4874	0,51627	-4,0071	50,961	16,871
4875	8,2555e-003	-4,0083	52,001	17,103
4876	-17,223	-4,0099	22,53	7,9352
4877	-11,897	-4,0132	-23,852	9,4744
4878	-12,768	-4,0112	-24,351	9,2538
4879	-1,17	-4,0074	51,843	16,869
4880	-0,63055	-4,0039	49,784	15,939
4881	-13,641	-4,009	-24,843	8,9676
4882	-0,99023	-4,0016	50,837	16,922
4883	-1,6921	-4,0121	49,566	16,78
4884	-1,8834	-4,0228	51,779	16,864
4885	-6,2573	-3,9635	-44,623	12,333
4886	-14,514	-4,0066	-25,336	8,6199
4887	-7,2546	-3,9917	-45,031	10,552
4888	-2,0528	-4,0047	50,498	17,045
4889	-8,2037	-3,9979	-45,462	9,6928
4890	-2,4705	-4,0345	51,427	16,543
4891	-15,407	-4,0048	-25,811	8,2081
4892	-2,8171	-4,039	50,334	16,917
4893	-2,9036	-4,0111	49,033	18,224
4894	-3,1699	-4,0113	51,15	16,435
4895	-4,0424	-3,9933	48,616	18,788
4896	-3,5206	-4,0805	49,86	17,14
4897	-17,683	-4,0085	21,664	7,8415
4898	-3,9166	-4,0234	50,734	15,989
4899	-4,6643	-3,9838	47,864	19,161
4900	-12,366	-4,0129	-22,997	9,2758
4901	-4,2988	-4,0188	49,353	16,839
4902	-13,23	-4,011	-23,498	9,071
4903	-4,462	-4,0508	50,413	15,588
4904	-6,6998	-3,9786	-43,735	12,207
4905	-5,0979	-4,0067	48,662	16,319
4906	-7,698	-3,9849	-44,155	10,549
4907	-14,11	-4,009	-23,986	8,7948
4908	-8,6519	-3,9892	-44,598	9,7847
4909	-5,4279	-4,0066	49,644	14,612
4910	-14,99	-4,0068	-24,467	8,4548
4911	-6,1331	-4,0144	49,079	13,598
4912	-7,1997	-3,9908	-42,867	11,792
4913	-6,1114	-4,0295	47,872	14,884
4914	-8,1604	-3,994	-43,286	10,533
4915	-6,6043	-4,0933	48,508	13,034
4916	-9,1027	-3,9845	-43,73	9,7688
4917	-6,6155	-4,059	47,583	13,954
4918	-7,2296	-4,0286	48,393	11,628
4919	-12,836	-4,0091	-22,138	9,1066
4920	-15,875	-4,0053	-24,947	8,0533
4921	-13,701	-4,0109	-22,635	8,9131
4922	-7,3596	-4,0188	47,773	11,973
4923	-5,5898	-3,9805	46,81	18,452
4924	-14,577	-4,0092	-23,124	8,6485
4925	-6,7243	-4,0076	46,537	15,081
4926	-7,7226	-3,9778	-41,965	11,565
4927	-7,6488	-4,0092	46,906	12,243
4928	-8,6423	-3,9762	-42,409	10,468
4929	-6,059	-3,9457	45,436	19,415
4930	-9,5763	-3,9834	-42,857	9,6974
4931	-7,0581	-3,9788	45,734	15,344
4932	-15,452	-4,0074	-23,612	8,3179
4933	-8,0124	-4,0162	45,96	12,705
4934	-18,144	-4,0044	20,794	7,7774
4935	-8,2239	-3,9787	-41,06	11,416
4936	-6,4886	-3,9574	44,464	19,119
4937	-9,1368	-3,9788	-41,522	10,392
4938	-7,4528	-3,9729	44,749	15,645
4939	-10,058	-3,9847	-41,983	9,5946
4940	-8,4161	-3,9993	45,103	12,969
4941	-16,343	-4,006	-24,083	7,9189
4942	-6,9364	-3,9636	43,526	18,323
4943	-13,304	-4,0081	-21,281	8,9692
4944	-7,8928	-3,9685	43,853	15,526
4945	-14,173	-4,0112	-21,778	8,784
4946	-8,8615	-3,9879	44,231	13,09
4947	-7,3974	-3,9488	42,597	17,442
4948	-15,047	-4,0089	-22,262	8,5278
4949	-8,3725	-3,9682	42,956	15,133
4950	-8,7084	-3,977	-40,168	11,292
4951	-9,3302	-3,9815	43,354	13,047
4952	-9,6213	-3,9815	-40,638	10,306
4953	-7,9464	-3,9632	41,671	16,364
4954	-10,542	-3,9875	-41,109	9,4781
4955	-8,8795	-3,9717	42,057	14,583
4956	-15,928	-4,0073	-22,742	8,2009
4957	-9,8218	-3,9812	42,462	12,86
4958	-18,611	-4,0047	19,921	7,7434
4959	-9,2027	-3,9793	-39,277	11,133
4960	-8,4824	-3,9729	40,738	15,373
4961	-10,115	-3,9849	-39,76	10,185
4962	-9,3911	-3,9775	41,15	13,983
4963	-11,028	-3,9929	-40,235	9,3501
4964	-10,309	-3,9841	41,579	12,598
4965	-16,811	-4,0068	-23,219	7,8062
4966	-8,997	-3,9801	39,81	14,504
4967	-13,768	-4,0104	-20,43	8,865
4968	-9,8949	-3,983	40,249	13,396
4969	-14,638	-4,0119	-20,921	8,6873
4970	-10,8	-3,9881	40,691	12,284
4971	-9,5092	-3,9851	38,901	13,729
4972	-15,514	-4,0105	-21,405	8,4364
4973	-10,396	-3,9878	39,35	12,838
4974	-9,7021	-3,9831	-38,397	10,934
4975	-11,29	-3,9921	39,805	11,946
4976	-10,606	-3,9888	-38,888	10,035
4977	-10,014	-3,9915	37,994	13,049
4978	-11,5	-3,9947	-39,37	9,2193
4979	-10,895	-3,9923	38,455	12,319
4980	-16,39	-4,0089	-21,889	8,1134
4981	-11,774	-3,9959	38,922	11,598
4982	-19,08	-4,0068	19,045	7,7441
4983	-10,184	-3,9877	-37,527	10,717
4984	-10,505	-3,9963	37,092	12,456
4985	-11,087	-3,994	-38,016	9,8654
4986	-11,379	-3,9973	37,565	11,845
4987	-11,984	-3,9975	-38,498	9,0689
4988	-12,254	-3,9984	38,038	11,242
4989	-17,279	-4,0075	-22,355	7,7169
4990	-10,993	-4,0001	36,201	11,928
4991	-14,229	-4,0142	-19,586	8,7952
4992	-11,86	-4,0001	36,678	11,403
4993	-15,101	-4,0127	-20,072	8,6222
4994	-12,731	-4,0002	37,157	10,883
4995	-11,47	-4,0027	35,315	11,455
4996	-15,982	-4,0111	-20,547	8,3741
4997	-12,338	-4,0023	35,797	10,986
4998	-10,672	-3,9923	-36,659	10,47
4999	-13,209	-4,0048	36,28	10,521
5000	-11,567	-3,9974	-37,149	9,6727
5001	-11,951	-4,0064	34,436	11,02
5002	-12,457	-3,9996	-37,631	8,913
5003	-12,812	-4,0048	34,919	10,592
5004	-16,859	-4,0096	-21,028	8,0515
5005	-13,679	-4,0029	35,399	10,164
5006	-19,548	-4,0072	18,169	7,7835
5007	-11,16	-3,9965	-35,798	10,207
5008	-12,427	-4,0095	33,56	10,619
5009	-12,045	-4,0003	-36,284	9,4654
5010	-13,282	-4,0075	34,041	10,219
5011	-12,928	-4,0012	-36,765	8,7481
5012	-14,153	-4,0054	34,524	9,8089
5013	-17,747	-4,0083	-21,491	7,6528
5014	-12,896	-4,0101	32,682	10,247
5015	-14,695	-4,0153	-18,728	8,7605
5016	-13,753	-4,0073	33,164	9,8615
5017	-15,573	-4,0136	-19,209	8,5905
5018	-14,625	-4,005	33,646	9,4608
5019	-13,366	-4,0094	31,803	9,8982
5020	-16,451	-4,012	-19,688	8,3439
5021	-14,228	-4,006	32,284	9,5175
5022	-11,628	-3,9996	-34,934	9,9537
5023	-15,097	-4,004	32,767	9,121
5024	-12,514	-4,002	-35,418	9,2552
5025	-13,838	-4,0075	30,92	9,5689
5026	-13,397	-4,0023	-35,898	8,5755
5027	-14,696	-4,0045	31,402	9,1926
5028	-17,328	-4,0105	-20,168	8,0194
5029	-15,565	-4,0023	31,883	8,7928
5030	-14,304	-4,0056	30,034	9,2627
5031	-20,016	-4,007	17,293	7,8647
5032	-15,164	-4,0023	30,512	8,8835
5033	-12,095	-4,0011	-34,07	9,6974
5034	-16,031	-3,9998	30,997	8,478
5035	-12,981	-4,0033	-34,553	9,0399
5036	-14,774	-4,0036	29,136	8,9736
5037	-13,863	-4,0061	-35,039	8,396
5038	-15,631	-4,001	29,614	8,5911
5039	-18,215	-4,0093	-20,628	7,6161
5040	-16,498	-3,9986	30,107	8,177
5041	-15,157	-4,0159	-17,885	8,7637
5042	-15,244	-4,0029	28,237	8,7049
5043	-16,035	-4,0145	-18,363	8,5951
5044	-16,107	-4,0012	28,727	8,3132
5045	-12,563	-4,0018	-33,206	9,4433
5046	-16,97	-3,9991	29,22	7,8884
5047	-13,448	-4,0037	-33,687	8,8223
5048	-15,721	-4,0036	27,35	8,4542
5049	-14,33	-4,0063	-34,172	8,2107
5050	-16,581	-4,0027	27,841	8,0546
5051	-16,919	-4,0132	-18,83	8,3481
5052	-17,446	-4,0009	28,344	7,6145
5053	-16,196	-4,0053	26,474	8,2254
5054	-17,797	-4,0118	-19,308	8,0191
5055	-17,058	-4,0046	26,969	7,8135
5056	-13,03	-4,0022	-32,341	9,1946
5057	-17,924	-4,0029	27,476	7,3566
5058	-13,915	-4,0045	-32,821	8,6054
5059	-16,674	-4,0075	25,61	8,0159
5060	-14,799	-4,0034	-33,298	8,0204
5061	-17,539	-4,0068	26,108	7,5892
5062	-13,497	-4,0024	-31,477	8,9538
5063	-18,406	-4,0049	26,611	7,1132
5064	-14,382	-4,0046	-31,955	8,3907
5065	-17,158	-4,0102	24,749	7,8253
5066	-15,267	-4,0035	-32,431	7,8271
5067	-18,017	-4,009	25,25	7,3862
5068	-13,964	-4,0027	-30,612	8,7224
5069	-18,883	-4,0065	25,739	6,8914
5070	-14,858	-4,0049	-31,088	8,1751
5071	-17,624	-4,0121	23,89	7,6646
5072	-15,735	-4,0037	-31,564	7,6329
5073	-18,482	-4,0099	24,386	7,2108
5074	-14,431	-4,0032	-29,746	8,5017
5075	-19,345	-4,0067	24,864	6,6983
5076	-15,324	-4,0053	-30,221	7,9715
5077	-18,088	-4,012	23,023	7,5302
5078	-16,203	-4,0039	-30,696	7,4399
5079	-18,949	-4,0084	23,506	7,0589
5080	-14,898	-4,0036	-28,881	8,2927
5081	-19,818	-4,0056	23,986	6,5208
5082	-15,791	-4,0056	-29,354	7,7752
5083	-20,484	-4,0065	16,417	7,9925
5084	-16,669	-4,004	-29,829	7,2502
5085	-18,683	-4,0105	-19,764	7,6091
5086	-15,365	-4,004	-28,015	8,0965
5087	-18,542	-4,0105	22,153	7,4256
5088	-16,257	-4,0058	-28,487	7,5874
5089	-19,407	-4,007	22,634	6,9352
5090	-17,136	-4,0042	-28,962	7,0651
5091	-20,29	-4,0041	23,108	6,366
5092	-15,832	-4,0044	-27,149	7,9141
5093	-15,626	-4,0166	-17,028	8,8078
5094	-16,718	-4,0055	-27,624	7,4124
5095	-16,506	-4,0155	-17,503	8,6386
5096	-17,598	-4,0074	-28,102	6,8882
5097	-16,299	-4,0047	-26,283	7,7465
5098	-17,383	-4,0144	-17,984	8,3874
5099	-17,186	-4,0043	-26,755	7,2458
5100	-20,952	-4,0052	15,542	8,1718
5101	-18,07	-4,003	-27,227	6,7149
5102	-18,266	-4,0132	-18,448	8,0534
5103	-19,011	-4,0065	21,276	7,3439
5104	-16,766	-4,0053	-25,417	7,5951
5105	-19,883	-4,0045	21,755	6,829
5106	-17,653	-4,0045	-25,888	7,0921
5107	-20,762	-4,0029	22,229	6,2351
5108	-18,537	-4,0032	-26,359	6,5533
5109	-16,087	-4,0176	-16,19	8,8935
5110	-19,152	-4,0117	-18,902	7,6347
5111	-16,967	-4,0165	-16,664	8,7215
5112	-19,48	-4,0042	20,4	7,2921
5113	-17,234	-4,006	-24,552	7,4613
5114	-20,355	-4,0039	20,878	6,7536
5115	-18,124	-4,0072	-25,019	6,9517
5116	-21,234	-4,0024	21,351	6,1302
5117	-19,004	-4,0036	-25,493	6,4034
5118	-17,851	-4,0156	-17,13	8,4668
5119	-21,419	-4,0035	14,666	8,4098
5120	-17,701	-4,0066	-23,686	7,3465
5121	-18,735	-4,0145	-17,59	8,1253
5122	-18,591	-4,0076	-24,152	6,8293
5123	-19,951	-4,0042	19,524	7,273
5124	-19,471	-4,0027	-24,625	6,2664
5125	-20,826	-4,0039	20,	6,7092
5126	-16,553	-4,0148	-15,333	9,0272
5127	-21,707	-4,0022	20,473	6,0537
5128	-17,437	-4,013	-15,804	8,8516
5129	-19,621	-4,0098	-18,038	7,696
5130	-18,168	-4,0071	-22,82	7,2525
5131	-18,32	-4,017	-16,278	8,5882
5132	-19,057	-4,0077	-23,285	6,725
5133	-20,421	-4,0047	18,648	7,2907
5134	-19,937	-4,0023	-23,759	6,1451
5135	-21,298	-4,0021	19,123	6,6985
5136	-19,204	-4,0111	-16,724	8,2406
5137	-22,177	-4,0015	19,598	6,0085
5138	-18,635	-4,0077	-21,955	7,1812
5139	-21,887	-4,0017	13,79	8,7142
5140	-19,524	-4,0078	-22,418	6,6406
5141	-20,891	-4,0042	17,771	7,3482
5142	-20,405	-4,0017	-22,891	6,0404
5143	-21,77	-4,0028	18,248	6,7255
5144	-20,09	-4,0082	-17,174	7,7971
5145	-22,649	-4,0015	18,721	5,9978
5146	-22,353	-3,9996	12,914	9,0964
5147	-17,018	-4,0173	-14,491	9,2076
5148	-21,362	-4,0037	16,894	7,4505
5149	-17,901	-4,0174	-14,961	9,026
5150	-22,242	-4,0026	17,371	6,7952
5151	-19,103	-4,0085	-21,089	7,1348
5152	-23,123	-4,0021	17,839	6,0281
5153	-19,991	-4,0083	-21,551	6,5785
5154	-18,782	-4,0189	-15,43	8,7561
5155	-20,871	-4,0019	-22,025	5,9549
5156	-21,833	-4,0029	16,018	7,6034
5157	-19,672	-4,0101	-15,868	8,3993
5158	-22,715	-4,0023	16,494	6,9137
5159	-17,482	-4,0132	-13,645	9,4407
5160	-23,595	-4,0021	16,961	6,1044
5161	-18,363	-4,0211	-14,122	9,2506
5162	-22,82	-3,9966	12,038	9,57
5163	-22,303	-4,002	15,141	7,814
5164	-19,249	-4,0211	-14,586	8,9716
5165	-23,187	-4,002	15,617	7,089
5166	-20,557	-4,0082	-16,315	7,9414
5167	-24,066	-4,002	16,083	6,2353
5168	-20,135	-4,0119	-15,019	8,6061
5169	-19,57	-4,0086	-20,225	7,1157
5170	-23,286	-3,9932	11,161	10,158
5171	-20,453	-4,0058	-20,692	6,5415
5172	-17,947	-4,0183	-12,81	9,7263
5173	-21,329	-4,0084	-21,172	5,893
5174	-18,825	-4,0174	-13,272	9,5341
5175	-21,023	-4,0086	-15,461	8,1331
5176	-22,773	-4,001	14,265	8,0916
5177	-19,704	-4,0232	-13,741	9,2446
5178	-23,659	-4,0016	14,74	7,3311
5179	-23,763	-3,9884	10,278	10,885
5180	-24,538	-4,0018	15,204	6,4321
5181	-20,595	-4,0177	-14,178	8,8653
5182	-18,417	-4,0202	-11,964	10,077
5183	-23,243	-3,9999	13,388	8,4478
5184	-19,277	-4,0218	-12,435	9,874
5185	-24,131	-4,0009	13,863	7,6529
5186	-20,038	-4,0103	-19,358	7,1272
5187	-25,01	-4,0014	14,326	6,7087
5188	-20,92	-4,0093	-19,827	6,5312
5189	-20,153	-4,0253	-12,902	9,5771
5190	-21,804	-4,0035	-20,294	5,8512
5191	-21,485	-4,0226	-14,627	8,3715
5192	-21,051	-4,027	-13,349	9,1794
5193	-24,236	-3,9962	9,3716	11,835
5194	-23,713	-3,9984	12,511	8,8981
5195	-20,505	-4,0092	-18,496	7,1714
5196	-24,603	-3,9996	12,985	8,0712
5197	-21,388	-4,0058	-18,96	6,5516
5198	-25,482	-4,0004	13,448	7,0837
5199	-22,271	-4,0047	-19,428	5,8392
5200	-21,944	-4,0198	-13,776	8,6801
5201	-24,695	-3,9987	8,4593	13,056
5202	-18,885	-4,0118	-11,095	10,505
5203	-24,182	-3,996	11,633	9,4605
5204	-19,732	-4,0169	-11,575	10,295
5205	-25,068	-3,9973	12,097	8,6196
5206	-20,973	-4,008	-17,631	7,2534
5207	-25,953	-3,9984	12,57	7,5804
5208	-21,856	-4,0053	-18,095	6,6069
5209	-20,594	-4,0266	-12,064	9,9776
5210	-22,739	-4,0027	-18,56	5,8591
5211	-19,385	-4,0026	-10,2	11,035
5212	-21,505	-4,0201	-12,5	9,5748
5213	-20,243	-4,0188	-10,702	10,803
5214	-24,648	-3,9931	10,747	10,171
5215	-21,441	-4,0066	-16,769	7,377
5216	-25,538	-3,994	11,214	9,3035
5217	-22,324	-4,004	-17,23	6,7019
5218	-26,425	-3,9952	11,692	8,2268
5219	-23,207	-4,0037	-17,694	5,9155
5220	-21,091	-4,0248	-11,222	10,457
5221	-25,106	-3,9946	9,8408	11,093
5222	-22,401	-4,03	-12,96	9,0399
5223	-25,993	-3,9909	10,312	10,195
5224	-21,934	-4,0374	-11,737	9,9996
5225	-26,888	-3,9952	10,803	9,0704
5226	-25,156	-3,991	7,5344	14,683
5227	-25,57	-4,0021	8,9335	12,205
5228	-21,91	-4,0171	-15,912	7,5465
5229	-26,452	-3,9891	9,4174	11,252
5230	-22,791	-4,0139	-16,375	6,8402
5231	-27,35	-3,9897	9,91	10,133
5232	-23,674	-4,0068	-16,829	6,0157
5233	-22,85	-4,0345	-12,133	9,4883
5234	-26,018	-4,0167	8,0325	13,61
5235	-26,91	-4,0153	8,5426	12,521
5236	-21,593	-4,0359	-10,601	10,875
5237	-27,808	-3,99	9,0239	11,401
5238	-25,59	-3,976	6,5838	16,896
5239	-22,401	-4,0386	-10,917	10,543
5240	-26,476	-4,0199	7,1218	15,338
5241	-25,916	-3,9736	5,3895	21,474
5242	-27,372	-4,0172	7,6661	13,965
5243	-22,373	-4,0197	-15,065	7,7672
5244	-28,267	-3,994	8,1555	12,82
5245	-23,257	-4,0121	-15,511	7,0362
5246	-26,964	-4,0071	6,2942	17,118
5247	-24,141	-4,0076	-15,965	6,1681
5248	-27,837	-3,9988	6,8059	15,498
5249	-23,29	-4,0373	-11,309	10,034
5250	-28,731	-4,0034	7,2938	14,334
5251	-22,839	-4,0227	-14,215	8,0508
5252	-19,927	-4,0128	-9,2257	11,731
5253	-23,723	-4,0122	-14,653	7,2939
5254	-26,65	-3,9446	4,9592	22,777
5255	-24,608	-4,009	-15,101	6,3844
5256	-20,928	-4,0374	-9,7697	11,49
5257	-27,48	-4,0172	5,5063	18,977
5258	-19,991	-4,0206	-8,0378	12,596
5259	-21,965	-4,0404	-9,7889	11,522
5260	-28,345	-4,0037	5,9817	16,962
5261	-20,809	-4,0463	-8,447	12,524
5262	-22,806	-4,0458	-10,128	11,183
5263	-29,183	-4,0134	6,4248	15,829
5264	-21,405	-4,053	-8,8141	12,339
5265	-20,375	-4,0249	-7,2591	13,374
5266	-23,714	-4,0367	-10,487	10,702
5267	-22,18	-4,0578	-9,0079	12,281
5268	-21,145	-4,0328	-7,5637	13,464
5269	-29,848	-4,0071	5,6722	16,956
5270	-23,187	-4,0514	-9,3297	11,996
5271	-21,936	-4,086	-7,885	13,441
5272	-30,345	-4,0159	5,1555	17,69
5273	-23,3	-4,0253	-13,371	8,4057
5274	-22,696	-4,052	-8,2028	13,281
5275	-24,187	-4,0142	-13,797	7,6264
5276	-29,044	-4,0132	5,2336	17,949
5277	-25,074	-4,0061	-14,238	6,677
5278	-23,583	-4,0327	-8,4936	13,031
5279	-27,986	-4,0463	4,5694	21,043
5280	-23,751	-4,0228	-12,527	8,8507
5281	-30,14	-4,0276	4,3046	18,787
5282	-30,651	-4,023	3,3707	19,893
5283	-30,808	-4,0028	2,4113	20,723
5284	-24,648	-4,0191	-12,948	8,047
5285	-25,539	-4,0107	-13,379	7,0632
5286	-31,384	-4,0313	1,401	20,848
5287	-24,211	-4,0268	-11,685	9,395
5288	-28,947	-4,03	4,0051	20,538
5289	-25,107	-4,0189	-12,095	8,5803
5290	-24,146	-4,0343	-9,6714	11,507
5291	-26,002	-4,0103	-12,52	7,5679
5292	-29,621	-4,0183	3,1837	20,888
5293	-31,64	-4,0501	0,83003	20,844
5294	-30,111	-4,0317	2,5081	21,328
5295	-24,66	-4,0234	-10,838	10,074
5296	-24,516	-4,0394	-8,8725	12,488
5297	-25,571	-4,0157	-11,231	9,2557
5298	-30,639	-4,1567	1,3606	21,745
5299	-26,464	-4,0091	-11,654	8,2242
5300	-31,575	-4,0134	0,1137	20,918
5301	-25,104	-4,0166	-9,9818	10,918
5302	-29,757	-4,0137	-0,98265	22,441
5303	-26,017	-4,0111	-10,366	10,103
5304	-25,528	-4,0235	-9,1185	11,962
5305	-26,925	-4,0069	-10,783	9,0611
5306	-30,546	-4,0146	-0,9738	21,78
5307	-30,014	-4,2179	-1,2815	22,165
5308	-31,559	-3,7431	-0,89002	20,794
5309	-29,704	-4,3109	-1,5685	22,566
5310	-26,471	-4,0207	-9,4805	11,159
5311	-30,691	-4,2537	-1,3565	21,433
5312	-27,391	-4,0076	-9,9113	10,097
5313	-31,484	-4,0877	-1,4819	20,795
5314	-30,534	-4,337	-2,0201	21,295
5315	-27,868	-4,0099	-9,0408	11,333
5316	-31,259	-4,0443	-2,3388	20,557
5317	-28,34	-4,0061	-8,1869	12,73
5318	-30,844	-3,794	-3,0427	20,054
5319	-30,502	-3,9948	-3,9047	19,195
5320	-28,816	-4,014	-7,3155	14,262
5321	-29,22	-3,9875	-6,4659	15,758
5322	-29,647	-3,9998	-5,5817	17,08
5323	-30,052	-4,0055	-4,7758	18,134
5324	-19,59	-0,99241	-9,2888	11,622
5325	-20,567	-1,0049	-9,6742	11,52
5326	-21,57	-0,99925	-10,112	11,253
5327	-22,458	-0,98789	-10,612	10,794
5328	-23,363	-0,98583	-11,09	10,208
5329	-29,991	-4,0967	-2,377	21,75
5330	-29,526	-4,0131	-3,5762	20,588
5331	-28,711	-3,9399	-4,7899	18,949
5332	-27,106	-3,7744	-4,3812	25,055
5333	-26,483	-4,2129	-4,8756	23,916
5334	-28,269	-3,9909	-6,0094	16,953
5335	-27,491	-3,9012	-5,6437	18,452
5336	-26,86	-4,0667	-5,5574	19,404
5337	-20,732	-4,0427	-6,3514	14,422
5338	-21,043	-4,0422	-5,4274	15,681
5339	-21,53	-4,0454	-6,6723	14,691
5340	-21,844	-4,0267	-5,7739	16,275
5341	-22,305	-4,0384	-7,0042	14,783
5342	-22,687	-4,091	-6,1024	16,728
5343	-23,102	-4,0649	-7,3398	14,684
5344	-23,486	-4,0324	-6,4598	16,722
5345	-23,953	-4,0327	-7,6558	14,394
5346	-24,294	-4,0702	-6,8225	16,229
5347	-24,853	-4,0352	-7,9279	13,974
5348	-25,097	-4,0836	-7,1387	15,605
5349	-25,742	-4,0772	-7,2747	15,17
5350	-25,968	-4,0432	-8,0283	13,648
5351	-26,969	-4,0309	-8,6122	12,388
5352	-23,831	-0,97359	-10,245	10,926
5353	-22,943	-0,97101	-9,8139	11,481
5354	-24,301	-0,95829	-9,3893	11,827
5355	-22,074	-0,98026	-9,3186	11,97
5356	-23,416	-0,95415	-9,0123	12,355
5357	-22,568	-0,96154	-8,6808	12,689
5358	-19,883	-0,9953	-8,4041	12,294
5359	-21,057	-0,99413	-8,7218	12,354
5360	-24,705	-0,96276	-8,5927	12,878
5361	-20,173	-0,9856	-7,5185	13,066
5362	-23,869	-0,93086	-8,2222	13,447
5363	-21,029	-0,99053	-7,6849	13,299
5364	-23,06	-0,93586	-7,9332	13,734
5365	-21,993	-0,97297	-8,0009	13,328
5366	-27,488	-4,0385	-7,7844	13,701
5367	-27,936	-4,0196	-6,9144	15,267
5368	-25,077	-0,97417	-7,7707	14,26
5369	-20,527	-0,99416	-6,4921	14,136
5370	-24,185	-0,92998	-7,4093	14,907
5371	-21,412	-0,99005	-6,7802	14,472
5372	-23,23	-0,95832	-7,2156	14,972
5373	-22,313	-0,9719	-7,0007	14,797
5374	-26,75	-4,0833	-7,3175	14,814
5375	-27,205	-4,056	-6,5235	16,41
5376	-20,86	-0,97388	-5,5692	15,322
5377	-21,722	-0,96204	-5,9269	15,873
5378	-25,403	-0,95466	-6,9002	16,135
5379	-22,588	-0,94921	-6,1594	16,503
5380	-24,484	-0,98383	-6,6273	16,818
5381	-23,544	-0,98152	-6,3798	16,97
5382	-26,111	-4,09	-6,7907	16,292
5383	-26,555	-4,097	-6,0809	18,015
5384	-25,957	-1,1316	-5,9117	19,192
5385	-24,836	-0,98754	-5,7438	20,028
5386	-23,89	-0,98959	-5,5242	20,155
5387	-21,205	-0,99742	-4,5869	16,865
5388	-22,966	-0,98725	-5,261	19,386
5389	-22,066	-0,96043	-4,9418	18,139
5390	-25,486	-4,0651	-6,2904	17,909
5391	-26,051	-4,0913	-5,3003	21,697
5392	-21,363	-4,0541	-4,47	17,309
5393	-22,141	-4,0445	-4,8633	18,519
5394	-23,001	-4,0202	-5,2468	19,547
5395	-23,876	-4,0317	-5,5789	19,846
5396	-24,707	-4,0466	-5,9347	18,968
5397	-21,541	-3,951	-3,4709	18,768
5398	-21,363	-2,9928	-3,1568	18,344
5399	-22,36	-4,0259	-3,9898	21,456
5400	-21,472	-2,0265	-3,345	18,602
5401	-22,402	-3,0151	-4,0429	21,639
5402	-23,313	-4,0163	-4,4326	24,021
5403	-21,641	-1,1652	-3,3389	19,287
5404	-22,394	-1,9958	-4,055	21,502
5405	-23,304	-3,0185	-4,4338	24,044
5406	-24,218	-4,0157	-4,6977	25,519
5407	-22,422	-1,0037	-4,0414	21,636
5408	-23,299	-2,0052	-4,4605	23,889
5409	-24,31	-3,3485	-4,6171	26,555
5410	-23,291	-0,98581	-4,4522	23,791
5411	-24,23	-2,0146	-4,7288	25,438
5412	-24,227	-0,99555	-4,6918	25,599
5413	-25,18	-0,99081	-4,8354	25,731
5414	-25,23	-1,9861	-4,7687	26,585
5415	-25,416	-3,2059	-4,3965	30,396
5416	-25,32	-3,8512	-4,5324	28,871
5417	-21,462	-3,9309	3,6595	18,352
5418	-22,403	-3,9979	4,083	21,302
5419	-23,293	-4,0012	4,49	23,624
5420	-24,309	-4,0055	4,8482	24,552
5421	-23,853	-4,0051	5,7255	19,244
5422	-26,262	-1,0173	-4,9122	24,467
5423	-27,028	-3,911	4,3233	26,308
5424	-28,031	-4,0142	3,6438	24,801
5425	-28,682	-4,0196	2,8903	23,987
5426	-26,451	-1,985	-4,762	25,168
5427	-29,213	-4,0202	2,0465	23,153
5428	-26,552	-2,984	-4,2395	29,037
5429	-29,602	-4,0363	0,91484	22,483
5430	-29,044	-3,9458	-4,2502	19,659
5431	-29,791	-4,0345	7,0121e-002	22,413
5432	-27,997	-3,878	-3,9262	23,776
5433	-30,633	-4,0513	0,14922	21,894
5434	-28,711	-3,993	-3,0224	23,65
5435	-29,369	-4,0466	-2,1053	22,794
5436	-21,282	-2,994	3,5035	17,905
5437	-22,387	-2,9993	4,0583	21,389
5438	-23,301	-2,999	4,4834	23,763
5439	-24,236	-3,0064	4,7878	25,048
5440	-25,502	-3,2477	5,0223	24,718
5441	-27,071	-3,1331	4,5535	24,232
5442	-28,195	-2,9855	4,1231	22,295
5443	-27,929	-2,9811	-3,6633	25,485
5444	-28,721	-3,0115	2,9641	23,59
5445	-28,744	-2,9883	-2,9793	23,389
5446	-29,23	-3,0274	2,108	22,845
5447	-29,261	-3,0094	-2,0217	22,869
5448	-29,589	-3,0539	1,1643	22,282
5449	-29,615	-3,0209	-0,96737	22,169
5450	-29,742	-3,0143	0,10021	22,059
5451	-5,4431	-1,7312	44,408	24,232
5452	-28,774	-1,9984	-2,9549	23,588
5453	-29,281	-1,9879	-1,9872	22,712
5454	-29,625	-2,0084	-0,91669	22,126
5455	-29,771	-2,0086	0,14987	22,058
5456	-29,579	-2,0254	1,2337	22,372
5457	-29,204	-2,0118	2,2013	22,913
5458	-28,707	-1,997	3,042	23,486
5459	-27,937	-1,8517	3,9293	23,955
5460	-26,922	-1,9207	4,0289	29,054
5461	-25,447	-2,271	4,8829	25,942
5462	-24,253	-2,016	4,7629	25,251
5463	-23,308	-1,9891	4,4892	23,789
5464	-22,395	-1,9893	4,0451	21,531
5465	-21,431	-1,9906	3,3873	18,483
5466	-28,006	-1,0159	-4,0564	23,331
5467	-28,809	-1,0032	-2,9601	23,527
5468	-29,3	-0,9952	-1,9612	22,957
5469	-29,633	-0,99208	-0,88877	22,447
5470	-21,55	-1,0506	3,4836	18,827
5471	-29,698	-0,98935	0,22273	22,394
5472	-22,359	-0,98279	3,9935	21,428
5473	-29,542	-0,98648	1,2751	22,724
5474	-23,331	-0,99183	4,4431	24,087
5475	-29,175	-0,99525	2,2571	23,22
5476	-24,349	-0,98922	4,7449	25,526
5477	-28,651	-0,97848	3,0744	23,873
5478	-25,447	-0,99235	4,9175	25,271
5479	-27,776	-0,87022	3,9136	24,678
5480	-26,823	-0,93842	4,171	28,771
5481	-5,6812	-1,0021	50,891	13,019
5482	-4,9534	-0,97701	51,387	14,154
5483	-6,2969	-0,99856	50,325	12,016
5484	-4,1845	-0,98879	51,805	15,287
5485	-6,8895	-0,98821	49,686	11,195
5486	-3,3757	-1,0001	52,161	16,263
5487	-7,389	-0,98784	48,95	10,662
5488	-2,5426	-1,0202	52,476	17,097
5489	-1,7314	-0,95096	52,708	17,773
5490	-0,84444	-0,97544	52,895	18,301
5491	2,0006e-002	-0,95798	52,924	18,393
5492	0,88307	-0,97803	52,834	18,16
5493	1,7692	-0,98346	52,643	17,636
5494	2,6237	-0,99037	52,395	16,974
5495	-7,9351	-0,99091	48,158	10,187
5496	-8,4088	-0,99267	47,291	10,113
5497	-8,8717	-0,99325	46,42	10,331
5498	-9,3539	-0,99311	45,546	10,58
5499	-9,8329	-0,99311	44,666	10,857
5500	-10,303	-0,99343	43,785	11,099
5501	-10,771	-0,99447	42,905	11,256
5502	-11,233	-0,99603	42,026	11,32
5503	-11,705	-0,99751	41,147	11,277
5504	-12,178	-0,99862	40,269	11,151
5505	-12,651	-0,99927	39,391	10,957
5506	-13,127	-0,99943	38,512	10,707
5507	-13,6	-0,99993	37,633	10,418
5508	-14,07	-0,99974	36,757	10,102
5509	-14,543	-0,99972	35,879	9,7674
5510	-15,016	-0,99975	35,001	9,4229
5511	-15,489	-0,99985	34,123	9,0753
5512	-15,962	-0,99992	33,245	8,7296
5513	-16,435	-0,99991	32,367	8,3897
5514	-16,908	-0,99982	31,489	8,0587
5515	-17,381	-0,9997	30,611	7,7388
5516	-17,854	-0,99961	29,733	7,4318
5517	-18,327	-0,99957	28,855	7,1391
5518	-18,799	-0,99958	27,976	6,8623
5519	-19,273	-0,99956	27,098	6,6011
5520	-19,745	-0,99954	26,22	6,3577
5521	-20,218	-0,99953	25,342	6,1326
5522	-20,691	-0,99951	24,464	5,9265
5523	-21,164	-0,99948	23,586	5,7405
5524	-21,637	-0,99945	22,708	5,5758
5525	-22,11	-0,99942	21,83	5,4339
5526	-22,583	-0,99938	20,952	5,3167
5527	-23,055	-0,99941	20,075	5,2268
5528	-23,528	-0,99902	19,198	5,1673
5529	-24,001	-0,99862	18,32	5,1429
5530	-24,475	-0,9982	17,444	5,159
5531	-24,948	-0,99704	16,562	5,2279
5532	-25,421	-0,99619	15,684	5,3571
5533	-25,896	-0,99547	14,815	5,5538
5534	-26,368	-0,99516	13,945	5,8501
5535	-26,832	-0,99493	13,085	6,2666
5536	-27,299	-0,99489	12,213	6,8455
5537	-27,775	-0,99708	11,322	7,6402
5538	-28,223	-0,99723	10,468	8,6379
5539	-28,683	-0,99951	9,5923	9,9198
5540	-29,142	-1,0021	8,7186	11,463
5541	-29,606	-1,0043	7,84	13,224
5542	-30,073	-1,0056	6,9614	15,053
5543	-30,564	-1,007	6,0717	16,755
5544	-31,025	-1,006	5,2101	17,96
5545	-31,476	-1,0022	4,3624	19,067
5546	-31,859	-0,99771	3,5038	19,898
5547	-32,154	-0,99328	2,6698	20,194
5548	-32,459	-0,98733	1,7959	20,414
5549	-32,601	-0,99087	0,93975	20,602
5550	-32,58	-0,98802	7,1075e-002	20,616
5551	-32,539	-0,99393	-0,87257	20,59
5552	-32,455	-0,99196	-1,7789	20,42
5553	-32,244	-0,99286	-2,6008	20,223
5554	-31,933	-0,99562	-3,4085	19,911
5555	-31,542	-0,99797	-4,2492	19,177
5556	3,4826	-0,99226	52,088	16,111
5557	-31,097	-0,99754	-5,1471	18,074
5558	4,2624	-0,97608	51,691	15,17
5559	-30,65	-0,99271	-6,0289	16,893
5560	5,1006	-0,97563	51,303	13,953
5561	-30,162	-0,99316	-6,8958	15,202
5562	5,807	-0,96678	50,779	12,821
5563	-29,69	-0,99934	-7,7505	13,411
5564	6,4493	-0,96006	50,314	11,685
5565	-29,226	-1,0007	-8,6084	11,65
5566	7,0175	-0,9855	49,645	10,852
5567	-28,761	-0,99851	-9,4691	10,103
5568	7,5017	-0,99203	48,988	10,361
5569	-28,294	-0,9974	-10,339	8,7915
5570	7,9092	-1,004	48,165	10,228
5571	-27,83	-0,99737	-11,209	7,7441
5572	8,3454	-1,0158	47,283	10,277
5573	-27,362	-0,99657	-12,073	6,943
5574	8,8108	-1,0099	46,411	10,454
5575	-26,896	-0,99687	-12,939	6,3336
5576	9,3107	-1,0097	45,544	10,666
5577	-26,429	-0,99722	-13,805	5,8805
5578	9,8128	-1,0029	44,652	10,907
5579	-25,962	-0,99802	-14,675	5,5494
5580	10,295	-1,0004	43,784	11,114
5581	-25,494	-0,99746	-15,548	5,3147
5582	10,772	-0,99776	42,896	11,263
5583	11,236	-0,99895	42,025	11,317
5584	11,71	-1,0007	41,148	11,273
5585	-25,027	-0,99743	-16,415	5,1601
5586	-24,56	-0,99742	-17,283	5,0659
5587	12,184	-1,0021	40,27	11,148
5588	-24,094	-0,99917	-18,148	5,0211
5589	12,65	-1,0023	39,389	10,958
5590	-23,626	-0,99741	-19,018	5,0139
5591	13,13	-1,0018	38,513	10,705
5592	-23,159	-0,99916	-19,883	5,0415
5593	13,601	-1,0013	37,631	10,417
5594	-22,692	-0,9991	-20,75	5,0955
5595	-22,225	-0,99742	-21,621	5,1722
5596	-21,758	-0,99745	-22,489	5,2704
5597	-21,291	-0,99751	-23,357	5,3864
5598	-20,824	-0,99866	-24,22	5,5186
5599	14,076	-1,	36,757	10,1
5600	-20,358	-0,99843	-25,087	5,6638
5601	14,549	-0,99969	35,874	9,764
5602	-19,89	-0,99753	-25,96	5,8206
5603	15,022	-0,99953	34,996	9,4193
5604	-19,423	-0,99749	-26,828	5,988
5605	15,494	-0,99937	34,121	9,0724
5606	-18,956	-0,99747	-27,695	6,1636
5607	-18,489	-0,99744	-28,563	6,3456
5608	-18,022	-0,99745	-29,431	6,5319
5609	-17,555	-0,99745	-30,298	6,7204
5610	-17,088	-0,99745	-31,166	6,909
5611	15,97	-0,99939	33,241	8,7247
5612	-16,621	-0,99745	-32,034	7,0953
5613	16,443	-0,99936	32,363	8,3849
5614	-16,154	-0,9974	-32,901	7,277
5615	16,916	-0,99935	31,484	8,0541
5616	-15,686	-0,99729	-33,769	7,452
5617	-15,219	-0,99719	-34,637	7,6181
5618	-14,752	-0,99715	-35,504	7,7738
5619	17,388	-0,99935	30,606	7,7343
5620	-14,285	-0,9972	-36,372	7,9184
5621	17,861	-0,99936	29,728	7,4275
5622	-13,818	-0,99731	-37,24	8,0522
5623	18,334	-0,99938	28,849	7,135
5624	-13,351	-0,99738	-38,107	8,1772
5625	18,806	-0,99947	27,971	6,8583
5626	-12,884	-0,99723	-38,975	8,2975
5627	19,277	-0,99936	27,095	6,5987
5628	-12,416	-0,99682	-39,843	8,4195
5629	19,75	-0,99941	26,216	6,3554
5630	-11,957	-0,9964	-40,702	8,5476
5631	20,223	-0,99959	25,337	6,1298
5632	-11,495	-0,99629	-41,562	8,6966
5633	20,696	-0,99955	24,459	5,9238
5634	-11,029	-0,99651	-42,419	8,8757
5635	21,169	-0,99959	23,58	5,7381
5636	-10,563	-0,99667	-43,278	9,0792
5637	21,642	-0,99955	22,702	5,5738
5638	-10,098	-0,99638	-44,139	9,2866
5639	22,114	-0,99942	21,824	5,4326
5640	-9,6392	-0,99556	-44,992	9,4523
5641	22,587	-0,99964	20,946	5,3156
5642	-9,1836	-0,99423	-45,842	9,5114
5643	23,059	-0,99977	20,068	5,2261
5644	-8,7353	-0,99124	-46,684	9,4009
5645	23,532	-0,99939	19,189	5,1673
5646	-8,2929	-0,98561	-47,524	9,088
5647	24,005	-0,99938	18,311	5,1438
5648	-7,8347	-0,99674	-48,32	8,7466
5649	24,477	-0,99964	17,433	5,1619
5650	-7,3644	-1,0049	-49,086	8,3015
5651	24,95	-0,99917	16,555	5,2307
5652	-6,8357	-0,98831	-49,785	7,7827
5653	25,423	-0,99911	15,676	5,3608
5654	-6,2017	-0,96834	-50,406	7,3598
5655	25,896	-0,99858	14,798	5,5687
5656	-5,6211	-0,97506	-51,016	7,0007
5657	26,369	-0,99775	13,919	5,8748
5658	-4,9295	-0,96829	-51,546	6,7361
5659	26,843	-0,99681	13,049	6,2965
5660	-4,1902	-0,99134	-52,01	6,5055
5661	27,317	-0,99562	12,174	6,8806
5662	-3,4058	-0,99307	-52,433	6,3255
5663	27,786	-0,9929	11,311	7,6474
5664	-2,6168	-0,99115	-52,781	6,1837
5665	28,258	-0,99161	10,445	8,6491
5666	28,73	-0,98896	9,5844	9,9052
5667	29,205	-0,988	8,7213	11,433
5668	-1,8239	-0,99971	-52,989	6,0901
5669	29,68	-0,98831	7,8543	13,196
5670	-1,0304	-0,98046	-53,098	6,041
5671	30,149	-0,99102	6,9768	15,076
5672	-0,17624	-0,98594	-53,076	6,0089
5673	30,614	-0,99458	6,0697	16,817
5674	0,7387	-0,98491	-53,028	6,0233
5675	31,063	-0,99967	5,1957	18,025
5676	1,5895	-0,97935	-52,922	6,0782
5677	31,501	-1,0015	4,3312	19,099
5678	2,4071	-0,96301	-52,712	6,169
5679	31,868	-0,9997	3,4776	19,906
5680	3,249	-0,98432	-52,467	6,3046
5681	32,153	-0,99592	2,604	20,202
5682	4,0489	-0,96875	-52,034	6,4835
5683	32,382	-0,98897	1,6877	20,445
5684	4,7981	-1,0048	-51,604	6,714
5685	32,524	-0,99244	0,76859	20,577
5686	5,5288	-1,003	-51,077	6,9731
5687	32,537	-0,96773	-6,5548e-002	20,597
5688	6,2037	-0,98338	-50,548	7,3036
5689	32,496	-0,95756	-0,96512	20,562
5690	6,7707	-1,0195	-49,951	7,6594
5691	32,427	-0,97493	-1,8521	20,401
5692	7,2702	-1,0097	-49,261	8,1673
5693	32,186	-0,97181	-2,7095	20,167
5694	7,7328	-1,0046	-48,475	8,665
5695	31,869	-0,98074	-3,547	19,885
5696	8,1836	-1,0065	-47,616	9,0123
5697	31,466	-0,99049	-4,3768	19,036
5698	8,6635	-1,0054	-46,753	9,3741
5699	31,031	-0,99628	-5,2043	17,957
5700	9,1356	-1,0041	-45,885	9,5117
5701	30,578	-0,99391	-6,0638	16,763
5702	9,6004	-1,0024	-45,002	9,4623
5703	30,141	-0,99247	-6,9171	15,154
5704	10,071	-1,0016	-44,156	9,2995
5705	29,711	-0,99114	-7,7493	13,411
5706	10,542	-1,	-43,294	9,0911
5707	29,245	-0,99056	-8,6159	11,631
5708	11,013	-0,99846	-42,432	8,885
5709	28,779	-0,99144	-9,4823	10,062
5710	11,485	-0,99728	-41,564	8,7035
5711	28,304	-0,99297	-10,357	8,7514
5712	11,951	-0,99682	-40,702	8,5514
5713	27,834	-0,99302	-11,22	7,724
5714	12,416	-0,99636	-39,831	8,422
5715	12,88	-0,99679	-38,97	8,3011
5716	13,348	-0,9972	-38,101	8,1804
5717	13,816	-0,99762	-37,233	8,0547
5718	27,365	-0,99399	-12,083	6,9272
5719	26,902	-0,99539	-12,938	6,3296
5720	26,434	-0,99615	-13,806	5,8754
5721	25,967	-0,99662	-14,674	5,5462
5722	25,495	-0,99715	-15,548	5,3147
5723	25,028	-0,99804	-16,415	5,1608
5724	24,565	-0,99729	-17,277	5,0658
5725	24,098	-0,99738	-18,145	5,02
5726	23,63	-0,99741	-19,012	5,0138
5727	23,163	-0,99743	-19,88	5,0404
5728	22,695	-0,99746	-20,748	5,0945
5729	22,228	-0,99748	-21,615	5,1722
5730	21,76	-0,9975	-22,483	5,2703
5731	21,293	-0,99752	-23,351	5,3864
5732	20,826	-0,99753	-24,219	5,5182
5733	20,354	-0,99854	-25,092	5,6656
5734	19,887	-0,99891	-25,958	5,8227
5735	19,424	-0,99757	-26,822	5,9882
5736	18,952	-0,99833	-27,693	6,1661
5737	18,484	-0,99792	-28,562	6,3486
5738	18,016	-0,99745	-29,43	6,5352
5739	17,55	-0,99778	-30,296	6,7233
5740	17,083	-0,99788	-31,163	6,9115
5741	16,617	-0,99814	-32,03	7,0974
5742	16,15	-0,99774	-32,898	7,2793
5743	15,684	-0,99742	-33,764	7,4537
5744	15,217	-0,99738	-34,632	7,6201
5745	14,756	-0,99761	-35,492	7,7734
5746	14,281	-0,99761	-36,366	7,922
5747	-11,015	-1,9937	-42,422	8,9076
5748	-11,483	-2,	-41,58	8,7139
5749	-10,548	-1,9932	-43,282	9,1216
5750	-11,951	-2,	-40,712	8,5551
5751	-10,082	-1,9932	-44,143	9,3378
5752	-12,418	-2,	-39,845	8,4194
5753	-9,6195	-1,9943	-45,007	9,507
5754	-12,885	-2,	-38,977	8,2963
5755	-9,1605	-1,9946	-45,867	9,561
5756	-13,352	-2,	-38,109	8,1759
5757	-8,6805	-2,	-46,786	9,4023
5758	-13,819	-2,	-37,242	8,0514
5759	-8,2524	-1,9794	-47,561	9,0609
5760	-14,285	-1,9991	-36,368	7,9199
5761	-7,7087	-1,7104	-48,396	8,6751
5762	-14,752	-1,9994	-35,5	7,7756
5763	-7,2968	-1,9972	-49,19	8,2113
5764	-15,219	-1,9995	-34,633	7,6197
5765	-6,7776	-1,5802	-49,703	7,7823
5766	-15,686	-1,9995	-33,765	7,4535
5767	-6,233	-1,9522	-50,559	7,2011
5768	-16,153	-1,9997	-32,898	7,2783
5769	-5,6136	-1,9561	-51,121	6,9046
5770	-16,62	-1,9998	-32,031	7,0959
5771	-4,8613	-2,0025	-51,697	6,6144
5772	-17,087	-1,9998	-31,163	6,9091
5773	-4,1744	-1,9935	-52,064	6,4336
5774	-17,555	-1,9984	-30,293	6,7194
5775	-3,3775	-1,9914	-52,465	6,2639
5776	-18,022	-1,9985	-29,426	6,5302
5777	-2,5312	-2,0019	-52,792	6,1215
5778	-18,492	-2,	-28,565	6,3414
5779	-1,9102	-2,143	-53,026	6,0451
5780	-18,959	-2,	-27,697	6,1585
5781	-0,93021	-1,9887	-53,087	5,9863
5782	-19,423	-1,9986	-26,825	5,9846
5783	-6,1248e-002	-1,9975	-53,102	5,9453
5784	-19,889	-1,9986	-25,959	5,8172
5785	0,79994	-1,9989	-53,075	5,9694
5786	-20,356	-1,9987	-25,093	5,6591
5787	1,7026	-1,9948	-52,997	6,046
5788	-20,822	-1,9989	-24,226	5,513
5789	2,5366	-1,9947	-52,789	6,1179
5790	-21,289	-1,9987	-23,358	5,3808
5791	3,2764	-1,9759	-52,494	6,2484
5792	-21,756	-1,9988	-22,492	5,2635
5793	4,0664	-1,9832	-52,106	6,414
5794	-22,223	-1,9989	-21,624	5,1647
5795	4,8696	-1,9949	-51,692	6,6391
5796	-22,69	-1,9992	-20,756	5,0858
5797	5,5246	-2,0216	-51,124	6,8788
5798	-23,157	-1,9995	-19,889	5,0303
5799	6,2122	-2,0266	-50,565	7,2195
5800	-23,624	-1,9996	-19,021	5,0015
5801	6,752	-2,0584	-50,019	7,573
5802	-24,092	-1,9995	-18,155	5,0041
5803	7,2617	-2,1055	-49,351	8,0605
5804	-24,559	-1,9997	-17,287	5,0467
5805	7,761	-2,	-48,502	8,6521
5806	-25,025	-2,	-16,43	5,131
5807	8,2054	-2,01	-47,614	9,0213
5808	-25,493	-2,	-15,563	5,2795
5809	8,6876	-2,	-46,77	9,4101
5810	-25,96	-1,9989	-14,682	5,5141
5811	9,1522	-1,9999	-45,908	9,5592
5812	-26,427	-2,0004	-13,816	5,8362
5813	9,6063	-2,0025	-45,013	9,5095
5814	-26,893	-1,999	-12,948	6,2843
5815	10,073	-2,0008	-44,148	9,3418
5816	-27,359	-1,9985	-12,083	6,8885
5817	10,556	-2,	-43,301	9,1161
5818	-27,829	-2,	-11,224	7,677
5819	11,024	-2,	-42,433	8,8992
5820	-28,291	-1,9993	-10,347	8,7416
5821	11,491	-2,	-41,566	8,7108
5822	-28,763	-2,	-9,4895	10,036
5823	11,952	-1,9965	-40,694	8,5578
5824	-29,217	-1,996	-8,6203	11,63
5825	12,418	-1,9962	-39,828	8,423
5826	-29,698	-2,	-7,7528	13,432
5827	12,885	-1,9968	-38,962	8,2998
5828	-30,158	-1,9951	-6,8921	15,261
5829	13,352	-1,9982	-38,096	8,179
5830	-30,63	-2,	-6,0207	16,918
5831	13,817	-1,9981	-37,23	8,0552
5832	-31,101	-2,	-5,1438	18,089
5833	14,284	-1,998	-36,363	7,9216
5834	-31,512	-1,9994	-4,2715	19,123
5835	14,751	-1,9984	-35,495	7,7766
5836	-31,923	-2,0023	-3,4303	19,858
5837	15,219	-1,9984	-34,628	7,6205
5838	-32,257	-2,0004	-2,6337	20,119
5839	15,687	-1,9994	-33,759	7,4535
5840	-32,465	-2,0014	-1,7827	20,281
5841	16,154	-1,9994	-32,892	7,2779
5842	-32,558	-1,9962	-0,87256	20,423
5843	16,622	-1,9992	-32,025	7,0955
5844	-32,649	-2,	-3,0202e-003	20,435
5845	17,088	-1,999	-31,158	6,9087
5846	-32,607	-1,9953	0,93158	20,417
5847	17,555	-1,9988	-30,291	6,7197
5848	-32,47	-1,986	1,8001	20,331
5849	18,021	-1,9992	-29,423	6,5311
5850	-32,257	-1,9993	2,6282	20,069
5851	18,487	-1,998	-28,558	6,3445
5852	-31,839	-1,9808	3,5367	19,83
5853	18,956	-1,9987	-27,689	6,1612
5854	-31,558	-2,0001	4,2904	19,165
5855	19,423	-1,9987	-26,823	5,985
5856	-31,095	-2,	5,1458	18,127
5857	19,889	-1,9986	-25,956	5,8173
5858	-30,58	-2,0032	6,0791	16,817
5859	20,363	-2,	-25,089	5,655
5860	-30,093	-2,0066	6,9404	15,148
5861	20,823	-1,9989	-24,222	5,5134
5862	-29,62	-2,0044	7,8311	13,266
5863	21,29	-1,9989	-23,354	5,3809
5864	-29,153	-2,0024	8,7071	11,479
5865	21,758	-1,9989	-22,487	5,2639
5866	-28,695	-1,9989	9,5744	9,9214
5867	22,225	-1,9989	-21,619	5,1646
5868	-28,231	-1,9962	10,45	8,6241
5869	22,692	-1,9989	-20,751	5,0856
5870	-27,768	-1,9948	11,321	7,6005
5871	23,16	-1,9988	-19,884	5,03
5872	-27,302	-1,9942	12,197	6,8195
5873	23,627	-1,9988	-19,016	5,0015
5874	-26,833	-1,9947	13,072	6,2385
5875	24,094	-1,9986	-18,148	5,0054
5876	-26,367	-2,	13,927	5,8329
5877	24,562	-1,9984	-17,281	5,0482
5878	-25,894	-2,	14,805	5,533
5879	25,029	-1,998	-16,413	5,1388
5880	-25,421	-2,	15,683	5,3313
5881	25,496	-1,997	-15,545	5,2895
5882	-24,948	-2,	16,562	5,2063
5883	25,963	-1,9953	-14,679	5,515
5884	-24,475	-2,	17,44	5,142
5885	26,43	-1,9948	-13,811	5,8378
5886	-24,001	-1,9981	18,319	5,1276
5887	26,897	-1,9945	-12,943	6,2868
5888	-23,528	-1,9989	19,197	5,1539
5889	27,363	-1,9932	-12,078	6,8906
5890	-23,055	-1,9995	20,075	5,2149
5891	27,829	-1,9923	-11,212	7,6957
5892	-22,583	-1,9999	20,953	5,3061
5893	28,297	-1,9924	-10,347	8,7366
5894	-22,111	-2,	21,83	5,4237
5895	28,766	-1,9917	-9,4869	10,038
5896	-21,637	-2,0001	22,709	5,5673
5897	29,232	-1,9904	-8,628	11,614
5898	-21,164	-2,0002	23,587	5,7327
5899	29,709	-2,	-7,7322	13,469
5900	-20,691	-2,0008	24,465	5,9191
5901	30,13	-1,9913	-6,9218	15,198
5902	-20,22	-2,	25,343	6,1246
5903	30,573	-1,994	-6,0613	16,796
5904	-19,747	-2,	26,221	6,3501
5905	31,025	-1,9927	-5,2083	17,97
5906	-19,277	-2,	27,095	6,5925
5907	31,492	-1,9894	-4,3471	19,065
5908	-18,801	-2,0003	27,972	6,8554
5909	31,899	-1,9827	-3,5101	19,863
5910	-18,331	-2,	28,851	7,1313
5911	32,212	-1,9848	-2,6636	20,074
5912	-17,858	-2,	29,729	7,4244
5913	32,439	-1,9755	-1,8081	20,256
5914	-17,385	-2,	30,607	7,7318
5915	32,578	-1,98	-0,91906	20,407
5916	-16,912	-2,	31,485	8,0523
5917	32,602	-1,974	-4,0881e-002	20,434
5918	-16,439	-2,	32,364	8,384
5919	32,619	-2,0688	0,72176	20,432
5920	-15,964	-2,0008	33,243	8,7262
5921	32,438	-2,0013	1,7306	20,265
5922	-15,491	-2,0008	34,121	9,0727
5923	32,26	-2,0005	2,6281	20,107
5924	-15,02	-2,001	34,999	9,4211
5925	31,959	-2,0015	3,461	19,892
5926	-14,548	-2,	35,876	9,7667
5927	31,564	-1,9999	4,2812	19,171
5928	-14,075	-2,0008	36,755	10,104
5929	31,1	-2,	5,1378	18,113
5930	-13,602	-2,0002	37,633	10,423
5931	30,626	-2,	6,0171	16,941
5932	-13,129	-2,	38,511	10,713
5933	30,147	-1,9937	6,9529	15,173
5934	-12,656	-2,	39,389	10,962
5935	29,675	-1,9898	7,8305	13,275
5936	-12,183	-2,	40,267	11,156
5937	29,2	-1,9884	8,6953	11,49
5938	-11,711	-2,	41,145	11,28
5939	28,726	-1,9884	9,5617	9,9274
5940	-11,238	-2,	42,023	11,321
5941	28,255	-1,9897	10,43	8,6402
5942	-10,765	-2,	42,902	11,27
5943	27,787	-2,	11,289	7,6346
5944	-10,292	-2,	43,78	11,129
5945	27,314	-2,	12,167	6,8465
5946	-9,819	-2,	44,658	10,912
5947	26,841	-2,	13,046	6,2602
5948	-9,352	-1,9896	45,55	10,62
5949	26,368	-2,	13,924	5,8346
5950	-8,8726	-2,	46,416	10,386
5951	25,896	-1,9976	14,8	5,5361
5952	-8,4003	-2,	47,296	10,178
5953	25,423	-1,9986	15,677	5,3341
5954	-7,9416	-1,9999	48,156	10,184
5955	24,949	-2,	16,559	5,2068
5956	-7,4793	-2,0023	48,932	10,469
5957	24,476	-2,	17,437	5,1424
5958	-6,9553	-2,0008	49,638	10,98
5959	24,004	-1,9999	18,313	5,1278
5960	-6,3318	-2,0511	50,355	11,838
5961	23,532	-2,0001	19,191	5,1535
5962	-5,7076	-2,0001	50,882	12,853
5963	23,059	-2,0002	20,069	5,2143
5964	-4,995	-1,9946	51,323	13,948
5965	22,586	-2,	20,947	5,3052
5966	-4,2412	-2,	51,859	15,07
5967	22,113	-2,	21,825	5,4233
5968	-3,4082	-1,9943	52,165	16,043
5969	21,641	-1,9998	22,703	5,5656
5970	-2,5693	-1,9983	52,477	16,935
5971	21,168	-1,9998	23,582	5,7307
5972	-1,7182	-2,0063	52,733	17,633
5973	20,695	-1,9998	24,46	5,917
5974	-0,93337	-1,7424	52,864	18,058
5975	20,222	-1,9998	25,338	6,1233
5976	-5,8319e-003	-1,9999	52,919	18,198
5977	19,75	-1,9998	26,215	6,3486
5978	0,84645	-1,9814	52,867	18,07
5979	19,277	-1,9997	27,093	6,5921
5980	1,7469	-1,9999	52,747	17,63
5981	18,805	-1,9996	27,971	6,8531
5982	2,5952	-1,9881	52,441	16,866
5983	18,332	-1,9996	28,849	7,1305
5984	3,4587	-1,9914	52,127	15,982
5985	17,859	-1,9995	29,728	7,4235
5986	4,2858	-1,989	51,755	14,977
5987	17,387	-1,9993	30,605	7,7306
5988	4,988	-1,9999	51,412	13,943
5989	16,914	-1,9994	31,484	8,0513
5990	5,7577	-1,9729	50,829	12,809
5991	16,441	-1,9994	32,362	8,3829
5992	6,4027	-1,9801	50,28	11,71
5993	15,967	-1,9996	33,239	8,7241
5994	7,1856	-2,0148	49,504	10,558
5995	15,494	-1,9994	34,117	9,0709
5996	7,4932	-1,9979	48,958	10,392
5997	15,021	-1,9994	34,996	9,4198
5998	7,9126	-2,0103	48,157	10,263
5999	14,549	-1,9996	35,874	9,7659
6000	8,3991	-2,	47,297	10,175
6001	14,076	-2,0001	36,752	10,103
6002	8,8707	-2,	46,418	10,388
6003	13,601	-2,001	37,631	10,423
6004	9,3437	-2,	45,54	10,65
6005	13,128	-2,	38,513	10,714
6006	9,8224	-2,0053	44,653	10,913
6007	12,655	-2,	39,391	10,963
6008	10,29	-2,	43,783	11,13
6009	12,182	-2,	40,27	11,157
6010	10,773	-1,9985	42,897	11,265
6011	11,708	-2,0034	41,144	11,282
6012	11,236	-2,	42,027	11,322
6013	27,361	-2,9962	-12,07	6,9036
6014	27,825	-2,9946	-11,205	7,7121
6015	26,897	-2,9982	-12,939	6,291
6016	28,3	-3,	-10,349	8,735
6017	26,431	-2,9993	-13,806	5,8415
6018	28,753	-2,9953	-9,4827	10,054
6019	25,964	-3,	-14,674	5,5172
6020	29,215	-2,9957	-8,6309	11,614
6021	25,497	-3,0004	-15,542	5,2904
6022	29,703	-3,0001	-7,7427	13,449
6023	25,03	-3,0007	-16,41	5,1394
6024	30,128	-2,9953	-6,9049	15,221
6025	24,563	-3,0009	-17,278	5,0484
6026	30,562	-2,9939	-6,067	16,79
6027	24,096	-3,0011	-18,145	5,0053
6028	31,024	-2,9946	-5,1992	17,972
6029	23,629	-3,0012	-19,013	5,0011
6030	31,489	-2,996	-4,336	19,068
6031	23,162	-3,0012	-19,881	5,0293
6032	31,959	-2,9986	-3,4618	19,894
6033	22,695	-3,0012	-20,749	5,0848
6034	32,212	-2,9785	-2,6216	20,099
6035	22,227	-3,0012	-21,617	5,1636
6036	32,554	-3,0103	-1,59	20,299
6037	21,76	-3,0012	-22,484	5,2628
6038	32,569	-2,9624	-0,82021	20,406
6039	21,293	-3,0012	-23,352	5,3796
6040	32,643	-2,789	0,36271	20,499
6041	20,826	-3,0012	-24,22	5,512
6042	32,722	-3,0427	1,137	20,345
6043	20,359	-3,0011	-25,087	5,658
6044	32,489	-2,9997	1,8052	20,233
6045	19,892	-3,0009	-25,955	5,8159
6046	32,249	-2,9956	2,6985	20,099
6047	19,429	-3,	-26,825	5,9809
6048	31,921	-3,0106	3,5451	19,868
6049	18,961	-3,	-27,693	6,1576
6050	31,565	-2,9999	4,2816	19,181
6051	18,489	-2,9998	-28,557	6,3437
6052	31,081	-3,0149	5,2267	18,052
6053	18,021	-2,9999	-29,424	6,5308
6054	30,627	-3,	6,0149	16,941
6055	17,555	-3,	-30,292	6,7197
6056	30,143	-3,0024	6,9435	15,185
6057	17,088	-3,0006	-31,159	6,9087
6058	29,681	-3,	7,7713	13,404
6059	16,624	-3,0016	-32,024	7,0945
6060	29,208	-3,	8,6496	11,59
6061	16,156	-3,0017	-32,891	7,2769
6062	28,735	-3,	9,5279	9,9938
6063	15,687	-3,0009	-33,761	7,4535
6064	28,262	-3,	10,406	8,6776
6065	15,219	-3,0007	-34,628	7,6201
6066	27,789	-3,	11,285	7,641
6067	14,754	-3,0018	-35,494	7,7751
6068	27,316	-3,	12,163	6,8506
6069	14,287	-3,0016	-36,362	7,9198
6070	26,843	-3,	13,041	6,263
6071	13,82	-3,0012	-37,229	8,0534
6072	26,369	-2,9976	13,923	5,8352
6073	13,353	-3,0007	-38,097	8,1781
6074	25,896	-2,9988	14,801	5,5347
6075	12,886	-3,0001	-38,964	8,2987
6076	25,423	-2,9991	15,678	5,3331
6077	12,418	-2,9984	-39,831	8,4226
6078	24,95	-2,9997	16,557	5,2074
6079	11,952	-2,9992	-40,697	8,5578
6080	24,477	-3,0003	17,435	5,1425
6081	11,484	-2,9989	-41,563	8,7168
6082	24,005	-3,0006	18,313	5,1274
6083	11,014	-2,9989	-42,429	8,9066
6084	23,532	-3,0008	19,191	5,1534
6085	10,549	-3,	-43,314	9,1184
6086	23,059	-3,0007	20,07	5,2143
6087	10,082	-3,	-44,182	9,3388
6088	22,586	-3,0005	20,947	5,3055
6089	9,6148	-3,	-45,05	9,5118
6090	22,113	-3,0004	21,825	5,4235
6091	9,1477	-3,	-45,918	9,5616
6092	21,641	-3,	22,703	5,5655
6093	8,6947	-3,0039	-46,74	9,4119
6094	21,168	-3,	23,581	5,7307
6095	8,2401	-2,9984	-47,586	9,0575
6096	20,695	-3,	24,46	5,917
6097	7,9768	-2,9156	-48,39	8,7278
6098	20,222	-3,	25,338	6,1233
6099	7,5193	-3,0443	-48,951	8,3826
6100	19,749	-3,0002	26,215	6,3495
6101	6,7784	-3,0431	-49,913	7,642
6102	19,276	-3,0002	27,093	6,593
6103	6,1763	-3,0413	-50,572	7,204
6104	18,803	-3,0001	27,971	6,854
6105	5,5078	-3,0431	-51,142	6,8925
6106	18,33	-3,	28,849	7,1316
6107	4,7844	-3,0288	-51,677	6,6186
6108	17,857	-3,	29,727	7,4246
6109	4,1198	-2,9974	-52,139	6,4182
6110	17,385	-2,9996	30,605	7,7315
6111	3,279	-3,0089	-52,498	6,249
6112	16,912	-2,9997	31,483	8,0521
6113	2,5273	-2,9976	-52,794	6,119
6114	16,441	-3,	32,361	8,3828
6115	1,7122	-3,0136	-53,021	6,0345
6116	15,965	-2,9998	33,239	8,7249
6117	0,91192	-3,0252	-53,114	5,9878
6118	15,493	-2,9997	34,117	9,0715
6119	6,4004e-002	-3,0134	-53,11	5,9384
6120	15,021	-2,9996	34,996	9,4202
6121	-0,79095	-3,0219	-53,074	5,9756
6122	14,549	-3,	35,874	9,7659
6123	-1,6402	-3,0199	-52,951	6,0366
6124	14,076	-3,	36,752	10,103
6125	-2,5406	-3,0057	-52,788	6,1276
6126	13,601	-3,0002	37,63	10,423
6127	-3,3505	-3,0057	-52,5	6,2558
6128	13,13	-3,	38,509	10,712
6129	-4,1301	-3,0057	-52,134	6,4132
6130	12,657	-3,	39,387	10,962
6131	-4,9242	-2,9953	-51,69	6,6187
6132	12,184	-3,	40,266	11,156
6133	-5,6656	-2,7915	-51,363	6,8115
6134	11,711	-3,	41,144	11,28
6135	-6,1781	-3,0145	-50,631	7,1732
6136	11,238	-3,	42,022	11,321
6137	-6,7189	-2,8964	-50,111	7,5009
6138	10,765	-3,	42,901	11,271
6139	-7,244	-3,0028	-49,249	8,1593
6140	10,292	-3,	43,779	11,131
6141	-7,7611	-3,	-48,502	8,6323
6142	9,8372	-3,0074	44,656	10,884
6143	-8,2168	-3,	-47,647	9,0244
6144	9,3462	-3,	45,537	10,65
6145	-8,6875	-3,	-46,771	9,4106
6146	8,873	-3,	46,416	10,389
6147	-9,152	-3,0002	-45,909	9,5607
6148	8,4006	-3,	47,296	10,179
6149	-9,5996	-2,9957	-45,035	9,5141
6150	7,9525	-3,014	48,12	10,212
6151	-10,065	-2,9942	-44,169	9,3471
6152	7,4717	-3,0057	48,927	10,475
6153	-10,53	-2,993	-43,3	9,133
6154	6,9148	-2,9924	49,629	11,11
6155	-11,023	-3,	-42,435	8,9011
6156	6,3264	-3,0069	50,31	11,874
6157	-11,49	-3,	-41,567	8,7117
6158	5,5856	-2,8455	51,061	13,002
6159	-11,957	-3,	-40,699	8,5532
6160	4,9986	-3,	51,406	13,929
6161	-12,425	-3,	-39,832	8,4176
6162	4,2552	-2,9987	51,769	15,016
6163	-12,892	-3,	-38,964	8,2945
6164	3,422	-3,0008	52,135	16,023
6165	-13,349	-2,9996	-38,102	8,1799
6166	2,5462	-2,9965	52,446	16,908
6167	-13,817	-3,0004	-37,235	8,0545
6168	1,6787	-2,9952	52,706	17,573
6169	-14,285	-3,	-36,366	7,9203
6170	0,83022	-2,9944	52,893	18,118
6171	-14,751	-3,0013	-35,5	7,7761
6172	6,3736e-003	-3,	52,919	18,22
6173	-15,218	-3,0013	-34,633	7,6204
6174	-0,91053	-2,9974	52,877	18,071
6175	-15,685	-3,0013	-33,765	7,4538
6176	-1,8058	-2,9907	52,725	17,576
6177	-16,152	-3,0013	-32,897	7,2785
6178	-2,6109	-3,0067	52,455	16,882
6179	-16,619	-3,0015	-32,03	7,0962
6180	-3,4575	-2,9974	52,151	15,988
6181	-17,087	-3,0015	-31,162	6,909
6182	-4,2677	-3,0016	51,746	15,01
6183	-17,555	-3,0008	-30,294	6,7196
6184	-5,0445	-3,001	51,276	13,908
6185	-18,022	-3,0009	-29,427	6,5304
6186	-5,7819	-3,0101	50,741	12,76
6187	-18,489	-3,0009	-28,559	6,3435
6188	-6,6399	-2,9625	50,109	11,333
6189	-18,956	-3,0009	-27,692	6,1609
6190	-7,0608	-3,0131	49,553	10,794
6191	-19,423	-3,0009	-26,826	5,9847
6192	-7,5742	-3,0194	48,882	10,284
6193	-19,894	-3,	-25,962	5,8137
6194	-7,9429	-2,9999	48,157	10,182
6195	-20,361	-3,	-25,095	5,6558
6196	-8,4004	-3,	47,298	10,18
6197	-20,828	-3,	-24,227	5,5098
6198	-8,8716	-3,	46,419	10,381
6199	-21,289	-3,	-23,358	5,3808
6200	-9,3414	-2,9933	45,55	10,64
6201	-21,762	-3,	-22,491	5,2601
6202	-9,8071	-2,9911	44,673	10,911
6203	-22,222	-3,0004	-21,624	5,1651
6204	-10,278	-2,9894	43,794	11,133
6205	-22,689	-3,0014	-20,759	5,0855
6206	-10,762	-3,	42,906	11,268
6207	-23,157	-3,0008	-19,89	5,0299
6208	-11,235	-3,	42,028	11,319
6209	-23,624	-3,001	-19,022	5,001
6210	-11,708	-3,	41,15	11,28
6211	-24,092	-3,0013	-18,155	5,0041
6212	-12,179	-2,9958	40,271	11,159
6213	-24,565	-3,	-17,285	5,0427
6214	-12,654	-2,9975	39,392	10,963
6215	-25,026	-3,0021	-16,421	5,1358
6216	-13,129	-2,9992	38,513	10,713
6217	-25,499	-3,	-15,55	5,2826
6218	-13,603	-3,0003	37,634	10,422
6219	-25,96	-3,0037	-14,687	5,5106
6220	-14,077	-3,0015	36,756	10,103
6221	-26,427	-3,0037	-13,821	5,8316
6222	-14,55	-3,0015	35,877	9,7658
6223	-26,892	-3,0019	-12,955	6,2772
6224	-15,022	-3,0019	35,	9,4201
6225	-27,358	-3,0013	-12,089	6,8807
6226	-15,494	-3,0015	34,121	9,0716
6227	-27,823	-3,0003	-11,221	7,6862
6228	-15,966	-3,0012	33,243	8,7249
6229	-28,289	-3,0014	-10,354	8,7311
6230	-16,438	-3,0007	32,363	8,3845
6231	-28,755	-3,0033	-9,4875	10,043
6232	-16,91	-3,0002	31,484	8,0534
6233	-29,22	-2,9986	-8,6245	11,619
6234	-17,381	-2,9998	30,603	7,7336
6235	-29,704	-3,	-7,741	13,451
6236	-17,854	-2,9999	29,722	7,4262
6237	-30,142	-2,9927	-6,9058	15,224
6238	-18,327	-3,0003	28,845	7,133
6239	-30,599	-2,9936	-6,0419	16,857
6240	-18,802	-3,0009	27,969	6,8549
6241	-31,105	-3,	-5,1376	18,095
6242	-19,276	-3,0014	27,095	6,5931
6243	-31,561	-2,9999	-4,2916	19,156
6244	-19,748	-3,0016	26,219	6,3492
6245	-31,955	-3,0012	-3,4656	19,862
6246	-20,22	-3,0016	25,343	6,1242
6247	-32,221	-3,0126	-2,622	20,115
6248	-20,692	-3,0018	24,465	5,9184
6249	-32,474	-3,0001	-1,7645	20,278
6250	-21,165	-3,0013	23,587	5,732
6251	-32,605	-3,	-0,88477	20,416
6252	-21,637	-3,0008	22,709	5,5668
6253	-32,649	-3,	3,6066e-003	20,429
6254	-22,11	-3,0006	21,831	5,4241
6255	-32,573	-2,9995	0,93708	20,433
6256	-22,583	-3,0004	20,953	5,306
6257	-32,434	-2,9967	1,8013	20,345
6258	-23,056	-3,0001	20,075	5,2148
6259	-32,165	-2,9785	2,6739	20,008
6260	-23,528	-2,9998	19,196	5,1541
6261	-31,821	-2,9824	3,5797	19,819
6262	-24,001	-2,9994	18,319	5,128
6263	-31,461	-2,985	4,4488	19,01
6264	-24,473	-3,	17,444	5,1419
6265	-31,059	-2,9898	5,2844	18,006
6266	-24,945	-3,	16,566	5,2059
6267	-30,621	-3,	6,0265	16,918
6268	-25,418	-3,	15,688	5,3308
6269	-30,147	-3,	6,9055	15,249
6270	-25,891	-3,	14,81	5,5322
6271	-29,637	-3,0026	7,8067	13,318
6272	-26,364	-3,	13,932	5,8311
6273	-29,166	-3,0005	8,682	11,53
6274	-26,837	-3,	13,054	6,2553
6275	-28,728	-3,	9,5408	9,9698
6276	-27,31	-3,	12,175	6,8397
6277	-28,255	-3,	10,419	8,6596
6278	-27,783	-3,	11,297	7,6253
6279	11,013	-4,0007	-42,443	8,8836
6280	11,481	-4,0012	-41,576	8,7037
6281	10,541	-4,0003	-43,304	9,0907
6282	11,949	-4,0017	-40,708	8,5513
6283	10,082	-4,0005	-44,163	9,2952
6284	12,417	-4,002	-39,841	8,4189
6285	9,6219	-4,0019	-45,023	9,4578
6286	12,885	-4,0022	-38,973	8,297
6287	9,1634	-4,0049	-45,884	9,5145
6288	13,352	-4,0023	-38,105	8,1767
6289	8,7097	-4,0026	-46,732	9,3905
6290	13,82	-4,0024	-37,237	8,0517
6291	8,2638	-3,9977	-47,568	9,0699
6292	14,287	-4,0025	-36,37	7,9179
6293	7,8212	-4,0212	-48,417	8,6969
6294	14,754	-4,0025	-35,502	7,7733
6295	7,3223	-4,0066	-49,146	8,2649
6296	15,221	-4,0026	-34,634	7,6175
6297	6,728	-4,0337	-49,865	7,7241
6298	15,688	-4,0025	-33,766	7,4514
6299	6,1316	-4,0373	-50,514	7,3055
6300	16,155	-4,0025	-32,898	7,2765
6301	5,4827	-4,0371	-51,13	6,9605
6302	16,622	-4,0025	-32,03	7,0947
6303	4,7995	-4,0254	-51,67	6,6739
6304	17,089	-4,0025	-31,162	6,9083
6305	3,8903	-3,9583	-52,284	6,4237
6306	17,556	-4,0025	-30,294	6,7197
6307	3,2992	-4,0171	-52,498	6,3065
6308	18,024	-4,0025	-29,426	6,5311
6309	2,5322	-4,0156	-52,837	6,1723
6310	18,491	-4,0025	-28,559	6,3448
6311	1,7624	-4,0247	-53,028	6,0909
6312	18,958	-4,0024	-27,691	6,1628
6313	0,98605	-4,0273	-53,115	6,0425
6314	19,425	-4,0023	-26,823	5,9871
6315	0,16282	-4,0245	-53,085	6,002
6316	19,893	-4,0009	-25,95	5,8201
6317	-0,72986	-4,0163	-53,018	6,0228
6318	20,36	-4,0025	-25,087	5,6626
6319	-1,5653	-4,0181	-52,917	6,0738
6320	20,828	-4,0012	-24,214	5,5175
6321	-2,4385	-4,0266	-52,68	6,1738
6322	21,295	-4,0012	-23,346	5,386
6323	-3,302	-4,032	-52,434	6,3131
6324	21,762	-4,0012	-22,478	5,2702
6325	-4,1	-4,0198	-52,115	6,4748
6326	22,229	-4,0012	-21,611	5,1724
6327	-4,8897	-4,009	-51,727	6,6788
6328	22,696	-4,0012	-20,743	5,0951
6329	-5,5626	-4,0012	-51,267	6,8942
6330	23,163	-4,0012	-19,875	5,0414
6331	-6,1528	-4,0178	-50,684	7,2123
6332	23,63	-4,0012	-19,007	5,0154
6333	-6,6591	-4,0218	-49,969	7,6688
6334	24,097	-4,0011	-18,139	5,0222
6335	-7,1995	-4,0134	-49,254	8,1837
6336	24,564	-4,001	-17,272	5,0687
6337	-7,7202	-4,0043	-48,472	8,6594
6338	25,031	-4,0009	-16,404	5,1638
6339	-8,2005	-4,0037	-47,639	9,0166
6340	25,498	-4,0007	-15,536	5,3195
6341	-8,6719	-4,0023	-46,782	9,3769
6342	25,965	-4,0004	-14,669	5,552
6343	-9,1357	-3,9998	-45,913	9,5154
6344	26,431	-3,9997	-13,802	5,882
6345	-9,5822	-3,9971	-45,049	9,4689
6346	26,897	-3,9997	-12,933	6,3399
6347	-10,045	-3,9957	-44,183	9,3133
6348	27,361	-4,0004	-12,062	6,9603
6349	-10,526	-3,9957	-43,309	9,101
6350	27,819	-3,9988	-11,193	7,7801
6351	-10,997	-3,9961	-42,44	8,8959
6352	28,288	-3,9992	-10,332	8,8147
6353	-11,469	-3,997	-41,572	8,7143
6354	28,745	-4,0008	-9,4718	10,107
6355	-11,937	-3,9981	-40,704	8,5622
6356	29,206	-4,0009	-8,621	11,639
6357	-12,404	-3,9984	-39,838	8,4295
6358	29,658	-3,9994	-7,7704	13,362
6359	-12,876	-3,9994	-38,971	8,304
6360	30,105	-3,9981	-6,913	15,148
6361	-13,346	-4,0012	-38,105	8,1812
6362	30,58	-3,9943	-6,029	16,81
6363	-13,813	-4,0009	-37,238	8,0556
6364	31,018	-3,9969	-5,1964	17,948
6365	-14,281	-4,0015	-36,371	7,9213
6366	31,484	-4,0003	-4,329	19,075
6367	-14,748	-4,0018	-35,504	7,7765
6368	31,896	-4,0061	-3,4574	19,922
6369	-15,215	-4,0018	-34,636	7,6206
6370	32,199	-3,9762	-2,5831	20,201
6371	-15,682	-4,0017	-33,768	7,4543
6372	32,426	-3,9952	-1,6827	20,419
6373	-16,15	-4,0017	-32,901	7,2793
6374	32,554	-4,0098	-0,81269	20,614
6375	-16,617	-4,0026	-32,032	7,0971
6376	32,584	-4,0317	0,52636	20,658
6377	-17,085	-4,0026	-31,165	6,9107
6378	32,575	-4,0852	1,306	20,501
6379	-17,552	-4,0027	-30,297	6,722
6380	32,478	-3,995	1,8781	20,37
6381	-18,019	-4,0026	-29,429	6,5334
6382	32,244	-3,9933	2,749	20,16
6383	-18,485	-4,0008	-28,563	6,3476
6384	31,889	-4,0375	3,5515	19,906
6385	-18,952	-4,0012	-27,696	6,1658
6386	31,532	-4,0183	4,4251	19,095
6387	-19,421	-4,0027	-26,827	5,9891
6388	31,088	-4,0103	5,2594	18,031
6389	-19,889	-4,0027	-25,959	5,8217
6390	30,616	-4,008	6,1016	16,777
6391	-20,356	-4,0027	-25,092	5,6644
6392	30,138	-4,006	6,9409	15,128
6393	-20,823	-4,0026	-24,224	5,5189
6394	29,664	-4,0037	7,7867	13,343
6395	-21,29	-4,0025	-23,356	5,3871
6396	29,194	-4,0001	8,6468	11,602
6397	-21,757	-4,0026	-22,489	5,271
6398	28,724	-3,9979	9,5211	10,039
6399	-22,22	-4,0008	-21,627	5,1743
6400	28,255	-3,997	10,399	8,7347
6401	-22,687	-4,001	-20,76	5,0965
6402	27,789	-3,9973	11,285	7,6868
6403	-23,155	-4,001	-19,892	5,0415
6404	27,316	-3,9982	12,163	6,8952
6405	-23,627	-4,0028	-19,019	5,0138
6406	26,843	-3,9991	13,042	6,3037
6407	-24,094	-4,003	-18,151	5,0197
6408	26,371	-3,9999	13,92	5,8717
6409	-24,562	-4,0032	-17,284	5,065
6410	25,898	-4,0005	14,799	5,5661
6411	-25,029	-4,0035	-16,416	5,1587
6412	25,424	-4,	15,679	5,3581
6413	-25,496	-4,0038	-15,549	5,313
6414	24,951	-4,0001	16,557	5,2286
6415	-25,959	-4,0022	-14,691	5,5399
6416	24,478	-4,0005	17,435	5,1606
6417	-26,425	-4,0036	-13,825	5,8653
6418	24,005	-4,0005	18,313	5,1431
6419	-26,891	-4,0037	-12,961	6,3132
6420	23,532	-4,0006	19,192	5,167
6421	-27,357	-4,0036	-12,093	6,9219
6422	23,059	-4,0007	20,069	5,2263
6423	-27,822	-4,0026	-11,224	7,7278
6424	22,586	-4,0006	20,946	5,316
6425	-28,29	-4,0027	-10,355	8,7658
6426	22,113	-4,0004	21,825	5,4333
6427	-28,758	-4,005	-9,4918	10,057
6428	21,64	-4,0005	22,703	5,5749
6429	-29,225	-4,001	-8,627	11,611
6430	21,167	-4,0005	23,581	5,7394
6431	-29,701	-4,0061	-7,7492	13,403
6432	20,694	-4,0005	24,459	5,9253
6433	-30,158	-4,004	-6,8828	15,224
6434	20,221	-4,0001	25,337	6,1314
6435	-30,603	-4,0015	-6,032	16,821
6436	19,748	-4,0004	26,216	6,3565
6437	-31,051	-4,0018	-5,1843	17,994
6438	19,275	-4,0001	27,093	6,5997
6439	-31,496	-4,0058	-4,3521	19,067
6440	18,802	-4,	27,971	6,8603
6441	-31,867	-4,0002	-3,4878	19,891
6442	18,329	-4,	28,849	7,1375
6443	-32,148	-4,0205	-2,6293	20,202
6444	17,856	-4,0003	29,728	7,4305
6445	-32,365	-4,0261	-1,7495	20,43
6446	17,383	-4,0001	30,607	7,7375
6447	-32,532	-3,9972	-0,86396	20,577
6448	16,91	-3,9999	31,483	8,0572
6449	-32,531	-4,0227	3,0545e-002	20,62
6450	16,436	-4,	32,362	8,3884
6451	-32,474	-4,0168	0,91491	20,579
6452	15,964	-4,0002	33,241	8,7283
6453	-32,376	-4,0063	1,8103	20,43
6454	15,492	-3,9999	34,118	9,0733
6455	-32,063	-3,9998	2,6831	20,177
6456	15,017	-4,0003	34,998	9,4218
6457	-31,759	-3,9991	3,5876	19,826
6458	14,544	-4,0002	35,876	9,7665
6459	-31,422	-4,0031	4,4742	18,938
6460	14,071	-4,	36,754	10,102
6461	-31,038	-4,0001	5,3021	17,958
6462	13,598	-3,9998	37,632	10,419
6463	-30,6	-4,0031	6,0758	16,793
6464	13,125	-3,9998	38,511	10,708
6465	-30,118	-4,0038	6,9199	15,155
6466	12,653	-4,0006	39,387	10,957
6467	-29,653	-4,0004	7,779	13,359
6468	12,179	-4,0011	40,267	11,152
6469	-29,185	-3,9977	8,6515	11,593
6470	11,706	-4,0025	41,145	11,278
6471	-28,717	-3,9968	9,5256	10,033
6472	11,246	-4,002	42,022	11,309
6473	-28,251	-3,9968	10,409	8,7197
6474	10,783	-4,0027	42,901	11,246
6475	-27,783	-3,9976	11,292	7,6791
6476	10,31	-4,0078	43,782	11,094
6477	-27,31	-3,9987	12,17	6,891
6478	9,8499	-4,0053	44,661	10,837
6479	-26,837	-3,9996	13,048	6,3019
6480	9,3809	-4,0077	45,539	10,541
6481	-26,365	-4,0002	13,927	5,8716
6482	8,9092	-4,0116	46,413	10,269
6483	-25,892	-4,0004	14,805	5,5664
6484	8,4345	-4,0141	47,282	10,074
6485	-25,419	-4,0005	15,683	5,3594
6486	7,9668	-4,0165	48,137	10,12
6487	-24,947	-4,0006	16,561	5,2297
6488	7,4551	-4,0052	48,904	10,574
6489	-24,474	-4,0006	17,439	5,1618
6490	6,8012	-4,0167	49,676	11,393
6491	-24,001	-4,0006	18,317	5,1439
6492	6,2626	-4,0143	50,346	12,117
6493	-23,529	-4,0005	19,195	5,1678
6494	5,6417	-3,9949	50,897	13,084
6495	-23,056	-4,0006	20,074	5,2267
6496	4,9902	-4,0007	51,41	14,092
6497	-22,584	-4,0006	20,951	5,3164
6498	4,2135	-4,0215	51,812	15,256
6499	-22,111	-4,0006	21,829	5,4333
6500	3,3662	-4,0059	52,151	16,243
6501	-21,638	-4,0007	22,708	5,5752
6502	2,5134	-4,0042	52,44	17,099
6503	-21,165	-4,001	23,587	5,7398
6504	1,6529	-4,0102	52,677	17,722
6505	-20,692	-4,0014	24,465	5,9256
6506	0,79061	-4,0038	52,858	18,236
6507	-20,22	-4,0017	25,343	6,1316
6508	-7,907e-002	-4,0052	52,914	18,352
6509	-19,747	-4,0017	26,221	6,3567
6510	-0,98867	-4,0096	52,762	18,003
6511	-19,277	-4,0018	27,093	6,5984
6512	-1,8663	-4,0151	52,619	17,584
6513	-18,801	-4,0006	27,977	6,8608
6514	-2,666	-4,0057	52,436	16,996
6515	-18,327	-4,0005	28,841	7,1388
6516	-3,4884	-4,0079	52,11	16,114
6517	-17,852	-4,0001	29,718	7,4319
6518	-4,2986	-4,0073	51,686	15,126
6519	-17,378	-3,9992	30,603	7,7399
6520	-5,0659	-4,0046	51,2	14,05
6521	-16,91	-4,0003	31,483	8,0571
6522	-5,848	-4,0034	50,637	12,836
6523	-16,439	-4,0008	32,364	8,387
6524	-6,527	-4,0129	50,054	11,717
6525	-15,968	-4,001	33,243	8,7264
6526	-7,1412	-4,0219	49,496	10,713
6527	-15,493	-4,0014	34,125	9,0736
6528	-7,6418	-4,0153	48,846	10,138
6529	-15,023	-4,0015	35,	9,4191
6530	-8,0887	-4,0128	48,121	9,8509
6531	-14,551	-4,0014	35,878	9,7634
6532	-8,4869	-4,0221	47,259	9,9974
6533	-14,079	-4,0014	36,757	10,098
6534	-8,8925	-4,	46,427	10,278
6535	-13,605	-4,0006	37,635	10,415
6536	-9,3426	-4,0026	45,536	10,615
6537	-13,13	-3,9996	38,514	10,705
6538	-9,8019	-3,998	44,665	10,909
6539	-12,654	-3,9986	39,394	10,955
6540	-10,261	-3,9944	43,799	11,142
6541	-12,183	-3,9982	40,271	11,147
6542	-10,744	-3,9952	42,912	11,281
6543	-11,701	-3,997	41,152	11,278
6544	-11,226	-3,9959	42,03	11,322
6545	-3,6774	-2,1365	-48,004	10,808
6546	-4,3027	-2,0119	-47,038	13,644
6547	-4,6704	-1,995	-46,083	15,75
6548	-4,8459	-1,9823	-45,099	17,613
6549	-4,8262	-2,2707	-43,986	18,827
6550	-0,8	-2,0225	-40,246	23,087
6551	-4,3463	-2,4676	-42,555	20,633
6552	-1,7623	-2,0008	-40,351	23,549
6553	-3,4783	-2,0638	-41,676	22,494
6554	-2,6642	-2,0314	-41,045	22,724
6555	-3,9821	-1,0862	-48,188	9,9594
6556	-4,3655	-0,9966	-46,993	13,621
6557	-4,7194	-0,99202	-46,008	15,977
6558	-5,0194	-0,98087	-44,826	17,195
6559	-4,6083	-0,97445	-43,728	21,097
6560	-4,2904	-1,0212	-42,548	21,434
6561	-3,516	-1,0017	-41,745	23,599
6562	-2,6549	-1,0231	-41,03	24,29
6563	-1,8147	-1,0134	-40,556	24,932
6564	-0,87968	-1,0596	-40,224	24,774
6565	10,733	-4,0082	-36,638	10,424
6566	-0,92607	-3,9676	-40,239	24,93
6567	-3,459	-4,0238	-41,731	23,843
6568	-1,8709	-4,0322	-40,657	24,928
6569	-2,7058	-4,0324	-41,148	24,507
6570	26,222	-2,5299	-5,2202	22,271
6571	29,642	-1,7992	-2,5425	21,742
6572	-5,2438	-3,1007	-48,27	9,1794
6573	-5,825	-2,0616	40,953	20,049
6574	-2,569	-1,7792	50,453	16,75
6575	-4,1844	-2,0054	49,713	16,102
6576	-3,6564	-3,1275	-50,424	6,7724
6577	-4,4232	-3,2878	-50,102	7,2267
6578	5,7696	-1,8896	-43,54	14,56
6579	-3,4143	-1,9153	50,091	16,822
6580	1,3638	-1,7594	-50,277	5,4995
6581	-5,0376	-3,2841	-49,133	8,2354
6582	30,502	-3,1648	1,563	21,225
6583	20,184	-1,9695	-2,9725	15,711
6584	-26,701	-0,97476	-4,8983	23,082
6585	-1,8727	-1,9202	50,918	16,371
6586	-9,134	-2,5711	-9,2879	8,4236
6587	5,1372	-3,9922	43,619	25,427
6588	-0,65009	-2,0506	-0,16374	8,3474
6589	-4,4538	-2,7672	49,045	17,078
6590	-5,6939	-1,8762	-48,669	8,6122
6591	30,243	-3,2918	1,0082	21,653
6592	4,6637	-3,023	48,533	17,309
6593	-1,3608	-2,096	-1,1884	8,3321
6594	-13,881	-2,2866	0,58377	11,873
6595	-1,081	-1,99	51,245	16,197
6596	-2,0721	-1,9591	-0,11095	8,4082
6597	-2,4804	-2,2069	-1,4074	8,3811
6598	9,2569e-003	-2,0426	-0,98281	8,309
6599	-5,5977	-2,1374	-48,124	9,2568
6600	-5,0505	-1,8505	-48,884	8,3453
6601	30,704	-2,7118	2,216	20,904
6602	30,22	-2,9393	3,039	20,364
6603	-5,9524	-3,0473	-47,563	9,6221
6604	5,4132	-3,1691	48,239	16,224
6605	-5,2246	-2,9766	48,842	15,672
6606	-6,034	-3,0275	47,861	15,206
6607	-2,5859	-2,3617	50,239	16,68
6608	-5,687	-1,8636	47,896	16,247
6609	3,7937e-002	-1,9946	0,84462	8,3284
6610	-3,3182	-2,2244	-0,15793	8,5085
6611	0,6918	-2,2327	-2,1728e-002	8,3505
6612	-1,4915	-2,2929	0,92307	8,3576
6613	-1,8131	-2,3192	-2,3362	8,251
6614	-0,34971	-2,0442	-2,0859	8,2302
6615	-26,82	-1,8795	4,9468	22,456
6616	-0,76673	-1,7599	51,532	16,441
6617	4,7131	-1,8152	49,448	16,105
6618	-5,0804	-1,8066	-43,63	17,511
6619	-6,1208	-1,8828	-47,518	9,5287
6620	-4,6642	-1,6525	-49,351	7,8774
6621	31,109	-1,8014	-1,8039	20,727
6622	26,762	-3,0555	-5,115	21,942
6623	29,634	-3,001	-3,5285	20,36
6624	31,165	-3,0887	1,6451	20,704
6625	29,913	-3,1002	3,8546	19,586
6626	1,7833	-3,2387	-51,339	5,9463
6627	1,0145	-3,1998	-51,046	5,5912
6628	6,1628	-3,188	47,967	14,759
6629	-6,4385	-3,	-46,705	10,069
6630	-4,5541	-3,0289	49,327	16,632
6631	-6,5136	-3,0433	47,586	14,267
6632	-26,697	-3,2119	-5,0743	22,37
6633	20,693	-1,9654	-3,1005	16,553
6634	14,67	-2,224	-1,2768	12,363
6635	5,3759	-2,9601	-44,22	15,75
6636	-5,0469	-2,9844	-42,811	17,643
6637	-1,7758	-2,2389	50,586	16,521
6638	-1,4121	-2,7363	0,37763	8,3744
6639	-2,4928	-2,6141	0,68148	8,4256
6640	-6,3276	-2,0353	47,318	15,194
6641	0,5038	-2,1908	2,0046	8,2479
6642	-0,97833	-2,2263	2,0258	8,2594
6643	-2,7878	-2,0073	0,77314	8,4505
6644	-3,1035	-2,2772	-2,2478	8,3619
6645	1,088	-1,9591	-1,9747	8,2542
6646	-27,67	-1,7945	5,1188	20,34
6647	-27,959	-1,9933	-4,1673	23,063
6648	-0,22942	-1,7774	51,338	16,249
6649	4,4432	-1,8872	50,001	15,717
6650	-6,5059	-1,9861	-46,612	10,08
6651	-4,0676	-2,0247	-49,881	7,2535
6652	1,9549	-1,8316	-51,118	5,9832
6653	2,4596	-1,9201	-51,027	6,0709
6654	30,771	-1,8401	-2,2192	20,886
6655	0,22315	-3,1673	-50,831	5,3296
6656	-6,0398	-2,2164	-44,358	13,106
6657	27,393	-3,015	-5,1628	20,453
6658	28,937	-3,0786	-4,3757	19,734
6659	30,061	-2,9149	-2,7616	20,963
6660	31,194	-3,2196	0,85409	21,114
6661	29,372	-3,1613	4,58	18,853
6662	6,7936	-2,8716	-46,623	9,8138
6663	6,2668	-2,8508	-47,432	9,5116
6664	3,2357	-3,5055	-49,602	7,1525
6665	2,4335	-3,2734	-51,004	6,1517
6666	6,3873	-3,1899	47,198	15,271
6667	-6,8683	-3,0044	-45,857	10,328
6668	-3,5124	-3,1654	49,793	16,769
6669	-6,6413	-2,9857	46,567	15,517
6670	-27,277	-3,1332	-4,6373	22,863
6671	-0,6679	-2,1589	50,918	16,301
6672	0,58976	-3,2799	39,101	15,78
6673	-1,6853	-2,7645	1,615	8,3227
6674	-2,0245	-2,7806	-0,5252	8,3942
6675	-0,42945	-1,9226	38,943	15,711
6676	-6,5605	-1,9789	46,298	16,15
6677	-0,29649	-2,2022	2,8906	8,153
6678	-4,8682	-1,7666	48,508	17,138
6679	1,1684	-2,1991	0,97745	8,3371
6680	-2,3925	-2,0474	2,0674	8,3303
6681	1,3517	-2,2064	-1,1458	8,3321
6682	-2,4921	-2,1803	-3,5785	8,131
6683	0,66665	-2,1049	-2,8882	8,1379
6684	-0,83185	-2,1098	-3,2	8,0996
6685	-24,8	-1,978	6,0381	18,831
6686	-26,319	-1,9928	5,4919	20,706
6687	-28,616	-1,8827	5,395	18,134
6688	-29,105	-2,1673	-4,3477	19,471
6689	0,50255	-1,8197	51,147	16,134
6690	3,9762	-1,8557	50,028	15,993
6691	5,6149	-2,1504	48,333	15,601
6692	-4,8671	-2,2336	-41,446	17,787
6693	-5,0739	-1,8073	-42,742	17,346
6694	-5,7881	-1,8701	-43,632	14,563
6695	-6,9367	-1,9572	-45,733	10,374
6696	-3,6713	-1,9789	-50,057	7,0381
6697	1,2265	-1,7504	-50,948	5,6746
6698	2,7826	-1,9516	-50,478	6,3922
6699	6,5761	-1,814	-46,512	10,121
6700	30,881	-1,5064	-1,44	20,923
6701	30,302	-2,0125	-2,9409	20,302
6702	26,648	-1,9223	-5,6609	19,641
6703	1,5253	-2,9911	-1,453	8,3195
6704	-0,70573	-3,2362	-50,633	5,3596
6705	5,816	-3,1458	45,633	20,548
6706	24,843	-2,8219	-6,1564	18,484
6707	26,178	-2,9503	-5,6083	20,346
6708	28,38	-3,0615	-5,3437	18,481
6709	30,257	-2,6174	-1,6532	21,532
6710	30,887	-3,0383	0,39008	21,332
6711	28,87	-3,0536	5,3845	17,745
6712	6,9495	-3,027	-45,801	10,305
6713	5,5843	-2,7502	-48,394	8,895
6714	3,1151	-3,3085	-50,478	6,4701
6715	-5,5447	-2,9162	-43,305	15,333
6716	6,6884	-3,1944	46,325	15,675
6717	4,3322	-2,9288	49,724	16,172
6718	-7,2711	-2,9845	-45,023	10,546
6719	-2,7175	-3,098	50,327	16,634
6720	-7,2412	-2,9973	45,736	14,958
6721	-28,907	-3,3542	5,3124	17,915
6722	-30,726	-3,1126	-1,4969	21,034
6723	-30,597	-3,1612	-2,1828	20,863
6724	-28,638	-2,7968	-5,0715	18,444
6725	-29,079	-2,0165	4,2814	19,681
6726	-5,956	-1,9822	-45,231	12,455
6727	3,4228	-2,751	-49,128	7,8919
6728	3,9395	-3,4878	-48,373	9,4667
6729	-30,767	-2,5671	2,7324	21,145
6730	19,563	-3,0114	2,9709	15,079
6731	-5,7256	-1,7804	43,33	22,404
6732	-2,7772	-3,1555	-50,722	6,3731
6733	4,3597	-1,9854	48,377	18,327
6734	2,0429	-1,8482	-50,286	5,9029
6735	-5,8085	-2,8917	43,25	22,136
6736	-15,758	-2,4428	-0,61838	12,969
6737	1,1281	-3,2331	39,895	16,388
6738	-19,894	-1,9977	-3,0691	15,383
6739	2,6048e-002	-2,5433	-51,559	5,7256
6740	-1,845	-3,0818	-51,007	5,9323
6741	-6,5609	-2,4142	-44,979	11,532
6742	-26,341	-2,5685	8,5422	12,581
6743	5,4201	-2,6948	-49,042	8,2248
6744	-10,962	-2,4081	-0,80709	10,423
6745	-27,744	-2,2976	-5,5791	18,608
6746	0,24292	-2,2115	51,417	16,538
6747	3,2123	-3,359	-49,281	7,6163
6748	-7,3348	-2,3513	7,8894	8,114
6749	6,196	-2,5428	-45,912	11,355
6750	-0,5837	-3,1854	38,981	15,756
6751	-1,0858	-3,111	39,647	16,232
6752	-2,1558	-3,1209	39,602	17,734
6753	-5,7916	-2,8397	41,834	20,98
6754	-4,7338	-2,9223	41,411	22,341
6755	-3,0934	-3,1108	40,202	19,741
6756	-3,9438	-2,8741	40,798	21,486
6757	0,41816	-1,8167	39,078	15,654
6758	1,0874	-2,024	39,562	16,225
6759	2,2437	-2,1923	39,309	17,607
6760	3,2243	-2,0831	40,16	19,838
6761	5,5926	-2,1764	42,14	21,701
6762	4,0055	-2,0724	40,814	21,508
6763	4,873	-2,0409	41,486	22,295
6764	25,685	-1,8346	5,8268	19,73
6765	24,705	-1,887	5,6828	20,44
6766	19,133	-1,9909	0,91954	14,673
6767	19,151	-1,9857	-1,8484	14,735
6768	19,23	-1,9923	1,4836e-002	14,657
6769	19,249	-1,8822	-0,9291	14,703
6770	5,216	-3,0945	42,291	22,901
6771	2,4154	-2,9758	39,316	17,83
6772	3,1566	-3,0852	40,222	19,856
6773	4,6018	-3,0983	41,516	22,638
6774	3,9155	-3,0974	40,855	21,538
6775	20,426	-3,028	4,0532	15,966
6776	21,267	-3,019	4,4775	17,103
6777	22,101	-3,0173	4,9303	18,304
6778	22,944	-3,072	5,409	18,979
6779	23,964	-2,8606	5,7942	19,244
6780	24,769	-2,9941	6,0113	18,966
6781	23,926	-1,8574	5,4454	20,692
6782	22,971	-1,9532	5,2806	19,409
6783	20,351	-2,0189	4,1481	15,809
6784	22,091	-1,9985	4,9718	18,169
6785	21,237	-2,0118	4,5285	16,98
6786	-2,4402	-1,9671	39,672	18,177
6787	-3,0827	-1,8554	40,317	19,915
6788	-3,8325	-1,8309	40,841	21,524
6789	-5,3466	-1,8277	41,968	22,121
6790	-4,5948	-1,8678	41,56	22,797
6791	-5,8881	-1,8728	45,567	20,28
6792	-5,0517	-2,0418	47,665	18,371
6793	-5,6998	-2,0384	46,603	18,843
6794	3,0411	-1,9183	50,118	16,778
6795	1,9865	-1,9826	50,457	16,856
6796	0,94225	-1,9726	50,742	16,488
6797	-19,115	-1,9812	-1,8646	14,725
6798	-19,14	-1,9731	1,8549	14,749
6799	-19,249	-1,967	0,92308	14,725
6800	-19,231	-1,9641	-0,94517	14,71
6801	-19,247	-1,9531	-6,2567e-003	14,641
6802	6,0692	-2,1063	45,374	19,665
6803	6,1914	-1,9663	46,421	17,134
6804	5,7748	-2,0399	47,579	16,488
6805	29,033	-2,038	4,4474	19,4
6806	29,519	-2,1546	3,5622	20,414
6807	29,702	-2,2237	2,788	21,345
6808	30,363	-2,1372	1,765	21,578
6809	30,613	-2,1332	0,79029	21,535
6810	30,6	-1,7053	-0,97326	21,561
6811	30,784	-1,9237	-0,21328	21,405
6812	29,653	-2,0128	-3,5763	20,308
6813	28,52	-1,8031	-5,412	18,002
6814	28,994	-1,7711	-4,4078	19,601
6815	21,232	-1,9734	-4,5067	17,047
6816	22,077	-1,9701	-4,8752	18,388
6817	24,772	-1,8593	-5,7385	20,24
6818	22,948	-1,9561	-5,2732	19,409
6819	23,864	-1,9086	-5,5858	19,949
6820	1,7338	-1,9877	-39,169	24,474
6821	2,4898	-1,9234	-39,717	23,505
6822	3,2228	-1,974	-40,271	22,1
6823	3,9435	-1,9515	-40,873	20,452
6824	4,6299	-1,9055	-41,552	18,632
6825	5,3182	-1,8468	-42,253	16,402
6826	5,8782	-1,989	-45,69	12,024
6827	5,6655	-2,1009	-46,302	11,71
6828	5,913	-2,0787	-47,409	9,841
6829	4,8808	-2,1876	-48,868	8,5641
6830	3,8827	-1,9796	-49,472	7,6349
6831	3,4128	-2,2059	-50,26	6,8929
6832	0,42088	-1,822	-50,841	5,3617
6833	-0,64991	-2,0077	-50,98	5,5632
6834	-1,8007	-1,8775	-50,66	5,8847
6835	-2,959	-2,0214	-50,305	6,413
6836	5,5794	-3,0887	47,466	17,338
6837	5,8413	-3,2525	46,586	18,116
6838	27,957	-3,1099	5,0803	19,686
6839	28,567	-3,259	4,129	21,068
6840	29,12	-3,2126	3,4066	21,513
6841	29,569	-3,1454	2,58	21,876
6842	30,144	-2,9365	1,7874	21,808
6843	21,144	-3,0118	-4,5392	16,828
6844	22,06	-2,9807	-4,9642	18,209
6845	23,974	-2,7899	-5,925	18,793
6846	22,906	-3,0417	-5,6075	18,37
6847	30,415	-2,9356	5,6362e-003	21,705
6848	30,443	-2,8544	-0,93327	21,523
6849	19,217	-3,0713	-2,0164	14,79
6850	19,137	-3,0211	0,91315	14,676
6851	19,229	-3,0126	-0,96206	14,707
6852	19,227	-3,0206	-5,5319e-003	14,656
6853	-1,4171	-3,1237	-39,89	24,581
6854	-2,2283	-3,0848	-40,175	23,786
6855	-3,1656	-3,0908	-40,392	22,235
6856	-4,7523	-3,0601	-41,587	18,14
6857	-4,0011	-3,1256	-40,987	20,363
6858	1,7167	-3,0024	-39,167	24,492
6859	2,4688	-3,0037	-39,736	23,547
6860	3,3031	-3,0738	-40,232	21,965
6861	5,5685	-2,9031	-41,976	15,751
6862	4,0964	-3,0609	-40,834	20,03
6863	4,7673	-2,9724	-41,455	18,138
6864	6,045	-3,0114	-45,385	12,142
6865	5,5076	-3,1371	-46,373	11,925
6866	5,6142	-3,0088	-47,191	10,483
6867	4,6341	-3,0526	-48,285	9,5674
6868	-6,2779	-2,9299	-44,381	12,506
6869	-5,8331	-3,0025	-45,451	12,566
6870	-5,5198	-2,9969	-46,378	11,886
6871	-5,1287	-2,9981	-47,297	10,935
6872	-4,5087	-2,9702	-48,354	9,2822
6873	-2,103	-3,1052	-50,192	5,9583
6874	-3,3551	-2,9308	-49,865	7,0619
6875	-6,1064	-2,8381	45,392	19,595
6876	-5,5503	-2,9384	46,863	18,839
6877	-4,548	-2,9359	47,804	19,718
6878	-4,1762	-3,0056	48,74	17,912
6879	3,8116	-3,0054	49,801	16,289
6880	2,9381	-3,0098	49,895	17,026
6881	1,8781	-3,004	50,441	16,809
6882	0,64718	-3,0832	50,902	16,522
6883	-1,9605	-3,0852	50,513	16,634
6884	-0,86133	-3,0499	50,869	16,562
6885	-19,121	-2,9975	1,8755	14,74
6886	-19,227	-2,9831	0,93509	14,719
6887	-19,147	-2,9969	-1,841	14,738
6888	-19,243	-2,9786	1,4312e-003	14,645
6889	-19,235	-2,9775	-0,92253	14,705
6890	-21,242	-3,0277	-4,5089	17,121
6891	-22,097	-3,0189	-4,8851	18,415
6892	-22,987	-3,0164	-5,2623	19,559
6893	-24,771	-3,0606	-5,8988	19,396
6894	-23,9	-3,0364	-5,5733	20,017
6895	-21,219	-2,0093	-4,5432	16,986
6896	-22,006	-1,9455	-4,9744	18,017
6897	-22,976	-1,9959	-5,2654	19,501
6898	-23,916	-1,9173	-5,5978	19,997
6899	-24,848	-1,9928	-5,7777	20,093
6900	-25,848	-1,9986	-6,0478	18,698
6901	-21,187	-2,9944	4,5751	16,848
6902	-22,063	-2,9981	4,9525	18,159
6903	-22,973	-2,9928	5,3562	19,161
6904	-23,876	-2,9936	5,7042	19,466
6905	-24,774	-3,02	6,0673	18,762
6906	-28,098	-3,067	4,7313	20,56
6907	-29,12	-2,9278	4,3092	19,753
6908	-29,802	-3,2018	3,3289	20,402
6909	-30,101	-3,353	2,4553	21,237
6910	-30,551	-3,6925	1,4991	21,473
6911	-30,829	-3,272	0,3247	21,818
6912	-30,505	-3,1183	-1,014	21,732
6913	-29,181	-2,9575	-3,977	19,978
6914	-30,129	-3,1497	-2,5215	21,217
6915	-29,606	-2,9899	-3,3996	20,574
6916	-29,677	-2,0188	-3,4203	20,497
6917	-30,291	-1,8994	-2,2195	21,335
6918	-30,531	-1,9743	-0,89287	21,703
6919	-30,712	-1,8694	0,47673	21,84
6920	-30,4	-1,9014	1,6757	21,412
6921	-29,938	-1,914	2,562	21,422
6922	-29,607	-1,8127	3,4813	20,529
6923	-23,892	-1,9761	5,6687	19,621
6924	-22,997	-1,9797	5,3219	19,329
6925	-22,098	-1,9836	4,9165	18,321
6926	-21,248	-1,983	4,5255	17,039
6927	12,937	-1,997	-36,753	8,7445
6928	12,472	-1,9962	-37,618	8,906
6929	12,004	-1,9824	-38,487	9,0581
6930	11,538	-1,9816	-39,352	9,1999
6931	11,072	-1,9819	-40,214	9,3333
6932	10,608	-1,9837	-41,076	9,4596
6933	10,14	-1,9887	-41,919	9,5875
6934	9,658	-1,9961	-42,774	9,7112
6935	9,1799	-2,0034	-43,622	9,8121
6936	8,7084	-2,0107	-44,476	9,8376
6937	8,2473	-2,0139	-45,343	9,7648
6938	7,795	-2,0119	-46,219	9,5553
6939	7,3425	-1,9908	-47,066	9,2844
6940	6,8436	-2,0229	-47,976	8,8452
6941	6,4136	-2,159	-49,089	8,2581
6942	6,2366	-2,0895	-49,498	7,8684
6943	5,4603	-1,9927	-49,626	7,6873
6944	4,8881	-2,0581	-50,327	7,2576
6945	4,1573	-2,0704	-50,835	6,7872
6946	3,5149	-2,0384	-51,288	6,4938
6947	2,872	-1,9724	-51,694	6,2479
6948	2,0778	-1,9472	-51,964	6,0544
6949	1,362	-1,9472	-52,229	5,9664
6950	0,60192	-1,89	-52,078	5,8689
6951	-0,24768	-1,9523	-52,13	5,8291
6952	-1,0172	-1,8996	-52,195	5,8918
6953	-1,6104	-2,0107	-52,301	6,0129
6954	-2,1344	-2,0339	-51,654	6,074
6955	-3,0431	-2,0065	-51,484	6,3057
6956	-3,839	-1,992	-51,141	6,5986
6957	-4,3329	-2,1192	-50,724	6,846
6958	-5,1918	-1,6727	-50,308	7,1716
6959	-5,7171	-1,9272	-49,768	7,6328
6960	-6,0605	-1,9703	-49,251	8,0849
6961	-6,4165	-2,6193	-48,748	8,4049
6962	-7,0203	-2,1091	-47,864	8,9232
6963	-7,3953	-1,9752	-47,051	9,2663
6964	-7,8598	-1,9825	-46,159	9,571
6965	-8,3116	-1,9888	-45,316	9,7565
6966	-8,7736	-1,9846	-44,455	9,8177
6967	-9,2369	-1,9842	-43,601	9,7815
6968	-9,6985	-1,986	-42,746	9,6934
6969	-10,16	-1,9857	-41,895	9,5791
6970	-10,628	-1,9855	-41,046	9,4523
6971	-11,085	-1,9859	-40,194	9,3289
6972	-11,55	-1,9869	-39,331	9,1958
6973	-12,004	-1,9929	-38,484	9,0591
6974	-12,474	-1,9943	-37,618	8,9046
6975	-12,943	-1,9952	-36,752	8,7409
6976	-13,41	-1,9957	-35,886	8,5689
6977	-13,877	-1,996	-35,019	8,3899
6978	-14,343	-1,9962	-34,152	8,205
6979	-14,809	-1,9964	-33,286	8,0154
6980	-15,276	-1,9967	-32,419	7,8227
6981	-15,743	-1,997	-31,552	7,6286
6982	-16,21	-1,9979	-30,685	7,4356
6983	-16,677	-1,9969	-29,816	7,2451
6984	-17,144	-1,9966	-28,949	7,0591
6985	-17,611	-1,9964	-28,081	6,8793
6986	-18,078	-1,9967	-27,214	6,7077
6987	-18,545	-1,9969	-26,347	6,5456
6988	-19,011	-1,9974	-25,48	6,3953
6989	-19,479	-1,9965	-24,612	6,2576
6990	-19,946	-1,996	-23,744	6,1353
6991	-20,413	-1,996	-22,879	6,0301
6992	-20,879	-1,9963	-22,012	5,9444
6993	-21,347	-1,9966	-21,144	5,8791
6994	-21,811	-1,9996	-20,28	5,8395
6995	-22,281	-1,9979	-19,41	5,8262
6996	-22,748	-1,9982	-18,543	5,8453
6997	-23,215	-1,9987	-17,677	5,9012
6998	-23,682	-1,9993	-16,81	6,001
6999	-24,149	-2,	-15,944	6,1532
7000	-24,615	-2,0002	-15,077	6,3693
7001	-25,088	-1,9882	-14,187	6,6776
7002	-25,554	-1,987	-13,319	7,0737
7003	-26,02	-1,9849	-12,45	7,5912
7004	-26,485	-1,9823	-11,594	8,2436
7005	-26,948	-1,9812	-10,726	9,089
7006	-27,411	-1,9835	-9,8577	10,138
7007	-27,861	-2,0028	-9,0141	11,366
7008	-28,284	-1,9676	-8,1572	12,796
7009	-28,772	-1,9692	-7,3138	14,28
7010	-29,246	-1,9568	-6,4445	15,81
7011	-29,742	-1,9725	-5,5961	17,123
7012	-30,188	-1,9932	-4,7292	18,177
7013	-30,618	-1,9978	-3,8141	19,267
7014	-30,977	-1,9945	-2,7949	20,156
7015	-31,595	-1,9727	-2,397	20,1
7016	-31,602	-1,8935	-1,7484	20,436
7017	-31,563	-1,9744	-0,8175	20,678
7018	-31,44	-1,9955	0,24501	20,942
7019	-31,91	-1,9598	0,93193	20,526
7020	-31,681	-1,8359	1,6055	20,512
7021	-31,345	-1,8602	2,3236	20,419
7022	-31,005	-1,8576	3,1981	19,826
7023	-30,561	-1,8629	4,0403	19,087
7024	-30,251	-1,9705	4,8818	17,97
7025	-29,661	-1,9708	5,7182	16,945
7026	-29,153	-2,0088	6,5627	15,602
7027	-28,659	-2,0184	7,4284	14,106
7028	-28,197	-2,0055	8,3103	12,531
7029	-27,75	-1,9933	9,1805	11,132
7030	-27,306	-1,9851	10,051	9,8885
7031	-26,856	-1,9791	10,92	8,8924
7032	-26,4	-1,9754	11,79	8,086
7033	-25,941	-1,9733	12,657	7,4628
7034	-25,478	-1,9895	13,495	7,0114
7035	-25,012	-1,9737	14,37	6,6435
7036	-24,54	-1,9769	15,244	6,3784
7037	-24,067	-1,9924	16,103	6,2007
7038	-23,594	-1,9943	16,975	6,0778
7039	-23,121	-1,9962	17,849	6,0072
7040	-22,648	-1,9977	18,724	5,9819
7041	-22,175	-1,9987	19,601	5,995
7042	-21,703	-1,9995	20,479	6,0423
7043	-21,23	-2,	21,357	6,1206
7044	-20,754	-1,9974	22,238	6,228
7045	-20,281	-1,9976	23,115	6,3603
7046	-19,808	-1,9977	23,993	6,5165
7047	-19,335	-1,9978	24,871	6,6951
7048	-18,862	-1,9979	25,749	6,8947
7049	-18,39	-1,9979	26,624	7,1138
7050	-17,917	-1,998	27,502	7,3525
7051	-17,444	-1,998	28,38	7,6093
7052	-16,971	-1,9982	29,258	7,883
7053	-16,498	-1,9984	30,135	8,1729
7054	-16,024	-1,9989	31,013	8,4778
7055	-15,557	-2,0014	31,886	8,7931
7056	-15,078	-1,9994	32,767	9,1271
7057	-14,605	-1,9996	33,645	9,4686
7058	-14,142	-1,9999	34,525	9,8137
7059	-13,67	-2,0003	35,402	10,17
7060	-13,197	-2,0007	36,28	10,53
7061	-12,723	-2,	37,154	10,891
7062	-12,249	-1,9974	38,032	11,249
7063	-11,774	-1,9924	38,914	11,602
7064	-11,299	-1,9853	39,787	11,943
7065	-10,835	-1,977	40,664	12,255
7066	-10,375	-1,969	41,543	12,527
7067	-9,9155	-1,9619	42,429	12,74
7068	-9,4608	-1,955	43,316	12,862
7069	-8,9951	-1,9473	44,203	12,897
7070	-8,4924	-1,9703	45,105	12,877
7071	-7,9796	-1,9783	45,94	12,903
7072	-7,5348	-1,9781	46,813	12,746
7073	-7,1256	-1,9589	47,684	12,658
7074	-6,7169	-1,8434	48,522	12,68
7075	-5,9635	-1,9487	49,022	14,
7076	-5,7399	-2,1025	49,794	13,582
7077	-4,94	-2,0229	50,053	14,864
7078	-4,5295	-1,9805	50,453	15,25
7079	-3,8082	-1,9768	50,86	15,746
7080	-2,8459	-2,1295	51,001	16,294
7081	-2,0549	-2,3459	51,231	16,351
7082	-1,3921	-2,4196	51,84	16,596
7083	-0,70409	-1,8408	52,13	16,96
7084	5,2016e-002	-1,8858	51,928	16,656
7085	0,68177	-1,834	52,022	16,786
7086	1,4326	-1,9518	51,726	16,626
7087	2,2824	-1,9886	51,408	16,406
7088	3,1714	-1,983	51,11	16,088
7089	3,9841	-1,9671	50,825	15,498
7090	4,671	-1,8573	50,484	15,005
7091	5,2387	-1,6654	49,996	14,497
7092	5,7068	-1,8737	49,305	14,189
7093	6,482	-1,9274	49,134	12,647
7094	6,5255	-2,0893	48,525	13,197
7095	6,9076	-2,0315	47,776	13,049
7096	7,3119	-2,0483	46,823	13,252
7097	7,9402	-2,0158	45,918	13,009
7098	8,4584	-2,0266	45,034	13,04
7099	8,9608	-2,0101	44,158	13,01
7100	9,4358	-1,9843	43,275	12,94
7101	9,91	-1,9804	42,406	12,761
7102	10,367	-1,9916	41,54	12,537
7103	10,82	-2,0079	40,668	12,269
7104	11,28	-2,0155	39,793	11,958
7105	11,764	-2,0164	38,913	11,609
7106	12,241	-2,0115	38,033	11,255
7107	12,728	-2,0055	37,148	10,887
7108	13,199	-2,0001	36,27	10,527
7109	13,671	-1,9975	35,393	10,168
7110	14,143	-1,9985	34,516	9,812
7111	14,616	-1,9986	33,639	9,4623
7112	15,088	-1,9989	32,761	9,1212
7113	15,561	-1,999	31,883	8,7905
7114	16,035	-1,9987	31,006	8,4716
7115	16,514	-1,9971	30,129	8,1639
7116	16,986	-1,9971	29,251	7,8745
7117	17,459	-1,9972	28,373	7,6013
7118	17,931	-1,9973	27,494	7,3452
7119	18,403	-1,9975	26,616	7,1071
7120	18,875	-1,9977	25,738	6,8879
7121	19,347	-1,9981	24,861	6,6892
7122	19,819	-1,998	23,983	6,5112
7123	20,291	-1,9978	23,105	6,3557
7124	20,762	-1,9998	22,227	6,2253
7125	21,234	-2,0004	21,35	6,1194
7126	21,706	-2,0005	20,472	6,0415
7127	22,179	-2,0005	19,595	5,9945
7128	22,652	-2,0002	18,717	5,9821
7129	23,125	-1,9993	17,838	6,0096
7130	23,597	-1,9991	16,961	6,0828
7131	24,07	-1,9984	16,083	6,2103
7132	24,541	-1,9908	15,198	6,4083
7133	25,013	-1,9871	14,319	6,6826
7134	25,488	-1,9824	13,453	7,0413
7135	25,958	-1,9769	12,581	7,5292
7136	26,429	-1,9706	11,715	8,1571
7137	26,901	-1,9639	10,868	8,9342
7138	27,37	-1,9575	10,008	9,9296
7139	27,841	-1,9519	9,1567	11,123
7140	28,318	-1,9468	8,3114	12,5
7141	28,806	-1,9435	7,4635	14,011
7142	29,274	-1,9559	6,5947	15,555
7143	29,719	-1,9877	5,6819	17,016
7144	30,109	-2,0005	4,7811	18,119
7145	30,537	-2,0018	3,9461	19,103
7146	30,936	-1,9949	3,1065	19,882
7147	31,306	-2,0322	2,3124	20,336
7148	31,511	-2,0302	1,4503	20,718
7149	31,677	-2,0229	0,12687	20,722
7150	31,536	-1,935	-0,33572	20,72
7151	31,662	-1,7938	-0,98296	20,454
7152	31,595	-2,0472	-1,8113	20,492
7153	31,311	-2,1187	-2,4364	20,263
7154	30,982	-2,1374	-3,2341	19,82
7155	30,544	-1,9796	-3,9786	19,051
7156	30,049	-1,9781	-4,8185	18,073
7157	29,594	-1,9816	-5,6981	16,993
7158	29,195	-1,9774	-6,5656	15,582
7159	28,83	-1,9575	-7,3516	14,226
7160	28,366	-1,9445	-8,2055	12,684
7161	27,885	-1,9812	-9,042	11,284
7162	27,418	-1,9804	-9,8922	10,085
7163	26,946	-1,9792	-10,758	9,0422
7164	26,48	-1,9848	-11,619	8,2157
7165	26,007	-1,9713	-12,49	7,5583
7166	25,549	-1,9905	-13,346	7,0532
7167	25,073	-1,9791	-14,227	6,6577
7168	24,615	-1,9946	-15,076	6,371
7169	24,147	-1,995	-15,942	6,1557
7170	23,68	-1,996	-16,808	6,0034
7171	23,214	-1,9979	-17,674	5,9031
7172	22,746	-1,9973	-18,543	5,8465
7173	22,279	-1,9976	-19,41	5,8272
7174	21,812	-1,9978	-20,277	5,8398
7175	21,346	-1,9989	-21,144	5,8801
7176	20,878	-1,9978	-22,012	5,9449
7177	20,41	-1,9974	-22,881	6,0314
7178	19,931	-1,9893	-23,768	6,14
7179	19,475	-1,9975	-24,616	6,2592
7180	19,008	-1,9975	-25,483	6,3965
7181	18,543	-1,9992	-26,348	6,5465
7182	18,074	-1,9973	-27,219	6,7094
7183	17,606	-1,9978	-28,085	6,8814
7184	17,14	-1,9997	-28,951	7,0609
7185	16,672	-1,9987	-29,819	7,2472
7186	16,206	-1,999	-30,686	7,4374
7187	15,736	-1,9899	-31,562	7,6314
7188	15,269	-1,9903	-32,43	7,8256
7189	14,806	-2,0004	-33,285	8,0172
7190	14,338	-1,9998	-34,154	8,2078
7191	13,393	-1,9902	-35,898	8,5786
7192	13,863	-1,9902	-35,03	8,3975
7193	-27,804	-2,996	9,1042	11,242
7194	-28,264	-3,0025	8,2394	12,645
7195	-28,716	-3,0066	7,3782	14,192
7196	-29,221	-2,9994	6,5029	15,699
7197	-29,799	-3,0246	5,7053	16,944
7198	-30,403	-2,9382	5,1172	17,697
7199	-30,342	-3,0084	4,3741	18,812
7200	-30,834	-3,0525	3,3556	19,685
7201	-31,152	-2,8077	2,4529	20,614
7202	-31,581	-3,0364	1,6635	20,563
7203	-31,793	-3,1342	1,0434	20,472
7204	-31,475	-2,9926	0,14663	20,949
7205	-31,59	-3,026	-0,78742	20,693
7206	-31,532	-3,1085	-1,5819	20,467
7207	-31,508	-3,1056	-2,3955	20,214
7208	-30,997	-3,0325	-3,056	19,992
7209	-30,562	-3,0072	-3,9024	19,135
7210	-30,114	-2,9887	-4,7092	18,191
7211	-29,673	-2,9748	-5,6048	17,106
7212	-29,133	-2,9589	-6,6843	15,404
7213	-28,772	-2,9727	-7,3277	14,256
7214	-28,311	-2,9819	-8,1809	12,738
7215	-27,865	-3,0283	-9,0255	11,342
7216	-27,395	-3,003	-9,9	10,078
7217	-26,93	-3,0016	-10,77	9,0352
7218	-26,467	-3,0208	-11,648	8,1887
7219	-26,006	-3,0243	-12,512	7,5358
7220	-25,542	-3,0065	-13,363	7,0418
7221	-25,078	-3,0028	-14,225	6,6554
7222	-24,611	-3,0065	-15,09	6,3632
7223	-24,145	-3,0053	-15,955	6,1491
7224	-23,678	-3,0035	-16,821	5,9981
7225	-23,211	-3,0023	-17,686	5,8995
7226	-22,743	-3,0023	-18,553	5,8447
7227	-22,275	-3,003	-19,42	5,8265
7228	-21,807	-3,0024	-20,287	5,8399
7229	-21,342	-3,0004	-21,152	5,8798
7230	-20,876	-2,9996	-22,019	5,9446
7231	-20,408	-2,9998	-22,886	6,0313
7232	-19,941	-3,0003	-23,753	6,1369
7233	-19,475	-3,0004	-24,62	6,259
7234	-19,008	-3,0007	-25,487	6,3964
7235	-18,541	-3,0009	-26,353	6,5469
7236	-18,074	-3,0002	-27,22	6,7091
7237	-17,607	-3,0001	-28,087	6,8808
7238	-17,14	-3,0005	-28,955	7,0605
7239	-16,671	-3,0097	-29,832	7,2471
7240	-16,204	-3,0095	-30,699	7,4374
7241	-15,738	-3,009	-31,566	7,6303
7242	-15,271	-3,0085	-32,433	7,8241
7243	-14,804	-3,0082	-33,301	8,0169
7244	-14,337	-3,008	-34,168	8,2069
7245	-13,87	-3,0076	-35,035	8,3921
7246	-13,404	-3,0068	-35,901	8,5708
7247	-12,937	-3,0048	-36,768	8,7416
7248	-12,47	-3,0013	-37,635	8,9034
7249	-11,991	-2,9969	-38,498	9,0653
7250	-11,51	-2,9921	-39,365	9,2179
7251	-11,04	-2,9869	-40,236	9,3527
7252	-10,555	-2,982	-41,107	9,491
7253	-10,073	-2,978	-41,98	9,6204
7254	-9,5938	-2,9756	-42,854	9,7356
7255	-9,147	-2,9842	-43,693	9,8135
7256	-8,6847	-2,985	-44,56	9,8321
7257	-8,22	-2,9983	-45,457	9,7392
7258	-7,7881	-2,9912	-46,278	9,5378
7259	-7,3455	-2,9944	-47,13	9,2364
7260	-6,9009	-2,9923	-47,945	8,8785
7261	-6,3829	-2,9745	-48,824	8,3854
7262	-5,8396	-3,113	-49,781	7,6944
7263	-5,4797	-3,0895	-50,173	7,3408
7264	-5,2403	-2,9476	-50,788	6,9257
7265	-4,5855	-3,0383	-50,856	6,8467
7266	-3,8324	-3,034	-51,214	6,5794
7267	-2,9437	-3,0557	-51,608	6,2701
7268	-2,1022	-3,0768	-51,715	6,0642
7269	-1,1416	-3,1417	-52,173	5,9628
7270	-0,46549	-3,0171	-52,043	5,836
7271	0,16704	-3,1321	-52,038	5,8116
7272	0,95245	-3,2173	-52,216	5,8682
7273	1,5514	-3,0848	-52,324	6,0106
7274	2,0953	-3,0856	-51,826	6,0668
7275	2,8231	-3,0091	-51,672	6,2187
7276	3,565	-3,0495	-51,264	6,4941
7277	4,1823	-3,0645	-50,875	6,7776
7278	4,8421	-3,2024	-50,572	7,0853
7279	5,481	-3,1422	-49,901	7,5466
7280	6,0728	-3,0456	-49,39	7,9453
7281	6,5572	-2,8266	-48,55	8,556
7282	6,8061	-2,964	-47,702	9,05
7283	7,3998	-2,991	-47,072	9,2629
7284	7,8254	-3,0219	-46,243	9,5531
7285	8,2775	-3,0078	-45,389	9,7411
7286	8,7262	-3,0007	-44,532	9,8161
7287	9,1835	-2,9937	-43,671	9,7983
7288	9,6618	-2,9959	-42,802	9,7057
7289	10,136	-2,9999	-41,935	9,5861
7290	10,611	-3,0032	-41,07	9,4592
7291	11,079	-3,0058	-40,205	9,331
7292	11,543	-2,997	-39,344	9,1986
7293	12,009	-2,999	-38,479	9,0562
7294	12,475	-3,0005	-37,614	8,9041
7295	12,942	-3,0004	-36,749	8,742
7296	13,408	-3,0003	-35,883	8,5708
7297	13,875	-3,0021	-35,016	8,3915
7298	14,343	-3,004	-34,148	8,2055
7299	14,81	-3,0031	-33,281	8,0152
7300	15,277	-3,002	-32,415	7,8223
7301	15,743	-3,0025	-31,548	7,6285
7302	16,21	-3,002	-30,681	7,4354
7303	16,677	-3,0028	-29,812	7,245
7304	17,143	-3,0012	-28,947	7,0595
7305	17,611	-3,0025	-28,078	6,8793
7306	18,078	-3,0006	-27,212	6,7077
7307	18,546	-3,0016	-26,343	6,5454
7308	19,013	-3,0009	-25,476	6,3947
7309	19,481	-3,0013	-24,608	6,2574
7310	19,947	-2,9996	-23,743	6,1355
7311	20,414	-3,0004	-22,874	6,0305
7312	20,881	-3,0014	-22,005	5,9443
7313	21,349	-3,0014	-21,139	5,8796
7314	21,816	-3,0018	-20,27	5,8397
7315	22,282	-3,001	-19,403	5,8274
7316	22,75	-3,0017	-18,535	5,8469
7317	23,217	-3,0006	-17,669	5,9037
7318	23,683	-3,0007	-16,801	6,0047
7319	24,15	-2,9994	-15,934	6,1576
7320	24,617	-2,9984	-15,068	6,3746
7321	25,083	-2,9963	-14,204	6,6685
7322	25,55	-2,9953	-13,334	7,0625
7323	26,014	-2,9932	-12,467	7,5782
7324	26,477	-3,0047	-11,578	8,2697
7325	26,929	-2,9899	-10,73	9,0946
7326	27,374	-2,9888	-9,8429	10,191
7327	27,857	-2,9816	-9,0438	11,305
7328	28,318	-3,0101	-8,2323	12,643
7329	28,737	-3,0055	-7,3451	14,251
7330	29,18	-2,9872	-6,5124	15,689
7331	29,579	-2,9877	-5,6951	16,974
7332	30,05	-2,9897	-4,8061	18,097
7333	30,547	-2,9911	-3,959	19,091
7334	30,972	-2,9603	-3,1436	19,867
7335	31,303	-2,6335	-2,3447	20,306
7336	31,462	-2,8432	-1,4995	20,619
7337	31,557	-2,547	-0,73532	20,596
7338	31,694	-2,7112	0,12848	20,605
7339	31,858	-2,9559	0,64842	20,607
7340	31,645	-2,9739	1,8989	20,492
7341	31,463	-2,8575	2,6923	20,089
7342	31,196	-2,9769	3,4311	19,624
7343	30,621	-3,0573	4,0603	18,993
7344	30,184	-3,0359	4,8862	17,999
7345	29,732	-3,0352	5,6774	17,008
7346	29,242	-3,0203	6,4968	15,725
7347	28,758	-3,0168	7,318	14,293
7348	28,28	-3,0032	8,1694	12,786
7349	27,812	-2,9932	9,023	11,377
7350	27,351	-2,9895	9,9049	10,107
7351	26,889	-2,9886	10,795	9,0445
7352	26,425	-2,9906	11,683	8,1982
7353	25,956	-2,9948	12,568	7,5432
7354	25,489	-2,9989	13,456	7,037
7355	25,014	-2,9975	14,33	6,6728
7356	24,542	-2,9994	15,207	6,4016
7357	24,07	-2,9998	16,085	6,209
7358	23,597	-3,0005	16,962	6,0823
7359	23,124	-3,0009	17,841	6,0088
7360	22,65	-3,0039	18,721	5,9817
7361	22,179	-3,0015	19,596	5,9946
7362	21,706	-3,0012	20,473	6,0417
7363	21,233	-3,0005	21,351	6,1196
7364	20,761	-3,0005	22,228	6,2257
7365	20,288	-2,9998	23,106	6,3574
7366	19,815	-2,9996	23,984	6,5132
7367	19,342	-2,9999	24,862	6,6917
7368	18,87	-2,9996	25,739	6,8906
7369	18,397	-2,9999	26,618	7,1102
7370	17,925	-2,9996	27,495	7,3482
7371	17,452	-2,9994	28,373	7,6046
7372	16,979	-2,9991	29,251	7,8785
7373	16,505	-2,9992	30,129	8,1687
7374	16,032	-2,9992	31,006	8,4735
7375	15,558	-2,9993	31,884	8,792
7376	15,08	-3,0005	32,764	9,1258
7377	14,613	-2,9989	33,639	9,4636
7378	14,142	-2,9985	34,517	9,8128
7379	13,672	-2,999	35,398	10,168
7380	13,2	-2,9977	36,276	10,528
7381	12,724	-2,9969	37,155	10,89
7382	12,239	-2,9984	38,03	11,256
7383	11,775	-3,0022	38,911	11,602
7384	11,297	-3,0093	39,787	11,945
7385	10,833	-3,0084	40,665	12,257
7386	10,376	-3,005	41,542	12,525
7387	9,9197	-3,0037	42,42	12,739
7388	9,4586	-3,008	43,297	12,882
7389	8,9886	-3,0173	44,176	12,939
7390	8,5071	-3,029	45,053	12,909
7391	8,013	-3,0213	45,934	12,839
7392	7,6101	-3,0388	46,798	12,597
7393	7,1359	-3,0491	47,626	12,704
7394	6,7134	-2,9965	48,575	12,702
7395	6,2828	-2,8593	49,229	12,954
7396	5,3099	-2,8944	49,447	14,843
7397	5,1011	-2,9504	50,294	14,452
7398	4,5569	-2,9685	50,462	15,103
7399	3,9077	-2,9837	50,839	15,577
7400	3,0994	-2,9902	51,137	16,138
7401	2,1921	-2,996	51,45	16,425
7402	1,2402	-2,9838	51,829	16,692
7403	0,71087	-3,0201	52,242	16,938
7404	4,4819e-002	-3,0828	52,135	16,882
7405	-0,7707	-2,9897	52,213	17,037
7406	-1,6122	-3,0457	51,831	16,666
7407	-2,2571	-3,0798	51,477	16,374
7408	-3,069	-3,0643	51,19	16,216
7409	-3,8835	-3,0337	50,821	15,68
7410	-4,6185	-3,0052	50,351	15,152
7411	-5,2027	-2,9842	49,808	14,694
7412	-6,1004	-3,1156	49,304	13,34
7413	-6,4799	-3,0975	48,661	13,171
7414	-7,0554	-3,0531	48,383	12,01
7415	-7,1225	-3,0349	47,694	12,668
7416	-7,5975	-3,0011	46,892	12,48
7417	-8,0058	-2,9836	46,005	12,782
7418	-8,4467	-2,9765	45,115	12,96
7419	-8,8787	-2,9849	44,234	13,082
7420	-9,347	-2,9722	43,354	13,021
7421	-9,8358	-2,9727	42,459	12,835
7422	-10,317	-2,9777	41,577	12,583
7423	-10,807	-2,9834	40,688	12,276
7424	-11,291	-2,9889	39,804	11,947
7425	-11,776	-2,9943	38,92	11,6
7426	-12,252	-2,9975	38,036	11,248
7427	-12,727	-3,0001	37,155	10,888
7428	-13,202	-3,0023	36,277	10,527
7429	-13,675	-3,0033	35,399	10,166
7430	-14,151	-3,0092	34,523	9,8085
7431	-14,618	-3,0042	33,644	9,4613
7432	-15,09	-3,0031	32,764	9,1206
7433	-15,561	-3,0022	31,885	8,7906
7434	-16,029	-3,0026	30,997	8,474
7435	-16,499	-3,0005	30,111	8,1709
7436	-16,973	-3,0007	29,224	7,8807
7437	-17,449	-3,0031	28,347	7,6062
7438	-17,923	-3,0058	27,475	7,3493
7439	-18,406	-3,0088	26,61	7,1055
7440	-18,882	-3,0113	25,741	6,8841
7441	-19,346	-3,0045	24,865	6,6893
7442	-19,815	-3,0041	23,988	6,5126
7443	-20,287	-3,0087	23,11	6,3577
7444	-20,758	-3,002	22,233	6,2262
7445	-21,231	-3,0014	21,355	6,1203
7446	-21,703	-3,0008	20,477	6,0421
7447	-22,177	-3,0038	19,597	5,995
7448	-22,649	-2,9997	18,722	5,9822
7449	-23,121	-3,0033	17,841	6,0106
7450	-23,594	-3,0031	16,963	6,0841
7451	-24,066	-3,0029	16,085	6,2117
7452	-24,538	-3,0026	15,207	6,4045
7453	-25,009	-3,0021	14,329	6,6768
7454	-25,481	-3,0009	13,452	7,0468
7455	-25,953	-2,9982	12,574	7,5384
7456	-26,425	-2,994	11,696	8,1832
7457	-27,351	-2,9862	9,9154	10,085
7458	-26,888	-2,9891	10,804	9,0285
7459	-4,6499	-2,2027	-48,227	9,4655
7460	-5,1641	-2,0126	-47,228	11,034
7461	-5,6261	-1,9858	-46,292	11,847
7462	-1,3874	-2,1617	-39,505	24,765
7463	-2,263	-2,0309	-39,726	23,798
7464	-3,9734	-2,0919	-40,835	20,351
7465	-3,0641	-2,026	-39,864	22,352
7466	5,0713	-2,0366	-44,447	17,019
7467	8,7569	-2,5676	8,3435	8,4037
7468	9,0119	-2,4113	0,53661	9,6878
7469	-1,4145	-2,7249	28,633	12,103
7470	-20,287	-2,4778	-8,9255	11,986
7471	-8,759	-2,5846	-0,79081	9,6065
7472	-0,13784	-2,2682	24,495	10,393
7473	1,5105	-2,7421	-17,929	8,2265
7474	-20,188	-3,0297	-2,9669	15,702
7475	9,6813	-2,4008	-3,3786	9,67
7476	-5,1388	-2,4197	-43,238	17,143
7477	-0,16284	-3,026	-39,687	24,856
7478	-19,872	-3,0119	3,0688	15,403
7479	18,352	-2,2987	-11,387	10,291
7480	-4,6914e-002	-2,4858	12,65	6,7967
7481	2,7874	-2,7409	5,8113	7,7658
7482	5,7145	-2,5443	-36,743	15,715
7483	26,189	-2,9639	5,5367	20,601
7484	19,465	-2,4462	8,6985	11,913
7485	5,4341	-2,2621	-41,142	16,385
7486	-16,746	-2,2939	-4,8713e-002	13,576
7487	3,1567	-2,438	-2,0672	8,3856
7488	10,417	-2,7993	-3,2385	9,9548
7489	-9,7484	-2,3858	0,52366	9,9622
7490	-20,698	-3,0241	-3,0906	16,575
7491	10,708	-2,5818	-4,8211	9,7916
7492	19,527	-2,0109	2,9951	15,046
7493	-19,889	-1,9751	3,0459	15,414
7494	5,336	-2,5274	36,119	15,342
7495	-8,9963	-3,0447	-7,9207	8,6021
7496	-26,059	-3,0507	5,3276	21,781
7497	-9,539	-2,7108	-10,579	8,3807
7498	0,17887	-3,0216	-39,398	25,382
7499	-1,159	-2,0054	39,966	16,418
7500	-22,264	-2,358	8,4078	12,894
7501	-6,3034	-2,0099	42,441	20,332
7502	24,197	-2,084	-5,9651	19,074
7503	-2,7021	-2,3942	15,059	7,2
7504	5,1251	-3,1256	44,279	26,155
7505	-20,628	-2,0257	-3,2368	16,436
7506	20,624	-2,9708	-3,1913	16,411
7507	-5,8963	-2,407	35,358	14,657
7508	-26,296	-2,81	-7,262	15,268
7509	4,195	-1,8226	49,098	17,051
7510	26,555	-3,0726	5,2584	21,588
7511	-1,9275	-2,739	-6,6087	7,5151
7512	0,28954	-2,511	16,325	7,3816
7513	-6,8464e-002	-2,8214	28,177	11,917
7514	2,9476	-2,3557	-4,8102	7,9505
7515	-0,39892	-2,429	-13,094	6,9231
7516	-20,592	-1,999	-2,8903	16,198
7517	2,9556	-2,9623	-49,852	6,8312
7518	0,2074	-1,9729	-39,406	25,427
7519	-5,6972	-2,8272	44,292	22,813
7520	-4,8851	-1,8391	49,349	15,849
7521	-8,4203	-2,2144	5,7201	8,8298
7522	-3,3	-2,5978	4,4414	8,0827
7523	19,647	-1,9743	1,9785	15,073
7524	26,873	-1,7531	5,5979	19,609
7525	0,51368	-2,6758	14,758	7,0429
7526	9,5388	-2,6531	0,35999	9,876
7527	-7,2237	-2,2487	-5,3218	8,6011
7528	-21,342	-2,3098	9,4917	11,676
7529	-21,	-2,5886	-10,37	11,001
7530	-3,1215	-2,5344	-8,448	7,2881
7531	-30,643	-2,45	-1,6178	21,264
7532	4,6719	-2,4395	2,8506	8,4888
7533	6,1549	-2,0915	43,533	20,949
7534	5,7214	-3,1446	-43,336	14,866
7535	4,5692	-3,2863	-48,547	8,9785
7536	5,2458	-3,0483	-49,031	8,3172
7537	4,1692	-3,4962	-49,046	8,029
7538	4,7157	-3,3167	-49,518	7,8201
7539	4,2488	-3,373	-50,023	7,2139
7540	3,6853	-3,5297	-49,543	7,4044
7541	3,6541	-3,3127	-50,282	6,8549
7542	4,1235	-2,3598	39,142	18,624
7543	4,6873	-2,2854	39,931	19,642
7544	4,5268	-2,2862	38,434	17,654
7545	5,4823	-2,1458	39,024	17,97
7546	5,3911	-2,2026	40,485	19,83
7547	6,3776	-2,074	39,574	17,709
7548	3,0976	-2,0814	38,651	17,691
7549	5,1213	-2,2003	37,726	16,756
7550	3,7429	-2,0874	37,901	17,096
7551	5,5406	-2,2845	36,826	15,785
7552	4,4588	-2,0223	36,998	16,245
7553	6,1576	-2,2019	37,937	16,412
7554	5,2376	-2,1866	36,34	15,537
7555	6,7077	-2,1465	37,317	15,568
7556	7,0339	-2,1151	38,733	16,315
7557	6,4154	-2,0011	35,927	14,799
7558	7,2911	-2,0309	36,49	14,644
7559	5,6966	-1,7996	35,364	14,734
7560	6,2111	-1,9827	34,504	14,063
7561	6,9266	-1,9861	35,045	14,055
7562	7,5647	-2,0907	37,944	15,29
7563	7,8676	-2,0279	35,625	13,847
7564	8,1711	-2,0417	36,992	14,286
7565	7,4554	-1,9832	34,163	13,39
7566	8,6916	-2,0098	36,096	13,515
7567	6,7442	-1,9812	33,666	13,456
7568	8,3151	-1,9873	34,684	13,185
7569	8,0398	-1,9853	33,3	12,784
7570	9,238	-2,0188	35,227	12,845
7571	7,2152	-1,9699	32,764	12,899
7572	7,6815	-1,9654	31,888	12,407
7573	8,8831	-1,9959	33,817	12,571
7574	8,5155	-1,9776	32,422	12,275
7575	9,7328	-2,0006	34,326	12,272
7576	8,1379	-1,9637	31,018	11,96
7577	9,3616	-1,9855	32,936	12,062
7578	8,9718	-1,9742	31,548	11,825
7579	10,209	-1,9896	33,442	11,778
7580	9,824	-1,9813	32,063	11,614
7581	9,4354	-1,9738	30,674	11,411
7582	10,679	-1,9852	32,561	11,335
7583	8,5931	-1,9639	30,152	11,553
7584	10,287	-1,9803	31,184	11,204
7585	9,8993	-1,9753	29,806	11,034
7586	11,138	-1,9846	31,682	10,938
7587	10,748	-1,9807	30,311	10,832
7588	9,0581	-1,9664	29,285	11,174
7589	11,607	-1,9848	30,81	10,57
7590	10,374	-1,9777	28,929	10,681
7591	9,5252	-1,9702	28,418	10,823
7592	11,198	-1,9931	29,43	10,492
7593	10,838	-1,9785	28,055	10,361
7594	11,299	-1,9785	27,187	10,069
7595	12,063	-1,9929	29,932	10,236
7596	9,9857	-1,9722	27,545	10,5
7597	11,695	-1,9828	28,562	10,165
7598	10,451	-1,9729	26,677	10,202
7599	12,162	-1,983	27,693	9,8752
7600	12,547	-1,9859	29,063	9,9176
7601	11,764	-1,9789	26,32	9,7998
7602	13,03	-1,9862	28,192	9,624
7603	12,63	-1,9838	26,818	9,6079
7604	10,911	-1,974	25,812	9,9303
7605	13,486	-1,9865	27,316	9,3633
7606	12,236	-1,9806	25,448	9,5528
7607	13,078	-1,995	25,946	9,3714
7608	11,355	-1,9941	24,943	9,6853
7609	13,968	-1,9871	26,443	9,1167
7610	13,567	-1,9853	25,076	9,1461
7611	14,427	-1,9872	25,567	8,9009
7612	12,701	-1,9822	24,578	9,3326
7613	13,178	-1,9838	23,713	9,1353
7614	13,639	-1,9843	22,836	8,9672
7615	14,042	-1,9857	24,205	8,9501
7616	11,844	-1,9785	24,076	9,4567
7617	14,907	-1,9871	24,693	8,7016
7618	12,308	-1,9804	23,211	9,259
7619	14,494	-1,995	23,331	8,7857
7620	12,76	-1,994	22,343	9,0895
7621	14,111	-1,9843	21,969	8,8251
7622	13,247	-1,9819	21,476	8,9438
7623	15,368	-1,9872	23,817	8,5335
7624	14,573	-1,9846	21,092	8,7148
7625	14,962	-1,9958	22,458	8,6438
7626	13,705	-1,9823	20,602	8,8326
7627	15,444	-1,9863	21,581	8,527
7628	15,032	-1,9951	20,227	8,6364
7629	14,177	-1,9827	19,735	8,7531
7630	15,915	-1,9868	20,709	8,4442
7631	15,846	-1,9874	22,943	8,3855
7632	15,508	-1,9851	19,348	8,5899
7633	16,309	-1,988	22,067	8,2697
7634	14,636	-1,9826	18,862	8,7107
7635	16,374	-1,9872	19,837	8,3965
7636	15,967	-1,9974	18,489	8,5817
7637	16,786	-1,9886	21,192	8,179
7638	16,842	-1,9984	18,97	8,3814
7639	17,251	-1,9893	20,318	8,1235
7640	15,093	-1,9972	18,005	8,7056
7641	17,719	-1,9987	19,449	8,0998
7642	17,314	-1,9864	18,09	8,4054
7643	18,193	-1,99	18,569	8,1131
7644	16,444	-1,9827	17,605	8,613
7645	17,789	-1,9838	17,213	8,4704
7646	15,57	-1,9792	17,125	8,742
7647	16,913	-1,9792	16,734	8,6872
7648	18,663	-1,9981	17,702	8,1641
7649	16,028	-1,994	16,274	8,8202
7650	16,493	-1,971	15,397	8,9491
7651	17,373	-1,9741	15,871	8,8069
7652	16,964	-1,9634	14,546	9,1237
7653	18,252	-1,9789	16,345	8,5805
7654	17,844	-1,9664	15,015	8,9727
7655	19,134	-1,9952	16,829	8,2596
7656	18,722	-1,9721	15,479	8,7373
7657	18,317	-1,957	14,162	9,1903
7658	19,604	-1,9789	15,941	8,4078
7659	17,439	-1,9519	13,709	9,3469
7660	19,198	-1,9629	14,623	8,9423
7661	18,802	-1,9469	13,328	9,4572
7662	20,075	-1,9709	15,082	8,5988
7663	19,673	-1,9538	13,773	9,202
7664	17,924	-1,9389	12,879	9,6238
7665	20,547	-1,9625	14,218	8,8484
7666	20,155	-1,9449	12,923	9,5242
7667	19,291	-1,9364	12,489	9,7874
7668	21,025	-1,9542	13,368	9,1544
7669	18,421	-1,9268	12,05	9,9611
7670	20,638	-1,9365	12,072	9,9189
7671	19,786	-1,9274	11,65	10,188
7672	21,504	-1,9461	12,519	9,5335
7673	18,932	-1,9158	11,226	10,364
7674	21,127	-1,9295	11,225	10,399
7675	20,289	-1,921	10,805	10,671
7676	21,986	-1,9375	11,666	10,001
7677	19,447	-1,9111	10,391	10,856
7678	21,605	-1,9679	10,325	11,023
7679	22,109	-1,9215	9,5263	11,713
7680	22,463	-1,9299	10,813	10,578
7681	20,778	-1,91	9,9344	11,286
7682	22,95	-1,9226	9,9774	11,277
7683	19,812	-1,8611	9,5748	11,396
7684	22,582	-1,9762	8,5935	12,742
7685	23,427	-1,9137	9,1428	12,162
7686	21,297	-1,9297	9,1013	12,008
7687	23,92	-1,8959	8,3396	13,259
7688	20,446	-1,8943	8,6849	12,159
7689	23,067	-1,8968	7,8548	13,824
7690	21,757	-1,9238	8,2396	12,921
7691	24,398	-1,9468	7,3849	15,017
7692	25,05	-1,8482	6,761	16,589
7693	23,616	-1,9294	7,1349	15,299
7694	24,181	-1,7935	6,4622	17,206
7695	20,907	-1,9249	7,8277	13,043
7696	23,507	-1,7861	6,1671	17,504
7697	22,238	-1,9086	7,3577	14,197
7698	21,361	-1,9405	6,9506	14,184
7699	22,759	-1,8923	6,3375	16,297
7700	21,742	-1,9409	6,0427	15,727
7701	20,885	-2,0165	5,5209	15,367
7702	20,472	-1,9419	6,5565	13,978
7703	20,035	-2,0207	5,1559	14,753
7704	20,058	-1,9234	7,4453	12,986
7705	19,598	-1,9405	6,1833	13,681
7706	19,592	-1,9165	8,3112	12,191
7707	19,184	-1,9211	7,0712	12,845
7708	18,984	-1,8525	9,1976	11,435
7709	18,745	-1,8403	7,9544	12,106
7710	18,527	-1,9644	9,936	10,947
7711	18,245	-1,7739	8,8514	11,429
7712	18,089	-1,9011	10,819	10,451
7713	17,677	-1,9321	9,5737	10,928
7714	17,251	-1,8734	10,429	10,458
7715	17,559	-1,9076	11,624	10,047
7716	16,69	-1,9742	11,172	10,068
7717	15,889	-1,9435	10,722	10,04
7718	16,372	-1,9313	10,001	10,409
7719	15,431	-1,8167	10,336	10,034
7720	16,896	-1,8723	9,2409	10,85
7721	15,628	-1,8886	9,7344	10,288
7722	17,429	-1,9032	8,4515	11,39
7723	16,144	-1,8692	8,9499	10,734
7724	17,829	-1,9167	7,5828	11,955
7725	16,694	-1,947	8,0842	11,269
7726	18,308	-1,9188	6,719	12,624
7727	17,131	-1,9901	7,2401	11,828
7728	18,721	-1,9372	5,8279	13,347
7729	17,538	-2,0013	6,3584	12,43
7730	19,105	-1,9639	4,9019	14,098
7731	17,907	-1,9988	5,4727	13,047
7732	18,199	-1,949	4,5915	13,624
7733	19,446	-2,0122	3,8557	14,823
7734	17,269	-1,9328	4,3124	13,151
7735	18,563	-1,9702	3,6556	14,186
7736	16,985	-1,9914	5,1862	12,652
7737	18,758	-2,007	2,7228	14,529
7738	16,623	-1,9958	6,0557	12,108
7739	17,598	-1,94	3,4127	13,642
7740	16,228	-1,9917	6,9181	11,569
7741	15,603	-1,9167	5,7739	11,711
7742	15,985	-1,9171	4,9186	12,21
7743	15,189	-1,9148	6,6212	11,216
7744	17,853	-1,9289	2,507	14,019
7745	16,322	-1,9171	4,0477	12,686
7746	15,812	-1,986	7,7721	11,058
7747	18,964	-1,9952	1,8346	14,689
7748	14,912	-1,9971	7,4578	10,806
7749	18,075	-2,005	1,6446	14,249
7750	15,368	-1,9444	8,6122	10,584
7751	16,675	-1,9998	3,1795	13,143
7752	14,487	-1,9909	8,3163	10,36
7753	16,884	-1,9205	2,2678	13,477
7754	13,575	-2,0085	7,9868	10,112
7755	17,119	-1,9815	1,4204	13,747
7756	12,641	-2,0092	7,6341	9,8497
7757	13,989	-2,0071	7,1376	10,525
7758	14,9	-1,9104	9,4721	10,145
7759	14,268	-1,9218	6,311	10,902
7760	18,237	-2,0016	0,80438	14,384
7761	13,032	-2,0048	6,8039	10,225
7762	17,426	-1,9963	0,54716	13,982
7763	14,08	-2,0153	9,2037	9,9504
7764	13,323	-1,9309	5,9803	10,576
7765	17,657	-1,9654	1,3223e-003	14,133
7766	13,17	-2,0388	8,8452	9,733
7767	18,307	-1,9909	-2,3112e-003	14,403
7768	14,666	-1,9185	5,4708	11,351
7769	13,786	-1,9996	5,167	11,014
7770	15,031	-1,9079	4,6301	11,794
7771	17,042	-1,9286	12,425	9,7094
7772	14,141	-2,0021	4,3525	11,41
7773	16,177	-1,9893	11,969	9,7247
7774	15,356	-1,9999	11,488	9,6957
7775	12,439	-1,9986	5,6377	10,282
7776	12,832	-2,0034	4,8202	10,654
7777	14,4	-1,7972	10,749	9,6486
7778	13,209	-2,0092	4,0184	11,031
7779	13,597	-2,1305	10,242	9,5319
7780	16,556	-1,9506	13,238	9,4287
7781	12,705	-2,1576	9,8398	9,3425
7782	15,668	-1,9532	12,76	9,439
7783	12,241	-2,0263	8,4728	9,4966
7784	16,083	-1,963	14,072	9,1971
7785	11,872	-2,0791	9,4042	9,1653
7786	18,322	-1,8011	-0,76408	14,41
7787	15,206	-1,9658	13,586	9,2042
7788	12,04	-1,9968	6,4413	9,9179
7789	17,41	-1,8725	-0,44487	13,981
7790	11,586	-1,952	7,2629	9,5462
7791	14,806	-1,9993	12,277	9,394
7792	11,315	-2,0171	8,0818	9,261
7793	14,336	-1,9783	13,098	9,1528
7794	15,367	-1,8978	3,7858	12,218
7795	13,938	-1,9896	11,674	9,3207
7796	10,822	-1,9556	8,9721	8,9117
7797	13,456	-1,9902	12,618	9,0504
7798	14,467	-2,0046	3,5435	11,779
7799	15,71	-1,9955	2,9585	12,621
7800	13,547	-2,0019	3,2307	11,356
7801	15,925	-1,8989	2,0364	12,939
7802	14,753	-2,0015	2,736	12,112
7803	16,132	-1,9104	1,0687	13,189
7804	13,055	-2,0329	11,272	9,1653
7805	13,832	-2,001	2,4634	11,643
7806	12,183	-2,0448	10,817	8,9995
7807	12,596	-1,9853	12,098	8,9203
7808	11,294	-1,9809	10,265	8,8287
7809	14,989	-1,84	1,8257	12,406
7810	11,726	-1,9698	11,615	8,7565
7811	10,436	-1,8841	9,8196	8,6407
7812	15,617	-1,9703	14,924	9,0153
7813	14,065	-1,7752	1,6318	11,897
7814	10,857	-1,953	11,135	8,5774
7815	14,744	-1,971	14,437	9,0166
7816	15,15	-1,9964	15,795	8,8816
7817	15,212	-1,9904	1,024	12,632
7818	13,87	-1,9741	13,963	8,9585
7819	14,693	-1,976	16,644	8,7989
7820	14,311	-1,7819	0,76154	12,13
7821	12,995	-1,9749	13,474	8,8541
7822	13,664	-1,7786	0,71427	11,745
7823	14,219	-1,9994	17,52	8,7591
7824	13,28	-1,7208	1,2761	11,519
7825	12,13	-1,9699	12,972	8,7163
7826	13,014	-1,8142	2,0174	11,287
7827	14,274	-2,0002	15,315	8,8771
7828	12,658	-1,8868	2,757	11,001
7829	11,262	-1,9596	12,483	8,5505
7830	13,404	-1,9957	14,826	8,8171
7831	12,414	-1,8946	3,5866	10,724
7832	10,4	-1,9467	11,986	8,372
7833	11,955	-2,0414	4,3065	10,388
7834	13,755	-1,999	18,384	8,763
7835	11,378	-1,9604	5,2004	9,9499
7836	13,305	-1,9791	19,241	8,8055
7837	12,531	-1,9996	14,338	8,7095
7838	10,975	-1,9797	6,0145	9,6093
7839	13,822	-1,9733	16,16	8,7914
7840	10,61	-1,9745	6,834	9,2941
7841	11,665	-1,9926	13,843	8,5666
7842	12,953	-1,9702	15,669	8,7285
7843	10,803	-1,9929	13,347	8,3982
7844	13,347	-2,0009	17,032	8,7494
7845	10,381	-2,0229	7,6972	9,0274
7846	12,48	-1,998	16,537	8,6844
7847	16,376	-1,7777	9,5858e-003	13,398
7848	12,884	-2,0003	17,892	8,7525
7849	15,413	-1,8426	-7,3438e-002	12,798
7850	12,433	-1,9737	18,746	8,7962
7851	9,9923	-1,9368	10,643	8,3971
7852	9,9394	-1,9985	12,851	8,2142
7853	10,053	-2,0383	8,4741	8,7654
7854	12,018	-1,9992	17,394	8,6871
7855	9,5594	-1,918	9,3299	8,4624
7856	11,577	-1,9679	18,241	8,7321
7857	9,1291	-1,9236	10,137	8,2229
7858	9,2918	-1,9995	7,181	8,7882
7859	8,9961	-2,1153	7,9583	8,5475
7860	14,229	-1,7467	-0,11521	12,09
7861	12,827	-1,9948	20,113	8,8865
7862	13,406	-1,7525	-1,1386e-002	11,624
7863	11,961	-1,9955	19,613	8,8785
7864	8,2311	-1,9585	7,7909	8,362
7865	11,099	-1,9952	19,107	8,8162
7866	9,6173	-2,0727	6,4058	9,0531
7867	12,385	-1,9781	20,978	8,999
7868	9,8358	-2,1089	5,5886	9,2969
7869	11,514	-1,9725	20,473	8,9952
7870	10,436	-1,982	4,7439	9,6752
7871	12,073	-1,998	15,188	8,6171
7872	10,658	-1,9663	19,962	8,9367
7873	11,207	-1,995	14,69	8,4707
7874	10,949	-2,0095	3,7079	10,097
7875	10,346	-1,9927	14,187	8,2983
7876	11,613	-1,9995	16,04	8,5729
7877	11,311	-1,8663	2,8951	10,338
7878	10,752	-1,9939	15,535	8,4243
7879	9,4908	-2,	13,679	8,1106
7880	9,5473	-1,9365	11,48	8,1916
7881	11,668	-1,8443	2,1434	10,6
7882	8,7021	-1,9344	10,947	8,0208
7883	9,8926	-2,0004	15,029	8,2483
7884	9,0854	-2,0004	12,336	8,0276
7885	12,788	-1,6644	0,4931	11,302
7886	8,6399	-2,006	13,16	7,9175
7887	11,943	-1,7204	1,2447	10,844
7888	8,2421	-1,9979	11,8	7,849
7889	9,0411	-2,0007	14,513	8,0556
7890	8,8402	-2,0891	8,8714	8,3328
7891	7,7988	-2,0099	12,63	7,7301
7892	8,1997	-1,9893	13,985	7,8568
7893	8,2826	-2,008	9,6438	8,0651
7894	7,3623	-2,0005	13,448	7,6607
7895	7,8475	-1,9408	10,388	7,864
7896	11,156	-1,9976	16,892	8,5751
7897	7,4534	-1,9295	11,214	7,7
7898	10,717	-1,9619	17,738	8,6216
7899	6,9826	-1,9968	12,076	7,5612
7900	11,302	-1,8333	1,211	10,533
7901	10,298	-1,996	16,384	8,4252
7902	10,956	-1,937	1,691	10,344
7903	9,8712	-1,9555	17,222	8,4727
7904	10,499	-2,01	2,4967	10,073
7905	7,9983	-1,9489	8,1304	8,2369
7906	9,4431	-1,9947	15,869	8,2468
7907	7,4166	-1,9626	9,0062	7,9438
7908	9,0158	-1,9469	16,704	8,2932
7909	10,063	-1,9914	3,2818	9,8172
7910	6,9718	-1,9727	9,8086	7,7273
7911	9,7537	-1,9329	4,212	9,5438
7912	10,242	-1,9948	18,596	8,7069
7913	8,907	-1,9865	5,1445	9,0794
7914	9,8007	-1,9589	19,443	8,8305
7915	6,5565	-2,005	10,686	7,5451
7916	8,5953	-1,9933	15,345	8,0496
7917	6,1541	-2,	11,516	7,4108
7918	6,5483	-1,996	12,897	7,4802
7919	7,7546	-1,9923	14,81	7,8435
7920	5,7285	-2,0213	12,33	7,3184
7921	8,1737	-1,9367	16,17	8,0926
7922	6,9228	-1,9942	14,265	7,6385
7923	7,3444	-1,9277	15,624	7,8814
7924	6,103	-1,9918	13,706	7,4448
7925	9,3908	-1,9923	18,077	8,5581
7926	5,2942	-2,0066	13,13	7,2704
7927	8,4308	-2,0921	5,9399	8,7883
7928	8,5447	-1,9899	17,549	8,378
7929	8,9553	-1,9515	18,921	8,6849
7930	6,5176	-1,92	15,066	7,6677
7931	8,1244	-1,9436	18,382	8,506
7932	5,7043	-1,9137	14,5	7,463
7933	11,909	-1,9769	21,838	9,1452
7934	4,9067	-1,9139	13,919	7,2762
7935	11,032	-1,9945	21,333	9,1457
7936	11,442	-1,9756	22,704	9,3206
7937	7,7032	-1,9891	17,011	8,1749
7938	8,1795	-2,0142	6,8532	8,5295
7939	6,868	-1,9892	16,462	7,9578
7940	10,593	-1,9695	22,191	9,3233
7941	10,985	-1,9738	23,568	9,5222
7942	10,172	-1,997	20,82	9,0907
7943	10,529	-1,972	24,434	9,7494
7944	9,3236	-1,9935	20,297	8,988
7945	9,7135	-1,9937	21,674	9,2751
7946	8,4772	-1,9942	19,768	8,8446
7947	7,1367	-1,9886	7,6586	8,1106
7948	8,9013	-1,9548	21,145	9,1762
7949	6,6	-2,0203	8,4535	7,8487
7950	7,2896	-1,9342	17,835	8,3022
7951	8,0619	-1,9467	20,609	9,0377
7952	6,0906	-2,0148	9,3032	7,6084
7953	7,6419	-1,9889	19,227	8,6672
7954	5,693	-2,0168	10,157	7,4252
7955	6,8086	-1,9892	18,676	8,4638
7956	7,2272	-1,9376	20,062	8,864
7957	6,4645	-1,9237	17,28	8,0832
7958	10,131	-1,9682	23,056	9,5313
7959	5,9987	-1,9772	18,107	8,2419
7960	9,2537	-1,9934	22,529	9,4877
7961	6,0453	-1,9869	15,899	7,7368
7962	6,3999	-1,9256	19,506	8,6628
7963	5,6527	-1,9154	16,713	7,8577
7964	5,6024	-1,9129	18,932	8,4415
7965	8,4451	-1,9521	21,998	9,3936
7966	9,6732	-1,9667	23,919	9,765
7967	5,3093	-2,1815	11,032	7,2811
7968	8,7957	-1,993	23,383	9,7257
7969	5,2251	-1,9896	15,327	7,5206
7970	5,0519	-2,1557	11,602	7,2105
7971	4,8502	-1,9113	16,13	7,6332
7972	5,1852	-1,9775	17,532	8,0109
7973	4,4766	-2,0042	12,549	7,1218
7974	4,3872	-1,9705	16,942	7,7788
7975	4,7652	-1,9722	18,345	8,2037
7976	4,1026	-1,9239	13,332	7,1126
7977	3,9668	-1,9731	17,75	7,9659
7978	7,6184	-1,9438	21,453	9,2586
7979	7,9908	-1,9491	22,845	9,6354
7980	10,069	-1,9696	25,3	10,003
7981	7,1742	-1,9399	22,295	9,5041
7982	4,4137	-1,9919	14,741	7,318
7983	6,7918	-1,9341	20,899	9,0881
7984	3,6032	-1,9969	14,139	7,1376
7985	5,9666	-1,9219	20,34	8,8905
7986	6,3509	-1,9305	21,741	9,3394
7987	9,2152	-1,9636	24,771	10,02
7988	4,0429	-1,9107	15,54	7,4191
7989	8,3339	-1,9996	24,232	9,9871
7990	9,6011	-1,9666	26,162	10,28
7991	4,7447	-2,1973	10,731	7,2127
7992	8,7611	-1,9593	25,631	10,3
7993	4,3986	-2,1236	11,259	7,1244
7994	3,2372	-1,9126	14,935	7,2234
7995	3,5896	-1,9643	16,344	7,5548
7996	4,0103	-2,0367	12,12	7,0515
7997	2,827	-1,8991	15,739	7,3506
7998	3,2166	-2,0127	12,747	6,9727
7999	7,8806	-1,9981	25,083	10,27
8000	7,4971	-2,0019	23,688	9,9017
8001	3,177	-1,9623	17,15	7,7347
8002	6,6771	-1,9963	23,134	9,7734
8003	5,5388	-1,9191	21,166	9,1414
8004	7,051	-1,9975	24,534	10,188
8005	2,4392	-1,8764	16,542	7,5203
8006	6,2373	-1,9926	23,972	10,062
8007	5,8633	-1,9969	22,565	9,6077
8008	2,7827	-2,0077	13,54	6,9879
8009	5,0548	-2,0002	21,984	9,4108
8010	5,1747	-1,909	19,757	8,6685
8011	5,4319	-1,9903	23,397	9,8979
8012	2,3635	-2,0069	14,337	7,0532
8013	4,6306	-1,995	22,808	9,7024
8014	4,7461	-1,9065	20,578	8,9204
8015	4,3459	-1,9685	19,159	8,4281
8016	4,2708	-1,9937	21,384	9,1878
8017	1,9557	-2,0038	15,151	7,1673
8018	3,8405	-2,0048	22,198	9,4789
8019	1,5884	-1,9961	15,97	7,3301
8020	3,5575	-1,9671	18,559	8,1869
8021	3,9233	-1,9739	19,969	8,6782
8022	2,7794	-1,9523	17,958	7,9511
8023	3,1499	-1,9657	19,364	8,435
8024	2,0489	-1,8284	17,342	7,7246
8025	2,3885	-1,9404	18,757	8,1933
8026	3,4927	-1,9933	20,775	8,9489
8027	1,2462	-1,942	16,784	7,5357
8028	2,728	-1,9867	20,161	8,702
8029	1,7063	-1,791	18,167	7,973
8030	3,0614	-1,9995	21,586	9,2402
8031	1,9898	-1,9469	19,551	8,4595
8032	0,78228	-1,8285	17,679	7,7905
8033	2,2941	-2,0101	20,955	8,9884
8034	1,1699	-1,5712	18,754	8,1558
8035	1,555	-1,9976	20,303	8,7262
8036	0,60093	-1,7813	18,564	8,077
8037	0,88893	-1,8551	19,579	8,4513
8038	0,52596	-1,9267	19,07	8,2612
8039	-5,887e-002	-1,9987	19,653	8,4651
8040	0,12717	-2,1235	20,238	8,6939
8041	1,1148	-2,0149	21,029	9,0022
8042	1,8752	-2,0155	21,741	9,2844
8043	9,141	-1,9639	27,02	10,579
8044	2,6429	-2,0105	22,386	9,5443
8045	8,311	-1,9544	26,485	10,6
8046	3,4279	-1,9939	23,016	9,787
8047	7,435	-1,9894	25,934	10,573
8048	4,2701	-1,9163	23,646	10,015
8049	6,6558	-1,935	25,391	10,492
8050	5,0576	-1,9204	24,241	10,208
8051	5,857	-1,9269	24,819	10,367
8052	8,6849	-1,9599	27,884	10,902
8053	7,8558	-1,9493	27,344	10,924
8054	8,2264	-1,9555	28,748	11,251
8055	7,4143	-1,9454	28,197	11,266
8056	7,7792	-1,9527	29,608	11,621
8057	6,9879	-1,9877	26,78	10,895
8058	6,9717	-1,943	29,051	11,632
8059	7,3237	-1,9516	30,474	12,025
8060	6,2247	-1,9311	26,23	10,812
8061	6,5311	-1,9417	29,909	12,022
8062	6,8749	-1,952	31,339	12,457
8063	5,4194	-1,9239	25,659	10,69
8064	6,0873	-1,9381	30,771	12,44
8065	6,5421	-1,986	27,626	11,236
8066	6,4156	-1,9529	32,21	12,929
8067	6,0984	-1,9848	28,472	11,596
8068	5,8013	-1,9294	27,067	11,146
8069	5,6541	-1,9847	29,323	11,977
8070	5,3679	-1,9282	27,908	11,499
8071	5,642	-1,932	31,638	12,887
8072	5,2089	-1,9844	30,175	12,378
8073	4,9487	-1,9271	28,743	11,864
8074	4,9951	-1,9222	26,489	11,023
8075	4,7862	-1,953	31,013	12,788
8076	4,6344	-1,9178	25,067	10,526
8077	4,5305	-1,9207	29,587	12,247
8078	4,5725	-1,9215	27,315	11,367
8079	4,117	-1,9034	30,426	12,639
8080	3,8504	-1,9155	24,47	10,335
8081	4,1392	-1,98	25,881	10,857
8082	3,0853	-1,9176	23,853	10,114
8083	3,3686	-1,9728	25,28	10,662
8084	3,7783	-1,9143	26,718	11,201
8085	4,0631	-1,9855	28,143	11,732
8086	2,6701	-1,9152	24,694	10,452
8087	3,2783	-1,9733	27,545	11,558
8088	3,6346	-1,9878	28,987	12,107
8089	2,9964	-1,9085	26,123	11,009
8090	2,8592	-1,9767	28,391	11,923
8091	3,2834	-1,9458	29,83	12,48
8092	2,2359	-1,909	25,548	10,804
8093	2,4853	-1,9679	26,95	11,36
8094	1,7711	-1,9103	26,401	11,165
8095	2,0194	-1,8999	27,791	11,723
8096	2,4347	-1,869	29,247	12,306
8097	1,2149	-1,9337	27,255	11,516
8098	1,8609	-1,6645	28,519	12,038
8099	0,73421	-1,7633	28,058	11,868
8100	5,9373	-1,9572	33,08	13,442
8101	0,74721	-1,8641	28,514	12,071
8102	5,2164	-1,9487	32,498	13,349
8103	1,2736	-1,7882	29,084	12,298
8104	4,4116	-1,8995	31,886	13,226
8105	1,6906	-1,7637	29,648	12,511
8106	3,7626	-1,8515	31,324	13,07
8107	2,1897	-1,9678	30,193	12,715
8108	2,9095	-2,0313	30,794	12,924
8109	5,4314	-1,9605	33,946	14,01
8110	4,8586	-1,8827	34,842	14,644
8111	4,3391	-2,0228	35,501	15,144
8112	3,6955	-1,9902	36,348	15,774
8113	3,0529	-2,0019	37,143	16,278
8114	2,3824	-2,0036	37,94	16,626
8115	1,4911	-1,9571	38,743	16,337
8116	18,169	-1,8689	-1,5858	14,307
8117	17,199	-1,8743	-1,3593	13,803
8118	16,228	-1,9162	-1,1535	13,249
8119	15,163	-1,9032	-1,005	12,633
8120	14,136	-1,7952	-0,86561	12,025
8121	4,6458	-1,964	33,389	13,895
8122	13,045	-1,8578	-0,68737	11,418
8123	3,957	-1,8793	32,71	13,668
8124	4,0941	-1,9537	34,113	14,357
8125	12,232	-1,8632	-0,34083	11,022
8126	3,2663	-1,8586	32,119	13,471
8127	3,3983	-1,8854	33,707	14,217
8128	11,46	-1,977	-0,11368	10,657
8129	3,5854	-2,0011	35,098	14,961
8130	2,5741	-1,8203	31,497	13,247
8131	2,8738	-1,9831	34,442	14,629
8132	2,9611	-2,0352	35,895	15,433
8133	1,9089	-1,7599	30,868	13,009
8134	2,1439	-2,0777	35,219	15,008
8135	2,697	-1,8606	32,87	13,864
8136	11,	-1,8823	0,4017	10,457
8137	1,9786	-2,0929	32,335	13,665
8138	2,2435	-1,911	33,7	14,276
8139	10,258	-1,9001	1,1757	10,107
8140	1,4253	-2,066	33,03	13,976
8141	2,3149	-2,0419	36,661	15,781
8142	1,2746	-1,705	30,191	12,767
8143	1,6647	-2,0357	37,363	15,921
8144	1,5472	-1,8788	34,377	14,583
8145	1,5128	-2,1354	35,925	15,267
8146	0,74617	-1,7282	29,627	12,53
8147	0,94892	-1,9034	35,105	14,875
8148	9,6842	-2,0011	1,9248	9,8388
8149	0,79432	-2,0341	38,	15,814
8150	0,84854	-2,0841	36,569	15,416
8151	1,3056	-1,7953	31,754	13,392
8152	0,3059	-1,9139	35,816	15,118
8153	0,10089	-2,0157	37,222	15,521
8154	5,4972e-002	-1,9489	38,612	15,655
8155	0,78313	-1,9046	32,496	13,727
8156	-0,59468	-1,9942	36,501	15,357
8157	0,73498	-1,689	30,895	13,058
8158	0,89319	-1,9218	33,717	14,289
8159	0,13584	-1,8039	30,126	12,738
8160	0,25453	-1,8048	31,611	13,369
8161	9,2213	-2,0093	2,7104	9,5916
8162	-0,34233	-1,967	30,666	12,97
8163	0,30161	-1,8818	34,416	14,574
8164	8,6282	-2,0474	3,5603	9,284
8165	-0,65598	-1,9778	37,894	15,645
8166	8,0048	-2,1672	4,5161	8,9461
8167	-1,159	-1,9275	37,211	15,672
8168	0,20392	-1,8796	33,135	14,035
8169	-0,48638	-1,9888	35,105	14,858
8170	-0,5065	-1,8718	33,661	14,277
8171	-1,1797	-1,9817	35,777	15,186
8172	7,5307	-2,1882	5,3102	8,6643
8173	-1,7418	-1,8406	36,335	15,502
8174	-0,30129	-1,8357	32,34	13,687
8175	-0,8981	-1,973	31,381	13,277
8176	-0,92517	-1,8538	32,975	13,957
8177	-1,1542	-1,8098	38,598	16,106
8178	-1,5207	-1,9679	32,06	13,566
8179	-1,0773	-1,8869	34,282	14,542
8180	6,9911	-1,9478	6,219	8,3611
8181	-1,6268	-1,8683	33,359	14,128
8182	-1,9022	-1,7113	37,735	16,224
8183	-2,1853	-1,9754	32,653	13,799
8184	-1,6831	-1,8889	34,969	14,862
8185	6,3487	-2,0271	7,0173	8,0586
8186	-2,276	-1,8827	33,94	14,39
8187	-2,4453	-1,8728	36,944	15,96
8188	-2,8632	-1,9877	33,295	14,047
8189	5,7335	-2,0591	7,8581	7,7767
8190	-2,3069	-1,9204	35,643	15,237
8191	2,3119	-1,9284	23,21	9,8661
8192	-2,9478	-1,9317	34,848	14,844
8193	-2,9745	-1,9296	36,255	15,653
8194	5,0924	-2,1012	8,7183	7,5129
8195	1,9229	-1,9104	24,073	10,215
8196	1,4044	-1,9744	24,919	10,565
8197	-3,6464	-1,935	35,451	15,203
8198	0,93399	-1,9743	25,813	10,937
8199	1,768	-2,0319	22,65	9,6453
8200	-3,5817	-1,9413	34,053	14,371
8201	4,3773	-2,0309	9,6886	7,2586
8202	-4,2937	-2,0079	34,512	14,554
8203	1,1952	-1,922	23,544	10,004
8204	3,6848	-2,186	10,472	7,0828
8205	0,58777	-1,7794	24,311	10,323
8206	0,2878	-1,8878	28,857	12,215
8207	3,0127	-2,1837	11,316	6,9491
8208	-0,64587	-1,9265	29,448	12,455
8209	0,39611	-1,9098	25,347	10,751
8210	-0,85781	-1,9986	29,967	12,666
8211	0,28243	-1,7237	23,909	10,158
8212	2,4121	-2,0134	12,108	6,8806
8213	-0,33496	-1,8434	24,843	10,544
8214	1,9222	-2,0133	12,962	6,8764
8215	-0,10791	-1,7431	23,64	10,041
8216	-1,4161	-1,9936	30,659	12,949
8217	-0,693	-1,8536	24,091	10,228
8218	0,5536	-1,7133	23,017	9,7919
8219	1,5356	-2,0056	13,79	6,9287
8220	0,46747	-1,9793	21,83	9,3153
8221	0,40088	-1,9814	26,7	11,308
8222	1,1903	-1,9844	14,564	7,0256
8223	-1,3497	-1,9951	29,52	12,464
8224	0,64178	-1,8334	16,301	7,3879
8225	0,62602	-2,0672	15,443	7,1793
8226	0,37468	-1,8217	17,401	7,6956
8227	-0,35834	-1,9191	27,661	11,711
8228	-1,8717	-2,0085	29,908	12,617
8229	-0,26322	-1,9257	26,21	11,104
8230	0,5667	-1,9863	14,205	6,9491
8231	-0,97007	-1,9961	27,082	11,448
8232	1,3497e-002	-1,9479	14,472	6,9866
8233	-0,82763	-1,8565	25,475	10,799
8234	-7,3732e-003	-1,854	22,94	9,7597
8235	-1,3645	-1,9464	24,762	10,5
8236	-0,38312	-2,0246	22,061	9,4054
8237	-0,3451	-2,0417	20,721	8,8737
8238	-1,3178	-1,9397	28,74	12,146
8239	-0,28456	-1,9327	16,976	7,573
8240	-2,2946	-2,0339	29,184	12,291
8241	0,6395	-1,9168	13,414	6,8591
8242	-1,7162	-2,0245	27,669	11,685
8243	-0,28544	-1,9264	13,698	6,8829
8244	-1,0385	-1,9494	23,449	9,9668
8245	-0,27171	-1,8636	16,103	7,3298
8246	-1,398	-1,9981	22,648	9,6425
8247	-0,79893	-1,9097	15,222	7,1358
8248	-2,6213	-1,9747	28,359	11,927
8249	-1,1517	-1,8381	14,453	7,0058
8250	-1,0492	-2,024	21,251	9,0854
8251	-2,0629	-1,9605	31,328	13,215
8252	-1,8092	-1,9948	21,81	9,3123
8253	-1,5927	-2,0029	26,189	11,08
8254	-2,7351	-1,8872	32,06	13,495
8255	-2,0924	-2,0005	25,416	10,754
8256	-3,4531	-1,9221	32,655	13,7
8257	-2,3103	-1,9679	26,831	11,319
8258	-4,1972	-1,9558	33,246	13,893
8259	-3,0751	-1,965	27,51	11,558
8260	-4,9715	-2,0088	33,769	14,026
8261	-2,575	-1,9848	30,545	12,844
8262	-2,841	-2,0047	26,057	10,988
8263	-1,785	-1,9748	24,007	10,189
8264	-3,2531	-1,8999	31,249	13,091
8265	-2,1879	-1,9896	23,222	9,8721
8266	-3,9982	-1,9344	31,845	13,267
8267	-3,5461	-1,9426	26,679	11,2
8268	-0,78788	-2,0011	19,737	8,5079
8269	-4,7707	-1,9674	32,433	13,412
8270	-2,5439	-2,0024	24,633	10,43
8271	-5,6175	-2,0038	32,98	13,485
8272	-0,25923	-1,7554	18,02	7,8926
8273	-2,9691	-2,0011	23,832	10,107
8274	-3,3076	-2,0056	25,254	10,654
8275	-0,90656	-2,0159	18,876	8,1902
8276	-1,4576	-1,9986	20,368	8,7492
8277	-0,78865	-1,9691	17,415	7,7041
8278	-3,7467	-2,0017	24,446	10,328
8279	-1,221	-1,9622	16,638	7,4914
8280	-2,2292	-1,9896	20,987	8,9992
8281	-1,4596	-1,9572	13,597	6,9037
8282	-1,4956	-1,9014	15,866	7,3017
8283	-0,48624	-1,9913	12,92	6,8167
8284	-2,5886	-1,9815	22,409	9,5524
8285	-3,0532	-2,0074	29,743	12,467
8286	-2,9931	-1,9722	21,592	9,2419
8287	-3,3783	-1,9859	23,018	9,7879
8288	-3,5034	-2,0098	28,935	12,097
8289	-3,7841	-1,9718	22,201	9,48
8290	-1,5253	-1,9818	18,04	7,9249
8291	0,84662	-1,9227	12,438	6,8006
8292	-4,1644	-1,985	23,623	10,008
8293	-2,0324	-1,8349	15,07	7,1558
8294	-4,5735	-1,968	22,803	9,7014
8295	1,5878	-2,0758	11,51	6,8311
8296	-4,0881	-2,0064	25,873	10,857
8297	0,80231	-2,0002	10,769	6,8377
8298	-4,5273	-1,9971	25,053	10,526
8299	-1,8441e-002	-1,9936	11,599	6,7844
8300	-4,96	-1,9871	24,222	10,205
8301	-3,9556	-2,0033	28,117	11,732
8302	-0,89302	-2,0115	12,178	6,7967
8303	-4,4106	-1,9975	27,298	11,375
8304	-1,8954	-1,9827	12,955	6,8737
8305	-2,2761	-1,8923	14,33	7,0445
8306	-1,9619	-1,9725	17,27	7,6991
8307	-4,8762	-2,0016	26,474	11,026
8308	-2,2846	-1,9019	16,501	7,5007
8309	-5,3211	-1,9956	25,644	10,691
8310	-2,6727	-1,9253	15,741	7,3407
8311	-2,7602	-1,9803	13,557	6,9882
8312	-3,2131	-2,0172	14,865	7,2092
8313	-5,3901	-1,9798	23,391	9,8972
8314	-5,7548	-1,9833	24,809	10,37
8315	-2,28	-1,9374	12,067	6,8702
8316	-1,4322	-1,9579	11,428	6,8248
8317	-3,8054	-1,9956	30,358	12,65
8318	-6,185	-1,9722	23,972	10,064
8319	-0,60021	-2,004	10,751	6,8333
8320	-4,5639	-1,9828	30,975	12,809
8321	2,1572	-2,0187	10,718	6,911
8322	4,8511e-002	-1,9927	10,102	6,8873
8323	1,4099	-2,1151	9,8553	6,95
8324	-3,1387	-1,9235	12,703	6,9629
8325	0,90993	-2,0931	9,0209	7,0439
8326	-3,6014	-1,9916	14,154	7,139
8327	-0,67088	-1,9421	9,3478	6,9897
8328	-5,3618	-1,9926	31,569	12,916
8329	-7,5256e-002	-1,8106	8,4492	7,1249
8330	-1,1747	-1,912	10,031	6,9178
8331	-1,7451	-1,9065	19,486	8,4305
8332	-1,9463	-1,9101	10,689	6,8968
8333	-1,2073	-1,7655	8,7438	7,1018
8334	-2,1713	-1,9093	18,722	8,1735
8335	-1,8076	-1,7224	9,4123	7,0267
8336	-0,56737	-1,855	8,0367	7,198
8337	-2,3293	-1,8063	9,8726	7,0041
8338	-6,1337	-2,0079	32,167	12,989
8339	-0,86895	-1,7393	7,4923	7,3219
8340	-4,0198	-1,9864	13,358	7,1044
8341	-1,5443	-1,7885	7,8904	7,2689
8342	-4,2185	-1,953	29,576	12,282
8343	-2,1783	-1,7688	8,514	7,1928
8344	-5,0095	-1,962	30,172	12,41
8345	-2,7144	-1,9707	17,913	7,9333
8346	-2,756	-1,9049	11,316	6,9242
8347	-3,0664	-1,9103	17,128	7,7208
8348	-3,2132	-1,8704	10,585	7,0168
8349	-4,6786	-1,9584	28,741	11,897
8350	-3,575	-1,902	11,944	6,9969
8351	-5,8221	-1,9811	30,746	12,487
8352	-5,1376	-1,9558	27,899	11,525
8353	-3,5704	-1,9773	16,32	7,5473
8354	-5,5988	-1,9526	27,061	11,167
8355	-4,094	-1,9702	11,216	7,0829
8356	-6,0547	-1,9516	26,224	10,827
8357	-6,7245	-2,0003	31,31	12,488
8358	-4,4029	-1,901	12,548	7,1115
8359	-5,4834	-1,9663	29,323	12,005
8360	-2,9555	-1,8783	9,3518	7,1319
8361	-6,3164	-1,9785	29,887	12,06
8362	-3,7225	-1,8407	9,8324	7,152
8363	-7,2178	-2,0005	30,455	12,047
8364	-4,556	-1,9674	10,481	7,2007
8365	-4,8395	-1,8779	11,78	7,1731
8366	-3,9957	-1,9852	15,529	7,4118
8367	-2,5488	-1,9229	20,158	8,6958
8368	-5,9548	-1,9637	28,472	11,619
8369	-4,4088	-1,9804	14,736	7,3169
8370	-6,7892	-1,9728	29,034	11,663
8371	-2,9805	-1,9199	19,354	8,4244
8372	-3,3462	-1,9205	20,78	8,9471
8373	-6,5059	-1,9523	25,387	10,505
8374	-3,7832	-1,9218	19,97	8,6727
8375	-6,9648	-1,9553	24,543	10,197
8376	-7,6332	-1,9806	29,579	11,65
8377	-5,3544	-1,9762	11,052	7,2874
8378	-4,1438	-1,922	21,39	9,1878
8379	-4,8389	-1,9901	13,942	7,2686
8380	-4,5864	-1,9266	20,575	8,9134
8381	-3,4921	-1,9762	18,538	8,1763
8382	-4,949	-1,9287	21,989	9,4123
8383	-6,4233	-1,9614	27,629	11,255
8384	-5,453	-1,9798	21,155	9,1357
8385	-5,8226	-1,9761	22,561	9,607
8386	-5,0358	-1,9964	9,7538	7,3548
8387	-6,8832	-1,9612	26,791	10,913
8388	-4,2131	-2,0002	9,2177	7,2998
8389	-7,3433	-1,9626	25,943	10,588
8390	-3,8426	-1,9152	17,753	7,9575
8391	-3,5892	-2,096	8,8627	7,2741
8392	-7,2514	-1,9695	28,189	11,295
8393	-5,2698	-1,9786	13,151	7,268
8394	-8,0983	-1,9764	28,734	11,278
8395	-5,6588	-1,8869	12,356	7,3065
8396	-7,721	-1,9692	27,341	10,948
8397	-4,2787	-1,9749	19,152	8,4219
8398	-8,5637	-1,976	27,882	10,929
8399	-4,6437	-1,9231	18,362	8,1995
8400	-6,1041	-1,8664	11,593	7,3984
8401	-6,2692	-1,9836	21,73	9,3349
8402	-5,8185	-1,9875	10,313	7,432
8403	-8,1832	-1,9708	26,492	10,623
8404	-6,5433	-1,848	10,837	7,5294
8405	-9,0825	-1,9939	27,023	10,592
8406	-5,0838	-1,9793	19,748	8,6603
8407	-5,4551	-1,9335	9,0361	7,5267
8408	-6,2626	-1,9732	9,58	7,6047
8409	-5,9035	-1,9878	20,326	8,8831
8410	-7,0581	-1,9623	10,106	7,7114
8411	-5,4606	-1,9308	18,947	8,4357
8412	-4,6752	-1,9226	8,4698	7,4877
8413	-6,2817	-1,9392	19,519	8,6595
8414	-7,4926	-1,9211	9,3778	7,903
8415	-7,8008	-1,9655	25,101	10,284
8416	-6,7177	-1,9877	20,895	9,0849
8417	-3,9178	-1,892	7,8476	7,4899
8418	-7,1149	-1,9483	20,077	8,8629
8419	-4,2869	-1,9188	16,947	7,7708
8420	-2,5813	-1,8686	7,9001	7,3357
8421	-4,7246	-1,9215	16,138	7,6206
8422	-3,1311	-1,843	7,1857	7,5254
8423	-8,6499	-1,973	25,634	10,317
8424	-5,0837	-1,9258	17,546	8,0051
8425	-5,1538	-1,9227	15,335	7,5127
8426	-5,9001	-1,9342	18,127	8,2383
8427	-5,6517	-1,9888	14,519	7,4573
8428	-6,7366	-1,9432	18,687	8,4608
8429	-6,4879	-1,903	8,968	7,7401
8430	-7,5693	-1,9522	19,242	8,6665
8431	-5,8502	-1,8715	8,4108	7,6938
8432	-6,0922	-1,986	13,72	7,4441
8433	-5,0975	-1,821	7,8708	7,6584
8434	-9,4977	-1,979	26,165	10,301
8435	-4,2682	-1,7238	7,2569	7,6487
8436	-6,4892	-1,8979	12,926	7,4701
8437	-6,6395	-1,9785	23,132	9,7741
8438	-3,5605	-1,6923	6,6448	7,6789
8439	-7,4177	-1,959	23,701	9,9107
8440	-6,9297	-1,8801	12,14	7,5492
8441	-5,5313	-1,9276	16,727	7,8469
8442	-7,0384	-1,9512	22,306	9,5099
8443	-6,0248	-1,9857	15,9	7,7343
8444	-2,0388	-1,7175	7,1743	7,4342
8445	-6,4829	-2,0016	15,084	7,6646
8446	-2,3982	-1,8118	6,5192	7,5934
8447	-6,9233	-1,9935	14,277	7,6399
8448	-2,893	-1,8342	5,9545	7,7468
8449	-7,4922	-1,9544	21,469	9,2627
8450	-7,8835	-1,9616	22,854	9,643
8451	-3,2381	-1,7788	5,7239	7,829
8452	-8,338	-1,9638	22,011	9,4001
8453	-7,9467	-1,958	20,628	9,04
8454	-3,94	-1,6747	5,9762	7,8604
8455	-8,4641	-1,9968	19,762	8,8427
8456	-8,7972	-1,9665	21,167	9,1824
8457	-7,3719	-1,864	11,369	7,672
8458	-9,3132	-1,999	20,291	8,9864
8459	-7,807	-1,8535	10,6	7,8318
8460	-6,3504	-1,9368	17,3	8,075
8461	-4,5496	-1,6948	6,6064	7,8207
8462	-8,269	-1,8625	9,9324	8,0222
8463	-8,2663	-1,9684	24,245	9,997
8464	-5,2553	-1,8285	7,2773	7,7997
8465	-8,7285	-1,97	23,392	9,7335
8466	-7,1804	-1,9462	17,859	8,2964
8467	-6,248	-1,9171	7,4482	7,9554
8468	-6,8505	-1,9898	16,463	7,9558
8469	-6,9363	-2,0796	7,943	8,0116
8470	-8,0259	-1,9552	18,405	8,5023
8471	-7,8365	-1,8168	8,7327	8,0938
8472	-7,3124	-2,002	15,639	7,8784
8473	-0,78848	-1,8072	6,8287	7,4467
8474	-7,7588	-1,9955	14,822	7,8454
8475	-8,8828	-1,9631	18,945	8,6852
8476	-1,766	-1,8433	6,0296	7,6477
8477	-9,7359	-1,9689	19,467	8,8325
8478	-2,5262	-1,9172	5,4158	7,8203
8479	-7,6844	-1,9919	17,013	8,1727
8480	-7,3259	-1,9099	13,476	7,6551
8481	-8,4887	-1,9569	17,563	8,3745
8482	-8,1963	-1,9828	14,01	7,8577
8483	-3,2648	-1,7772	5,0068	7,9721
8484	-8,1392	-1,9909	16,184	8,0894
8485	-7,7668	-1,8933	12,673	7,7234
8486	-8,5706	-1,9426	15,365	8,0478
8487	-9,3425	-1,9642	18,093	8,5568
8488	-9,0314	-1,9316	14,538	8,0557
8489	-8,6872	-1,7952	8,9227	8,283
8490	-8,9512	-1,9558	16,723	8,2874
8491	-8,2058	-1,879	11,888	7,8369
8492	-9,1913	-1,9709	22,546	9,4956
8493	-8,6386	-1,8715	11,104	7,9902
8494	-9,6618	-1,9731	21,698	9,2823
8495	-9,1572	-1,9847	10,36	8,2035
8496	-10,165	-1,9985	20,812	9,0892
8497	-9,5856	-2,0741	9,4733	8,4501
8498	-9,4157	-1,9509	15,891	8,245
8499	-9,8363	-1,9907	17,237	8,4707
8500	-9,886	-1,9415	15,051	8,2489
8501	-10,584	-1,9737	19,978	8,9391
8502	-10,282	-1,9592	16,405	8,4255
8503	-8,6426	-1,9811	13,203	7,9186
8504	-10,197	-1,9691	18,611	8,7068
8505	-9,1147	-1,9753	24,78	10,036
8506	-9,4663	-1,9192	13,715	8,1062
8507	-10,663	-1,9692	17,762	8,62
8508	-10,752	-1,95	15,565	8,4263
8509	-9,0931	-1,9968	12,406	8,027
8510	-9,9711	-1,9802	25,304	10,021
8511	-9,9364	-1,9903	12,909	8,2118
8512	-10,33	-1,9304	14,225	8,2962
8513	-9,582	-1,9759	23,923	9,7764
8514	-10,764	-1,9211	13,405	8,3885
8515	-11,195	-1,9397	14,73	8,4693
8516	-10,049	-1,9766	23,069	9,5422
8517	-11,639	-1,9304	13,898	8,5601
8518	-11,085	-1,9938	19,109	8,8162
8519	-9,5409	-1,995	11,619	8,179
8520	-4,0879	-1,7641	5,4203	7,9862
8521	-10,386	-1,9936	12,113	8,3586
8522	-9,9965	-2,018	10,832	8,374
8523	-4,8544	-1,6298	5,7494	8,0333
8524	-10,475	-2,0487	10,058	8,6165
8525	-10,85	-2,0113	11,329	8,5524
8526	-11,153	-1,965	16,912	8,5766
8527	-11,316	-2,0309	10,555	8,7866
8528	-5,6295	-1,5958	6,3979	8,0408
8529	-10,443	-1,9809	24,448	9,7662
8530	-6,4804	-1,884	6,7606	8,14
8531	-10,519	-1,9782	22,214	9,3333
8532	-10,906	-1,9811	23,579	9,5355
8533	-10,977	-1,9796	21,344	9,1506
8534	-7,2413	-1,9925	7,3113	8,2029
8535	-11,381	-1,9822	22,722	9,3311
8536	-11,525	-1,9737	18,269	8,7325
8537	-11,848	-1,9836	21,854	9,1537
8538	-12,012	-1,9697	17,416	8,6881
8539	-8,0456	-1,8218	7,8195	8,3081
8540	-11,211	-1,912	12,599	8,5297
8541	-11,455	-1,9793	20,49	9,
8542	-9,1428	-1,8566	8,3072	8,5203
8543	-12,32	-1,9837	20,993	9,0061
8544	-12,082	-1,9217	13,084	8,6967
8545	-9,9507	-2,0893	8,7259	8,6806
8546	-11,621	-1,9564	16,066	8,5753
8547	-11,656	-1,9028	11,805	8,7148
8548	-11,915	-1,9792	19,624	8,8806
8549	-12,112	-1,8968	11,039	8,9438
8550	-12,788	-1,9836	20,127	8,8903
8551	-12,535	-1,9103	12,28	8,8819
8552	-12,482	-1,9617	16,567	8,6857
8553	-13,001	-1,9004	11,489	9,115
8554	-12,064	-1,9469	15,224	8,6161
8555	-12,391	-1,9789	18,769	8,7979
8556	-12,882	-1,9745	17,912	8,7534
8557	-11,169	-2,1097	9,1802	8,984
8558	-12,513	-1,9382	14,393	8,7043
8559	-11,821	-2,0618	9,9475	9,0449
8560	-13,353	-1,967	17,058	8,75
8561	-12,601	-2,0156	10,291	9,2178
8562	-12,957	-1,93	13,563	8,839
8563	-12,937	-1,9533	15,713	8,7262
8564	-13,26	-1,9827	19,265	8,8087
8565	-13,81	-1,9597	16,205	8,7891
8566	-13,467	-1,9768	10,708	9,3911
8567	-13,754	-1,9785	18,404	8,7634
8568	-13,386	-1,9461	14,876	8,8119
8569	-13,415	-1,9225	12,749	9,0231
8570	-13,837	-1,9384	14,038	8,9455
8571	-12,188	-2,0908	9,2883	9,2909
8572	-14,224	-1,9715	17,547	8,7587
8573	-13,02	-2,015	9,5424	9,5112
8574	-14,286	-1,9326	13,213	9,1262
8575	-13,871	-1,915	11,931	9,2566
8576	-14,258	-1,9533	15,365	8,872
8577	-14,686	-1,9649	16,692	8,7958
8578	-14,768	-1,9863	12,389	9,3626
8579	-15,136	-1,9595	15,84	8,8767
8580	-14,715	-1,9469	14,518	9,0033
8581	-14,347	-1,9726	11,131	9,5395
8582	-13,942	-1,8943	9,9024	9,7221
8583	-15,223	-1,9793	11,566	9,6461
8584	-15,597	-1,9539	14,993	9,0039
8585	-15,163	-1,9421	13,692	9,1799
8586	-14,821	-1,9118	10,312	9,878
8587	-15,618	-1,9416	12,862	9,4081
8588	-15,693	-1,9317	10,74	9,9875
8589	-16,044	-1,9501	14,155	9,1778
8590	-16,087	-1,9436	12,029	9,6931
8591	-16,526	-1,9914	13,302	9,4089
8592	-16,565	-1,9476	11,179	10,042
8593	-16,967	-1,9524	12,489	9,6816
8594	-17,436	-1,9578	11,638	10,026
8595	-17,906	-1,964	10,768	10,444
8596	-18,381	-1,9722	9,8755	10,949
8597	-18,716	-2,0001	8,9683	11,512
8598	-19,113	-1,998	8,0437	12,188
8599	-20,4	-1,9813	4,191	15,81
8600	-20,111	-1,98	5,1769	14,811
8601	-19,459	-1,9867	7,0964	12,965
8602	-19,804	-1,9794	6,1393	13,854
8603	-17,008	-1,9825	10,314	10,45
8604	-17,513	-1,9566	9,441	10,945
8605	-16,124	-1,979	9,8959	10,378
8606	-17,835	-1,9961	8,5604	11,46
8607	-15,236	-1,9689	9,4972	10,246
8608	-18,213	-2,0053	7,6599	12,068
8609	-14,393	-1,899	9,1064	10,088
8610	-16,624	-1,9389	9,0392	10,854
8611	-13,493	-1,8991	8,7385	9,8751
8612	-17,053	-1,943	8,1627	11,376
8613	-18,598	-1,9836	6,7354	12,762
8614	-15,725	-1,9214	8,6552	10,699
8615	-17,453	-1,9397	7,2693	11,952
8616	-14,811	-1,9046	8,2955	10,489
8617	-18,951	-1,9723	5,7986	13,51
8618	-12,485	-1,9205	8,4566	9,5868
8619	-19,269	-1,9694	4,8569	14,259
8620	-13,867	-1,9027	7,9659	10,23
8621	-19,565	-1,9748	3,9123	14,916
8622	-17,822	-1,9319	6,362	12,572
8623	-16,03	-1,9954	7,8258	11,125
8624	-18,161	-1,9249	5,4457	13,209
8625	-15,108	-1,9904	7,4904	10,876
8626	-16,41	-1,9974	6,9677	11,63
8627	-14,263	-1,9099	7,1591	10,635
8628	-16,767	-1,9887	6,098	12,163
8629	-17,132	-1,9702	5,2087	12,726
8630	-18,473	-1,9241	4,5256	13,826
8631	-11,318	-1,9682	8,2393	9,2296
8632	-12,808	-2,0056	7,6894	9,8983
8633	-15,457	-1,9953	6,6602	11,321
8634	-11,811	-2,0056	7,3982	9,596
8635	-17,539	-1,9086	4,2851	13,323
8636	-14,516	-1,9842	6,3642	10,996
8637	-18,657	-1,9701	3,6745	14,25
8638	-15,826	-1,9842	5,8121	11,807
8639	-17,804	-1,9029	3,3991	13,781
8640	-16,179	-1,9655	4,9505	12,302
8641	-14,997	-1,9042	5,5146	11,499
8642	-16,577	-1,8961	4,0637	12,828
8643	-10,511	-1,9434	7,9294	9,0223
8644	-16,824	-1,8882	3,2068	13,227
8645	-15,316	-1,8968	4,6849	11,928
8646	-18,945	-1,9668	2,7685	14,649
8647	-15,593	-1,89	3,854	12,326
8648	-18,018	-1,8855	2,5204	14,1
8649	-10,914	-1,9237	7,0971	9,3405
8650	-16,962	-1,9648	2,3421	13,509
8651	-17,162	-1,961	1,4752	13,761
8652	-18,138	-1,9566	1,6753	14,289
8653	-15,835	-1,8846	3,0181	12,684
8654	-13,182	-1,9833	6,8855	10,264
8655	-15,968	-1,97	2,1379	12,944
8656	-12,172	-2,0072	6,6023	9,93
8657	-16,181	-1,9586	1,2611	13,195
8658	-18,282	-1,9442	0,81901	14,398
8659	-17,316	-1,9117	0,72273	13,914
8660	-13,545	-1,991	6,0897	10,643
8661	-16,474	-1,825	0,48978	13,433
8662	-11,208	-1,9851	6,2875	9,6361
8663	-12,559	-1,9798	5,7933	10,293
8664	-13,897	-1,9681	5,2708	11,037
8665	-16,7	-1,7559	2,3216e-002	13,586
8666	-11,575	-1,9833	5,5068	9,9528
8667	-17,505	-1,8071	-5,2203e-004	14,048
8668	-13,005	-1,9038	5,013	10,688
8669	-14,226	-1,9554	4,4551	11,424
8670	-18,372	-1,7798	-5,7743e-002	14,442
8671	-11,995	-1,9107	4,7295	10,309
8672	-13,309	-1,8981	4,2159	11,026
8673	-14,507	-1,9565	3,6287	11,782
8674	-12,221	-1,9712	3,9096	10,581
8675	-13,579	-1,8888	3,4135	11,341
8676	-14,76	-1,961	2,7923	12,106
8677	-12,484	-1,9971	3,0837	10,858
8678	-13,757	-1,9688	2,5638	11,594
8679	-12,761	-1,9713	2,31	11,115
8680	-14,995	-1,959	1,9497	12,392
8681	-14,006	-1,957	1,7263	11,85
8682	-18,241	-1,7965	-0,87101	14,377
8683	-15,214	-1,9731	1,0631	12,62
8684	-17,256	-1,81	-0,81637	13,878
8685	-18,098	-1,9597	-1,6933	14,263
8686	-16,47	-1,8676	-0,50028	13,44
8687	-13,028	-1,9353	1,4965	11,346
8688	-15,487	-1,9176	0,45245	12,838
8689	-17,13	-1,9636	-1,4685	13,745
8690	-14,238	-1,8792	0,97575	12,062
8691	-16,176	-1,9437	-1,2338	13,206
8692	-13,216	-1,6858	0,70745	11,51
8693	-14,311	-1,8814	-2,1574e-002	12,135
8694	-15,081	-1,9153	-0,75603	12,58
8695	-13,244	-1,7166	6,9821e-003	11,554
8696	-14,197	-1,9616	-0,80036	12,047
8697	-13,248	-1,8577	-0,62737	11,531
8698	-12,705	-1,8232	-0,73052	11,235
8699	-12,356	-1,6959	-0,32364	11,082
8700	-12,329	-1,7002	0,44189	11,053
8701	-12,086	-1,8142	1,2237	10,904
8702	-11,802	-1,9737	1,9585	10,699
8703	-11,466	-2,2262	2,6376	10,461
8704	-11,058	-2,2435	3,4507	10,175
8705	-10,954	-2,1537	4,3306	9,981
8706	-10,528	-2,0157	5,2335	9,6134
8707	-9,4551	-1,9728	7,4869	8,7811
8708	-9,706	-1,9322	6,7908	9,0031
8709	-10,256	-1,9097	5,8028	9,4048
8710	-1,753	-1,9073	39,172	16,849
8711	-2,6265	-1,938	38,229	16,956
8712	-3,1575	-2,0892	37,514	16,609
8713	-3,7439	-2,0959	36,735	16,075
8714	-4,3661	-2,1074	35,939	15,428
8715	-4,9595	-1,9294	35,403	14,967
8716	-5,6764	-1,8477	35,674	14,947
8717	-6,0159	-1,8016	36,153	15,127
8718	-5,0927	-1,9431	36,552	15,742
8719	-5,6337	-1,7804	36,884	15,816
8720	-4,5503	-1,9371	37,361	16,548
8721	-5,1438	-1,7445	37,758	16,786
8722	-3,99	-1,9419	38,166	17,392
8723	-4,4931	-1,7696	38,75	18,041
8724	-3,275	-2,0012	38,821	17,953
8725	-4,7118	-1,7517	39,558	19,114
8726	-3,8719	-1,7278	39,41	19,002
8727	-4,3784	-1,7647	40,114	20,225
8728	-5,0036	-1,7363	40,733	20,729
8729	-5,2967	-1,6758	39,822	19,088
8730	-5,5065	-1,8028	41,091	20,663
8731	-5,8948	-1,6984	42,48	21,506
8732	-5,7569	-1,6852	40,345	19,258
8733	-5,9584	-1,7518	44,655	21,359
8734	-6,3645	-1,6764	41,526	19,448
8735	-6,3891	-1,9504	43,925	19,907
8736	-5,6763	-1,8548	39,05	17,897
8737	-6,6018	-1,9036	42,898	19,484
8738	-6,2096	-1,8903	39,363	17,678
8739	-6,5624	-1,8509	40,704	18,501
8740	-6,9704	-1,9686	42,052	18,414
8741	-7,134	-1,8671	39,732	16,901
8742	-7,5062	-1,8875	41,076	17,032
8743	-5,929	-1,7483	38,156	16,754
8744	-7,9203	-1,8985	40,157	16,04
8745	-6,6192	-1,9216	38,459	16,489
8746	-7,4365	-1,94	38,868	15,985
8747	-6,2417	-1,8273	37,21	15,762
8748	-8,328	-1,9171	39,241	15,147
8749	27,917	-1,9116	5,2306	19,394
8750	-7,0358	-1,9385	37,53	15,469
8751	-7,8662	-1,9583	37,944	15,019
8752	-6,5725	-1,8736	36,019	14,775
8753	-8,7386	-1,9456	38,332	14,354
8754	27,589	-1,9214	5,8864	17,848
8755	-7,4148	-1,9614	36,568	14,611
8756	-5,804	-1,9449	34,37	14,123
8757	-8,2903	-1,978	37,002	14,198
8758	-6,6495	-1,8199	35,109	14,22
8759	26,264	-1,8786	6,1677	18,079
8760	-7,7742	-1,9975	35,566	13,88
8761	-9,1585	-1,9827	37,473	13,662
8762	27,091	-1,9033	6,7071	16,111
8763	-6,4811	-2,0062	33,596	13,522
8764	-8,7313	-1,9955	36,086	13,486
8765	-7,0557	-2,0014	32,732	12,944
8766	-9,5986	-1,9987	36,549	13,015
8767	-7,3866	-1,9908	34,167	13,424
8768	25,77	-1,885	7,1387	15,545
8769	-8,2491	-2,0491	34,669	13,213
8770	-7,9273	-2,0017	33,279	12,823
8771	-9,1708	-2,0263	35,164	12,866
8772	26,601	-1,8996	7,5314	14,486
8773	-10,064	-2,0115	35,678	12,442
8774	-8,7994	-2,0077	33,799	12,608
8775	-7,511	-2,0114	31,85	12,45
8776	25,261	-1,8873	7,9499	13,921
8777	-8,3775	-2,0164	32,379	12,318
8778	-9,6452	-2,0235	34,289	12,311
8779	26,112	-1,9035	8,3592	13,04
8780	-10,538	-2,016	34,801	11,922
8781	24,768	-1,9028	8,7671	12,601
8782	-9,2477	-2,0158	32,902	12,106
8783	-8,0085	-1,9965	30,98	11,99
8784	25,63	-1,9129	9,1894	11,831
8785	-10,128	-2,0146	33,415	11,814
8786	24,284	-1,9155	9,5904	11,556
8787	-11,011	-2,0137	33,926	11,455
8788	-8,8606	-2,0001	31,514	11,858
8789	23,801	-1,9265	10,418	10,721
8790	-9,7268	-2,0029	32,029	11,648
8791	25,144	-1,924	10,019	10,839
8792	-8,4877	-1,9864	30,12	11,577
8793	-10,6	-2,0071	32,545	11,371
8794	-9,3943	-2,0041	30,663	11,423
8795	-11,484	-2,0098	33,052	11,029
8796	23,322	-1,9359	11,257	10,041
8797	-8,9459	-1,9823	29,262	11,2
8798	-10,199	-1,997	31,169	11,236
8799	24,666	-1,9343	10,854	10,032
8800	-9,8019	-1,9882	29,783	11,062
8801	-11,077	-2,0027	31,675	10,965
8802	-10,671	-1,9946	30,299	10,86
8803	-11,958	-2,0067	32,18	10,638
8804	24,192	-1,9731	11,672	9,3957
8805	-11,549	-2,001	30,807	10,595
8806	-9,4221	-1,9818	28,404	10,848
8807	22,846	-1,9457	12,106	9,4874
8808	-9,89	-1,9824	27,545	10,524
8809	-12,431	-2,0051	31,307	10,277
8810	-10,364	-1,9833	26,688	10,225
8811	-10,282	-1,9876	28,928	10,711
8812	23,719	-1,9549	12,546	8,8407
8813	-11,144	-1,9939	29,435	10,513
8814	-12,85	-2,0039	32,677	10,264
8815	-10,745	-1,9875	28,055	10,39
8816	-12,022	-2,0001	29,936	10,254
8817	-11,225	-1,9877	27,196	10,092
8818	-11,616	-1,9933	28,563	10,194
8819	-13,323	-2,0027	31,802	9,9128
8820	-12,09	-1,9931	27,697	9,8999
8821	-12,495	-1,9993	29,066	9,9389
8822	-12,904	-2,0042	30,435	9,9421
8823	22,373	-1,9549	12,959	9,036
8824	-13,377	-2,0041	29,561	9,6307
8825	-12,959	-1,9991	28,193	9,6515
8826	-13,796	-2,0022	30,927	9,5833
8827	23,248	-1,9646	13,408	8,4061
8828	-12,378	-2,0059	33,553	10,638
8829	21,9	-1,9639	13,82	8,6694
8830	-14,268	-2,0022	30,052	9,274
8831	-13,85	-2,0042	28,687	9,3417
8832	-13,728	-2,0004	33,162	9,8699
8833	-13,258	-2,0014	34,04	10,229
8834	-14,2	-1,9997	32,285	9,5266
8835	22,78	-1,9728	14,277	8,0573
8836	-14,741	-2,0026	29,176	8,9842
8837	-10,827	-1,9844	25,815	9,9498
8838	-11,905	-2,0081	34,429	11,04
8839	21,43	-1,9718	14,682	8,3763
8840	-14,673	-1,9992	31,409	9,199
8841	-12,787	-2,0026	34,917	10,604
8842	20,958	-1,9903	15,557	8,1425
8843	22,309	-1,9798	15,149	7,7849
8844	21,838	-1,9855	16,023	7,5781
8845	-11,304	-1,9845	24,957	9,6983
8846	-15,146	-1,9988	30,532	8,8875
8847	-11,437	-2,0055	35,302	11,468
8848	-11,69	-1,9881	26,321	9,8203
8849	-12,562	-1,9927	26,824	9,6304
8850	-10,963	-2,0023	36,181	11,938
8851	-12,169	-1,988	25,459	9,5716
8852	-13,433	-1,9988	27,32	9,3836
8853	-15,625	-2,0019	29,644	8,5892
8854	-14,323	-2,0042	27,812	9,0741
8855	-13,036	-1,9923	25,955	9,3851
8856	-10,484	-1,9958	37,05	12,457
8857	-13,907	-1,9984	26,447	9,1388
8858	-10,024	-1,9786	37,925	13,014
8859	-12,318	-2,0027	35,793	10,995
8860	-14,797	-2,0037	26,937	8,8281
8861	-9,5753	-1,9562	38,807	13,623
8862	20,485	-1,9857	16,418	7,9726
8863	-11,773	-1,9848	24,088	9,4718
8864	-9,1383	-1,9359	39,699	14,282
8865	-15,213	-2,0026	28,299	8,7139
8866	-8,7121	-1,9207	40,604	14,983
8867	21,365	-1,99	16,898	7,4287
8868	-12,246	-1,9854	23,224	9,2714
8869	-16,1	-1,9982	28,782	8,3112
8870	-12,712	-1,9859	22,353	9,098
8871	-12,636	-1,9879	24,585	9,3492
8872	-11,845	-2,0002	36,669	11,41
8873	-13,5	-1,9923	25,084	9,1664
8874	-15,686	-2,0022	27,422	8,4635
8875	-14,382	-1,9982	25,574	8,9171
8876	-16,572	-1,998	27,904	8,0519
8877	-13,113	-1,9882	23,721	9,1508
8878	-15,271	-2,0028	26,062	8,604
8879	-13,983	-1,9924	24,213	8,967
8880	-13,582	-1,9886	22,848	8,9799
8881	-14,856	-1,9976	24,701	8,719
8882	-15,744	-2,0018	25,186	8,4024
8883	-14,45	-1,9922	23,342	8,798
8884	-16,159	-2,0016	26,546	8,2333
8885	-11,371	-1,9959	37,549	11,847
8886	-15,331	-1,9968	23,828	8,5456
8887	-13,188	-1,9862	21,49	8,9532
8888	-14,09	-2,002	21,959	8,8287
8889	-16,631	-2,0008	25,669	8,0243
8890	-14,931	-1,9916	22,47	8,652
8891	-17,044	-1,9978	27,026	7,8114
8892	-15,838	-2,0055	22,935	8,388
8893	-16,218	-2,0003	24,311	8,2242
8894	-8,2858	-1,9094	41,514	15,713
8895	-16,691	-1,9989	23,436	8,0705
8896	2,9149	-2,041	9,7733	7,0663
8897	-17,104	-2,	24,792	7,8373
8898	3,7393	-2,0916	8,9487	7,2773
8899	-17,517	-1,9976	26,148	7,5903
8900	4,3342	-2,1134	8,0802	7,5044
8901	20,013	-1,9979	17,302	7,8451
8902	-7,8446	-1,8941	42,424	16,463
8903	-17,577	-1,9991	23,915	7,6736
8904	4,8818	-2,0828	7,225	7,7483
8905	-17,989	-1,9974	25,271	7,3898
8906	19,543	-1,9915	18,17	7,7684
8907	5,4747	-2,0828	6,2134	8,0435
8908	-7,3819	-1,8739	43,315	17,206
8909	6,1588	-2,1263	5,3889	8,3424
8910	-18,461	-1,9971	24,393	7,211
8911	6,7448	-2,1895	4,6437	8,6075
8912	7,2766	-2,1564	3,7186	8,8838
8913	-6,9942	-1,9105	44,171	17,751
8914	20,893	-1,9989	17,773	7,3295
8915	-10,893	-1,9847	38,42	12,313
8916	7,9185	-2,0254	2,8374	9,1832
8917	-10,428	-1,9703	39,298	12,797
8918	20,42	-2,0007	18,649	7,2746
8919	2,1016	-2,1106	9,1203	7,0928
8920	8,4356	-2,0279	2,0504	9,4194
8921	9,1101	-1,9692	1,1892	9,7043
8922	2,7948	-2,2133	8,1407	7,3114
8923	3,3534	-2,2271	7,3258	7,5215
8924	-9,9654	-1,9547	40,179	13,303
8925	-13,656	-1,9861	20,62	8,8396
8926	3,7542	-2,2883	6,48	7,7341
8927	9,6882	-1,92	0,44438	9,9304
8928	-9,5288	-1,941	41,067	13,786
8929	-14,559	-2,0014	21,096	8,7173
8930	-9,0877	-1,9298	41,965	14,249
8931	4,6148	-2,069	5,421	8,0631
8932	-15,399	-1,9906	21,602	8,5378
8933	-14,132	-1,9853	19,757	8,7583
8934	-16,305	-2,0014	22,069	8,2712
8935	-14,626	-1,9808	18,893	8,7108
8936	5,1822	-2,0559	4,5646	8,3132
8937	-15,032	-2,0009	20,23	8,6364
8938	-17,165	-1,997	22,561	7,943
8939	-15,879	-1,9881	20,729	8,4513
8940	-15,491	-1,9822	19,38	8,591
8941	-16,755	-1,9907	21,211	8,1872
8942	-18,05	-1,9981	23,039	7,5345
8943	-16,362	-1,9831	19,861	8,3972
8944	10,419	-1,8771	-0,31209	10,215
8945	-17,229	-1,9859	20,34	8,1274
8946	-18,934	-1,9968	23,515	7,0553
8947	1,3161	-2,048	8,1925	7,2
8948	-8,6426	-1,9173	42,861	14,657
8949	0,14869	-1,9326	7,621	7,2829
8950	-8,1917	-1,9005	43,749	14,979
8951	5,6585	-1,8223	3,7159	8,5394
8952	-7,6969	-1,8969	44,615	15,304
8953	1,8345	-2,1018	7,3077	7,3955
8954	2,4838	-2,1373	6,5598	7,5884
8955	-17,638	-1,9944	21,686	7,8435
8956	1,051	-2,0388	6,5291	7,5161
8957	-0,27418	-2,0512	6,6076	7,4869
8958	3,0398	-2,1121	6,102	7,7357
8959	1,708	-2,1064	5,6908	7,7132
8960	0,28599	-2,0364	5,6549	7,6785
8961	2,2874	-2,1054	4,9296	7,9007
8962	-18,522	-1,9967	22,162	7,4216
8963	3,8026	-2,0947	4,7129	8,0879
8964	1,0412	-2,2638	4,7762	7,8642
8965	3,0664	-2,1353	3,9388	8,1432
8966	-18,112	-1,991	20,812	7,7736
8967	4,586	-2,0926	3,7589	8,3547
8968	-18,995	-1,9947	21,286	7,3369
8969	1,5955	-2,2482	3,8137	8,0531
8970	-19,406	-1,9964	22,638	6,9239
8971	2,3931	-2,3166	2,7607	8,253
8972	5,086	-2,1323	2,926	8,5423
8973	3,7442	-2,1952	2,8823	8,3646
8974	-19,878	-1,9959	21,76	6,8189
8975	3,1993	-2,2706	2,0416	8,4034
8976	4,2423	-2,2312	2,1887	8,5085
8977	11,238	-1,8525	-0,84963	10,541
8978	-6,4695	-1,8471	45,037	18,552
8979	19,072	-1,9918	19,045	7,7316
8980	6,6151	-1,8393	2,8765	8,8598
8981	12,169	-1,9672	-1,144	10,953
8982	5,7629	-2,1175	1,8952	8,7961
8983	-15,103	-1,9963	18,021	8,7041
8984	13,066	-1,9703	-1,3957	11,377
8985	-15,975	-1,9961	18,504	8,5793
8986	13,979	-1,8046	-1,5996	11,849
8987	5,1913	-2,1999	1,1768	8,73
8988	-16,84	-1,9776	19,	8,3784
8989	-7,1584	-1,9327	45,51	15,606
8990	7,0879	-1,8658	2,0129	9,0514
8991	-17,703	-1,9815	19,47	8,1013
8992	-18,585	-1,9875	19,938	7,7358
8993	6,2782	-2,1186	1,1224	8,9389
8994	19,947	-2,0004	19,525	7,2597
8995	-19,468	-1,9927	20,409	7,2825
8996	6,0811	-2,02	0,14983	8,9308
8997	-15,566	-1,9933	17,163	8,7384
8998	-20,35	-1,9949	20,882	6,7422
8999	7,5755	-1,9353	1,1859	9,2491
9000	-16,441	-1,992	17,644	8,6085
9001	7,1921	-2,0881	0,18492	9,1733
9002	-16,028	-1,9929	16,307	8,8158
9003	-17,309	-1,9732	18,13	8,4004
9004	-16,905	-1,9925	16,785	8,6794
9005	-18,188	-1,9925	18,593	8,1097
9006	-17,767	-1,9698	17,275	8,4624
9007	-18,657	-1,9889	17,727	8,1602
9008	-19,065	-1,9963	19,062	7,7304
9009	8,5046	-2,046	0,42271	9,5344
9010	-19,536	-1,9944	18,189	7,7659
9011	8,0315	-2,0813	-0,40324	9,4005
9012	6,7502	-1,941	-0,50123	9,0615
9013	-19,94	-1,99	19,533	7,2609
9014	7,8542	-1,9167	-0,97198	9,3374
9015	9,4408	-1,809	-7,0162e-002	9,8525
9016	3,7504	-2,3906	1,2627	8,5213
9017	8,8771	-1,987	-1,0341	9,6382
9018	-20,416	-1,9958	18,657	7,2743
9019	8,4264	-1,9308	-1,7851	9,4567
9020	10,134	-1,9269	-0,97804	10,085
9021	-20,823	-1,9936	20,004	6,6963
9022	10,853	-1,9649	-1,6953	10,324
9023	-21,296	-1,9979	19,128	6,6835
9024	4,8254	-2,1198	0,14116	8,7025
9025	9,6499	-1,9541	-1,7411	9,8511
9026	9,374	-1,9099	-2,4485	9,6905
9027	18,596	-1,9993	19,926	7,7337
9028	5,543	-2,1248	-0,70659	8,8089
9029	-1,3684	-2,104	5,5177	7,7334
9030	11,861	-1,9666	-1,9478	10,74
9031	10,695	-1,9542	-2,5015	10,177
9032	12,821	-1,9892	-2,1746	11,173
9033	11,408	-2,0697	-2,8529	10,432
9034	13,737	-1,8124	-2,3487	11,621
9035	12,512	-2,0199	-2,9975	10,92
9036	18,128	-1,9909	20,797	7,7694
9037	13,429	-1,8962	-3,1773	11,36
9038	-0,50353	-2,0254	4,729	7,8589
9039	6,2255	-2,0597	-1,4703	8,8981
9040	0,30993	-2,3748	3,8818	8,0054
9041	-8,4706	-2,0845	7,0923	8,5639
9042	6,9774	-2,0371	-2,5047	8,9846
9043	10,154	-2,0472	-3,2285	9,8608
9044	7,9546	-1,8774	-3,0394	9,1758
9045	11,146	-2,124	-3,8368	10,166
9046	9,1209	-1,9563	-3,4621	9,4719
9047	-8,9078	-1,9097	6,3857	8,842
9048	12,032	-2,2125	-4,0653	10,488
9049	-9,4161	-1,8904	5,4569	9,1813
9050	13,217	-2,0134	-4,2727	11,009
9051	9,5583	-2,1737	-3,8474	9,5498
9052	-9,7806	-1,7431	4,796	9,439
9053	10,943	-2,0333	-4,3256	9,9857
9054	-16,491	-1,9936	15,455	8,9385
9055	19,475	-2,0004	20,401	7,2808
9056	11,964	-1,8844	-4,7179	10,348
9057	-17,37	-1,9937	15,929	8,7947
9058	12,885	-1,9656	-5,0076	10,695
9059	-18,239	-1,9659	16,417	8,5654
9060	19,002	-1,9987	21,277	7,335
9061	-19,121	-1,9686	16,875	8,2504
9062	-16,952	-1,9943	14,608	9,109
9063	-17,41	-1,9947	13,763	9,331
9064	-17,834	-1,994	15,077	8,9571
9065	-18,702	-1,9607	15,571	8,7135
9066	-19,591	-1,9622	16,019	8,3858
9067	-20,005	-1,9732	17,322	7,8422
9068	-20,475	-1,9654	16,468	7,9586
9069	-20,886	-1,979	17,781	7,3299
9070	-18,275	-1,9565	14,27	9,1593
9071	-21,36	-1,9716	16,917	7,4239
9072	-19,168	-1,9557	14,73	8,9093
9073	-20,056	-1,9561	15,171	8,5692
9074	-20,942	-1,9586	15,621	8,1217
9075	-17,846	-1,9562	12,962	9,5932
9076	-21,829	-1,9644	16,059	7,566
9077	-18,729	-1,9559	13,428	9,4228
9078	-19,631	-1,9893	13,828	9,1849
9079	-7,4604	-2,08	6,4943	8,414
9080	-20,52	-1,9832	14,289	8,8229
9081	-7,742	-1,9853	5,6459	8,6554
9082	-21,409	-1,9834	14,739	8,3556
9083	1,1314	-2,3604	2,9264	8,1622
9084	-22,298	-1,9856	15,188	7,77
9085	-8,1958	-1,8684	5,0427	8,9017
9086	1,9158	-2,2821	1,8453	8,3147
9087	-8,3459	-1,8564	4,7437	8,9974
9088	-9,7255	-1,7992	3,868	9,5898
9089	2,6745	-2,2337	1,2073	8,4193
9090	-8,9614	-1,8319	3,5398	9,3916
9091	-6,6712	-1,9286	6,025	8,3224
9092	3,4776	-2,1034	0,29693	8,5236
9093	-10,071	-1,9427	3,2133	9,8203
9094	4,0863	-2,1201	-0,77679	8,5949
9095	-9,3493	-1,9918	2,679	9,6406
9096	-5,5679	-1,7706	5,3648	8,2382
9097	-7,1064	-2,1142	5,1827	8,5897
9098	-10,505	-2,0061	2,3466	10,101
9099	-7,301	-1,9561	4,5138	8,7579
9100	-9,4898	-2,0757	1,8538	9,7796
9101	-4,6802	-1,8634	4,8556	8,1811
9102	-7,6901	-1,906	4,1481	8,9249
9103	-5,8854	-1,645	4,5182	8,4435
9104	4,6641	-1,9551	-1,7405	8,5996
9105	-5,065	-1,9308	3,9456	8,4023
9106	-4,0529	-1,8917	4,5782	8,142
9107	-6,5608	-1,6645	3,9792	8,6811
9108	-4,3573	-1,9695	3,536	8,3543
9109	-1,951	-2,0711	4,623	7,9341
9110	-5,5359	-2,0481	3,2897	8,5667
9111	-1,3864	-1,8872	3,7767	8,0496
9112	-6,721	-1,3828	3,2648	8,8315
9113	-8,1657	-2,0554	2,9262	9,2454
9114	-4,5835	-2,0423	2,5201	8,5223
9115	-5,7676	-1,8858	2,6413	8,7102
9116	-7,3202	-1,8455	1,9089	9,1295
9117	-4,9083	-2,1513	1,6463	8,6519
9118	-6,3192	-2,2693	1,3343	8,9356
9119	-3,0311	-1,9212	3,8208	8,1553
9120	-3,4419	-1,932	2,7994	8,3436
9121	5,8234	-2,1045	-2,5086	8,7294
9122	-3,8103	-2,0773	1,7195	8,4985
9123	-5,4251	-2,3522	0,70711	8,7915
9124	6,732	-1,9718	-3,1798	8,835
9125	1,9359	-1,9723	-0,11255	8,4012
9126	-4,1809	-2,2782	0,76685	8,5957
9127	2,6964	-1,8738	-0,90938	8,4209
9128	-4,6285	-2,2344	-0,13473	8,672
9129	3,3533	-1,9734	-1,7142	8,4451
9130	-8,4642	-2,0587	2,0115	9,4328
9131	4,355	-1,9761	-2,4693	8,4852
9132	-10,876	-1,9567	1,5576	10,331
9133	5,4778	-2,0231	-3,3341	8,559
9134	-9,6999	-2,0467	1,1227	9,9125
9135	-8,7422	-2,0323	1,1536	9,585
9136	-9,0873	-2,0405	0,3028	9,7177
9137	-7,353	-1,8218	1,1847	9,1884
9138	-11,173	-1,8264	0,75972	10,513
9139	-6,7695	-2,0151	0,41547	9,0817
9140	6,1901	-1,7725	-4,2171	8,5592
9141	-5,7152	-1,8786	-0,33629	8,849
9142	-10,291	-1,8894	0,11105	10,165
9143	-9,5823	-1,9573	-0,57903	9,8892
9144	7,4898	-1,8876	-3,79	8,9334
9145	8,5789	-1,9794	-4,2279	9,1843
9146	7,15	-1,8864	-4,5853	8,7201
9147	-5,1582	-2,1184	-1,1466	8,7344
9148	8,2915	-1,8944	-5,0955	8,9367
9149	-7,8715	-2,0071	0,33923	9,3568
9150	-7,1873	-2,0231	-0,58937	9,1745
9151	9,5132	-2,0416	-4,6774	9,3944
9152	-6,4583	-1,8575	-1,4885	8,9598
9153	9,2092	-2,065	-5,5079	9,131
9154	-5,7936	-2,1272	-2,2671	8,7531
9155	17,657	-1,9903	21,673	7,8379
9156	17,185	-1,9896	22,549	7,9364
9157	-18,309	-1,9885	12,063	9,9489
9158	-19,192	-1,9919	12,515	9,7786
9159	-20,083	-1,9908	12,968	9,5117
9160	-20,975	-1,9859	13,427	9,1353
9161	16,713	-1,9893	23,425	8,0625
9162	-21,87	-1,9792	13,888	8,6427
9163	-21,767	-1,9853	18,248	6,7107
9164	16,242	-1,9889	24,301	8,2149
9165	-22,242	-1,9788	17,381	6,773
9166	-8,5359	-2,0322	-0,37381	9,5495
9167	-22,764	-1,951	14,364	8,0134
9168	-22,713	-1,9721	16,517	6,8835
9169	-11,37	-1,803	0,15676	10,625
9170	-23,185	-1,9656	15,656	7,0468
9171	-11,704	-1,6789	-0,85524	10,761
9172	-10,739	-1,8127	-0,60802	10,344
9173	-10,413	-2,0316	-1,5533	10,158
9174	-11,3	-1,7646	-1,2407	10,553
9175	-8,856	-1,9317	-1,2308	9,6276
9176	-7,8307	-2,1592	-1,3229	9,3041
9177	-11,107	-1,9514	-2,1275	10,387
9178	-9,4414	-1,9967	-2,116	9,7438
9179	-6,9069	-2,1895	-2,288	8,99
9180	-8,24	-2,01	-2,1248	9,3609
9181	-10,399	-2,0063	-2,7445	10,026
9182	-7,4602	-2,2497	-3,1671	9,0223
9183	-8,9656	-1,9504	-2,9297	9,4942
9184	-6,4822	-2,1048	-3,0782	8,799
9185	-8,4355	-2,0801	-3,8993	9,177
9186	-7,0996	-2,1606	-3,9583	8,8007
9187	-10,047	-2,0903	-3,634	9,7619
9188	15,763	-1,9957	25,178	8,3948
9189	-9,1065	-2,2121	-4,3668	9,3091
9190	15,3	-1,9892	26,054	8,5919
9191	-7,9482	-2,0964	-4,6906	8,9044
9192	-23,654	-1,9591	14,8	7,2716
9193	-8,8249	-2,0965	-5,3064	9,0543
9194	-12,276	-1,8848	-1,2643	10,999
9195	18,529	-1,9981	22,153	7,4195
9196	-12,041	-2,1046	-1,9626	10,833
9197	-18,765	-1,9676	11,241	10,343
9198	-11,705	-2,0708	-2,5689	10,594
9199	-19,635	-1,9916	11,657	10,183
9200	-11,287	-1,9992	-3,3709	10,296
9201	-20,521	-1,9785	12,14	9,8944
9202	-10,838	-1,9363	-4,0784	9,9939
9203	-21,42	-1,9768	12,597	9,5047
9204	-10,293	-2,1041	-4,8867	9,6276
9205	-22,316	-1,9396	13,112	8,9591
9206	-9,6514	-2,1096	-5,7335	9,2369
9207	-23,221	-1,9451	13,53	8,3354
9208	18,057	-1,9975	23,029	7,532
9209	17,584	-1,9972	23,906	7,671
9210	14,82	-1,9949	26,929	8,8183
9211	-19,23	-1,9808	10,354	10,847
9212	17,112	-1,997	24,783	7,834
9213	-24,12	-1,9541	13,948	7,5704
9214	16,64	-1,9968	25,66	8,0204
9215	-20,068	-1,9695	10,872	10,629
9216	-20,929	-1,9478	11,4	10,3
9217	16,168	-1,9966	26,537	8,2287
9218	-21,83	-1,9351	11,881	9,8851
9219	14,358	-1,9887	27,805	9,0592
9220	-22,752	-1,9343	12,303	9,3691
9221	15,7	-1,9917	27,413	8,4569
9222	-23,685	-1,972	12,636	8,7844
9223	-2,1084	-2,0837	2,9171	8,2093
9224	15,224	-1,9957	28,29	8,7084
9225	-13,108	-2,0122	-1,2228	11,426
9226	-13,993	-1,9656	-1,6746	11,868
9227	-24,585	-1,9821	13,059	7,99
9228	-4,0469	-2,1507	-0,92757	8,5758
9229	-12,797	-1,9697	-2,2566	11,161
9230	-4,4647	-2,2231	-2,2675	8,5161
9231	-12,501	-1,974	-3,0568	10,898
9232	10,402	-2,084	-5,1117	9,619
9233	-5,0313	-2,2807	-3,1987	8,4902
9234	11,489	-1,7615	-5,5156	9,9749
9235	-5,8603	-2,1796	-4,1709	8,5038
9236	12,645	-1,8716	-5,783	10,413
9237	10,254	-1,9736	-5,9519	9,4022
9238	-6,5466	-2,1849	-4,8775	8,5165
9239	-12,168	-2,0094	-3,8235	10,605
9240	11,179	-1,8651	-6,1975	9,7004
9241	-11,775	-2,0176	-4,5623	10,293
9242	12,216	-1,9197	-6,5229	10,039
9243	-14,952	-1,9673	-1,9048	12,389
9244	-7,3938	-2,1143	-5,6067	8,593
9245	13,887	-1,9884	28,681	9,3251
9246	-11,21	-2,1692	-5,284	9,9033
9247	13,417	-1,9885	29,556	9,6127
9248	-8,2348	-2,0788	-6,153	8,7167
9249	-9,2703	-2,0998	-6,6064	8,9418
9250	-10,845	-2,2193	-6,1873	9,5684
9251	12,946	-1,9888	30,432	9,9227
9252	-10,498	-2,1876	-7,0327	9,2636
9253	-13,75	-1,9679	-2,5401	11,614
9254	12,475	-1,9885	31,307	10,256
9255	-13,468	-1,9882	-3,3626	11,321
9256	-14,668	-1,875	-2,7593	12,086
9257	14,756	-1,9912	29,167	8,9761
9258	-19,626	-1,989	9,4045	11,47
9259	-14,434	-1,9866	-3,6073	11,78
9260	-20,457	-1,9174	9,9266	11,245
9261	12,004	-1,9881	32,183	10,616
9262	-21,35	-1,8132	10,51	10,89
9263	14,285	-1,9912	30,043	9,2652
9264	-22,285	-1,838	11,022	10,416
9265	13,814	-1,9914	30,919	9,5735
9266	11,534	-1,9883	33,059	11,004
9267	-20,003	-1,9747	8,4365	12,224
9268	13,335	-1,995	31,794	9,9056
9269	11,064	-1,9913	33,935	11,426
9270	12,869	-1,9908	32,673	10,253
9271	10,593	-2,0013	34,814	11,891
9272	10,105	-2,0185	35,711	12,42
9273	-20,459	-1,9274	7,4425	13,187
9274	-20,658	-1,9706	6,4712	14,197
9275	12,398	-1,9907	33,549	10,627
9276	-20,962	-1,9733	5,5025	15,481
9277	11,927	-1,9925	34,424	11,026
9278	-21,786	-1,9777	5,8569	16,054
9279	-3,8764	-2,3299	-3,256	8,3202
9280	11,457	-2,0006	35,3	11,455
9281	-4,4841	-2,3606	-4,1119	8,2795
9282	-21,478	-1,9619	6,791	14,459
9283	9,5883	-2,0394	36,626	13,045
9284	-3,1504	-2,0973	-4,1798	8,0903
9285	10,973	-2,0148	36,189	11,932
9286	-3,9178	-2,4937	-5,0617	8,0188
9287	-5,2616	-2,0661	-4,644	8,2987
9288	-21,193	-1,9545	7,7588	13,223
9289	-4,7213	-2,2295	-5,6644	8,0157
9290	-6,1026	-2,0628	-5,8338	8,2461
9291	10,46	-2,0323	37,096	12,482
9292	-21,027	-1,8431	8,8578	12,167
9293	-5,4765	-2,144	-6,6207	7,968
9294	-21,796	-1,8305	8,7465	12,422
9295	-23,245	-1,9259	11,378	9,9503
9296	-6,754	-2,0577	-6,5003	8,2673
9297	-24,147	-1,97	11,783	9,3135
9298	-21,896	-1,8631	7,8883	13,383
9299	-21,905	-1,6935	9,7745	11,493
9300	-6,2208	-2,0339	-7,3346	7,9904
9301	-22,635	-1,7441	10,211	11,095
9302	-22,292	-1,9529	7,114	14,581
9303	-23,756	-1,8361	10,596	10,562
9304	-25,043	-1,9778	12,206	8,4982
9305	-24,593	-1,9613	10,94	9,9802
9306	-22,639	-1,9685	6,2092	16,469
9307	-22,266	-1,7725	9,2063	12,031
9308	-23,097	-1,8779	9,5088	11,736
9309	-25,481	-1,9557	11,408	9,0806
9310	-24,05	-1,9324	9,8493	11,271
9311	-7,77	-2,2459	-7,2927	8,3717
9312	-24,986	-1,9508	10,169	10,636
9313	-6,9409	-1,846	-8,0067	8,0464
9314	-25,916	-1,9771	10,567	9,8369
9315	-8,1715	-1,9207	-8,4402	8,265
9316	-4,8344	-2,05	-7,5696	7,679
9317	-5,6643	-2,0442	-8,2251	7,7184
9318	-6,4126	-1,7945	-8,7648	7,7779
9319	-4,0198	-2,0769	-6,885	7,6792
9320	-7,7496	-1,7566	-8,8782	8,1048
9321	-3,3956	-2,1856	-6,1576	7,7492
9322	-22,79	-1,8979	8,3392	13,088
9323	7,376e-002	-2,1601	-3,8903	7,9803
9324	-7,2618	-1,8801	-9,5625	7,8958
9325	-2,3448	-2,0463	-5,3352	7,8084
9326	-23,098	-1,9522	7,4615	14,462
9327	-1,6189	-2,1111	-4,5742	7,9048
9328	-23,478	-1,9694	6,576	16,426
9329	-0,55749	-2,1346	-4,9469	7,7932
9330	-0,5389	-2,0585	-6,2921	7,523
9331	-1,2322	-2,1371	-6,1889	7,5653
9332	-0,16119	-2,0012	-6,93	7,389
9333	-23,521	-1,9053	8,692	12,739
9334	-1,9402	-2,1263	-6,3932	7,569
9335	-24,433	-1,943	9,0712	12,224
9336	-2,9698	-2,1262	-6,7322	7,581
9337	-25,389	-1,9307	9,3336	11,7
9338	-3,7043	-2,0893	-7,6921	7,4945
9339	-9,0343	-2,0925	-7,6808	8,6584
9340	-4,3308	-2,068	-8,4251	7,4533
9341	2,3536	-1,991	-1,7688	8,342
9342	2,0528	-1,9396	-2,6251	8,2295
9343	-26,374	-1,9561	9,7002	10,859
9344	1,2851	-2,1027	-3,8958	8,0084
9345	1,0217	-2,0601	-4,8784	7,818
9346	-0,84484	-1,9573	-7,2634	7,338
9347	0,76159	-2,1363	-5,6917	7,6537
9348	-1,5739	-1,9899	-7,7789	7,2817
9349	-8,8348	-1,9032	-8,4542	8,4617
9350	-5,1551	-2,0323	-9,0735	7,4927
9351	0,61159	-2,1573	-6,7338	7,4357
9352	-10,16	-2,303	-7,9277	8,9688
9353	-2,3523	-1,9437	-8,3463	7,2229
9354	-8,4798	-1,7551	-9,5421	8,2073
9355	-9,8016	-2,0735	-9,0016	8,6725
9356	-3,0507	-1,9293	-8,9272	7,2076
9357	-8,004	-1,9336	-10,221	8,001
9358	-9,3089	-2,0402	-9,8976	8,3947
9359	-3,6106	-1,9748	-9,4696	7,2035
9360	-8,7941	-2,0068	-10,803	8,1561
9361	-4,632	-2,1018	-10,054	7,2953
9362	0,53884	-2,0594	-7,2186	7,3396
9363	-13,146	-2,0157	-4,1534	10,995
9364	-0,34285	-1,926	-8,1782	7,1597
9365	-12,792	-2,0367	-4,9525	10,651
9366	-1,1119	-1,9944	-8,6238	7,105
9367	-12,414	-2,0322	-5,7787	10,287
9368	-1,9097	-2,0109	-9,1773	7,0695
9369	-12,043	-2,0506	-6,6009	9,9396
9370	-23,965	-1,8904	7,7956	14,142
9371	-11,679	-2,0968	-7,4407	9,6067
9372	-2,7231	-1,954	-9,6805	7,0766
9373	-14,136	-2,0135	-4,4441	11,421
9374	-5,7921	-1,9584	-9,5668	7,5461
9375	-13,784	-2,0171	-5,2662	11,034
9376	-3,4171	-2,0329	-10,361	7,0935
9377	-13,423	-2,0282	-6,0879	10,647
9378	-24,269	-1,919	6,9193	16,041
9379	-24,86	-1,928	8,1499	13,579
9380	-13,047	-2,0413	-6,9157	10,268
9381	-25,211	-1,9889	7,356	15,143
9382	-11,217	-2,2131	-8,429	9,2291
9383	-12,644	-2,0829	-7,7734	9,8922
9384	-10,61	-2,0241	-9,367	8,8627
9385	-12,145	-2,2038	-8,7984	9,473
9386	-10,251	-2,0438	-10,298	8,6207
9387	-11,573	-2,0794	-9,8373	9,0874
9388	-5,4347	-2,0297	-10,766	7,3855
9389	-11,08	-2,0445	-10,69	8,8092
9390	-25,896	-1,9581	8,5378	12,801
9391	-4,1977	-2,0363	-10,975	7,1679
9392	-26,912	-1,8835	8,8316	12,018
9393	-5,0132	-2,0303	-11,583	7,2863
9394	-26,066	-1,8885	7,6926	14,279
9395	-15,924	-1,9703	-2,1137	12,935
9396	-15,64	-1,9015	-3,0022	12,596
9397	-9,7572	-2,1093	-11,249	8,3801
9398	-27,327	-1,8987	8,0136	13,329
9399	-10,522	-2,105	-11,678	8,5548
9400	-15,349	-1,9131	-3,8656	12,218
9401	-25,737	-2,0036	6,4082	17,621
9402	-15,009	-1,9279	-4,7175	11,799
9403	-14,647	-1,9391	-5,5637	11,365
9404	-26,571	-2,0099	6,7763	16,227
9405	-16,904	-1,9772	-2,3409	13,486
9406	-6,5162	-2,0474	-10,438	7,6294
9407	-16,661	-1,9862	-3,2235	13,144
9408	-27,694	-2,017	7,1119	15,065
9409	-6,2333	-2,026	-11,342	7,5206
9410	-16,374	-1,9871	-4,1049	12,729
9411	-14,267	-1,9463	-6,3995	10,937
9412	-15,98	-1,9317	-4,9977	12,223
9413	-27,182	-2,0181	5,8602	18,397
9414	-15,611	-1,9312	-5,859	11,74
9415	-7,5658	-1,933	-11,03	7,8345
9416	-28,088	-2,0527	6,2262	16,683
9417	-7,1292	-1,9363	-11,854	7,7083
9418	-8,3559	-2,0178	-11,628	7,9993
9419	-7,9175	-1,9987	-12,444	7,888
9420	-5,8203	-2,0207	-12,168	7,4386
9421	-9,2444	-1,9563	-12,068	8,2069
9422	-17,889	-1,9819	-2,5635	14,025
9423	-10,058	-2,0251	-12,645	8,3922
9424	-8,7542	-2,007	-12,979	8,0886
9425	-17,636	-1,9962	-3,4546	13,673
9426	-9,6011	-2,01	-13,497	8,2903
9427	-13,906	-1,9589	-7,241	10,533
9428	-6,691	-1,928	-12,689	7,6301
9429	-17,276	-1,9397	-4,3887	13,159
9430	-7,5226	-1,9313	-13,24	7,8328
9431	-16,931	-1,9357	-5,2835	12,63
9432	-8,3508	-1,937	-13,781	8,0411
9433	-16,552	-1,9272	-6,1572	12,089
9434	-9,1898	-1,943	-14,307	8,248
9435	-15,224	-1,9299	-6,7017	11,269
9436	-13,447	-1,9808	-8,1378	10,102
9437	-14,839	-1,9291	-7,5426	10,825
9438	-16,17	-1,9188	-7,0131	11,573
9439	-14,573	-1,9966	-8,3487	10,468
9440	3,301	-2,0849	-2,7226	8,3234
9441	-14,123	-1,8905	-9,1695	10,076
9442	-12,997	-1,9487	-9,1116	9,7062
9443	-14,13	-1,8707	-9,8284	9,9091
9444	-13,569	-1,825	-10,342	9,61
9445	4,3128	-2,0613	-3,5093	8,3496
9446	2,9393	-1,9825	-3,4455	8,1911
9447	-15,791	-1,91	-7,8439	11,101
9448	3,842	-1,9883	-4,7005	8,0843
9449	-12,315	-1,9476	-10,302	9,2384
9450	-15,545	-1,979	-8,6417	10,721
9451	5,1212	-2,157	-4,2756	8,3439
9452	-15,23	-1,9915	-9,4401	10,355
9453	5,9485	-1,8531	-4,9886	8,3825
9454	-14,866	-1,9821	-10,194	10,022
9455	4,7091	-2,0847	-5,652	8,0196
9456	-13,267	-1,9001	-11,107	9,377
9457	7,1522	-1,8144	-5,345	8,5756
9458	-14,469	-1,9935	-10,94	9,7269
9459	5,1641	-1,9433	-6,2393	7,9964
9460	-13,996	-1,9314	-11,608	9,4623
9461	7,0668	-1,755	-6,3447	8,3667
9462	9,037	-2,0629	37,533	13,783
9463	8,0383	-1,9798	-5,7204	8,7429
9464	8,4764	-2,0925	38,457	14,669
9465	9,9444	-2,0496	37,999	13,099
9466	6,1557	-2,2045	41,111	19,647
9467	7,7223	-1,8575	-6,6916	8,4623
9468	8,8086	-1,8209	-6,167	8,8824
9469	8,0321	-2,064	39,28	15,509
9470	9,9945	-1,9831	-6,6179	9,1806
9471	7,2621	-2,0997	40,349	17,101
9472	10,97	-1,9147	-7,0158	9,4367
9473	7,3486	-2,0059	41,215	17,344
9474	12,055	-1,9192	-7,3913	9,7623
9475	8,4463	-2,0305	-7,0543	8,6062
9476	9,4104	-2,0643	38,9	13,81
9477	9,5868	-1,965	-7,43	8,8859
9478	6,8069	-2,0476	41,697	18,673
9479	10,775	-1,9971	-7,8037	9,197
9480	6,4937	-2,0749	42,685	19,878
9481	11,589	-1,9162	-8,1614	9,4163
9482	8,8883	-2,0547	39,805	14,615
9483	8,2657	-1,921	-7,8092	8,4139
9484	8,4888	-1,997	40,641	15,319
9485	9,1428	-1,9207	-8,2062	8,5972
9486	8,1742	-2,0141	41,487	15,9
9487	10,21	-1,9021	-8,5481	8,8669
9488	7,7865	-2,0289	42,332	16,631
9489	11,124	-1,9366	-8,9421	9,0887
9490	7,4311	-1,8212	-7,4467	8,2537
9491	7,3194	-2,0423	43,163	17,45
9492	6,7736	-1,8757	-7,0376	8,1685
9493	-18,903	-1,9971	-2,7859	14,606
9494	6,5546	-1,7861	-7,6014	8,0155
9495	6,9414	-1,7828	-8,2029	8,0075
9496	-18,557	-1,9705	-3,713	14,185
9497	7,9915	-1,8061	-8,5456	8,2158
9498	-18,26	-1,9931	-4,6153	13,673
9499	-27,745	-1,5286	-5,0045	20,165
9500	-17,903	-1,979	-5,5386	13,056
9501	8,7899	-1,7574	-8,8978	8,3819
9502	-17,543	-1,9713	-6,4362	12,451
9503	-27,685	-1,4929	-5,5953	18,578
9504	-28,221	-1,8434	-5,5752	18,052
9505	-28,182	-1,7461	-5,0673	19,219
9506	-17,188	-1,9689	-7,3082	11,885
9507	-16,839	-1,971	-8,1576	11,373
9508	-16,49	-1,9729	-8,9871	10,913
9509	-16,123	-1,9756	-9,8046	10,499
9510	-15,747	-1,9921	-10,605	10,137
9511	-11,739	-1,9761	-11,042	8,9464
9512	-15,313	-1,998	-11,395	9,8106
9513	-14,869	-1,9214	-12,131	9,5457
9514	-11,375	-1,9924	-12,188	8,7382
9515	-12,805	-2,0041	-11,912	9,1229
9516	-10,933	-1,9714	-13,093	8,5839
9517	-12,233	-1,9811	-12,738	8,8944
9518	-13,537	-1,96	-12,418	9,2194
9519	-10,453	-2,0088	-14,008	8,481
9520	-11,784	-1,9698	-13,615	8,7481
9521	-13,093	-1,9683	-13,27	9,0265
9522	-10,035	-1,9475	-14,82	8,4411
9523	-12,644	-1,9657	-14,12	8,8812
9524	6,8431	-2,0621	43,997	18,376
9525	-14,419	-1,9453	-12,941	9,3071
9526	-11,312	-2,0029	-14,51	8,6494
9527	-13,962	-1,9574	-13,772	9,1153
9528	-10,884	-1,9509	-15,329	8,6103
9529	-13,513	-1,962	-14,62	8,9733
9530	9,7909	-1,8685	-9,2878	8,6171
9531	-12,193	-1,9602	-14,981	8,7883
9532	10,686	-1,9	-9,7003	8,8318
9533	-11,74	-1,9535	-15,828	8,745
9534	-13,064	-1,9598	-15,467	8,8805
9535	2,3467	-2,0096	-4,8877	7,8934
9536	-12,59	-1,993	-16,348	8,8346
9537	2,1187	-1,9087	-5,817	7,6936
9538	1,7463	-1,7672	-6,5252	7,5293
9539	-28,828	-1,9283	-5,2233	18,002
9540	6,3789	-2,0359	44,833	19,328
9541	-26,608	-2,1317	-6,5432	16,764
9542	-28,615	-2,0042	-6,03	16,752
9543	3,379	-1,9348	-5,6902	7,8353
9544	-26,311	-1,953	-7,0874	15,604
9545	3,0695	-1,8293	-6,4519	7,6537
9546	2,725	-1,7174	-7,3761	7,4351
9547	1,5122	-2,1149	-7,4671	7,3257
9548	-26,233	-2,0026	-8,2831	13,117
9549	2,3214	-1,921	-8,1094	7,2658
9550	1,0552	-1,9616	-8,2045	7,1831
9551	0,22704	-1,8827	-9,1271	7,012
9552	-0,68086	-1,9845	-9,4808	6,9732
9553	-0,32479	-1,9687	-10,285	6,8876
9554	-1,5146	-1,8789	-9,9752	6,9526
9555	0,27617	-1,8648	-10,218	6,8966
9556	-1,0659	-2,0002	-10,765	6,8739
9557	0,29463	-1,8371	-10,756	6,8584
9558	1,7422	-1,9376	-9,0001	7,0875
9559	-2,2472	-1,9915	-10,564	6,9573
9560	1,369	-1,8267	-10,066	6,9416
9561	-3,0273	-1,9945	-11,167	7,008
9562	1,2016	-1,8387	-10,741	6,884
9563	-3,8833	-1,9146	-11,737	7,111
9564	-1,8148	-2,0035	-11,369	6,8956
9565	0,80397	-1,7372	-11,301	6,8468
9566	4,377	-1,8646	-6,6484	7,7811
9567	-5,9628e-002	-1,8609	-11,001	6,8493
9568	-2,5928	-2,0037	-11,983	6,9651
9569	0,29443	-1,7765	-11,896	6,8414
9570	-0,77262	-1,8255	-11,599	6,8477
9571	5,3143	-1,7486	-7,3803	7,7952
9572	-0,10607	-1,7518	-12,5	6,8669
9573	-1,3018	-1,9487	-12,183	6,8845
9574	-4,6056	-2,0013	-12,382	7,2363
9575	5,9275	-1,6931	-8,033	7,8077
9576	-1,1312	-1,8698	-13,11	6,9447
9577	-2,2097	-1,9907	-12,797	6,9795
9578	4,0403	-1,7649	-7,2858	7,6095
9579	-1,8631	-1,9787	-13,581	7,0467
9580	4,7843	-1,6706	-7,9031	7,6137
9581	3,6201	-1,826	-7,9961	7,4232
9582	5,5127	-1,7754	-8,6219	7,6273
9583	4,1806	-1,8665	-8,8388	7,366
9584	-3,4753	-1,8895	-12,561	7,0891
9585	-3,0057	-1,9859	-13,374	7,114
9586	6,5568	-1,7107	-8,5874	7,8531
9587	-2,6146	-1,9906	-14,159	7,1964
9588	5,2225	-1,8292	-9,3559	7,474
9589	-4,1968	-1,9886	-13,179	7,236
9590	6,2723	-1,9281	-9,1992	7,704
9591	3,0681	-1,957	-8,7931	7,2276
9592	-19,535	-2,0057	-3,9526	14,876
9593	5,8093	-1,8927	-10,036	7,5133
9594	-20,389	-2,0163	-4,2064	15,792
9595	3,8688	-1,9578	-9,4752	7,2395
9596	-3,7825	-1,9926	-13,976	7,2862
9597	-5,4684	-1,9153	-12,937	7,4138
9598	-3,3896	-1,9855	-14,76	7,3869
9599	-5,051	-1,9002	-13,762	7,4306
9600	2,6352	-1,9726	-9,6481	7,0756
9601	-4,6448	-1,8879	-14,561	7,4972
9602	4,6303	-1,9481	-10,136	7,2871
9603	2,2546	-1,9735	-10,495	6,9621
9604	5,4074	-1,9595	-10,764	7,3816
9605	-6,2793	-1,9174	-13,508	7,6098
9606	3,422	-1,9777	-10,283	7,1
9607	-7,0936	-1,9218	-14,073	7,8221
9608	3,0193	-1,9797	-11,09	7,0093
9609	-5,8091	-1,98	-14,345	7,634
9610	7,576	-1,8136	-9,2212	8,0089
9611	-6,6183	-1,9869	-14,913	7,8576
9612	4,1425	-1,916	-10,921	7,161
9613	-5,3864	-1,9779	-15,149	7,7139
9614	8,4074	-1,8126	-9,6719	8,1705
9615	-6,1859	-1,9928	-15,719	7,9466
9616	9,3224	-1,928	-10,064	8,3789
9617	4,9476	-1,9088	-11,555	7,2753
9618	3,7852	-1,9764	-11,715	7,0969
9619	-19,167	-1,9969	-4,897	14,186
9620	-4,2275	-1,8785	-15,362	7,6125
9621	-18,805	-1,9824	-5,8412	13,434
9622	-20,047	-2,0039	-5,1944	14,761
9623	-4,9588	-1,9832	-15,95	7,841
9624	-19,711	-2,0013	-6,1495	13,824
9625	-5,7517	-1,9943	-16,529	8,0832
9626	-18,376	-1,9301	-6,7959	12,674
9627	-5,3092	-2,0027	-17,336	8,2637
9628	-18,01	-1,9217	-7,679	12,042
9629	-19,259	-1,9437	-7,1427	12,887
9630	-4,5179	-1,9984	-16,752	8,0134
9631	-18,912	-1,9418	-8,0342	12,182
9632	1,8882	-1,9554	-11,282	6,9028
9633	-3,7385	-1,9929	-16,158	7,7672
9634	2,6128	-1,9721	-11,879	6,9643
9635	1,3851	-1,8281	-11,975	6,8762
9636	3,3815	-1,98	-12,504	7,074
9637	-7,9138	-1,9277	-14,623	8,0394
9638	2,1044	-1,8744	-12,636	6,9582
9639	-8,7174	-1,9919	-15,169	8,2483
9640	-27,461	-1,6555	-6,5436	16,274
9641	4,5248	-1,9053	-12,336	7,2217
9642	-9,5626	-1,996	-15,684	8,4451
9643	-2,9743	-2,003	-15,545	7,5328
9644	4,1672	-1,9834	-13,125	7,2265
9645	0,88975	-1,8403	-12,703	6,8965
9646	-2,2368	-1,9864	-14,93	7,3253
9647	2,9633	-1,9776	-13,286	7,099
9648	-1,5393	-1,8216	-14,285	7,1457
9649	3,7483	-1,983	-13,909	7,2716
9650	-1,0534	-1,8811	-13,898	7,0555
9651	1,7632	-1,9796	-13,42	7,0173
9652	0,40716	-1,7186	-13,486	6,9729
9653	2,5418	-1,9811	-14,067	7,1743
9654	-27,266	-1,7408	-7,8069	13,711
9655	1,3492	-1,9657	-14,202	7,1221
9656	-10,421	-1,9876	-16,191	8,6163
9657	2,1206	-1,9845	-14,852	7,2991
9658	-11,303	-1,9501	-16,67	8,7504
9659	3,3187	-1,9802	-14,695	7,3661
9660	7,1101	-1,9273	-9,7962	7,8248
9661	-26,926	-1,9778	-8,5725	12,416
9662	2,8727	-1,9825	-15,479	7,5075
9663	7,979	-1,8745	-10,433	7,9789
9664	8,8451	-1,9626	-10,849	8,1673
9665	0,21832	-1,8019	-14,468	7,1455
9666	-26,512	-1,9651	-9,4025	11,248
9667	-17,769	-1,9717	-8,5124	11,532
9668	0,93491	-1,8585	-14,951	7,265
9669	-17,34	-1,9003	-9,3689	11,007
9670	1,6564	-1,9896	-15,648	7,475
9671	-25,584	-1,9911	-9,0291	12,096
9672	-18,605	-1,9349	-8,9074	11,583
9673	-25,169	-1,9359	-9,818	11,097
9674	-18,343	-1,9809	-9,7556	11,07
9675	-26,061	-1,9637	-10,267	10,189
9676	-19,26	-1,9938	-10,166	11,013
9677	-24,69	-1,9984	-10,742	10,145
9678	10,226	-1,9228	-10,574	8,573
9679	-24,251	-1,9686	-11,536	9,4932
9680	-25,586	-1,9972	-11,168	9,2898
9681	-20,141	-1,9921	-10,554	10,865
9682	-21,071	-1,9732	-10,986	10,593
9683	9,7353	-1,9272	-11,382	8,3672
9684	-22,002	-1,9807	-11,454	10,166
9685	-17,034	-1,9816	-10,203	10,582
9686	-7,4405	-1,9938	-15,46	8,0833
9687	-17,942	-1,989	-10,618	10,587
9688	-22,902	-1,9778	-11,925	9,6099
9689	-8,2719	-2,0002	-15,995	8,3008
9690	-18,844	-1,9865	-11,04	10,505
9691	-23,783	-1,9775	-12,398	8,9174
9692	-25,137	-1,9741	-11,988	8,6409
9693	-7,0108	-1,9848	-16,279	8,1811
9694	-24,671	-1,9787	-12,857	8,0823
9695	-7,8285	-2,0029	-16,82	8,4007
9696	-9,1189	-1,996	-16,521	8,5007
9697	6,6555	-1,8874	-10,637	7,6462
9698	-9,9725	-1,9912	-17,033	8,6704
9699	7,5078	-1,8939	-11,183	7,8118
9700	-6,5574	-2,0057	-17,092	8,3209
9701	8,3838	-1,9774	-11,649	8,0058
9702	-7,3858	-2,0012	-17,642	8,5453
9703	9,2477	-1,9301	-12,188	8,2039
9704	-8,6787	-1,9863	-17,354	8,6023
9705	-10,83	-1,987	-17,541	8,8014
9706	-8,2294	-1,9921	-18,178	8,7446
9707	-9,5324	-1,9813	-17,872	8,7696
9708	-0,6167	-1,8896	-14,54	7,1729
9709	-9,1174	-1,935	-18,702	8,9102
9710	-19,748	-1,9575	-11,426	10,351
9711	-10,382	-1,9825	-18,388	8,8962
9712	-20,652	-1,9711	-11,853	10,071
9713	-0,14938	-2,0179	-15,177	7,318
9714	-21,548	-1,9782	-12,308	9,6635
9715	-12,164	-1,9543	-17,17	8,8376
9716	-22,436	-1,9816	-12,792	9,1168
9717	-9,9658	-1,9422	-19,217	9,0288
9718	0,43315	-1,9803	-15,777	7,4745
9719	2,4053	-2,0225	-16,298	7,7044
9720	1,1256	-1,9835	-16,457	7,6971
9721	-11,686	-1,9894	-18,044	8,8844
9722	2,2516	-2,1232	-17,402	8,065
9723	-11,233	-1,9874	-18,898	8,9735
9724	-23,32	-1,9812	-13,262	8,4496
9725	-10,815	-1,9472	-19,73	9,0973
9726	-24,205	-1,9813	-13,726	7,643
9727	-6,1297	-1,9825	-17,907	8,5078
9728	6,2364	-1,9628	-11,351	7,5227
9729	-6,942	-1,9964	-18,464	8,7321
9730	7,0788	-1,9692	-11,913	7,696
9731	-7,7856	-1,9852	-19,004	8,9286
9732	7,9271	-1,981	-12,45	7,8897
9733	5,7648	-1,9076	-12,154	7,4291
9734	8,7777	-1,9867	-12,972	8,0933
9735	6,6422	-1,9811	-12,709	7,6216
9736	7,443	-1,9195	-13,272	7,8181
9737	-1,1652	-2,0049	-15,074	7,3048
9738	-16,634	-1,9878	-11,025	10,194
9739	8,2926	-1,9315	-13,802	8,0307
9740	-17,523	-1,991	-11,456	10,179
9741	-1,8335	-1,9909	-15,69	7,4948
9742	5,3341	-1,907	-12,938	7,3913
9743	-18,411	-1,9888	-11,888	10,087
9744	6,2083	-1,9809	-13,509	7,5971
9745	-19,299	-1,9916	-12,33	9,8994
9746	6,9859	-1,9197	-14,074	7,8022
9747	-20,187	-1,9988	-12,777	9,6121
9748	7,824	-1,9303	-14,617	8,0224
9749	-21,074	-2,0064	-13,236	9,2121
9750	-2,557	-2,0041	-16,32	7,7214
9751	4,971	-1,99	-13,727	7,4137
9752	-3,3193	-1,9947	-16,938	7,9691
9753	5,779	-1,9884	-14,313	7,6244
9754	-21,971	-1,9811	-13,657	8,7177
9755	6,5443	-1,9194	-14,876	7,8397
9756	7,3747	-1,929	-15,432	8,0684
9757	-22,852	-1,9821	-14,132	8,0729
9758	-4,0971	-1,9862	-17,547	8,2284
9759	-23,738	-1,982	-14,593	7,2996
9760	-4,8822	-1,9928	-18,14	8,4859
9761	-5,6933	-1,9849	-18,716	8,732
9762	-16,196	-1,9877	-11,838	9,8562
9763	-6,5099	-1,9845	-19,279	8,9569
9764	-15,75	-1,9222	-12,599	9,5845
9765	-7,3402	-1,9863	-19,828	9,15
9766	-15,295	-1,9429	-13,42	9,3453
9767	4,5432	-1,9848	-14,516	7,4754
9768	-17,078	-1,9891	-12,283	9,8335
9769	-16,622	-1,9863	-13,104	9,5462
9770	-16,161	-1,9924	-13,938	9,3084
9771	5,3502	-1,9917	-15,114	7,7018
9772	4,1044	-1,9755	-15,31	7,5863
9773	-17,977	-1,9355	-12,678	9,7545
9774	6,1577	-1,98	-15,685	7,9353
9775	4,9024	-1,9713	-15,907	7,8237
9776	-17,517	-1,9433	-13,516	9,4619
9777	6,9838	-1,9802	-16,244	8,17
9778	5,7199	-1,977	-16,488	8,0691
9779	-17,056	-1,9529	-14,348	9,2253
9780	6,5417	-1,9792	-17,057	8,3105
9781	3,6107	-1,9074	-16,1	7,7394
9782	4,4168	-1,9133	-16,702	7,9893
9783	3,2167	-2,0064	-16,908	7,9512
9784	5,2278	-1,9191	-17,295	8,2441
9785	-18,858	-1,95	-13,119	9,5731
9786	6,0482	-1,9255	-17,874	8,4915
9787	-19,73	-2,0008	-13,634	9,2656
9788	-20,625	-1,9741	-14,032	8,9061
9789	-18,388	-1,9915	-14,023	9,2625
9790	-19,27	-2,0005	-14,486	8,9853
9791	-20,165	-1,9747	-14,896	8,6302
9792	-14,838	-1,9554	-14,257	9,1542
9793	-21,507	-1,9803	-14,521	8,3971
9794	-15,702	-1,9957	-14,779	9,1219
9795	-21,042	-1,9801	-15,385	8,1409
9796	-22,387	-1,9817	-14,996	7,7766
9797	-17,937	-1,9619	-14,818	9,0462
9798	-18,809	-1,9974	-15,337	8,7627
9799	4,0367	-1,9916	-17,512	8,2124
9800	-19,703	-1,9767	-15,76	8,4115
9801	4,8591	-1,9967	-18,1	8,471
9802	-20,577	-1,9803	-16,249	7,9418
9803	5,6701	-1,9925	-18,681	8,7191
9804	-21,921	-1,9815	-15,861	7,5456
9805	-21,455	-1,9813	-16,726	7,3705
9806	-23,272	-1,9818	-15,46	7,0353
9807	-8,6594	-1,9339	-19,523	9,085
9808	-22,799	-1,9995	-16,342	6,8315
9809	-9,4767	-1,9818	-20,062	9,2019
9810	-8,1745	-1,9847	-20,371	9,305
9811	-9,0177	-1,9898	-20,901	9,411
9812	-22,333	-1,9978	-17,207	6,6897
9813	-16,583	-1,9944	-15,25	9,026
9814	2,7848	-2,015	-17,717	8,2004
9815	-17,478	-1,9685	-15,677	8,8604
9816	-18,346	-1,997	-16,192	8,5895
9817	3,6096	-1,9838	-18,303	8,4639
9818	-19,241	-1,9781	-16,624	8,2444
9819	4,4241	-1,9961	-18,899	8,7273
9820	5,2313	-1,9896	-19,491	8,9798
9821	-20,112	-1,9799	-17,114	7,7927
9822	-20,989	-1,981	-17,592	7,2442
9823	-10,323	-1,9869	-20,582	9,264
9824	-21,865	-1,9993	-18,073	6,594
9825	-9,8648	-1,991	-21,425	9,4633
9826	-0,71361	-1,9958	-15,783	7,4798
9827	2,4372	-1,9801	-18,55	8,5047
9828	-0,20018	-1,9695	-16,494	7,6926
9829	3,1366	-1,9104	-19,081	8,7412
9830	1,4772	-1,9741	-17,951	8,2385
9831	2,3122	-1,8792	-19,211	8,7687
9832	1,3269	-1,862	-18,663	8,5268
9833	-14,388	-1,9614	-15,11	9,0117
9834	0,56489	-1,755	-17,225	7,9502
9835	-15,264	-1,9627	-15,584	8,9893
9836	0,59054	-1,7273	-18,532	8,4476
9837	-16,141	-1,967	-16,064	8,8951
9838	0,40411	-1,7465	-19,102	8,721
9839	2,7993	-1,811	-19,854	9,0532
9840	0,95669	-1,9304	-19,476	8,8588
9841	1,6463	-1,9606	-20,046	9,1171
9842	-1,39	-1,9896	-16,446	7,7018
9843	-0,9178	-1,9742	-17,196	7,9418
9844	-13,925	-1,9613	-15,957	8,9186
9845	2,4015	-1,9394	-20,643	9,3928
9846	-2,1341	-1,9848	-17,087	7,9471
9847	3,9332	-1,9144	-19,702	9,0184
9848	-0,54995	-1,8224	-17,96	8,226
9849	4,7381	-1,9215	-20,303	9,2749
9850	-0,28961	-1,7852	-18,667	8,5101
9851	-1,6897	-1,9776	-17,858	8,2102
9852	3,0993e-003	-1,7579	-19,525	8,876
9853	-1,2666	-1,9651	-18,637	8,5057
9854	3,4965	-1,9117	-20,502	9,3413
9855	-0,72046	-1,9016	-19,449	8,8502
9856	4,3634	-1,9806	-21,109	9,5995
9857	-17,019	-1,9716	-16,539	8,7231
9858	-17,899	-1,9753	-17,015	8,4676
9859	-0,58908	-1,8677	-20,296	9,2217
9860	-18,778	-1,9774	-17,489	8,1239
9861	0,48202	-1,7254	-20,092	9,1271
9862	-14,813	-1,9651	-16,433	8,8957
9863	-19,646	-1,9789	-17,978	7,6884
9864	1,1812	-1,8812	-20,739	9,43
9865	-15,678	-1,9688	-16,92	8,802
9866	-20,522	-1,9808	-18,457	7,1605
9867	-16,556	-1,9725	-17,399	8,6324
9868	-21,398	-1,9997	-18,939	6,5387
9869	-17,435	-1,9748	-17,877	8,3814
9870	-2,9733	-1,8743	-17,72	8,2153
9871	-18,314	-1,9761	-18,354	8,0455
9872	3,1433	-1,9641	-21,282	9,6812
9873	1,9007	-1,989	-21,418	9,7533
9874	3,9377	-1,9964	-21,918	9,9514
9875	-19,18	-1,9781	-18,843	7,6242
9876	-0,28808	-1,8078	-21,021	9,5631
9877	-20,056	-1,9804	-19,323	7,1148
9878	-3,7463	-1,8838	-18,343	8,4862
9879	-20,932	-1,9979	-19,805	6,5184
9880	-4,5241	-1,8927	-18,944	8,7495
9881	0,4801	-1,9886	-21,692	9,8871
9882	-2,5655	-1,8806	-18,5	8,4901
9883	2,6088	-1,9243	-22,076	10,051
9884	-3,2521	-1,9736	-19,134	8,7679
9885	3,419	-1,9307	-22,702	10,322
9886	-4,1077	-1,8948	-19,748	9,0421
9887	1,1811	-2,1733	-22,055	10,054
9888	-2,1696	-1,8896	-19,289	8,7989
9889	-13,478	-1,9595	-16,806	8,8723
9890	-1,7587	-1,8872	-20,089	9,1394
9891	-13,02	-1,9581	-17,65	8,8698
9892	-14,35	-1,9644	-17,295	8,8466
9893	2,1479	-1,9437	-22,862	10,445
9894	-13,889	-1,964	-18,141	8,8413
9895	-1,4034	-1,9731	-20,687	9,4067
9896	3,0431	-1,9891	-23,519	10,724
9897	-0,80451	-2,0033	-21,504	9,7957
9898	-2,829	-1,9786	-19,929	9,0854
9899	-6,9309e-002	-2,0462	-22,29	10,167
9900	-3,68	-1,8995	-20,556	9,3662
9901	0,86591	-2,2746	-22,803	10,431
9902	-12,544	-1,9932	-18,54	8,9121
9903	1,7853	-2,0376	-23,673	10,852
9904	-15,224	-1,9697	-17,781	8,7517
9905	-13,431	-1,9622	-18,999	8,8757
9906	2,6363	-2,0091	-24,349	11,155
9907	-5,3193	-1,9026	-19,522	8,9948
9908	-16,1	-1,9729	-18,257	8,5827
9909	-6,126	-1,913	-20,087	9,2156
9910	-16,982	-1,9748	-18,733	8,3341
9911	-12,081	-1,9979	-19,399	8,9947
9912	-17,851	-1,9757	-19,218	8,0054
9913	-12,948	-1,9957	-19,891	8,9527
9914	-6,8994	-1,981	-20,654	9,4078
9915	-18,714	-1,9775	-19,708	7,5961
9916	-7,7238	-1,9944	-21,202	9,5565
9917	-4,8869	-1,9039	-20,339	9,2908
9918	-8,5641	-1,9934	-21,74	9,6546
9919	-5,6449	-1,9753	-20,915	9,5123
9920	-9,41	-1,9912	-22,269	9,6962
9921	-19,591	-1,9804	-20,186	7,1029
9922	-4,4546	-1,9071	-21,152	9,6166
9923	-20,47	-1,9827	-20,658	6,5299
9924	-5,2634	-1,9155	-21,734	9,8367
9925	-2,3934	-2,0004	-20,724	9,4283
9926	-6,4594	-1,9838	-21,48	9,6992
9927	-3,1665	-2,0056	-21,345	9,709
9928	-1,9782	-2,0002	-21,512	9,7917
9929	-3,9645	-1,9953	-21,954	9,9666
9930	-2,7392	-1,9964	-22,149	10,084
9931	-4,7739	-1,9862	-22,545	10,189
9932	-6,0707	-1,9235	-22,306	10,018
9933	-14,757	-1,9702	-18,637	8,7443
9934	-5,5786	-1,9895	-23,128	10,372
9935	-14,305	-1,9698	-19,491	8,7734
9936	2,184	-1,9849	-25,116	11,578
9937	-15,645	-1,9743	-19,115	8,5719
9938	1,3256	-2,0049	-24,527	11,311
9939	-16,518	-1,9758	-19,595	8,3251
9940	-17,388	-1,9763	-20,083	8,0004
9941	-15,179	-1,9754	-19,984	8,5986
9942	-16,058	-1,9772	-20,461	8,3492
9943	-13,843	-1,9677	-20,344	8,8397
9944	-16,924	-1,9767	-20,948	8,0276
9945	-14,709	-1,9739	-20,845	8,6614
9946	-18,248	-1,9774	-20,573	7,6008
9947	-15,584	-1,9764	-21,331	8,4092
9948	-3,5356	-1,9943	-22,756	10,342
9949	-16,436	-1,9949	-21,838	8,0911
9950	-4,4079	-1,9167	-23,369	10,568
9951	-17,782	-1,9772	-21,439	7,6353
9952	1,5592	-2,0437	-25,91	12,042
9953	-5,2099	-1,9193	-23,955	10,746
9954	0,80018	-1,965	-25,399	11,796
9955	-17,308	-1,9961	-22,32	7,699
9956	-19,123	-1,9805	-21,054	7,1213
9957	-18,656	-1,9804	-21,921	7,1671
9958	0,43245	-1,9985	-23,878	10,99
9959	-1,4788	-1,9744	-22,368	10,21
9960	-18,184	-1,995	-22,796	7,2389
9961	-0,78167	-1,6748	-23,261	10,672
9962	-11,63	-1,9941	-20,246	9,113
9963	8,0384e-002	-1,8403	-24,603	11,377
9964	-11,165	-1,9968	-21,099	9,2692
9965	-7,2862	-1,9839	-22,035	9,841
9966	-10,717	-1,991	-21,941	9,4556
9967	-8,1222	-1,9864	-22,577	9,9295
9968	-0,57345	-1,6762	-24,407	11,269
9969	-10,295	-1,9547	-22,772	9,6671
9970	-2,268	-2,0138	-22,959	10,484
9971	-6,893	-1,9312	-22,863	10,151
9972	-0,5429	-1,7109	-25,039	11,612
9973	-20,003	-1,9831	-21,525	6,5676
9974	-0,2175	-1,835	-25,378	11,79
9975	-7,7171	-1,9389	-23,41	10,229
9976	0,33023	-1,9383	-26,092	12,192
9977	-12,492	-1,9941	-20,742	9,0626
9978	-6,3952	-1,9896	-23,697	10,503
9979	-13,389	-1,967	-21,209	8,9387
9980	0,93907	-2,001	-27,162	12,783
9981	-7,2237	-1,988	-24,253	10,575
9982	-6,0156	-1,9246	-24,526	10,869
9983	0,9286	-1,8468	-27,935	13,243
9984	-6,8382	-1,9323	-25,086	10,93
9985	-19,536	-1,9834	-22,392	6,6302
9986	-1,8353	-1,9719	-23,814	10,925
9987	-19,064	-1,9959	-23,271	6,7151
9988	0,82162	-1,8642	-29,031	13,941
9989	-14,229	-1,9927	-21,726	8,7588
9990	-12,034	-1,993	-21,596	9,2066
9991	-15,126	-1,9746	-22,196	8,4956
9992	-15,997	-1,9743	-22,679	8,1702
9993	-12,931	-1,9669	-22,071	9,0707
9994	-13,767	-1,9919	-22,587	8,8833
9995	-14,633	-1,9941	-23,08	8,6205
9996	-16,851	-1,975	-23,17	7,7849
9997	-15,504	-1,9923	-23,566	8,2909
9998	-1,6045	-1,8397	-24,58	11,33
9999	-17,721	-1,9787	-23,656	7,3318
10000	-1,1424	-1,9397	-25,435	11,805
10001	-18,601	-1,9829	-24,126	6,8199
10002	-16,377	-1,9936	-24,049	7,8981
10003	-3,1744	-1,9262	-23,568	10,741
10004	-8,9612	-1,9858	-23,113	9,9605
10005	-2,765	-1,9189	-24,365	11,153
10006	-8,5576	-1,9458	-23,948	10,245
10007	-3,9877	-1,9169	-24,173	10,965
10008	-17,251	-1,9954	-24,529	7,4472
10009	-3,4916	-1,9837	-24,969	11,39
10010	-11,573	-1,992	-22,45	9,3836
10011	-18,131	-1,9961	-25,004	6,9429
10012	-12,472	-1,9659	-22,934	9,2339
10013	-13,335	-1,9687	-23,434	9,0271
10014	-11,153	-1,9604	-23,281	9,5793
10015	-14,2	-1,9711	-23,922	8,7537
10016	-0,77673	-1,96	-26,167	12,22
10017	-15,07	-1,9719	-24,409	8,416
10018	-12,019	-1,9646	-23,785	9,4237
10019	-9,8475	-1,9539	-23,624	9,9163
10020	-12,877	-1,9677	-24,287	9,2048
10021	-10,704	-1,9599	-24,135	9,8129
10022	-13,735	-1,9699	-24,784	8,9221
10023	-14,608	-1,971	-25,273	8,5736
10024	-9,3959	-1,9519	-24,479	10,197
10025	-15,92	-1,9726	-24,901	8,0282
10026	-10,248	-1,9586	-24,989	10,078
10027	-4,7136	-1,9884	-24,759	11,15
10028	-15,465	-1,9716	-25,765	8,176
10029	-16,791	-1,9761	-25,384	7,5787
10030	-4,2931	-1,9807	-25,576	11,579
10031	-16,323	-1,9746	-26,255	7,7303
10032	-5,5857	-1,9211	-25,355	11,27
10033	-0,50227	-1,9471	-26,754	12,561
10034	-5,1651	-1,9195	-26,178	11,697
10035	-6,3416	-1,9856	-25,915	11,336
10036	-8,0628	-1,9855	-24,797	10,581
10037	-5,9002	-1,9851	-26,747	11,765
10038	-0,15427	-2,0079	-27,882	13,242
10039	0,30722	-1,8708	-28,619	13,699
10040	0,28072	-1,8161	-29,493	14,263
10041	-17,667	-1,9808	-25,86	7,0817
10042	6,899	-1,7979	45,199	16,826
10043	-17,2	-1,9797	-26,727	7,2354
10044	-7,6682	-1,9408	-25,631	10,922
10045	-2,3864	-1,8677	-25,182	11,598
10046	-8,9031	-1,988	-25,331	10,52
10047	-3,164	-1,8965	-25,793	11,836
10048	-8,5045	-1,9487	-26,166	10,843
10049	7,6104	-2,0244	44,509	15,634
10050	-11,56	-1,9646	-24,641	9,6437
10051	-1,9963	-1,85	-25,991	12,057
10052	-9,7996	-1,9571	-25,844	10,37
10053	-1,6356	-1,8589	-26,79	12,527
10054	-9,345	-1,9562	-26,698	10,693
10055	-1,2274	-1,8707	-27,536	12,989
10056	-7,1639	-1,989	-26,472	11,324
10057	-0,92169	-1,938	-28,591	13,636
10058	-6,7733	-1,9365	-27,312	11,729
10059	-7,998	-1,9882	-27,018	11,235
10060	-0,68313	-1,9669	-29,265	14,095
10061	-7,6031	-1,9464	-27,856	11,619
10062	-0,24272	-1,9792	-30,056	14,648
10063	-12,42	-1,9676	-25,145	9,4088
10064	-8,8919	-1,9551	-27,545	11,046
10065	-13,28	-1,9695	-25,645	9,1113
10066	-8,4294	-1,9541	-28,395	11,434
10067	-14,146	-1,9702	-26,138	8,7529
10068	-3,953	-1,9123	-26,409	12,03
10069	-15,001	-1,9706	-26,631	8,3472
10070	-4,738	-1,9197	-27,007	12,157
10071	-15,859	-1,9736	-27,116	7,8964
10072	-5,4643	-1,9825	-27,58	12,226
10073	-16,733	-1,9788	-27,594	7,402
10074	-11,101	-1,9644	-25,5	9,8922
10075	-10,644	-1,9632	-26,361	10,168
10076	-6,3273	-1,9369	-28,154	12,184
10077	-2,7643	-1,8906	-26,613	12,311
10078	-10,196	-1,9627	-27,22	10,468
10079	-2,3897	-1,8931	-27,443	12,812
10080	-9,7378	-1,961	-28,074	10,801
10081	-7,1484	-1,947	-28,703	12,062
10082	-1,9795	-1,8598	-28,309	13,373
10083	-7,9761	-1,9546	-29,244	11,854
10084	-1,5339	-1,9024	-29,264	14,015
10085	8,0886	-1,9968	43,605	15,337
10086	-1,3144	-1,9432	-29,919	14,477
10087	-3,5392	-1,9114	-27,238	12,518
10088	-9,2674	-1,9595	-28,919	11,167
10089	-4,3161	-1,9217	-27,847	12,656
10090	-8,8132	-1,9595	-29,776	11,56
10091	-0,79811	-1,9812	-30,758	15,114
10092	-11,963	-1,9678	-26,006	9,6386
10093	-5,0174	-1,9865	-28,423	12,731
10094	-11,51	-1,9671	-26,868	9,8928
10095	-12,824	-1,9691	-26,505	9,3235
10096	-11,055	-1,9665	-27,726	10,173
10097	-12,362	-1,968	-27,371	9,5617
10098	-13,684	-1,9694	-27,002	8,9529
10099	-10,587	-1,9653	-28,59	10,485
10100	-11,905	-1,9679	-28,227	9,8203
10101	-13,222	-1,9685	-27,866	9,173
10102	-10,111	-1,9633	-29,446	10,829
10103	-11,44	-1,9678	-29,096	10,106
10104	-12,761	-1,9684	-28,729	9,4127
10105	-10,964	-1,9664	-29,95	10,421
10106	-12,289	-1,969	-29,591	9,6774
10107	-14,537	-1,97	-27,495	8,5361
10108	-11,827	-1,9689	-30,455	9,9566
10109	-15,4	-1,9731	-27,981	8,0746
10110	-5,883	-1,9401	-29,004	12,68
10111	-16,267	-1,9786	-28,46	7,5802
10112	-6,7018	-1,9505	-29,553	12,541
10113	-7,5264	-1,9587	-30,102	12,311
10114	-14,073	-1,9693	-28,361	8,7424
10115	-9,6539	-1,963	-30,295	11,19
10116	-13,608	-1,9692	-29,225	8,9654
10117	-14,927	-1,9725	-28,848	8,2736
10118	-10,502	-1,966	-30,806	10,753
10119	-13,144	-1,9695	-30,09	9,2039
10120	-14,469	-1,9724	-29,713	8,4778
10121	-11,363	-1,968	-31,314	10,255
10122	-12,682	-1,9695	-30,955	9,4556
10123	-13,996	-1,9722	-30,58	8,7014
10124	-15,8	-1,9783	-29,327	7,7686
10125	-12,212	-1,9691	-31,819	9,7269
10126	-13,537	-1,9719	-31,445	8,9272
10127	-13,067	-1,9709	-32,312	9,1696
10128	-15,333	-1,978	-30,194	7,9656
10129	8,5861	-1,9619	42,767	14,807
10130	-3,1396	-1,9118	-28,081	13,043
10131	-14,866	-1,9778	-31,06	8,17
10132	-2,5558	-1,9111	-28,937	13,639
10133	-3,8881	-1,9238	-28,699	13,197
10134	-14,399	-1,9769	-31,927	8,3803
10135	-3,4701	-1,9238	-29,568	13,792
10136	-4,5755	-1,9911	-29,277	13,281
10137	-4,1496	-1,989	-30,151	13,883
10138	-5,375	-1,9924	-29,856	13,248
10139	-2,5203	-1,9574	-29,826	14,194
10140	-4,9275	-1,9947	-30,73	13,853
10141	-2,0161	-1,981	-30,42	14,706
10142	-3,0356	-1,9199	-30,432	14,427
10143	-6,2417	-1,9576	-30,417	13,076
10144	-2,5778	-1,9819	-31,264	15,107
10145	-7,0671	-1,9667	-30,965	12,817
10146	-8,2998	-1,9942	-30,637	12,022
10147	-5,7726	-1,9667	-31,299	13,675
10148	-7,8376	-1,9955	-31,496	12,495
10149	-9,1989	-1,9649	-31,159	11,583
10150	-3,7595	-1,9412	-31,044	14,537
10151	-8,7577	-1,9707	-32,014	11,995
10152	-3,2441	-1,9874	-31,88	15,272
10153	-10,054	-1,9667	-31,665	11,099
10154	-1,3974	-1,9856	-31,444	15,537
10155	-9,604	-1,9696	-32,537	11,471
10156	-10,904	-1,9679	-32,177	10,569
10157	-4,505	-1,9605	-31,631	14,519
10158	-10,447	-1,9686	-33,04	10,899
10159	-11,757	-1,9686	-32,683	10,
10160	-13,933	-1,9758	-32,794	8,5948
10161	-11,292	-1,9687	-33,549	10,291
10162	-12,609	-1,9706	-33,176	9,4115
10163	-12,145	-1,9708	-34,039	9,6621
10164	-2,0453	-1,9757	-32,085	15,865
10165	-13,476	-1,9754	-33,659	8,8054
10166	9,0458	-1,9592	41,894	14,341
10167	-13,011	-1,9755	-34,525	9,022
10168	-6,5916	-1,9774	-31,837	13,383
10169	-7,365	-1,9975	-32,359	13,019
10170	-2,7186	-1,9958	-32,711	16,084
10171	-8,2824	-1,9777	-32,88	12,464
10172	-3,9654	-2,0112	-32,484	15,296
10173	-9,1369	-1,9727	-33,395	11,878
10174	-5,2826	-1,9786	-32,185	14,349
10175	-9,9843	-1,9698	-33,905	11,247
10176	9,4662	-1,9877	41,072	13,871
10177	-10,827	-1,9694	-34,412	10,59
10178	-11,677	-1,9716	-34,906	9,9172
10179	9,8909	-2,0222	40,21	13,387
10180	-12,544	-1,9761	-35,392	9,2368
10181	-3,43	-2,0051	-33,33	16,158
10182	-6,0433	-2,0052	-32,707	14,06
10183	-6,8836	-1,9995	-33,229	13,604
10184	-1,0001	-2,1817	-39,02	24,959
10185	-7,8059	-1,9843	-33,741	12,972
10186	-4,7596	-1,9956	-33,088	15,138
10187	10,352	-2,0342	39,338	12,874
10188	-8,6694	-1,9763	-34,257	12,311
10189	10,85	-2,0327	38,453	12,352
10190	-9,5155	-1,9711	-34,768	11,614
10191	-4,1915	-2,0115	-33,939	16,037
10192	-10,36	-1,9703	-35,278	10,895
10193	-11,211	-1,9724	-35,769	10,17
10194	11,358	-2,0225	37,56	11,857
10195	-5,5792	-2,0099	-33,609	14,768
10196	-12,077	-1,9772	-36,257	9,4463
10197	-1,6475	-2,0251	-38,504	23,737
10198	-5,0399	-2,0004	-34,476	15,613
10199	-6,4458	-2,0011	-34,101	14,209
10200	-2,3334	-2,0194	-37,821	21,73
10201	-5,9168	-1,9849	-34,996	14,987
10202	-2,9722	-1,9674	-37,115	19,896
10203	-3,6537	-1,943	-36,299	18,227
10204	-4,4877	-1,8996	-35,515	16,716
10205	-7,3305	-1,9878	-34,604	13,524
10206	-5,6185	-1,9615	-35,927	15,611
10207	-8,2052	-1,9766	-35,12	12,766
10208	-4,7133	-1,9164	-36,479	16,961
10209	-9,0475	-1,9714	-35,633	11,991
10210	11,846	-2,0108	36,671	11,409
10211	-9,8899	-1,9708	-36,142	11,202
10212	-6,8828	-1,9805	-35,477	14,103
10213	-10,741	-1,9733	-36,636	10,418
10214	-11,599	-1,9784	-37,123	9,654
10215	-6,4667	-1,9484	-36,365	14,704
10216	-7,7436	-1,971	-35,99	13,247
10217	-4,331	-1,8562	-37,06	17,904
10218	-7,2791	-1,9557	-36,875	13,762
10219	-3,7483	-1,9808	-37,708	19,291
10220	-2,9893	-2,1764	-38,497	21,535
10221	-8,5786	-1,9685	-36,506	12,377
10222	-8,1038	-1,9611	-37,376	12,777
10223	-9,4138	-1,969	-37,007	11,508
10224	12,323	-2,0004	35,786	10,992
10225	-10,262	-1,9738	-37,5	10,66
10226	-11,132	-1,9793	-37,988	9,8399
10227	-8,9323	-1,9669	-37,873	11,809
10228	-9,7919	-1,9739	-38,359	10,876
10229	-5,3142	-1,9331	-36,815	16,293
10230	-10,666	-1,9794	-38,851	10,006
10231	-6,0523	-1,9681	-37,325	15,383
10232	12,793	-1,9951	34,91	10,599
10233	-5,0597	-1,9043	-37,756	17,012
10234	-6,8208	-1,9396	-37,763	14,314
10235	-4,6813	-2,023	-38,38	17,965
10236	-5,7073	-1,9622	-38,217	15,981
10237	-6,2975	-1,8825	-38,577	15,018
10238	-3,6601	-2,1926	-39,389	20,732
10239	-7,6205	-1,9577	-38,254	13,195
10240	-7,0592	-1,9686	-39,16	13,76
10241	-8,4544	-1,9668	-38,736	12,098
10242	-4,7613	-2,0502	-39,149	18,042
10243	13,267	-1,9962	34,034	10,222
10244	-7,9792	-1,9689	-39,606	12,37
10245	-4,2228	-2,0664	-39,642	19,54
10246	-9,3154	-1,9739	-39,223	11,073
10247	13,739	-1,9967	33,157	9,8634
10248	-8,8051	-1,9748	-40,109	11,275
10249	-10,202	-1,9786	-39,712	10,15
10250	-5,8363	-1,9584	-39,61	15,78
10251	14,21	-1,9949	32,28	9,5209
10252	-9,7322	-1,9782	-40,555	10,278
10253	-6,6309	-1,9717	-40,02	14,2
10254	-7,4299	-1,9764	-40,518	12,741
10255	-5,243	-2,0249	-40,499	17,064
10256	-8,3736	-1,9776	-40,925	11,399
10257	-6,0694	-1,9967	-40,966	14,922
10258	-9,2729	-1,9784	-41,398	10,383
10259	-6,9935	-1,9845	-41,34	13,031
10260	14,684	-1,9974	31,403	9,1926
10261	-7,9059	-1,9797	-41,768	11,554
10262	-5,5544	-1,9817	-41,831	15,891
10263	-8,816	-1,9786	-42,233	10,468
10264	15,158	-1,9972	30,526	8,8812
10265	-6,451	-1,9741	-42,3	13,528
10266	15,628	-1,9949	29,648	8,5879
10267	-7,3597	-1,9679	-42,724	11,767
10268	-8,2771	-1,9764	-43,17	10,563
10269	-6,0394	-1,9373	-43,235	13,907
10270	16,101	-1,995	28,771	8,3107
10271	-6,8737	-1,9632	-43,536	12,031
10272	-7,8099	-1,9735	-43,993	10,612
10273	-6,5182	-1,8839	-43,935	12,5
10274	16,573	-1,9952	27,894	8,0514
10275	-7,4196	-1,9307	-44,776	10,554
10276	17,048	-1,9981	27,017	7,8097
10277	17,519	-1,9981	26,139	7,5894
10278	17,991	-1,9961	25,261	7,3896
10279	18,463	-1,9967	24,383	7,2109
10280	18,936	-1,9967	23,505	7,0551
10281	19,409	-1,9964	22,627	6,9238
10282	19,881	-1,9998	21,752	6,8185
10283	20,354	-2,0008	20,876	6,7416
10284	20,826	-2,001	19,999	6,6956
10285	21,299	-2,0003	19,122	6,6834
10286	21,772	-2,0002	18,245	6,7086
10287	22,245	-1,9982	17,368	6,7765
10288	22,717	-1,9964	16,492	6,8927
10289	23,189	-1,9954	15,616	7,0658
10290	23,661	-1,9943	14,739	7,3055
10291	24,133	-1,9903	13,866	7,6226
10292	24,603	-1,9844	12,993	8,0348
10293	25,071	-1,957	12,138	8,5481
10294	25,542	-1,9464	11,286	9,1902
10295	26,009	-1,9357	10,437	9,9941
10296	6,0858	-2,0025	-44,959	12,492
10297	26,493	-1,9257	9,6067	10,947
10298	6,897	-2,0309	-45,615	10,503
10299	26,973	-1,9168	8,7699	12,109
10300	27,445	-1,9089	7,9346	13,453
10301	27,93	-1,9047	7,1146	14,893
10302	28,405	-1,9119	6,3104	16,32
10303	28,832	-2,0173	5,5007	17,57
10304	15,135	-1,8362	-1,927	12,493
10305	14,835	-1,8444	-2,7183	12,178
10306	16,075	-1,9132	-2,1106	13,02
10307	17,023	-1,908	-2,2728	13,569
10308	18,001	-1,9101	-2,4684	14,108
10309	14,554	-1,9224	-3,6177	11,858
10310	14,211	-2,0076	-4,49	11,445
10311	19,	-1,9329	-2,6489	14,671
10312	15,823	-1,9015	-2,9668	12,712
10313	15,506	-1,9892	-3,8738	12,309
10314	15,194	-1,9986	-4,7201	11,889
10315	16,737	-1,9793	-3,2201	13,193
10316	16,446	-1,993	-4,0987	12,772
10317	16,164	-1,98	-4,9483	12,337
10318	17,711	-1,9758	-3,4196	13,727
10319	17,414	-1,9816	-4,3171	13,264
10320	18,75	-1,9258	-3,5744	14,357
10321	17,113	-1,9712	-5,1957	12,762
10322	18,454	-1,9095	-4,5003	13,846
10323	18,144	-1,9033	-5,4088	13,255
10324	19,664	-1,9249	-3,8112	15,05
10325	19,351	-1,8994	-4,7703	14,399
10326	19,041	-1,8942	-5,6952	13,668
10327	20,421	-1,9665	-4,1626	15,869
10328	20,107	-1,9648	-5,1326	14,865
10329	19,799	-1,9618	-6,082	13,939
10330	20,938	-1,9514	-5,4517	15,537
10331	20,613	-1,9835	-6,4135	14,264
10332	27,299	-1,6965	-5,9214	18,064
10333	21,773	-2,1746	-5,7744	16,201
10334	22,606	-1,9495	-5,9724	16,976
10335	21,459	-2,2464	-6,6807	14,628
10336	22,185	-1,941	-6,8872	14,887
10337	21,845	-1,8363	-7,3655	14,045
10338	23,505	-1,6476	-6,2582	17,329
10339	25,501	-1,8577	-5,9489	19,417
10340	26,25	-1,9369	-6,2312	17,879
10341	26,995	-1,7765	-6,61	16,458
10342	22,776	-1,7858	-6,8445	15,407
10343	24,285	-1,7245	-6,5726	17,002
10344	22,29	-1,6999	-7,5513	13,992
10345	24,158	-1,8275	-7,0986	15,644
10346	28,396	-1,7949	-6,4021	16,091
10347	23,164	-1,8657	-8,4241	13,073
10348	24,936	-1,7647	-6,7005	16,786
10349	28,036	-1,9153	-7,1499	14,824
10350	25,769	-1,929	-6,9044	16,203
10351	24,671	-1,8627	-7,3753	15,103
10352	26,522	-1,8291	-7,0727	15,518
10353	25,482	-1,8681	-7,7761	14,266
10354	27,655	-1,9844	-7,9169	13,37
10355	23,92	-1,8842	-8,6513	12,803
10356	26,134	-1,8028	-7,6749	14,323
10357	24,749	-1,8741	-8,7717	12,569
10358	27,318	-1,9255	-8,4829	12,503
10359	25,55	-1,8269	-9,0912	11,982
10360	26,499	-1,941	-9,4448	11,167
10361	26,085	-1,9306	-10,342	10,074
10362	25,6	-1,9754	-11,174	9,2776
10363	25,135	-1,9488	-12,039	8,5903
10364	24,667	-1,9846	-12,888	8,0579
10365	24,201	-1,9948	-13,746	7,6293
10366	23,733	-1,9908	-14,609	7,2915
10367	23,259	-1,9719	-15,473	7,0359
10368	22,793	-1,9754	-16,34	6,837
10369	22,333	-1,9951	-17,202	6,6917
10370	21,86	-1,9807	-18,075	6,5962
10371	21,394	-1,982	-18,943	6,5399
10372	20,927	-1,9829	-19,81	6,5191
10373	20,466	-1,9976	-20,669	6,5291
10374	19,999	-1,9984	-21,536	6,5671
10375	19,531	-1,9971	-22,405	6,6301
10376	19,06	-1,9834	-23,279	6,7158
10377	18,593	-1,9834	-24,147	6,8209
10378	18,127	-1,9834	-25,014	6,944
10379	17,664	-1,9992	-25,871	7,0822
10380	17,197	-2,0012	-26,737	7,2358
10381	16,728	-1,9973	-27,608	7,4034
10382	16,263	-2,0002	-28,472	7,5812
10383	15,795	-1,9984	-29,341	7,7702
10384	15,328	-1,9994	-30,208	7,9674
10385	14,857	-1,9855	-31,085	8,1738
10386	14,395	-2,0011	-31,94	8,3818
10387	13,928	-2,0016	-32,807	8,5966
10388	13,462	-2,0025	-33,672	8,8133
10389	12,996	-2,0019	-34,535	9,0308
10390	12,528	-1,998	-35,402	9,2464
10391	12,06	-1,9965	-36,268	9,4564
10392	11,597	-1,9953	-37,128	9,6546
10393	7,3525	-2,0556	-44,663	10,695
10394	11,125	-1,9696	-37,993	9,8444
10395	7,8243	-2,013	-43,973	10,636
10396	10,67	-1,9909	-38,847	10,004
10397	8,2907	-2,0024	-43,048	10,601
10398	10,206	-1,9924	-39,706	10,148
10399	8,7875	-1,9905	-42,212	10,498
10400	9,2772	-1,9787	-41,376	10,386
10401	9,7533	-1,9707	-40,542	10,267
10402	6,4313	-2,0855	-44,211	12,473
10403	7,1113	-1,991	-43,461	11,655
10404	7,4582	-2,0018	-42,481	11,749
10405	7,9367	-1,9779	-41,636	11,588
10406	8,4214	-1,9668	-40,803	11,403
10407	8,8715	-1,9908	-40,041	11,232
10408	9,3417	-1,9903	-39,194	11,059
10409	9,8026	-1,992	-38,343	10,871
10410	10,254	-1,9616	-37,485	10,67
10411	10,728	-1,994	-36,629	10,429
10412	11,193	-1,9976	-35,77	10,184
10413	11,657	-1,9984	-34,909	9,9318
10414	12,123	-2,0044	-34,047	9,6765
10415	12,588	-2,007	-33,185	9,4243
10416	13,054	-2,0076	-32,319	9,1772
10417	13,52	-2,0044	-31,455	8,9368
10418	13,982	-1,9886	-30,596	8,7083
10419	14,451	-1,9864	-29,729	8,4865
10420	14,919	-1,9849	-28,862	8,2771
10421	15,386	-1,9844	-27,996	8,0809
10422	15,852	-1,9842	-27,13	7,8987
10423	16,32	-1,9995	-26,259	7,7309
10424	16,787	-1,9992	-25,393	7,58
10425	17,252	-1,9843	-24,53	7,4466
10426	17,719	-1,984	-23,663	7,332
10427	18,185	-1,9838	-22,797	7,2382
10428	18,652	-1,9834	-21,931	7,1672
10429	19,118	-1,9832	-21,064	7,1211
10430	19,585	-1,9831	-20,198	7,1024
10431	20,052	-1,9815	-19,331	7,1143
10432	20,518	-1,9785	-18,465	7,1604
10433	20,983	-1,9746	-17,598	7,2445
10434	21,454	-1,9927	-16,732	7,3685
10435	21,914	-1,9649	-15,867	7,5461
10436	22,382	-1,9599	-15,011	7,7708
10437	22,854	-1,9875	-14,147	8,0627
10438	23,32	-1,9952	-13,285	8,4323
10439	23,787	-1,9825	-12,435	8,885
10440	24,261	-1,9405	-11,605	9,4254
10441	24,736	-1,9319	-10,766	10,103
10442	25,216	-1,9201	-9,9332	10,945
10443	13,906	-1,9952	-5,2927	11,078
10444	14,985	-1,8998	-5,4812	11,554
10445	15,947	-1,9023	-5,7379	11,948
10446	16,89	-1,9038	-6,0098	12,316
10447	21,314	-1,994	-7,5589	13,521
10448	17,813	-1,9021	-6,2943	12,653
10449	20,38	-1,9259	-7,3899	13,241
10450	19,486	-1,9447	-7,0207	13,085
10451	18,726	-1,8941	-6,5965	12,962
10452	13,659	-1,9027	-6,0314	10,775
10453	24,279	-1,993	-9,4877	11,704
10454	14,64	-1,9059	-6,2981	11,139
10455	23,351	-2,0329	-9,2046	12,125
10456	15,468	-1,9825	-6,6548	11,394
10457	22,404	-2,0026	-8,7375	12,588
10458	16,397	-1,9815	-6,952	11,694
10459	21,92	-1,9035	-8,1314	13,148
10460	17,48	-1,9055	-7,1615	12,078
10461	20,236	-1,781	-8,0481	12,644
10462	19,327	-1,9221	-7,8385	12,466
10463	18,29	-1,8995	-7,5261	12,24
10464	13,301	-1,9105	-6,835	10,396
10465	14,271	-1,9191	-7,1268	10,72
10466	15,226	-1,9266	-7,4211	11,024
10467	16,012	-1,99	-7,8264	11,193
10468	16,961	-1,9832	-8,0829	11,457
10469	18,018	-1,8641	-8,3591	11,702
10470	19,035	-1,9063	-8,6042	11,871
10471	20,007	-1,7705	-8,8644	11,991
10472	21,426	-1,8008	-9,2591	11,928
10473	21,999	-1,8865	-9,2757	11,978
10474	22,95	-1,9329	-9,944	11,346
10475	23,836	-1,9698	-10,325	10,823
10476	12,918	-1,9233	-7,6533	10,025
10477	13,781	-1,987	-8,0172	10,263
10478	14,7	-1,9972	-8,3641	10,509
10479	15,599	-1,9904	-8,7333	10,707
10480	16,495	-1,9021	-8,9739	10,923
10481	17,786	-1,7868	-9,1597	11,222
10482	18,685	-1,8812	-9,2943	11,391
10483	19,65	-1,9077	-9,5641	11,438
10484	20,774	-1,9167	-10,021	11,264
10485	23,367	-1,9794	-11,152	10,131
10486	21,559	-1,9277	-10,281	11,093
10487	22,471	-1,9804	-10,723	10,674
10488	22,902	-1,9871	-11,988	9,5585
10489	22,011	-1,9818	-11,555	10,09
10490	21,111	-1,9629	-11,152	10,478
10491	20,19	-1,9411	-10,766	10,738
10492	19,267	-1,9182	-10,411	10,876
10493	18,338	-1,9022	-10,087	10,902
10494	17,5	-1,7748	-9,8998	10,814
10495	17,418	-1,7537	-10,47	10,558
10496	18,063	-1,7829	-10,82	10,521
10497	22,439	-1,9927	-12,836	9,0855
10498	18,914	-1,9173	-11,144	10,458
10499	21,556	-1,9839	-12,399	9,6034
10500	19,776	-1,9503	-11,578	10,269
10501	20,668	-1,9678	-11,98	9,9934
10502	21,975	-1,9835	-13,694	8,6944
10503	21,099	-1,9787	-13,252	9,198
10504	20,224	-1,9642	-12,821	9,5845
10505	19,363	-1,8761	-12,413	9,8578
10506	18,485	-1,9128	-11,998	10,044
10507	17,852	-1,7931	-11,397	10,242
10508	12,452	-1,9983	-8,5	9,6521
10509	16,761	-1,8969	-10,741	10,322
10510	13,352	-2,0014	-8,8719	9,8817
10511	16,241	-2,0555	-10,127	10,408
10512	14,249	-2,0087	-9,2578	10,089
10513	15,166	-1,9984	-9,6487	10,273
10514	12,007	-2,0043	-9,3185	9,3266
10515	12,894	-2,0039	-9,7341	9,5303
10516	13,798	-2,0093	-10,143	9,7222
10517	14,693	-2,0104	-10,582	9,8724
10518	15,555	-1,9867	-11,082	9,9519
10519	16,408	-1,9689	-11,617	9,9571
10520	17,191	-1,9512	-12,202	9,8727
10521	18,043	-1,9485	-12,712	9,7439
10522	18,9	-1,9061	-13,231	9,5252
10523	21,509	-1,986	-14,551	8,3799
10524	19,76	-1,9743	-13,655	9,2512
10525	20,634	-1,9814	-14,1	8,8707
10526	21,044	-1,9883	-15,407	8,1295
10527	20,169	-1,9861	-14,949	8,6061
10528	19,295	-1,9803	-14,493	8,9784
10529	18,432	-1,9318	-14,053	9,2483
10530	17,573	-1,9337	-13,572	9,4442
10531	16,702	-1,9868	-13,027	9,574
10532	15,873	-1,9913	-12,497	9,6258
10533	15,113	-2,0262	-11,947	9,6326
10534	11,552	-1,9962	-10,148	9,0275
10535	14,279	-2,0354	-11,438	9,5644
10536	12,512	-1,983	-10,569	9,2509
10537	13,305	-2,0175	-11,03	9,3943
10538	11,114	-1,9521	-11,	8,7841
10539	11,937	-2,005	-11,452	8,9571
10540	12,873	-2,0024	-11,892	9,1419
10541	13,675	-2,0163	-12,385	9,254
10542	14,574	-2,0116	-12,874	9,3443
10543	15,412	-1,9922	-13,386	9,3643
10544	16,223	-1,9969	-13,887	9,3229
10545	20,577	-1,9912	-16,263	7,936
10546	17,09	-1,9862	-14,39	9,2135
10547	19,703	-1,9853	-15,802	8,3958
10548	17,957	-1,9868	-14,869	9,0286
10549	18,83	-1,9884	-15,337	8,7584
10550	20,101	-1,9675	-17,13	7,7909
10551	19,236	-1,9614	-16,67	8,2311
10552	18,366	-1,9597	-16,21	8,5803
10553	17,489	-1,9909	-15,721	8,848
10554	16,617	-1,9978	-15,24	9,0267
10555	15,751	-2,	-14,752	9,1275
10556	14,908	-1,9901	-14,27	9,1577
10557	14,058	-1,9976	-13,766	9,1293
10558	10,61	-1,9517	-11,839	8,5664
10559	13,205	-1,9987	-13,267	9,0463
10560	11,486	-1,9729	-12,305	8,7556
10561	12,345	-1,9896	-12,781	8,9175
10562	10,116	-1,9492	-12,671	8,4047
10563	10,972	-1,9654	-13,159	8,5911
10564	11,836	-1,9782	-13,647	8,7569
10565	12,698	-1,9854	-14,139	8,8891
10566	13,556	-1,9866	-14,638	8,9765
10567	14,418	-1,9836	-15,134	9,0112
10568	15,279	-1,9788	-15,643	8,9814
10569	19,636	-1,9737	-17,995	7,6872
10570	16,147	-1,9726	-16,135	8,8823
10571	18,763	-1,9695	-17,529	8,1173
10572	17,018	-1,994	-16,576	8,7152
10573	17,888	-1,9674	-17,058	8,4594
10574	19,17	-1,9795	-18,861	7,6236
10575	18,285	-1,9764	-18,385	8,0471
10576	17,41	-1,9736	-17,923	8,3777
10577	16,537	-1,9727	-17,453	8,6264
10578	15,66	-1,9736	-16,976	8,7964
10579	14,786	-1,9755	-16,494	8,8905
10580	9,6314	-1,9889	-13,487	8,2962
10581	13,926	-1,9774	-15,995	8,9162
10582	10,478	-1,9596	-14,001	8,4857
10583	13,065	-1,9792	-15,495	8,8798
10584	11,345	-2,0038	-14,491	8,6552
10585	12,207	-1,9767	-14,996	8,79
10586	9,1372	-1,9436	-14,324	8,2389
10587	9,9968	-1,9546	-14,837	8,4358
10588	10,879	-2,0003	-15,337	8,6099
10589	11,716	-1,9701	-15,852	8,743
10590	12,577	-1,9733	-16,352	8,834
10591	13,446	-1,9738	-16,845	8,871
10592	14,333	-1,9964	-17,323	8,8456
10593	15,184	-1,9736	-17,824	8,7518
10594	16,06	-1,9748	-18,306	8,5835
10595	18,704	-1,983	-19,727	7,596
10596	16,936	-1,9771	-18,786	8,3365
10597	17,814	-1,9808	-19,266	8,0078
10598	18,237	-1,9836	-20,593	7,6016
10599	17,347	-1,9819	-20,128	8,0065
10600	16,469	-1,9787	-19,647	8,3311
10601	15,595	-1,9759	-19,164	8,5769
10602	14,719	-1,9738	-18,678	8,7467
10603	13,874	-1,9972	-18,179	8,8414
10604	8,6783	-1,9411	-15,148	8,2394
10605	12,973	-1,9709	-17,697	8,8713
10606	9,5635	-1,9918	-15,667	8,4433
10607	12,132	-1,9889	-17,192	8,8374
10608	10,419	-1,9964	-16,181	8,6148
10609	11,236	-1,9638	-16,702	8,7472
10610	8,223	-1,9383	-15,972	8,2903
10611	9,1164	-1,997	-16,503	8,4977
10612	9,9647	-1,9967	-17,023	8,6679
10613	10,774	-1,9596	-17,543	8,7986
10614	11,679	-1,9936	-18,042	8,8843
10615	12,516	-1,9689	-18,549	8,914
10616	13,421	-2,0022	-19,036	8,8772
10617	17,771	-1,984	-21,458	7,6371
10618	14,29	-2,0033	-19,525	8,7745
10619	16,88	-1,9824	-20,991	8,0373
10620	15,155	-2,0013	-20,011	8,6017
10621	16,023	-1,9988	-20,497	8,3552
10622	17,304	-1,9848	-22,323	7,7
10623	16,412	-1,9832	-21,854	8,0979
10624	15,558	-1,9987	-21,36	8,4147
10625	14,691	-2,0015	-20,872	8,6642
10626	13,822	-2,	-20,387	8,8432
10627	12,964	-2,0055	-19,891	8,9509
10628	12,09	-1,9991	-19,395	8,9939
10629	11,223	-1,9954	-18,89	8,9729
10630	7,8244	-1,9903	-16,794	8,3948
10631	10,317	-1,9568	-18,389	8,8948
10632	8,6689	-1,9978	-17,333	8,5967
10633	9,4566	-1,9499	-17,862	8,7626
10634	7,3724	-1,9871	-17,619	8,5384
10635	8,2119	-1,9914	-18,162	8,7393
10636	9,0085	-1,9488	-18,698	8,905
10637	9,9058	-1,9938	-19,218	9,0287
10638	10,769	-2,0001	-19,732	9,0994
10639	11,632	-2,0027	-20,241	9,1125
10640	12,5	-2,0064	-20,742	9,0614
10641	16,838	-1,9855	-23,188	7,7882
10642	13,355	-1,9992	-21,241	8,9461
10643	15,945	-1,984	-22,717	8,1861
10644	14,198	-1,9785	-21,743	8,7665
10645	15,07	-1,981	-22,232	8,5111
10646	16,372	-1,9862	-24,054	7,8999
10647	15,478	-1,9846	-23,581	8,3001
10648	14,626	-2,0006	-23,081	8,6227
10649	13,76	-2,0032	-22,588	8,885
10650	12,896	-2,0048	-22,091	9,0795
10651	12,03	-2,0045	-21,592	9,2068
10652	11,169	-2,0052	-21,086	9,2668
10653	10,302	-1,9969	-20,575	9,2645
10654	6,8729	-1,9323	-18,444	8,7221
10655	9,4008	-1,9546	-20,063	9,2044
10656	7,7137	-1,9401	-18,993	8,9228
10657	8,556	-1,9478	-19,536	9,0871
10658	6,4862	-1,9856	-19,25	8,9466
10659	7,3138	-1,9867	-19,808	9,1438
10660	8,1471	-1,9907	-20,357	9,3017
10661	8,9934	-1,9925	-20,89	9,4098
10662	9,8466	-1,9979	-21,415	9,463
10663	10,705	-2,0026	-21,932	9,4556
10664	11,556	-1,9964	-22,446	9,386
10665	15,905	-1,9865	-24,92	8,0333
10666	12,423	-1,9996	-22,949	9,2468
10667	15,01	-1,985	-24,444	8,4384
10668	13,289	-1,9986	-23,448	9,0408
10669	14,156	-1,9968	-23,944	8,7689
10670	15,439	-1,9864	-25,786	8,187
10671	14,543	-1,9851	-25,308	8,5998
10672	13,671	-1,9813	-24,816	8,9465
10673	12,796	-1,9782	-24,318	9,2324
10674	11,93	-1,9758	-23,817	9,4511
10675	11,064	-1,9716	-23,311	9,6033
10676	6,0427	-1,9871	-20,071	9,2084
10677	10,199	-1,9656	-22,796	9,6878
10678	6,8773	-1,9979	-20,632	9,401
10679	9,3853	-1,9955	-22,261	9,6974
10680	7,6964	-1,9889	-21,188	9,5534
10681	8,4981	-1,9531	-21,737	9,6597
10682	5,5521	-1,9286	-20,892	9,5053
10683	6,4238	-1,9849	-21,459	9,6933
10684	7,2504	-1,986	-22,019	9,8383
10685	8,0435	-1,9522	-22,579	9,939
10686	8,9284	-1,9902	-23,104	9,9632
10687	9,7452	-1,9637	-23,642	9,9406
10688	10,6	-1,9699	-24,167	9,8443
10689	14,973	-1,9865	-26,651	8,3596
10690	11,498	-1,9971	-24,661	9,6649
10691	14,104	-2,001	-26,156	8,7708
10692	12,363	-1,9985	-25,165	9,4301
10693	13,229	-1,9986	-25,665	9,1315
10694	14,507	-1,9869	-27,517	8,5505
10695	13,62	-1,9866	-27,031	8,9822
10696	12,736	-1,982	-26,536	9,3619
10697	11,867	-1,9781	-26,034	9,6771
10698	11,038	-1,9974	-25,514	9,915
10699	10,137	-1,9682	-25,008	10,113
10700	9,2796	-1,9618	-24,489	10,227
10701	8,4356	-1,9562	-23,96	10,271
10702	5,1769	-1,994	-21,705	9,8276
10703	7,5962	-1,95	-23,412	10,247
10704	5,9902	-1,9951	-22,285	10,015
10705	6,8103	-1,9939	-22,851	10,155
10706	4,7382	-1,995	-22,519	10,18
10707	5,5488	-1,9933	-23,105	10,365
10708	6,3686	-1,997	-23,68	10,5
10709	7,142	-1,9483	-24,247	10,587
10710	7,9779	-1,9543	-24,803	10,602
10711	14,052	-2,0065	-28,37	8,7528
10712	8,8284	-1,96	-25,333	10,54
10713	13,178	-2,0046	-27,88	9,1944
10714	9,6798	-1,9671	-25,858	10,41
10715	12,273	-1,9829	-27,4	9,6037
10716	10,576	-1,9972	-26,369	10,194
10717	11,408	-1,9786	-26,897	9,9372
10718	13,586	-2,0076	-29,235	8,9772
10719	12,712	-2,0058	-28,745	9,4377
10720	11,845	-2,0051	-28,245	9,8498
10721	10,984	-2,0054	-27,738	10,206
10722	10,116	-1,997	-27,224	10,501
10723	9,2133	-1,9642	-26,708	10,742
10724	4,2333	-1,9338	-23,323	10,56
10725	8,361	-1,9576	-26,177	10,889
10726	5,0472	-1,9357	-23,924	10,75
10727	7,5261	-1,9521	-25,635	10,959
10728	5,8634	-1,9405	-24,51	10,886
10729	6,6868	-1,9461	-25,085	10,96
10730	3,86	-1,9903	-24,14	10,961
10731	4,6796	-1,9991	-24,745	11,149
10732	5,4821	-1,9916	-25,328	11,277
10733	6,2355	-1,9446	-25,905	11,357
10734	7,1278	-1,9919	-26,463	11,332
10735	7,9122	-1,9539	-27,019	11,264
10736	8,7568	-1,9603	-27,555	11,1
10737	9,6588	-1,9975	-28,076	10,836
10738	10,518	-2,003	-28,595	10,518
10739	13,12	-2,009	-30,099	9,217
10740	11,338	-1,982	-29,119	10,16
10741	12,243	-2,0051	-29,607	9,7027
10742	12,651	-2,0082	-30,963	9,4739
10743	11,776	-2,0041	-30,469	9,9862
10744	10,867	-1,9782	-29,976	10,477
10745	10,059	-1,9999	-29,451	10,856
10746	9,2143	-1,9993	-28,923	11,193
10747	8,3584	-1,9899	-28,39	11,464
10748	3,4395	-2,0078	-24,962	11,392
10749	7,4628	-1,951	-27,853	11,671
10750	4,242	-2,0055	-25,565	11,58
10751	6,624	-1,9474	-27,296	11,769
10752	4,9684	-1,9425	-26,147	11,722
10753	5,7834	-1,9443	-26,734	11,79
10754	2,9756	-2,0161	-25,798	11,86
10755	3,7814	-2,0057	-26,392	12,048
10756	4,5228	-1,9487	-26,962	12,185
10757	5,4238	-1,9956	-27,551	12,227
10758	6,2483	-1,9937	-28,123	12,199
10759	12,184	-2,009	-31,828	9,7441
10760	7,0815	-1,9933	-28,683	12,083
10761	11,31	-2,0025	-31,329	10,288
10762	7,9193	-1,9937	-29,231	11,877
10763	10,406	-1,9728	-30,832	10,812
10764	8,7607	-1,9968	-29,772	11,587
10765	9,6	-1,9956	-30,303	11,221
10766	11,718	-2,0075	-32,69	10,026
10767	10,847	-2,0002	-32,189	10,607
10768	9,9438	-1,9664	-31,684	11,173
10769	9,0844	-1,9566	-31,161	11,652
10770	8,305	-1,9932	-30,625	12,017
10771	7,4723	-1,9905	-30,074	12,331
10772	6,6489	-1,9983	-29,517	12,552
10773	5,8191	-1,9967	-28,951	12,683
10774	2,527	-2,0629	-26,73	12,4
10775	4,9963	-1,9988	-28,377	12,718
10776	3,3492	-2,0041	-27,18	12,518
10777	4,0924	-1,9569	-27,792	12,684
10778	1,8295	-2,0223	-27,524	12,928
10779	2,9608	-2,0073	-28,088	13,085
10780	3,7792	-2,0182	-28,644	13,196
10781	4,5832	-1,9946	-29,221	13,252
10782	5,3998	-2,0022	-29,771	13,2
10783	6,2106	-1,9918	-30,35	13,066
10784	7,0326	-1,9913	-30,913	12,821
10785	11,256	-2,004	-33,547	10,317
10786	7,8534	-1,9869	-31,465	12,478
10787	10,39	-1,9976	-33,043	10,939
10788	8,6414	-1,9507	-32,008	12,072
10789	9,5279	-1,9888	-32,53	11,525
10790	10,79	-1,9992	-34,407	10,618
10791	9,9296	-1,9957	-33,9	11,289
10792	9,0731	-1,9885	-33,384	11,926
10793	8,2296	-1,9826	-32,855	12,499
10794	7,4029	-1,9838	-32,312	12,982
10795	6,5914	-1,9923	-31,752	13,356
10796	5,7922	-2,0038	-31,175	13,613
10797	5,0022	-2,0056	-30,597	13,754
10798	1,6092	-2,2181	-28,114	13,291
10799	4,2151	-2,0005	-30,059	13,813
10800	2,4578	-2,0964	-28,946	13,664
10801	3,3241	-1,9114	-29,679	13,891
10802	3,2754	-1,8704	-30,581	14,431
10803	3,8759	-1,9947	-30,86	14,379
10804	4,6005	-1,9865	-31,408	14,359
10805	10,321	-1,9913	-35,269	10,927
10806	5,3607	-1,9986	-31,999	14,211
10807	9,4638	-1,9885	-34,756	11,658
10808	6,1401	-1,922	-32,636	13,969
10809	8,5858	-1,9473	-34,238	12,38
10810	6,9454	-1,9302	-33,185	13,546
10811	7,7537	-1,9375	-33,717	13,011
10812	9,862	-1,9887	-36,121	11,228
10813	9,	-1,9827	-35,609	12,035
10814	8,1446	-1,9759	-35,089	12,822
10815	7,3017	-1,9721	-34,554	13,542
10816	6,5164	-1,9253	-34,05	14,131
10817	5,7293	-1,9156	-33,509	14,615
10818	4,8939	-1,9579	-32,814	14,899
10819	4,2323	-1,8583	-32,178	14,972
10820	3,5666	-1,8599	-31,644	14,964
10821	2,9693	-1,8022	-31,028	14,811
10822	1,2541	-1,9809	-29,341	14,089
10823	2,4009	-1,794	-30,416	14,612
10824	1,8855	-2,0027	-29,937	14,389
10825	0,80729	-1,9823	-30,093	14,641
10826	1,3857	-1,9969	-30,736	15,022
10827	1,8585	-1,9897	-31,403	15,409
10828	2,5638	-2,0217	-32,108	15,699
10829	3,1547	-1,8603	-32,726	15,909
10830	3,7788	-1,771	-33,266	15,891
10831	4,5311	-1,863	-33,802	15,717
10832	5,2972	-1,9199	-34,389	15,337
10833	6,0017	-1,9428	-34,837	14,834
10834	6,8681	-1,9329	-35,442	14,112
10835	9,3903	-1,9529	-36,964	11,537
10836	7,6782	-1,9707	-35,952	13,312
10837	8,5316	-1,9448	-36,451	12,429
10838	8,9395	-1,9875	-37,834	11,812
10839	8,0787	-1,9834	-37,322	12,811
10840	7,2156	-1,9845	-36,818	13,842
10841	6,321	-1,9733	-36,292	14,856
10842	5,578	-1,899	-35,735	15,611
10843	4,8492	-1,9156	-35,275	16,203
10844	4,0938	-1,8943	-34,767	16,652
10845	3,3561	-1,8617	-34,021	16,732
10846	0,27564	-1,988	-30,798	15,175
10847	2,7416	-1,986	-33,488	16,669
10848	0,85936	-1,9871	-31,509	15,667
10849	2,083	-2,0085	-32,845	16,446
10850	1,4604	-2,022	-32,182	16,098
10851	-3,5974	-2,0032	-34,794	17,102
10852	-2,8547	-2,0033	-34,16	17,15
10853	-0,26739	-1,9789	-31,511	15,718
10854	-2,1566	-1,9978	-33,516	16,979
10855	-0,86142	-1,9892	-32,191	16,215
10856	-1,4925	-1,9914	-32,863	16,652
10857	0,30893	-2,0075	-32,225	16,294
10858	-2,958	-1,9782	-35,666	18,407
10859	-0,27952	-2,0025	-32,932	16,913
10860	-2,2452	-2,0043	-34,955	18,272
10861	-0,90328	-2,0079	-33,62	17,482
10862	-1,5587	-2,0077	-34,292	17,954
10863	0,91628	-1,9935	-32,933	16,843
10864	0,33134	-1,9938	-33,654	17,595
10865	-0,2864	-2,0031	-34,357	18,333
10866	-2,2796	-1,9625	-36,435	19,901
10867	-0,9343	-2,0005	-35,044	19,001
10868	-1,598	-1,9403	-35,761	19,587
10869	-1,6488	-1,9859	-37,122	21,476
10870	-0,94379	-1,9385	-36,494	20,967
10871	-0,28812	-1,9965	-35,762	20,073
10872	0,35304	-2,012	-35,052	19,134
10873	1,5491	-2,0038	-33,599	17,287
10874	0,96795	-2,0062	-34,337	18,196
10875	-0,95928	-1,9463	-37,884	23,298
10876	-0,27412	-1,9386	-37,203	22,371
10877	2,1851	-1,8759	-34,263	17,632
10878	0,37736	-1,9944	-36,462	21,106
10879	1,6268	-1,8875	-35,04	18,718
10880	1,0152	-1,9953	-35,735	19,848
10881	2,8664	-1,8888	-34,891	17,772
10882	-0,3041	-1,9978	-38,519	24,741
10883	2,3086	-1,9011	-35,677	18,986
10884	0,41728	-1,9441	-37,906	23,637
10885	1,6975	-1,9856	-36,396	20,362
10886	1,0552	-1,9857	-37,137	21,955
10887	1,1156	-1,9539	-38,588	24,385
10888	1,7748	-1,9372	-37,822	22,445
10889	2,396	-1,99	-37,031	20,54
10890	3,578	-1,9061	-35,496	17,658
10891	3,0159	-1,9845	-36,271	18,943
10892	8,4826	-1,9854	-38,674	12,084
10893	7,6197	-1,9868	-38,163	13,219
10894	6,7503	-2,0083	-37,671	14,413
10895	4,3289	-1,9674	-36,127	17,304
10896	5,8387	-2,0788	-37,225	15,683
10897	5,0034	-1,9543	-36,715	16,702
10898	6,0663	-1,9782	-42,739	14,216
10899	8,0176	-1,9842	-39,513	12,362
10900	6,5665	-1,9911	-41,93	13,519
10901	7,0422	-1,9688	-41,199	13,012
10902	7,5703	-1,9498	-40,24	12,666
10903	7,1831	-1,9358	-38,9	13,64
10904	6,28	-1,9355	-38,4	15,089
10905	5,3416	-2,1273	-38,01	16,633
10906	4,4577	-2,0033	-37,446	17,889
10907	3,7333	-1,9853	-36,87	18,592
10908	6,7247	-1,9132	-39,673	14,147
10909	6,2543	-1,9095	-40,646	14,646
10910	5,8404	-1,8689	-39,147	15,805
10911	3,1045	-1,9878	-37,632	20,286
10912	5,496	-1,8095	-40,044	16,442
10913	3,8974	-1,9097	-38,26	19,452
10914	4,7327	-1,8267	-39,583	18,18
10915	4,7885	-2,0117	-38,92	17,939
10916	5,8582	-1,7246	-41,387	15,304
10917	5,0182	-1,7094	-40,763	17,484
10918	4,3083	-1,7967	-40,024	19,374
10919	2,4477	-1,9816	-38,397	22,331
10920	3,8154	-2,0244	-39,64	20,485
10921	3,159	-1,9853	-38,981	21,596
10922	-19,622	-1,9779	-9,2915	11,597
10923	-20,569	-2,0078	-9,7361	11,454
10924	-21,622	-1,9818	-10,1	11,219
10925	-22,48	-1,9893	-10,696	10,684
10926	-23,343	-2,0064	-11,162	10,127
10927	-23,799	-1,9989	-10,323	10,828
10928	-23,021	-1,9161	-9,8945	11,397
10929	-24,297	-1,8963	-9,3722	11,846
10930	-22,	-1,9385	-9,2942	11,973
10931	-23,402	-1,8818	-8,9831	12,371
10932	-22,518	-1,8363	-8,6431	12,714
10933	-19,913	-1,9973	-8,2835	12,366
10934	-21,138	-2,0404	-8,674	12,395
10935	-24,667	-1,9828	-8,6498	12,818
10936	-20,263	-2,0142	-7,3852	13,19
10937	-23,864	-1,8589	-8,1616	13,588
10938	-21,195	-2,0856	-7,614	13,434
10939	-23,05	-1,8695	-7,9591	13,709
10940	-21,934	-1,9955	-7,9341	13,373
10941	-25,02	-1,9905	-7,81	14,228
10942	-20,581	-2,0112	-6,4653	14,185
10943	-24,106	-1,9811	-7,5114	14,749
10944	-21,437	-2,0108	-6,742	14,539
10945	-23,243	-1,9476	-7,2811	14,914
10946	-22,292	-2,0591	-6,9636	14,866
10947	-20,917	-2,0139	-5,5182	15,448
10948	-21,764	-1,9939	-5,8323	16,101
10949	-25,385	-1,8918	-6,9028	16,235
10950	-22,629	-1,9915	-6,1333	16,661
10951	-24,454	-2,0043	-6,6753	16,778
10952	-23,539	-2,0026	-6,4038	16,991
10953	-1,3408	-3,1978	38,633	16,229
10954	-3,714	-3,0719	38,953	18,343
10955	-3,0105	-3,2567	38,521	17,493
10956	-2,4397	-3,1727	37,799	16,522
10957	-4,7827	-2,8475	39,743	19,407
10958	-4,1902	-2,9647	38,223	17,466
10959	-5,1335	-2,5708	38,984	18,11
10960	-4,7315	-2,9661	37,409	16,562
10961	-3,5849	-3,17	37,737	16,928
10962	-4,1597	-3,1941	36,938	16,231
10963	-5,591	-2,7937	37,959	16,761
10964	-2,8858	-3,1674	37,145	16,231
10965	-4,735	-3,1781	36,15	15,527
10966	-5,2448	-2,9797	36,583	15,719
10967	-5,2298	-3,1356	35,486	14,963
10968	-6,0557	-2,8255	37,054	15,75
10969	-5,7871	-3,0133	35,628	14,863
10970	-5,4063	-2,7339	40,414	19,73
10971	-6,3169	-2,9364	36,341	15,099
10972	-3,4623	-3,4379	36,364	15,796
10973	-6,0607	-2,8749	39,392	17,869
10974	-4,1094	-3,1854	35,604	15,242
10975	-6,5301	-2,9075	38,471	16,575
10976	-5,1229	-2,9723	34,922	14,63
10977	-6,9911	-2,9535	37,531	15,502
10978	-5,761	-2,8843	34,443	14,176
10979	-7,3965	-2,947	36,594	14,641
10980	-6,841	-2,6762	35,14	14,144
10981	-7,519	-2,9499	34,215	13,384
10982	-7,8699	-2,9746	35,637	13,853
10983	-6,6065	-2,9415	33,637	13,498
10984	-8,3431	-2,9935	34,714	13,181
10985	-8,0456	-2,9773	33,328	12,791
10986	-7,2135	-2,9734	32,784	12,909
10987	-8,9104	-2,9897	33,85	12,568
10988	-8,4892	-3,0008	32,422	12,286
10989	-7,7102	-3,0011	31,912	12,404
10990	-9,4062	-3,0053	32,964	12,05
10991	-8,9728	-3,0065	31,548	11,824
10992	-8,2026	-3,0169	31,049	11,948
10993	-9,508	-3,0205	30,698	11,391
10994	-8,6656	-3,0248	30,175	11,537
10995	-9,9173	-3,0073	29,809	11,028
10996	-9,1236	-3,0263	29,309	11,161
10997	-9,5821	-3,0253	28,437	10,812
10998	-9,8898	-3,016	32,085	11,591
10999	-10,432	-3,0213	28,953	10,667
11000	-10,036	-3,0219	27,562	10,49
11001	-10,889	-3,018	28,076	10,349
11002	-10,498	-3,0175	26,682	10,192
11003	-11,347	-3,014	27,195	10,056
11004	-10,357	-3,0207	31,207	11,18
11005	-10,956	-3,0132	25,8	9,918
11006	-10,817	-3,0214	30,335	10,81
11007	-11,807	-3,0096	26,307	9,7859
11008	-11,42	-3,0098	24,908	9,666
11009	-12,272	-3,0064	25,412	9,5389
11010	-11,281	-3,0197	29,455	10,465
11011	-11,881	-3,0124	24,018	9,4411
11012	-11,744	-3,0162	28,573	10,15
11013	-12,743	-3,0087	24,515	9,3155
11014	-12,353	-3,0192	23,134	9,2418
11015	-12,208	-3,0118	27,686	9,8586
11016	-12,823	-3,0265	22,275	9,0735
11017	-13,214	-3,0154	23,632	9,1201
11018	-13,251	-3,0059	21,447	8,9414
11019	-13,718	-3,0077	20,587	8,8305
11020	-14,202	-3,0311	19,71	8,7503
11021	-13,694	-3,0229	22,763	8,9509
11022	-14,663	-3,0302	18,851	8,7086
11023	-15,113	-3,0053	18,006	8,7042
11024	-12,669	-3,0072	26,796	9,5925
11025	-14,164	-3,0273	21,914	8,8128
11026	-15,58	-3,0296	17,13	8,741
11027	-14,629	-3,0279	21,065	8,7044
11028	-16,039	-3,0038	16,291	8,8175
11029	-15,079	-3,0265	20,197	8,6293
11030	-13,133	-3,0044	25,901	9,3497
11031	-15,52	-3,0046	19,352	8,5879
11032	-13,604	-3,0069	25,008	9,1299
11033	-15,985	-3,0013	18,49	8,579
11034	-14,081	-3,0134	24,121	8,9344
11035	-16,518	-3,0348	15,42	8,9446
11036	-16,461	-3,0248	17,61	8,6104
11037	-14,561	-3,0209	23,258	8,7653
11038	-16,991	-3,038	14,564	9,1193
11039	-16,915	-3,0009	16,768	8,6812
11040	-15,	-3,01	22,424	8,6339
11041	-17,383	-3,004	15,909	8,7976
11042	-15,463	-3,0078	21,565	8,5227
11043	-17,864	-3,0299	15,03	8,9672
11044	-17,453	-3,042	13,703	9,3492
11045	-15,927	-3,0054	20,702	8,4416
11046	-18,309	-3,004	14,193	9,1807
11047	-16,39	-3,0012	19,838	8,3928
11048	-17,873	-3,0073	12,875	9,6232
11049	-16,856	-2,999	18,972	8,3783
11050	-18,758	-3,0044	13,326	9,4596
11051	-19,209	-3,0272	12,402	9,8287
11052	-18,31	-3,0438	11,966	9,9885
11053	-18,72	-3,0405	11,104	10,404
11054	-19,64	-2,9937	11,608	10,21
11055	-17,325	-3,0004	18,102	8,4012
11056	-20,059	-3,0057	10,658	10,755
11057	-17,79	-2,9966	17,243	8,4641
11058	-19,167	-3,0039	10,279	10,876
11059	-20,477	-2,976	9,8228	11,325
11060	-20,883	-2,9394	9,0245	11,997
11061	-19,563	-2,9943	9,3776	11,474
11062	-18,259	-2,9998	16,378	8,5711
11063	-19,926	-2,9859	8,4509	12,194
11064	-18,741	-3,0255	15,494	8,7293
11065	-20,26	-2,9898	7,495	13,051
11066	-19,201	-3,0238	14,624	8,9414
11067	-21,084	-3,0258	7,8969	13,047
11068	-20,497	-3,0411	6,578	13,98
11069	-19,655	-3,0211	13,737	9,2193
11070	-21,361	-3,0514	6,8942	14,247
11071	-20,887	-2,999	5,5573	15,331
11072	-20,096	-2,9991	12,911	9,5383
11073	-21,745	-2,993	5,8984	15,936
11074	-20,54	-2,9915	12,055	9,9383
11075	-20,977	-2,9641	11,196	10,424
11076	-21,515	-2,8837	10,256	11,071
11077	-22,114	-3,0121	8,0814	13,23
11078	-22,006	-2,8926	9,0794	12,122
11079	-22,268	-2,983	7,1732	14,482
11080	-22,773	-2,9379	8,3278	13,092
11081	-22,603	-2,9947	6,2577	16,333
11082	-23,075	-2,9744	7,5205	14,356
11083	-23,464	-2,9886	6,6232	16,303
11084	-5,9114	-2,8369	40,85	19,669
11085	-6,732	-2,9643	39,891	17,516
11086	-24,279	-3,0295	7,073	15,658
11087	-7,2651	-2,9732	38,944	16,212
11088	-23,829	-3,0369	7,9842	13,797
11089	-7,7788	-2,9748	37,999	15,127
11090	-23,388	-2,9472	8,8761	12,497
11091	-8,2771	-2,9724	37,072	14,238
11092	-22,871	-3,0308	9,6731	11,579
11093	-8,7532	-2,9886	36,118	13,482
11094	-22,319	-2,9129	10,69	10,684
11095	-9,2291	-3,0004	35,215	12,846
11096	-21,924	-2,9912	11,572	10,079
11097	-9,7143	-3,0067	34,325	12,282
11098	-21,46	-3,0023	12,445	9,5866
11099	-10,249	-3,0112	33,464	11,762
11100	-20,988	-2,9967	13,365	9,1642
11101	-10,734	-3,0192	32,584	11,313
11102	-20,533	-3,0152	14,191	8,8645
11103	-11,201	-3,0222	31,706	10,914
11104	-20,078	-3,0192	15,073	8,6013
11105	-11,668	-3,0222	30,829	10,547
11106	-19,612	-3,0216	15,951	8,4022
11107	-12,132	-3,0201	29,951	10,21
11108	-19,135	-2,9989	16,841	8,2559
11109	-12,599	-3,0158	29,069	9,8977
11110	-18,665	-2,9956	17,712	8,1612
11111	-13,064	-3,0108	28,185	9,6101
11112	-18,197	-2,9979	18,581	8,1094
11113	-13,528	-3,0062	27,288	9,345
11114	-17,733	-3,0036	19,447	8,096
11115	-13,996	-3,0052	26,38	9,1018
11116	-17,259	-2,9994	20,321	8,1206
11117	-14,47	-3,008	25,492	8,8822
11118	-16,799	-3,0074	21,187	8,1754
11119	-14,947	-3,0135	24,617	8,686
11120	-16,333	-3,0082	22,054	8,263
11121	-15,431	-3,0206	23,748	8,5123
11122	-15,902	-3,0256	22,895	8,369
11123	-20,35	-2,9968	4,2805	15,693
11124	-20,031	-2,998	5,2225	14,694
11125	-19,709	-2,9977	6,1804	13,76
11126	-19,37	-3,001	7,1231	12,902
11127	-19,026	-3,0064	8,0507	12,151
11128	-18,564	-3,0551	8,9535	11,478
11129	-18,256	-3,0157	9,8473	10,937
11130	-17,857	-3,0039	10,72	10,455
11131	-17,424	-3,0014	11,581	10,044
11132	-16,54	-2,9992	11,152	10,045
11133	-16,99	-3,0057	12,43	9,702
11134	-15,647	-3,0211	10,725	9,98
11135	-16,108	-3,011	11,987	9,7078
11136	-16,572	-3,0578	13,239	9,4297
11137	-15,225	-3,	11,557	9,6487
11138	-15,691	-3,0769	12,795	9,4342
11139	-14,765	-3,0233	10,318	9,8593
11140	-14,785	-3,01	12,379	9,3678
11141	-13,886	-3,0154	9,9247	9,698
11142	-16,094	-3,013	14,117	9,1883
11143	-14,345	-2,9981	11,131	9,5391
11144	-15,643	-3,0441	14,941	9,014
11145	-13,908	-3,0147	11,937	9,2634
11146	-15,163	-3,0031	15,815	8,8797
11147	-13,004	-3,0364	9,5484	9,5058
11148	-12,143	-3,1126	9,1203	9,3185
11149	-14,706	-3,0358	16,655	8,7982
11150	-11,356	-3,2723	8,9928	9,0783
11151	-14,241	-3,0064	17,52	8,759
11152	-13,471	-3,029	10,713	9,3913
11153	-13,79	-3,0357	18,359	8,7619
11154	-12,609	-3,0528	10,3	9,2201
11155	-15,243	-3,0668	13,636	9,1997
11156	-11,751	-3,0685	9,8787	9,0339
11157	-14,774	-3,0571	14,475	9,0147
11158	-14,364	-3,0848	13,187	9,1438
11159	-14,289	-3,0054	15,336	8,8765
11160	-13,491	-3,1029	12,736	9,0413
11161	-11,082	-3,2909	9,155	8,9607
11162	-13,902	-3,0723	14,009	8,9584
11163	-13,035	-3,0229	11,498	9,1218
11164	-13,031	-3,088	13,536	8,8555
11165	-12,617	-3,1215	12,287	8,9013
11166	-13,417	-3,0082	14,856	8,8167
11167	-12,179	-3,0487	11,053	8,9596
11168	-12,546	-3,0092	14,376	8,7102
11169	-11,351	-3,0647	10,563	8,7971
11170	-11,749	-3,1344	11,811	8,7391
11171	-13,834	-3,0438	16,167	8,7921
11172	-10,883	-3,043	11,336	8,5606
11173	-13,313	-3,0069	19,235	8,8048
11174	-10,538	-3,109	10,074	8,6325
11175	-12,962	-3,0542	15,675	8,7296
11176	-10,054	-3,0596	10,849	8,3887
11177	-12,097	-3,0657	15,186	8,6209
11178	-12,841	-3,0017	20,097	8,8843
11179	-12,161	-3,1021	13,075	8,7149
11180	-12,377	-3,0014	20,954	8,9969
11181	-11,68	-3,0119	13,893	8,5677
11182	-13,37	-3,0069	17,031	8,7504
11183	-11,919	-3,0053	21,807	9,1402
11184	-12,502	-3,0068	16,538	8,6865
11185	-11,489	-3,0233	22,637	9,3047
11186	-11,3	-3,1158	12,605	8,5509
11187	-11,03	-3,017	23,514	9,5064
11188	-10,82	-3,0173	13,405	8,4003
11189	-12,928	-3,0404	17,865	8,7526
11190	-11,635	-3,0038	16,045	8,5757
11191	-12,45	-3,0102	18,738	8,7954
11192	-10,422	-3,0335	12,118	8,3676
11193	-11,238	-3,077	14,696	8,4765
11194	-9,9658	-3,0186	12,91	8,2187
11195	-12,064	-3,0464	17,369	8,6889
11196	-10,385	-3,0891	14,206	8,3067
11197	-10,772	-3,0025	15,547	8,428
11198	-11,183	-3,006	16,889	8,5776
11199	-9,6092	-3,1446	11,622	8,1966
11200	-10,322	-3,0051	16,384	8,4285
11201	-11,987	-3,0092	19,593	8,876
11202	-11,62	-3,0458	18,223	8,7321
11203	-11,526	-3,0094	20,446	8,9909
11204	-10,758	-3,0526	17,726	8,6236
11205	-11,06	-3,0066	21,302	9,1388
11206	-9,5334	-3,1038	13,701	8,1203
11207	-10,637	-3,0273	22,136	9,3097
11208	-9,9154	-3,0032	15,041	8,2531
11209	-10,176	-3,0214	23,007	9,5168
11210	-10,565	-3,0151	24,402	9,7375
11211	-9,0682	-3,0136	14,527	8,0617
11212	-9,1272	-3,0304	12,41	8,0349
11213	-9,716	-3,0214	23,89	9,7532
11214	-8,6976	-3,1202	13,194	7,9308
11215	-9,4686	-3,015	15,87	8,2508
11216	-9,903	-3,0607	17,215	8,4754
11217	-8,2231	-3,0105	14,004	7,8625
11218	-9,0501	-3,0708	16,697	8,2968
11219	-10,055	-2,9984	25,287	10,002
11220	-11,121	-3,0042	19,092	8,8148
11221	-9,2051	-2,9985	24,767	10,02
11222	-10,668	-3,0092	19,938	8,9328
11223	-10,268	-3,0086	18,581	8,7061
11224	-10,249	-3,0398	20,763	9,0789
11225	-9,595	-3,0002	26,16	10,281
11226	-9,8114	-3,0064	19,425	8,8273
11227	-9,7829	-3,0332	21,618	9,2606
11228	-8,6244	-3,0192	15,347	8,0548
11229	-9,4109	-3,0054	18,065	8,5578
11230	-8,2104	-3,0827	16,17	8,0982
11231	-8,5666	-3,0091	17,538	8,3782
11232	-8,9656	-3,0126	18,902	8,6816
11233	-7,7269	-3,01	17,001	8,1758
11234	-7,7844	-3,0207	14,817	7,8495
11235	-8,7388	-2,9954	25,631	10,303
11236	-7,3866	-3,0953	15,627	7,8886
11237	-9,4013	-3,0469	20,248	8,979
11238	-6,8974	-3,0108	16,453	7,9601
11239	-8,9361	-3,0421	21,097	9,1648
11240	-9,3201	-3,0284	22,493	9,4756
11241	-8,5604	-3,0553	19,723	8,8382
11242	-8,4355	-3,0046	21,977	9,3884
11243	-8,8199	-3,0003	23,37	9,7208
11244	-9,1894	-3,0283	27,045	10,575
11245	-7,9672	-2,9919	22,833	9,6329
11246	-8,1023	-3,0525	20,566	9,0278
11247	-8,1225	-3,0141	18,37	8,503
11248	-8,3645	-3,0005	24,234	9,9843
11249	-7,2868	-3,0159	17,827	8,2999
11250	-7,7211	-3,0657	19,187	8,6627
11251	-7,5106	-2,9867	23,687	9,9005
11252	-6,8953	-3,077	18,643	8,4626
11253	-7,8941	-2,9911	25,091	10,27
11254	-8,2918	-3,0018	26,496	10,606
11255	-7,6471	-3,0506	21,423	9,2501
11256	-7,4549	-2,9995	25,949	10,575
11257	-7,2299	-3,0152	20,041	8,8582
11258	-6,4634	-3,0178	17,272	8,0811
11259	-6,4023	-3,0119	19,487	8,6572
11260	-7,0657	-2,9896	24,539	10,188
11261	-7,1424	-2,9967	22,286	9,502
11262	-6,6267	-2,9967	25,388	10,494
11263	-6,6924	-2,9889	23,128	9,7711
11264	-6,8325	-3,0625	20,874	9,0817
11265	-8,6718	-3,0012	27,893	10,907
11266	-6,2505	-2,9917	23,978	10,063
11267	-7,837	-3,0032	27,354	10,93
11268	-6,0852	-3,0882	18,083	8,2438
11269	-7,0066	-3,0028	26,8	10,898
11270	-5,5921	-3,0133	18,916	8,4356
11271	-6,1935	-3,008	26,236	10,816
11272	-6,3278	-2,9998	21,722	9,3329
11273	-8,2125	-3,0023	28,754	11,256
11274	-5,8819	-2,991	22,56	9,6056
11275	-7,3811	-3,0045	28,209	11,276
11276	-7,7557	-3,0046	29,614	11,63
11277	-6,0247	-3,0735	20,312	8,884
11278	-6,9191	-3,0041	29,06	11,645
11279	-5,2299	-3,0823	19,734	8,6638
11280	-5,5219	-3,0018	21,147	9,1344
11281	-7,3653	-3,0282	30,498	12,022
11282	-4,7192	-3,0012	20,566	8,9146
11283	-6,5586	-3,0061	27,648	11,241
11284	-6,449	-3,0046	29,907	12,039
11285	-6,1011	-3,0063	28,491	11,602
11286	-5,7441	-3,0087	27,07	11,154
11287	-5,0677	-2,9842	21,982	9,4101
11288	-5,4481	-2,9936	23,397	9,8974
11289	-5,2994	-3,0148	27,903	11,506
11290	-4,6383	-2,9877	22,814	9,7047
11291	-5,8245	-3,0064	24,822	10,37
11292	-5,6205	-3,001	29,319	11,981
11293	-5,4565	-3,0718	25,679	10,694
11294	-4,2759	-2,9881	21,392	9,1906
11295	-5,0268	-3,0761	26,499	11,023
11296	-3,8578	-2,9948	22,215	9,4855
11297	-4,5893	-3,085	27,312	11,364
11298	-5,0239	-3,0052	24,231	10,205
11299	-4,8391	-3,0175	28,719	11,869
11300	-4,6027	-3,0224	25,062	10,526
11301	-4,227	-3,0047	23,639	10,013
11302	-4,2204	-3,0854	25,908	10,863
11303	-3,8112	-3,0248	24,465	10,334
11304	-3,4402	-3,0038	23,039	9,7954
11305	-3,7126	-3,0362	26,69	11,195
11306	-3,4311	-3,0966	25,303	10,67
11307	-3,0323	-3,0278	23,859	10,116
11308	-4,1545	-3,1022	28,103	11,708
11309	-2,9147	-3,0344	26,068	10,99
11310	-2,6519	-3,1188	24,702	10,456
11311	-3,2575	-3,0427	27,488	11,538
11312	-2,1464	-3,023	25,433	10,76
11313	-2,4887	-3,1199	26,879	11,331
11314	-1,658	-3,0325	26,198	11,084
11315	-0,96632	-2,9927	25,535	10,821
11316	-1,4347	-3,0018	24,83	10,527
11317	-0,56648	-2,9866	25,058	10,63
11318	-1,887	-3,135	24,085	10,22
11319	-0,76437	-2,994	24,359	10,337
11320	-2,2541	-3,0246	23,257	9,8861
11321	-1,0914	-3,1286	23,527	9,9985
11322	-2,6632	-3,0044	22,433	9,5615
11323	-1,4661	-3,0118	22,663	9,6486
11324	-3,0848	-3,0025	21,612	9,2504
11325	-1,8999	-3,0117	21,832	9,322
11326	-3,4962	-2,9918	20,787	8,9532
11327	-2,431	-3,1022	21,027	9,0177
11328	-3,9301	-3,0013	19,963	8,6762
11329	-2,7491	-3,0138	20,171	8,7066
11330	-4,4491	-3,0863	19,136	8,4272
11331	-3,1519	-3,0016	19,343	8,4275
11332	-4,7975	-3,017	18,326	8,2005
11333	-3,6642	-3,0878	18,523	8,1819
11334	-5,2898	-3,0992	17,504	8,0138
11335	-4,0107	-3,0178	17,72	7,9604
11336	-5,6527	-3,02	16,701	7,8549
11337	-4,5051	-3,1077	16,903	7,7803
11338	-6,0773	-3,0078	15,89	7,7395
11339	-4,8543	-3,0208	16,116	7,6304
11340	-16,965	-3,0097	10,296	10,447
11341	-6,5657	-3,1089	15,081	7,6776
11342	-5,2702	-3,0137	15,315	7,5244
11343	-17,358	-3,0235	9,4339	10,906
11344	-16,077	-2,9979	9,8919	10,366
11345	-5,7588	-3,1197	14,508	7,4725
11346	-16,472	-3,0088	9,0463	10,802
11347	-6,9571	-3,0169	14,273	7,6455
11348	-15,181	-3,0079	9,4997	10,228
11349	-7,3906	-3,0119	13,474	7,6674
11350	-6,1368	-3,0134	13,721	7,4518
11351	-15,559	-3,0278	8,6733	10,633
11352	-6,5716	-3,0101	12,934	7,4856
11353	-14,279	-3,0122	9,1278	10,042
11354	-7,864	-3,1383	12,675	7,7444
11355	-14,642	-3,0317	8,3228	10,416
11356	-8,2886	-3,0232	11,903	7,855
11357	-7,057	-3,1531	12,163	7,5753
11358	-8,7947	-3,1595	11,142	8,0259
11359	-13,369	-3,0115	8,7782	9,8193
11360	-7,4703	-3,0232	11,391	7,6921
11361	-13,708	-3,0182	7,9953	10,16
11362	-9,2306	-3,0747	10,384	8,2206
11363	-12,416	-3,065	8,4808	9,5554
11364	-7,9778	-3,1664	10,655	7,8681
11365	-12,734	-3,018	7,6913	9,8704
11366	-9,8206	-3,2011	9,6539	8,4887
11367	-8,473	-3,1586	9,9251	8,0737
11368	-10,377	-3,2144	8,8838	8,7869
11369	-9,0377	-3,2108	9,1784	8,3404
11370	-11,325	-3,1651	8,2751	9,2224
11371	-9,6553	-3,171	8,4917	8,6399
11372	-11,726	-3,0416	7,3912	9,5666
11373	-10,263	-3,0787	7,8122	8,9644
11374	-10,632	-3,1092	7,1126	9,2384
11375	-9,7217	-3,0005	6,8998	8,9913
11376	-9,262	-3,1263	7,3641	8,7466
11377	-8,7618	-2,9952	8,0247	8,4625
11378	-8,1093	-2,6867	8,8246	8,1439
11379	-7,608	-3,0276	9,4223	7,9239
11380	-7,131	-3,0174	10,127	7,7249
11381	-6,6703	-3,0176	10,864	7,5538
11382	-6,2646	-3,1628	11,639	7,4279
11383	-5,7609	-3,0084	12,384	7,3244
11384	-5,3184	-3,0217	13,16	7,2762
11385	-4,9444	-3,1222	13,945	7,2843
11386	-4,4706	-3,0098	14,737	7,3246
11387	-4,0663	-3,0083	15,526	7,4184
11388	-3,3884	-2,9843	14,952	7,2411
11389	-3,6488	-3,0082	14,191	7,1491
11390	-4,0721	-3,0113	13,381	7,1127
11391	-4,5057	-2,9946	12,589	7,1271
11392	-4,9621	-3,0119	11,823	7,1914
11393	-17,65	-3,0811	8,5664	11,397
11394	-5,4889	-3,1766	11,093	7,309
11395	-18,007	-3,0757	7,695	11,967
11396	-16,85	-3,0176	8,1903	11,288
11397	-5,902	-3,0393	10,324	7,4466
11398	-17,225	-3,0115	7,3182	11,83
11399	-6,4405	-3,1647	9,5978	7,6398
11400	-15,828	-3,1171	7,8524	11,037
11401	-6,9061	-2,9693	8,9868	7,8279
11402	-16,307	-3,02	6,9897	11,575
11403	-14,897	-3,1267	7,5275	10,778
11404	-7,5556	-2,8934	8,3048	8,0948
11405	-14,057	-3,0158	7,197	10,536
11406	-15,265	-3,1109	6,7126	11,218
11407	-8,0505	-3,1008	7,4372	8,3817
11408	-14,414	-3,0143	6,3837	10,944
11409	-13,094	-3,0095	6,8945	10,226
11410	-8,6355	-3,1472	6,8565	8,6572
11411	-12,107	-3,0129	6,5942	9,9065
11412	-13,447	-3,015	6,0997	10,597
11413	-11,116	-3,0072	6,2807	9,6025
11414	-12,478	-3,0007	5,8025	10,257
11415	-18,487	-3,0057	6,766	12,687
11416	-8,8322	-3,045	6,4582	8,7967
11417	-17,599	-2,9999	6,4302	12,425
11418	-10,195	-3,0645	5,4979	9,4435
11419	-11,543	-2,996	5,4384	9,9596
11420	-16,671	-3,0064	6,1237	12,104
11421	-10,805	-2,9627	4,8613	9,8052
11422	-15,725	-3,009	5,8362	11,748
11423	-11,198	-2,9765	4,4078	10,053
11424	-14,777	-3,0022	5,5564	11,377
11425	-11,911	-2,9459	4,6116	10,296
11426	-13,81	-2,9948	5,2882	10,991
11427	-12,831	-2,9896	5,007	10,61
11428	-18,836	-2,9998	5,8439	13,41
11429	-17,952	-2,992	5,5274	13,046
11430	-19,097	-3,0319	4,944	14,078
11431	-17,025	-2,9949	5,2414	12,653
11432	-18,281	-2,9884	4,6111	13,663
11433	-15,986	-3,0826	5,0169	12,177
11434	-19,485	-2,9887	3,9599	14,823
11435	-17,349	-2,9888	4,3508	13,183
11436	-15,103	-3,0073	4,7227	11,802
11437	-18,576	-2,985	3,7041	14,188
11438	-16,312	-3,0713	4,1391	12,651
11439	-17,644	-2,9882	3,4496	13,663
11440	-15,414	-2,9888	3,8697	12,22
11441	-18,921	-2,9905	2,7868	14,63
11442	-14,142	-2,9812	4,4665	11,377
11443	-17,901	-2,9792	2,551	14,026
11444	-14,433	-2,9855	3,6346	11,74
11445	-16,601	-3,0635	3,2471	13,083
11446	-13,125	-3,0138	4,2279	10,932
11447	-15,679	-3,0028	3,0097	12,592
11448	-16,868	-3,0619	2,3375	13,455
11449	-14,704	-2,9862	2,7835	12,076
11450	-13,429	-2,9942	3,3983	11,265
11451	-15,907	-3,0592	2,1396	12,909
11452	-13,702	-3,001	2,5586	11,564
11453	-14,95	-2,9905	1,9225	12,369
11454	-13,969	-2,9791	1,702	11,831
11455	-14,317	-2,8693	0,97384	12,099
11456	-15,188	-3,0018	1,0165	12,619
11457	-16,107	-3,061	1,1411	13,17
11458	-17,126	-2,9922	1,4443	13,747
11459	-18,102	-2,9859	1,6754	14,271
11460	-17,464	-2,9977	0,54347	14,005
11461	-18,27	-2,9739	0,81868	14,39
11462	-17,684	-2,9838	-7,1221e-003	14,144
11463	-18,331	-2,9717	1,8927e-002	14,418
11464	-18,286	-2,9814	-0,79	14,393
11465	-17,409	-2,9948	-0,6047	13,969
11466	-18,139	-3,0015	-1,6324	14,288
11467	-16,475	-3,2789	-9,3487e-002	13,458
11468	-17,16	-2,9941	-1,4237	13,77
11469	-12,143	-2,995	3,9929	10,525
11470	-16,188	-3,0323	-1,2056	13,218
11471	-10,996	-3,0368	3,6649	10,101
11472	-6,871	-3,0163	31,347	12,462
11473	-15,667	-3,3248	-0,11114	12,953
11474	-6,2565	-2,9957	32,155	12,953
11475	-15,151	-3,0302	-0,9732	12,601
11476	-5,677	-2,9999	32,966	13,464
11477	-12,429	-3,0072	3,1397	10,822
11478	-14,347	-2,9612	1,2372e-002	12,154
11479	-11,414	-3,0167	2,85	10,411
11480	-5,9529	-3,0027	30,734	12,455
11481	-14,169	-3,0009	-0,79126	12,035
11482	-4,9869	-3,0174	33,676	13,975
11483	-5,4346	-3,0023	31,552	12,895
11484	-12,664	-3,0587	2,364	11,06
11485	-5,1368	-3,0025	30,132	12,373
11486	-4,2035	-3,0851	34,16	14,378
11487	-4,6392	-3,0068	30,936	12,78
11488	-4,8522	-3,0036	32,313	13,343
11489	-11,799	-2,9923	2,0043	10,695
11490	-4,08	-3,0058	31,689	13,187
11491	-4,3674	-3,0232	29,517	12,24
11492	-12,975	-3,0805	1,452	11,326
11493	-3,7016	-3,1331	28,878	12,057
11494	-13,154	-3,0698	0,5766	11,484
11495	-2,8328	-3,0534	28,272	11,877
11496	-3,877	-3,0211	30,31	12,622
11497	-12,1	-2,9761	1,1797	10,909
11498	-3,3454	-3,0223	31,057	12,998
11499	-12,324	-3,0447	0,39384	11,069
11500	-4,2265	-3,0578	32,931	13,735
11501	-3,2096	-3,1634	29,622	12,404
11502	-3,5056	-3,102	32,28	13,522
11503	-2,5618	-3,094	28,743	12,09
11504	-2,6301	-3,0374	30,423	12,789
11505	-13,25	-3,1836	-0,94486	11,531
11506	-1,9494	-3,0889	29,788	12,563
11507	-12,063	-3,0809	-0,94561	10,925
11508	-2,7739	-3,0077	31,793	13,373
11509	-3,5439	-3,0891	33,587	14,132
11510	-11,803	-3,1309	0,21654	10,803
11511	-2,8664	-3,0107	33,116	13,962
11512	-2,0894	-3,0191	31,148	13,136
11513	-2,1838	-3,0122	32,484	13,727
11514	-1,4385	-3,0447	30,482	12,875
11515	-1,5213	-3,0106	31,872	13,484
11516	-2,1032	-3,0698	27,722	11,694
11517	-0,90203	-3,0286	31,175	13,187
11518	-11,313	-2,9759	0,80664	10,571
11519	-11,32	-3,2842	-0,39786	10,587
11520	-1,9187	-3,1538	28,384	11,978
11521	-10,897	-2,9754	1,5908	10,341
11522	-10,704	-3,0561	0,30867	10,329
11523	-10,464	-2,9935	2,4691	10,076
11524	-1,0418	-3,1306	29,236	12,359
11525	-9,6904	-2,95	3,9364	9,5677
11526	-1,2492	-3,22	27,93	11,82
11527	-10,114	-3,0372	1,0123	10,07
11528	-3,5154	-3,0716	34,889	14,875
11529	-1,1116	-3,134	27,066	11,434
11530	-0,78443	-3,1975	28,357	11,992
11531	-0,71562	-3,1209	29,607	12,517
11532	-2,8533	-3,1283	34,285	14,549
11533	-9,2085	-3,009	4,7624	9,2616
11534	-0,25711	-3,1304	27,528	11,653
11535	-0,35072	-3,1154	28,755	12,169
11536	-2,2264	-3,1064	33,618	14,247
11537	0,51275	-2,9919	28,104	11,891
11538	-1,5737	-3,1371	33,071	14,017
11539	-8,5448	-2,8447	5,7689	8,8561
11540	-0,96836	-3,1488	32,459	13,744
11541	-2,3969	-3,3079	36,039	15,46
11542	-0,32524	-3,0106	30,466	12,88
11543	-1,702	-3,2422	35,231	14,991
11544	0,35381	-2,8716	29,673	12,555
11545	-0,41425	-3,1865	31,821	13,449
11546	-1,0924	-3,2003	34,526	14,646
11547	1,0392	-2,9919	28,784	12,178
11548	-0,39055	-2,9989	26,141	11,075
11549	0,12542	-3,1666	31,075	13,114
11550	-0,64196	-3,1419	33,805	14,325
11551	0,6765	-3,1611	30,138	12,738
11552	-7,8785	-2,9294	6,1226	8,5987
11553	-9,5837	-2,9571	1,917	9,8088
11554	-7,4444	-3,0406	6,867	8,3349
11555	1,3192	-3,0646	29,409	12,423
11556	-8,9284	-2,8223	2,9274	9,4743
11557	1,8156	-3,1174	28,802	12,148
11558	-6,7402	-3,0676	7,6004	8,0335
11559	3,793e-002	-2,9848	25,331	10,743
11560	0,31877	-2,9933	26,694	11,304
11561	-0,13753	-3,1378	33,115	14,043
11562	0,79507	-2,977	25,791	10,929
11563	1,1001	-3,0078	27,249	11,521
11564	-3,7472	-3,1041	16,306	7,5598
11565	-6,1726	-3,1317	8,1809	7,8043
11566	-3,2359	-3,0081	17,089	7,7217
11567	-5,7063	-3,1471	9,0396	7,5724
11568	1,6182	-2,9861	26,379	11,159
11569	0,40913	-3,2045	32,412	13,719
11570	-2,9036	-3,0868	17,877	7,9327
11571	-8,1601	-2,7547	3,9593	9,0799
11572	0,89431	-3,2072	31,613	13,356
11573	-7,519	-2,9109	4,6338	8,794
11574	1,9849	-3,0837	27,977	11,803
11575	-7,0418	-2,9227	5,2908	8,5522
11576	-2,3767	-2,9907	18,709	8,1776
11577	-5,1338	-3,0363	9,767	7,3699
11578	1,4436	-3,1789	30,805	13,006
11579	-4,6607	-3,0153	10,498	7,215
11580	-1,9893	-3,0111	19,539	8,4538
11581	-4,1837	-2,9982	11,238	7,0941
11582	-1,7105	-3,1272	20,39	8,7639
11583	2,4087	-2,9896	26,967	11,37
11584	-1,1729	-3,0569	21,22	9,0741
11585	2,0244	-3,0338	30,08	12,681
11586	-6,5633	-2,9277	5,8489	8,3346
11587	2,281	-3,0727	29,356	12,359
11588	-0,7443	-3,1028	21,916	9,3477
11589	2,6683	-3,0796	28,367	11,926
11590	-0,12643	-3,0978	23,028	9,7969
11591	-3,6995	-2,9859	12,004	7,0115
11592	3,1882	-2,9978	27,555	11,568
11593	-6,0964	-2,9934	6,5463	8,1037
11594	-7,3091e-002	-2,9026	24,112	10,238
11595	-5,4031	-3,0655	7,6519	7,7556
11596	-2,1453	-2,9354	36,548	15,657
11597	-4,7822	-2,9638	8,4602	7,5041
11598	-1,3163	-3,0054	35,759	15,19
11599	-3,251	-2,9926	12,809	6,9796
11600	1,3012	-2,9765	24,883	10,552
11601	-0,67095	-3,0199	35,1	14,865
11602	2,0839	-2,9834	25,499	10,787
11603	-6,5773e-002	-3,0213	34,412	14,566
11604	-2,8618	-3,0481	13,729	7,0144
11605	0,36636	-3,1401	33,692	14,276
11606	-3,0845	-2,9966	15,54	7,3279
11607	1,0078	-3,1522	32,92	13,944
11608	-2,4914	-2,9981	16,428	7,4936
11609	2,8518	-2,9947	26,093	11,002
11610	1,5219	-3,1486	32,234	13,632
11611	2,1131	-3,1874	31,383	13,228
11612	0,29041	-3,0891	22,65	9,6398
11613	2,6333	-3,1479	30,602	12,869
11614	3,6229	-3,0013	26,701	11,203
11615	-4,3785	-3,0707	9,2004	7,3265
11616	3,0023	-3,0958	29,847	12,513
11617	0,80729	-2,8742	23,147	9,8435
11618	-4,1014	-3,1348	9,8568	7,2002
11619	3,4646	-3,0811	28,992	12,125
11620	1,738	-2,9864	24,014	10,193
11621	-2,3758	-3,0444	14,684	7,1089
11622	3,8889	-3,0482	28,131	11,742
11623	-1,7312	-2,9778	15,766	7,2885
11624	-3,5025	-3,0085	9,5174	7,1681
11625	2,5183	-2,9976	24,642	10,435
11626	-2,0459	-2,9991	17,249	7,697
11627	-1,72	-2,9802	37,169	15,812
11628	-1,636	-2,9986	18,065	7,935
11629	-0,94932	-3,0821	36,49	15,405
11630	-3,4434	-2,9867	10,647	7,0374
11631	-8,3241e-002	-3,026	35,806	15,11
11632	-2,8099	-2,9387	10,009	7,032
11633	0,55145	-3,0391	35,1	14,857
11634	-1,2541	-3,0634	18,875	8,1953
11635	1,0918	-3,1641	34,434	14,598
11636	-1,4157	-3,0914	16,616	7,4906
11637	-0,85609	-3,0127	37,96	15,753
11638	-1,1155	-3,1401	19,53	8,4357
11639	1,6933	-3,1819	33,504	14,193
11640	-0,16026	-3,0653	37,217	15,521
11641	-2,9404	-3,005	11,398	6,9389
11642	0,40317	-3,0339	36,55	15,366
11643	2,2437	-3,1455	32,748	13,836
11644	-0,89274	-3,0242	17,416	7,708
11645	0,99845	-3,0991	35,761	15,147
11646	-0,50058	-3,1094	18,333	7,996
11647	1,5997	-3,1953	35,	14,87
11648	2,8024	-3,1637	31,973	13,446
11649	-0,30792	-3,3104	19,276	8,3337
11650	2,288	-3,1606	33,972	14,405
11651	-0,17272	-3,1775	38,526	15,641
11652	-0,67709	-3,1932	20,495	8,7889
11653	2,8173	-3,0415	33,259	14,042
11654	0,46434	-3,2123	37,962	15,711
11655	3,5083	-2,953	32,476	13,606
11656	4,3376	-3,0538	27,292	11,379
11657	3,209	-3,0749	25,24	10,652
11658	3,9907	-3,0659	25,86	10,858
11659	1,018	-3,0972	37,157	15,654
11660	4,7865	-3,0566	26,464	11,031
11661	3,2922	-3,2326	31,256	13,089
11662	1,1006	-3,274	38,405	16,036
11663	3,7742	-3,1287	30,441	12,688
11664	1,7271	-3,2027	36,348	15,494
11665	1,6805	-3,0926	37,585	16,032
11666	-2,4403	-2,9862	12,211	6,884
11667	4,2413	-3,0691	29,586	12,283
11668	2,2951	-3,1093	35,618	15,218
11669	4,6924	-3,0478	28,733	11,893
11670	2,3235	-3,107	37,012	15,989
11671	5,147	-3,0466	27,884	11,518
11672	-2,067	-2,9991	13,186	6,9012
11673	2,9831	-3,0963	36,233	15,65
11674	-2,3574	-3,0703	10,713	6,9253
11675	5,5979	-3,0481	27,046	11,163
11676	-1,7476	-2,9968	11,664	6,8364
11677	-6,1637e-002	-3,2953	19,936	8,5743
11678	4,0556	-2,9464	31,817	13,248
11679	-1,1783	-2,9642	12,614	6,8203
11680	-1,4393	-2,8843	14,077	6,9612
11681	4,4739	-3,0136	31,01	12,836
11682	2,9151	-3,0494	34,633	14,727
11683	-0,67735	-3,0303	13,623	6,8795
11684	3,4478	-3,0843	34,006	14,369
11685	-2,0189e-002	-3,2283	21,541	9,1956
11686	0,32903	-3,1791	19,293	8,3392
11687	0,52424	-3,1373	21,828	9,3152
11688	4,2293	-3,0567	33,273	13,912
11689	1,7759	-3,1187	38,835	16,645
11690	0,38688	-3,237	20,429	8,7683
11691	2,3386	-3,0697	38,169	16,744
11692	0,75969	-3,0566	19,874	8,5612
11693	1,1594	-3,1166	21,126	9,0406
11694	4,9043	-3,0102	32,429	13,384
11695	1,5129	-3,0405	20,335	8,7373
11696	5,4236	-2,9863	31,6	12,917
11697	2,9955	-3,0657	37,443	16,504
11698	-0,9874	-2,9908	15,12	7,1196
11699	3,6578	-3,064	36,655	15,997
11700	3,6602	-3,0619	35,462	15,172
11701	-0,33824	-3,0131	14,672	7,0234
11702	-0,58578	-3,0804	15,936	7,2922
11703	4,3364	-3,0551	35,914	15,428
11704	1,4342	-3,0167	22,553	9,6069
11705	4,2428	-3,0156	34,5	14,555
11706	1,7391	-3,1596	21,742	9,2845
11707	5,0277	-3,05	30,17	12,407
11708	5,0893	-2,8939	35,124	14,755
11709	2,2345	-3,0567	20,958	8,9884
11710	5,8187	-3,028	30,743	12,486
11711	-0,17739	-3,1995	15,379	7,1591
11712	5,501	-3,0404	29,314	11,999
11713	0,27027	-3,2151	14,981	7,0816
11714	4,8821	-3,0181	33,84	14,08
11715	5,9584	-3,0385	28,461	11,615
11716	5,5523	-2,9776	33,01	13,51
11717	-0,34954	-3,1033	16,908	7,5521
11718	6,4186	-3,0398	27,613	11,25
11719	0,52423	-3,2049	16,193	7,3563
11720	0,32611	-3,2231	18,747	8,1436
11721	6,103	-3,0009	32,169	12,996
11722	6,3108	-3,0255	29,879	12,058
11723	6,6345	-3,0046	31,299	12,508
11724	0,57946	-3,0129	17,69	7,7925
11725	0,61366	-3,221	15,304	7,1485
11726	1,0388	-3,0119	18,945	8,2167
11727	1,071	-3,078	16,675	7,4999
11728	1,5003	-2,986	18,196	7,9764
11729	2,1712	-3,0224	23,196	9,8617
11730	1,436	-3,1485	15,934	7,3148
11731	2,9486	-3,0038	23,826	10,104
11732	1,8926	-2,9885	17,369	7,7253
11733	1,9081	-3,0238	19,562	8,462
11734	2,2924	-3,0091	16,551	7,5143
11735	2,2934	-2,9971	18,767	8,1925
11736	0,41739	-3,1605	14,334	6,968
11737	2,7055	-2,9719	17,962	7,9485
11738	1,1474	-3,0859	14,621	7,0326
11739	7,1408	-3,0108	30,425	12,057
11740	3,0928	-3,0004	17,157	7,7308
11741	1,8756	-3,1344	15,129	7,1595
11742	2,5865	-3,0349	22,386	9,5434
11743	2,7122	-3,0189	15,75	7,3442
11744	5,7512	-2,9629	34,457	14,197
11745	3,5231	-2,9952	16,354	7,5517
11746	6,3347	-2,9308	33,572	13,552
11747	3,1328	-3,0178	14,949	7,2162
11748	3,9447	-3,0056	15,553	7,4113
11749	6,9385	-2,9735	32,715	12,977
11750	2,3206	-3,0292	14,352	7,0517
11751	7,4763	-2,9861	31,841	12,459
11752	1,4878	-3,033	13,798	6,9284
11753	7,9901	-2,9986	30,968	11,993
11754	0,46351	-3,0904	13,333	6,8472
11755	2,6524	-3,0307	20,164	8,7008
11756	-0,33772	-2,9684	12,052	6,7824
11757	3,0816	-2,9953	19,365	8,4324
11758	3,6414	-3,0789	24,428	10,324
11759	3,3675	-3,0168	23,011	9,7852
11760	4,4384	-3,0681	25,038	10,525
11761	3,4888	-2,9864	18,563	8,1841
11762	5,2371	-3,0581	25,632	10,694
11763	3,8887	-3,0076	17,76	7,9628
11764	-0,91341	-3,0073	10,976	6,8265
11765	4,326	-2,9991	16,952	7,7756
11766	6,0543	-3,0484	26,209	10,823
11767	4,075	-3,0794	23,618	10,007
11768	4,7514	-3,0079	16,147	7,6257
11769	4,8739	-3,0685	24,217	10,206
11770	6,791	-3,0288	29,014	11,656
11771	5,6861	-3,0581	24,803	10,373
11772	3,0124	-3,0299	21,579	9,2372
11773	6,5142	-3,048	25,372	10,499
11774	3,4309	-3,0212	20,779	8,9486
11775	6,8803	-3,0399	26,777	10,909
11776	7,257	-3,0312	28,168	11,288
11777	7,3446	-3,0389	25,929	10,583
11778	7,7238	-3,0316	27,32	10,941
11779	3,7837	-3,0289	22,197	9,4781
11780	8,1856	-3,031	26,471	10,617
11781	4,5211	-3,0792	22,801	9,7011
11782	5,3218	-3,068	23,393	9,8999
11783	-5,3967e-002	-3,0442	10,267	6,8692
11784	6,1317	-3,0569	23,974	10,068
11785	0,37188	-3,1593	9,5279	6,9587
11786	3,8689	-2,9931	19,97	8,6758
11787	6,9644	-3,0465	24,536	10,195
11788	7,6275	-3,0186	29,56	11,645
11789	7,8003	-3,0376	25,083	10,279
11790	8,482	-3,01	30,106	11,574
11791	8,6531	-3,0295	25,62	10,313
11792	4,2902	-2,9842	19,164	8,4263
11793	4,2168	-3,0166	21,385	9,1869
11794	8,105	-3,0231	28,715	11,271
11795	4,954	-3,0781	21,984	9,4104
11796	4,7104	-2,9945	18,351	8,2011
11797	5,7644	-3,0666	22,569	9,6103
11798	8,5622	-3,024	27,861	10,924
11799	6,5859	-3,0553	23,136	9,7775
11800	5,1309	-3,0036	17,542	8,0084
11801	7,4233	-3,0444	23,69	9,9073
11802	8,9517	-3,0162	29,252	11,196
11803	8,2598	-3,0352	24,237	9,9955
11804	9,4181	-3,0172	28,39	10,846
11805	5,5564	-3,0188	16,731	7,8504
11806	4,6517	-3,0045	20,57	8,9136
11807	9,0328	-3,0237	27,003	10,598
11808	5,3882	-3,075	21,169	9,1386
11809	9,1103	-3,0274	24,773	10,035
11810	9,8857	-3,0165	27,537	10,524
11811	6,1996	-3,064	21,749	9,3411
11812	-1,4983	-2,9506	10,106	6,9241
11813	7,0371	-3,0527	22,303	9,509
11814	-1,1207	-3,0979	9,357	7,0021
11815	7,8737	-3,0422	22,85	9,6421
11816	-0,74179	-3,0202	8,6613	7,0971
11817	8,7256	-3,0328	23,386	9,7322
11818	-0,40047	-3,025	8,4258	7,1323
11819	9,5781	-3,0245	23,914	9,7748
11820	0,78482	-3,1742	8,8222	7,0737
11821	0,29723	-2,9788	11,65	6,7852
11822	9,505	-3,0223	26,152	10,296
11823	9,9737	-3,0205	25,29	10,018
11824	10,357	-3,0158	26,667	10,223
11825	1,0631	-3,031	12,299	6,8051
11826	10,436	-3,0186	24,429	9,7639
11827	10,838	-3,0152	25,813	9,9469
11828	1,864	-3,0639	12,905	6,8681
11829	11,306	-3,0148	24,944	9,696
11830	2,6878	-3,081	13,544	6,9804
11831	0,9032	-3,0043	10,852	6,8343
11832	1,2447	-3,0652	8,0773	7,2174
11833	1,2324	-3,1616	10,178	6,9023
11834	1,7056	-3,0898	7,2416	7,4015
11835	2,177	-3,1616	6,3976	7,6005
11836	3,5457	-3,0119	14,152	7,133
11837	1,5553	-3,0255	11,508	6,8288
11838	4,3062	-3,0851	14,782	7,3117
11839	1,9502	-2,9551	10,84	6,8868
11840	2,6466	-3,0824	6,0326	7,7165
11841	5,1294	-3,079	15,36	7,514
11842	1,6441	-3,1089	9,3363	7,031
11843	5,9592	-3,0697	15,93	7,7312
11844	2,1055	-3,1064	8,6361	7,1706
11845	2,2181	-2,9581	10,505	6,9311
11846	5,0781	-2,9987	19,759	8,6634
11847	2,4203	-3,2387	7,8145	7,339
11848	5,8207	-3,0693	20,352	8,8881
11849	5,5119	-3,0007	18,94	8,4368
11850	2,8496	-3,162	9,175	7,146
11851	5,952	-2,9994	18,118	8,2403
11852	3,2367	-3,103	8,4456	7,301
11853	6,2715	-3,0621	19,529	8,6616
11854	6,3896	-3,0081	17,297	8,0784
11855	6,7272	-3,0559	18,697	8,4627
11856	2,8759	-3,2406	7,0547	7,5266
11857	2,3392	-3,0221	12,133	6,875
11858	7,2157	-3,014	17,855	8,2989
11859	2,7631	-2,9253	11,449	6,9204
11860	6,6527	-3,0585	20,915	9,0895
11861	2,8897	-2,9742	12,724	6,9394
11862	3,067	-2,9084	11,014	6,9604
11863	6,7946	-3,0605	16,489	7,9535
11864	3,6026	-3,147	9,7333	7,1486
11865	7,6315	-3,0526	17,045	8,1726
11866	3,3343	-2,9601	11,947	6,9684
11867	4,0551	-3,1002	9,0434	7,3039
11868	3,7015	-3,2308	7,6833	7,494
11869	4,482	-3,0999	8,274	7,4912
11870	3,6216	-2,9174	11,459	7,0136
11871	7,1116	-3,0523	20,081	8,8641
11872	3,0351	-3,0935	38,776	17,76
11873	7,5703	-3,048	19,245	8,6674
11874	4,2146	-3,0672	10,35	7,1632
11875	8,0564	-3,0122	18,399	8,5036
11876	3,6402	-3,1002	38,04	17,207
11877	4,7671	-2,9584	9,6249	7,3274
11878	7,4887	-3,0483	21,465	9,2618
11879	5,2628	-3,0477	8,7622	7,5354
11880	3,9283	-3,0897	13,391	7,0956
11881	3,7475	-3,2063	39,349	18,84
11882	4,7926	-3,0234	13,956	7,2638
11883	4,1946	-3,2515	38,567	17,83
11884	8,3338	-3,0391	22,006	9,399
11885	7,952	-3,0441	20,628	9,0402
11886	9,1864	-3,0304	22,536	9,4935
11887	4,2612	-3,1194	37,231	16,459
11888	5,5614	-3,0789	14,557	7,4488
11889	4,4113	-3,0208	12,574	7,1134
11890	6,3997	-3,0698	15,118	7,6567
11891	5,2329	-3,022	13,157	7,2623
11892	7,2426	-3,0612	15,667	7,8721
11893	5,9964	-3,078	13,751	7,4305
11894	8,0895	-3,0544	16,207	8,086
11895	8,4868	-3,0459	17,573	8,3763
11896	6,8352	-3,0698	14,306	7,6275
11897	8,9374	-3,0474	16,735	8,2874
11898	4,8762	-3,1818	36,573	15,832
11899	4,6529	-3,3156	37,987	17,155
11900	8,794	-3,0363	21,159	9,1803
11901	8,4105	-3,0411	19,788	8,8466
11902	9,6503	-3,0289	21,683	9,2798
11903	7,6995	-3,0633	14,849	7,8382
11904	5,1429	-3,3631	37,086	16,188
11905	9,2663	-3,0349	20,311	8,9901
11906	10,048	-3,0227	23,056	9,5397
11907	10,12	-3,0282	20,829	9,0936
11908	10,512	-3,0218	22,196	9,3307
11909	8,5485	-3,058	15,377	8,0455
11910	10,979	-3,0219	21,343	9,1506
11911	4,7957	-3,0916	11,799	7,166
11912	9,3998	-3,051	15,896	8,2432
11913	5,5834	-3,2191	38,13	16,977
11914	3,2841	-3,16	6,3622	7,7045
11915	5,1136	-3,2697	38,567	17,63
11916	4,0248	-3,2247	6,6606	7,7337
11917	5,2604	-3,067	10,993	7,277
11918	4,7133	-3,2316	39,144	18,566
11919	5,7167	-3,0469	10,098	7,4362
11920	5,6747	-3,0216	12,359	7,3091
11921	4,8773	-3,1216	7,3559	7,7216
11922	4,2886	-3,178	40,095	20,093
11923	5,7542	-3,0444	7,9265	7,7686
11924	6,4991	-3,0167	12,918	7,4715
11925	8,9033	-3,0106	18,932	8,6836
11926	7,3224	-3,0258	13,47	7,6539
11927	9,3422	-3,0392	18,101	8,5582
11928	10,916	-3,0173	23,577	9,5337
11929	8,1669	-3,0182	14,006	7,8517
11930	9,7973	-3,0402	17,255	8,4692
11931	9,018	-3,0128	14,53	8,0524
11932	9,7547	-3,0092	19,455	8,8309
11933	10,251	-3,0426	16,412	8,422
11934	10,612	-3,0072	19,97	8,9378
11935	9,8725	-3,0125	15,044	8,2458
11936	6,1148	-3,0235	9,3316	7,6094
11937	10,734	-3,009	15,55	8,4223
11938	6,6276	-3,025	8,4997	7,8469
11939	6,1075	-3,0198	11,539	7,4007
11940	10,199	-3,0336	18,617	8,7078
11941	11,779	-3,0151	24,083	9,47
11942	11,06	-3,0285	19,125	8,818
11943	6,9319	-3,0224	12,103	7,5504
11944	11,381	-3,0172	22,712	9,3295
11945	11,475	-3,0039	20,479	8,9974
11946	12,244	-3,0155	23,215	9,2707
11947	11,925	-3,0233	19,628	8,881
11948	6,5347	-3,0174	10,719	7,5379
11949	11,855	-3,0178	21,852	9,1526
11950	7,3682	-3,0191	11,286	7,676
11951	7,7281	-3,0775	12,688	7,7153
11952	12,71	-3,0156	22,356	9,0988
11953	8,171	-3,0887	11,88	7,8291
11954	8,6099	-3,0275	13,19	7,9115
11955	6,9694	-3,0243	9,9067	7,7145
11956	9,0594	-3,0214	12,374	8,0201
11957	7,8052	-3,0239	10,486	7,8435
11958	10,658	-3,0338	17,763	8,6198
11959	8,6181	-3,1063	11,109	7,9855
11960	11,519	-3,0286	18,268	8,7322
11961	7,4644	-3,031	9,1079	7,9397
11962	9,5096	-3,0228	11,574	8,174
11963	8,2895	-3,036	9,7098	8,0577
11964	12,388	-3,0237	18,765	8,7975
11965	8,9813	-3,1928	8,8856	8,3696
11966	9,4692	-3,0167	13,704	8,1066
11967	9,3648	-3,2115	8,6877	8,521
11968	9,9243	-3,0097	12,88	8,2098
11969	12,34	-3,0012	20,983	9,0033
11970	10,38	-3,0102	12,066	8,3606
11971	12,793	-3,0194	20,126	8,89
11972	9,0706	-3,1431	10,371	8,1781
11973	10,331	-3,011	14,209	8,2956
11974	9,9746	-3,031	10,788	8,3742
11975	9,7348	-3,2016	9,5542	8,479
11976	10,789	-3,0061	13,376	8,3944
11977	10,423	-3,1412	10,129	8,5863
11978	10,835	-3,0409	11,289	8,5523
11979	4,9105	-3,209	40,58	20,536
11980	11,315	-3,0877	10,512	8,7953
11981	11,125	-3,0348	16,915	8,5739
11982	11,249	-3,0123	12,556	8,5416
11983	11,991	-3,0292	17,414	8,6867
11984	11,713	-3,0216	11,737	8,7377
11985	12,861	-3,0242	17,91	8,7529
11986	5,2217	-3,2596	39,609	18,889
11987	12,178	-3,0651	10,94	8,9771
11988	11,598	-3,0121	16,054	8,5715
11989	5,5676	-3,2072	38,949	17,839
11990	13,259	-3,0197	19,263	8,8088
11991	13,209	-2,9997	21,48	8,9493
11992	11,191	-3,0118	14,709	8,468
11993	13,732	-3,0204	18,401	8,764
11994	13,679	-2,9998	20,613	8,8362
11995	11,652	-3,0115	13,871	8,5629
11996	14,146	-3,0014	19,747	8,7565
11997	9,9361	-3,2142	9,0383	8,6235
11998	14,614	-3,0036	18,882	8,7121
11999	10,86	-3,2367	9,4924	8,8282
12000	12,12	-3,0054	13,03	8,7091
12001	11,746	-3,246	9,8929	9,0315
12002	12,06	-3,0098	15,204	8,6153
12003	12,562	-3,2249	10,274	9,2125
12004	12,452	-3,0316	16,558	8,6828
12005	12,522	-3,0104	14,359	8,7069
12006	12,917	-3,037	15,703	8,724
12007	6,0214	-3,1977	38,206	16,725
12008	13,394	-3,0094	14,844	8,8146
12009	5,9562	-3,2772	37,019	15,779
12010	13,326	-3,0257	17,049	8,7488
12011	6,2763	-2,9113	36,162	15,029
12012	13,79	-3,0287	16,19	8,7882
12013	14,198	-3,0207	17,542	8,7591
12014	14,268	-3,0058	15,328	8,8755
12015	15,083	-3,0029	18,017	8,7057
12016	12,987	-3,0205	13,522	8,8482
12017	6,8194	-2,9812	35,019	14,092
12018	13,86	-3,0152	13,999	8,9527
12019	7,2591	-2,9301	34,119	13,459
12020	14,735	-3,009	14,476	9,0105
12021	7,8161	-2,9555	33,243	12,858
12022	12,586	-3,0182	12,2	8,9041
12023	8,3412	-2,9752	32,373	12,33
12024	13,053	-3,0439	11,374	9,1482
12025	8,8509	-2,9912	31,502	11,858
12026	14,664	-3,022	16,684	8,796
12027	9,3381	-3,0039	30,632	11,436
12028	13,462	-3,1973	10,684	9,3979
12029	9,8048	-3,0097	29,776	11,059
12030	15,552	-3,0028	17,152	8,7402
12031	10,278	-3,0108	28,909	10,708
12032	13,461	-3,0131	12,673	9,0431
12033	10,757	-3,0108	28,052	10,386
12034	14,325	-3,0579	13,183	9,1377
12035	15,136	-3,0251	15,821	8,8785
12036	11,225	-3,0109	27,181	10,089
12037	15,198	-3,0451	13,645	9,1921
12038	15,605	-3,0293	14,968	9,008
12039	11,701	-3,0116	26,319	9,8171
12040	16,078	-3,0333	14,108	9,1894
12041	12,167	-3,0122	25,446	9,5703
12042	16,023	-3,0011	16,289	8,8184
12043	12,645	-3,0126	24,583	9,3468
12044	16,486	-3,021	15,447	8,9402
12045	13,136	-3,	23,711	9,1448
12046	13,933	-3,0254	11,841	9,2883
12047	13,589	-3,0127	22,846	8,9784
12048	14,384	-3,1423	11,125	9,5481
12049	14,809	-3,0146	12,32	9,3846
12050	14,076	-3,0002	21,974	8,8321
12051	15,234	-3,0138	11,57	9,6472
12052	14,535	-3,0122	21,109	8,7219
12053	15,68	-3,0487	12,805	9,4304
12054	14,999	-3,0122	20,245	8,6416
12055	16,558	-3,0362	13,261	9,4223
12056	15,48	-3,0129	19,372	8,5929
12057	16,961	-3,0235	14,587	9,1139
12058	15,949	-3,0136	18,512	8,5822
12059	16,174	-3,0054	11,964	9,7252
12060	16,432	-2,9993	17,629	8,6114
12061	17,427	-3,0251	13,72	9,3433
12062	16,902	-2,9997	16,764	8,6832
12063	17,031	-3,0371	12,398	9,7162
12064	17,371	-3,0165	15,917	8,7971
12065	17,906	-3,0251	12,853	9,6318
12066	17,846	-3,0167	15,053	8,9623
12067	18,383	-3,0236	11,981	9,9869
12068	18,312	-3,0171	14,174	9,1865
12069	18,86	-3,0198	11,094	10,421
12070	18,786	-3,0165	13,31	9,4645
12071	19,323	-3,0171	10,182	10,958
12072	19,262	-3,0133	12,434	9,8124
12073	19,665	-3,1003	9,3565	11,506
12074	19,731	-3,0055	11,544	10,243
12075	20,213	-2,9829	10,693	10,738
12076	19,936	-3,1304	8,1712	12,397
12077	20,677	-3,0653	9,7477	11,414
12078	5,6101	-3,1724	41,111	20,572
12079	20,671	-3,0989	8,4506	12,416
12080	20,373	-3,1309	7,2402	13,311
12081	20,675	-3,1366	6,307	14,363
12082	21,374	-2,9951	8,8892	12,204
12083	5,8472	-3,2439	40,041	18,798
12084	20,935	-3,038	5,4563	15,492
12085	21,083	-3,1352	7,5172	13,419
12086	6,3988	-3,158	39,368	17,496
12087	21,788	-3,0147	8,0464	13,141
12088	6,5902	-3,2008	38,229	16,345
12089	21,509	-3,1407	6,6145	14,693
12090	22,234	-3,128	7,0035	14,704
12091	21,771	-3,0333	5,8502	16,049
12092	6,8249	-3,2634	37,343	15,501
12093	22,716	-3,1191	6,148	16,696
12094	7,2711	-3,0185	36,461	14,644
12095	7,7452	-2,9906	35,551	13,883
12096	8,1911	-2,9356	34,633	13,232
12097	8,7182	-2,9551	33,759	12,635
12098	9,2264	-2,9721	32,893	12,113
12099	9,7212	-2,9873	32,024	11,649
12100	10,201	-2,9986	31,153	11,232
12101	23,51	-3,0156	6,7685	15,993
12102	10,674	-3,0035	30,292	10,857
12103	23,029	-3,0886	7,5003	14,369
12104	11,143	-3,0046	29,42	10,511
12105	22,532	-3,0818	8,3617	12,998
12106	11,62	-3,0054	28,558	10,191
12107	22,082	-2,9912	9,3728	11,854
12108	12,094	-3,0066	27,686	9,8973
12109	21,515	-3,0068	10,202	11,118
12110	12,566	-3,0077	26,819	9,6286
12111	21,065	-2,9884	11,096	10,487
12112	13,029	-3,0079	25,947	9,3865
12113	20,606	-2,999	12,011	9,9565
12114	13,513	-3,0081	25,078	9,1622
12115	20,137	-3,0077	12,899	9,5379
12116	14,005	-2,9985	24,204	8,9603
12117	19,673	-2,9893	13,771	9,2023
12118	14,46	-3,0082	23,336	8,7949
12119	19,198	-3,0132	14,641	8,9356
12120	14,928	-3,0082	22,467	8,6525
12121	18,726	-2,9967	15,502	8,7293
12122	15,409	-3,0085	21,595	8,5356
12123	18,253	-3,0142	16,379	8,5719
12124	15,892	-3,0002	20,719	8,449
12125	17,782	-3,0004	17,238	8,4667
12126	16,357	-3,0101	19,855	8,3989
12127	17,309	-3,0004	18,107	8,4036
12128	16,829	-3,0111	18,989	8,382
12129	24,275	-3,0452	7,0652	15,649
12130	23,84	-3,0475	7,9698	13,833
12131	23,366	-3,0382	8,8625	12,499
12132	22,867	-3,0179	9,7485	11,506
12133	22,41	-2,9932	10,67	10,702
12134	21,956	-2,9924	11,583	10,064
12135	21,493	-3,0012	12,478	9,5599
12136	21,026	-3,0088	13,36	9,1584
12137	20,552	-2,9925	14,23	8,8413
12138	20,083	-3,0138	15,109	8,5861
12139	5,9298	-3,2283	42,495	21,284
12140	19,606	-2,9989	15,968	8,3983
12141	6,369	-3,2733	41,518	19,491
12142	19,135	-3,0134	16,851	8,2533
12143	6,6963	-3,3648	40,625	18,255
12144	18,66	-3,0126	17,722	8,1606
12145	6,9897	-3,2365	39,647	16,995
12146	18,188	-3,0014	18,583	8,1117
12147	7,3293	-3,122	38,748	16,021
12148	17,709	-3,0094	19,463	8,1004
12149	7,8112	-3,0363	37,8	14,999
12150	17,234	-3,0079	20,335	8,1265
12151	8,1972	-3,0178	36,946	14,248
12152	16,77	-2,9988	21,2	8,1834
12153	8,6452	-2,9511	36,009	13,514
12154	16,284	-3,0053	22,079	8,2769
12155	9,1292	-2,9527	35,143	12,884
12156	15,822	-2,9985	22,947	8,393
12157	9,6188	-2,9637	34,276	12,323
12158	15,334	-3,0035	23,823	8,5444
12159	10,122	-2,9753	33,406	11,815
12160	14,86	-3,0027	24,695	8,7176
12161	10,606	-2,9858	32,535	11,365
12162	14,385	-3,002	25,568	8,9157
12163	11,076	-2,9938	31,667	10,964
12164	13,91	-3,0016	26,441	9,1374
12165	11,552	-2,9973	30,797	10,592
12166	13,435	-3,0015	27,313	9,382
12167	12,023	-2,9988	29,929	10,252
12168	12,972	-3,0011	28,186	9,6458
12169	12,498	-2,9998	29,057	9,9365
12170	17,52	-3,0369	11,532	10,076
12171	16,651	-3,0526	11,099	10,086
12172	17,987	-3,036	10,657	10,506
12173	17,112	-3,0539	10,237	10,504
12174	18,428	-3,0367	9,7608	11,014
12175	17,471	-3,0376	9,3445	10,98
12176	15,779	-3,0476	10,729	10,012
12177	18,827	-3,1056	9,024	11,5
12178	16,268	-2,9995	9,9184	10,413
12179	15,002	-3,0994	10,159	9,972
12180	16,575	-2,9803	9,0301	10,839
12181	15,202	-2,9424	9,5563	10,212
12182	17,944	-3,0502	8,6559	11,448
12183	13,9	-3,1853	9,8523	9,7232
12184	15,564	-3,016	8,6129	10,656
12185	12,99	-3,22	9,4725	9,5205
12186	14,236	-3,0286	9,1457	10,022
12187	16,873	-3,0177	8,095	11,34
12188	14,644	-3,0156	8,2896	10,427
12189	13,32	-3,0643	8,7848	9,8011
12190	16,137	-3,0905	7,7577	11,194
12191	13,725	-3,0343	7,9579	10,177
12192	12,028	-3,1324	9,1677	9,2719
12193	15,058	-3,0262	7,4444	10,871
12194	11,087	-3,0883	8,8205	9,0269
12195	12,404	-3,049	8,4247	9,5656
12196	14,275	-3,1178	7,1176	10,652
12197	11,462	-3,0525	8,0647	9,316
12198	12,788	-3,0404	7,6181	9,9107
12199	10,191	-3,0615	8,4777	8,8069
12200	11,79	-3,0257	7,2718	9,6189
12201	13,141	-3,0231	6,8076	10,269
12202	10,493	-3,0478	7,7221	9,0585
12203	9,3141	-3,0845	8,1861	8,594
12204	10,825	-3,0401	6,9526	9,3424
12205	9,5126	-3,0679	7,4671	8,7972
12206	12,146	-3,0155	6,4735	9,9514
12207	9,9043	-3,0835	6,7462	9,074
12208	8,3161	-2,9659	8,1922	8,3109
12209	11,161	-3,0326	6,1364	9,6501
12210	-2,1757	-2,7923	9,158	7,0872
12211	10,308	-3,1433	5,8192	9,4089
12212	8,4069	-3,1647	7,288	8,5112
12213	-1,7936	-2,8092	8,659	7,1451
12214	8,9079	-3,0414	6,6428	8,7796
12215	7,0715	-2,9779	7,5417	8,1156
12216	9,2692	-3,1109	5,6731	9,0981
12217	6,133	-3,0172	7,1421	7,9895
12218	7,6014	-3,1147	6,7981	8,3906
12219	-1,1131	-2,8392	7,9772	7,228
12220	7,9114	-3,0136	6,1598	8,6004
12221	6,6318	-2,9542	6,403	8,236
12222	-0,15327	-2,9301	7,3776	7,3257
12223	5,3655	-3,0789	6,606	7,9468
12224	8,2657	-3,0668	5,2961	8,873
12225	-3,412	-2,861	8,5807	7,2977
12226	4,178	-3,1993	6,0175	7,8805
12227	-2,5706	-2,8596	7,8992	7,3343
12228	7,0495	-2,9977	5,6641	8,4834
12229	0,90475	-3,0217	6,491	7,519
12230	7,3729	-3,1196	4,5178	8,7817
12231	3,3869	-3,1295	5,5628	7,8789
12232	-3,985	-2,9109	7,8146	7,5048
12233	-1,886	-2,4236	7,0872	7,4406
12234	5,6684	-3,0563	5,7304	8,1801
12235	-3,1767	-2,8602	7,151	7,5375
12236	5,9387	-3,1378	5,0348	8,3643
12237	-0,40049	-2,5171	6,47	7,5132
12238	1,5961	-3,3764	5,759	7,6937
12239	0,19185	-2,6321	5,6316	7,6814
12240	6,3186	-3,1317	4,3523	8,5646
12241	4,6609	-3,0834	5,314	8,0895
12242	-2,4548	-2,8117	6,4801	7,6047
12243	3,6423	-2,8342	4,6851	8,0724
12244	0,83742	-3,0725	4,8124	7,8512
12245	-1,2654	-2,6817	5,5661	7,7181
12246	5,0366	-2,989	4,5694	8,2831
12247	2,7142	-3,1288	5,0078	7,9156
12248	5,4616	-2,9491	3,8363	8,4858
12249	1,4388	-3,2299	4,0901	7,9988
12250	3,0287	-3,1362	4,0823	8,1123
12251	-0,67342	-2,9328	4,6653	7,8752
12252	-4,676	-2,7978	6,8527	7,7898
12253	4,0152	-2,9707	3,8562	8,2598
12254	-4,1579	-2,7316	6,0112	7,8805
12255	4,476	-2,985	3,0004	8,4462
12256	-0,14125	-3,0386	3,7901	8,0202
12257	-3,5705	-2,7922	5,6041	7,8875
12258	0,56562	-3,0812	3,2398	8,1064
12259	3,1666	-3,0964	3,1119	8,276
12260	1,7286	-3,1738	3,239	8,1492
12261	3,5691	-2,9722	1,9652	8,4493
12262	-2,2866	-2,7496	4,6819	7,9391
12263	-5,3311	-2,9616	5,8371	8,0955
12264	-1,4149e-002	-2,9068	2,3752	8,2112
12265	-4,3987	-2,7852	5,29	8,0547
12266	2,2259	-3,2494	2,3619	8,2899
12267	-3,6424	-2,9009	4,6095	8,0819
12268	2,7809	-2,9431	0,93326	8,4424
12269	-3,0633	-2,8464	4,009	8,1334
12270	-1,7012	-2,6695	3,5249	8,1065
12271	1,0836	-3,2595	2,5033	8,2147
12272	-0,88712	-2,7753	2,4386	8,2163
12273	1,4889	-3,479	1,4785	8,3249
12274	0,13642	-2,8084	1,6394	8,2769
12275	1,7285	-3,1275	0,40575	8,3823
12276	-2,4729	-2,6816	2,7582	8,2555
12277	-0,54483	-2,8516	1,1322	8,3168
12278	0,61991	-2,8895	0,73427	8,3319
12279	1,0267	-2,8899	-0,2587	8,3557
12280	-0,19177	-2,8112	-0,14717	8,339
12281	0,43544	-2,7242	-1,1048	8,3057
12282	-0,8881	-2,7186	-0,76096	8,3409
12283	-0,43048	-2,7001	-1,9033	8,2473
12284	6,8844e-002	-2,8627	-2,4264	8,1876
12285	-0,47348	-2,8615	-3,3781	8,068
12286	-1,1016	-2,7325	-2,7246	8,1728
12287	-1,5179	-2,6371	-1,5955	8,3063
12288	-5,8115	-2,9166	5,3294	8,2873
12289	-5,1154	-2,8546	4,5035	8,3134
12290	-3,02	-2,7414	1,577	8,4257
12291	-4,4656	-2,9217	3,6812	8,3498
12292	-3,7457	-2,9991	2,8009	8,3814
12293	19,208	-3,0824	7,8768	12,338
12294	19,532	-3,1084	6,9466	13,105
12295	19,859	-3,1144	6,0022	13,991
12296	20,203	-3,1102	5,0617	14,995
12297	18,221	-3,0161	7,5037	12,162
12298	17,276	-3,0091	7,2332	11,894
12299	18,669	-3,09	6,6284	12,858
12300	17,642	-3,0148	6,3456	12,487
12301	19,015	-3,0955	5,6995	13,604
12302	18,127	-3,0939	5,4108	13,206
12303	19,34	-3,0921	4,7635	14,352
12304	16,517	-3,0944	6,8937	11,71
12305	18,337	-3,0242	4,5351	13,732
12306	15,449	-3,0299	6,6035	11,339
12307	16,873	-3,1007	6,0227	12,249
12308	14,639	-3,1141	6,3043	11,072
12309	19,549	-3,0237	3,8046	14,923
12310	13,518	-3,0242	5,999	10,657
12311	18,609	-3,0229	3,6193	14,229
12312	12,54	-3,027	5,7032	10,307
12313	17,208	-3,1051	5,1493	12,792
12314	11,555	-3,0324	5,3458	9,9916
12315	15,811	-3,029	5,7591	11,819
12316	18,794	-3,0253	2,7117	14,553
12317	16,135	-3,0163	4,9111	12,291
12318	17,403	-3,0228	4,2934	13,236
12319	14,99	-3,1182	5,4851	11,506
12320	16,437	-3,0119	4,0588	12,746
12321	13,885	-3,0299	5,2064	11,05
12322	17,662	-3,0091	3,4089	13,681
12323	12,891	-3,0214	4,8976	10,665
12324	15,292	-3,126	4,6734	11,92
12325	11,978	-3,047	4,5005	10,348
12326	15,488	-3,0379	3,8368	12,271
12327	17,932	-3,0379	2,5254	14,06
12328	14,298	-3,1302	4,4448	11,466
12329	16,719	-3,0134	3,1993	13,164
12330	13,243	-3,0429	4,1182	11,031
12331	18,986	-3,0278	1,8231	14,699
12332	12,454	-3,1763	3,8072	10,695
12333	15,764	-3,0331	3,0027	12,643
12334	16,963	-3,0246	2,3374	13,509
12335	14,577	-3,1449	3,6513	11,815
12336	18,091	-3,0275	1,6572	14,259
12337	14,835	-3,1694	2,8627	12,136
12338	13,573	-3,0413	3,318	11,357
12339	16,002	-3,0455	2,1712	12,956
12340	12,698	-3,1405	3,0288	10,969
12341	17,15	-3,0253	1,4885	13,753
12342	15,073	-3,2108	2,0878	12,414
12343	13,829	-3,0362	2,5368	11,63
12344	16,205	-3,0585	1,3383	13,198
12345	12,905	-3,1303	2,3197	11,195
12346	14,078	-3,2112	1,889	11,873
12347	15,292	-3,2756	1,3352	12,653
12348	12,836	-3,1309	1,4838	11,265
12349	14,316	-3,1157	0,91782	12,112
12350	13,279	-3,1132	0,84976	11,533
12351	13,375	-3,0815	0,24095	11,61
12352	13,86	-2,822	-0,21245	11,875
12353	14,416	-3,3394	0,35373	12,197
12354	14,492	-2,9259	-0,30825	12,237
12355	15,388	-3,423	0,52728	12,773
12356	15,408	-3,3342	-0,14388	12,801
12357	16,34	-3,2076	0,63988	13,345
12358	16,44	-3,2959	-0,13531	13,433
12359	17,23	-3,0326	0,79507	13,865
12360	17,534	-3,1472	-4,6806e-002	14,068
12361	18,235	-3,0413	0,80802	14,386
12362	18,288	-3,1904	-6,4037e-002	14,403
12363	10,725	-3,1168	5,0604	9,7105
12364	9,5364	-3,0264	4,5396	9,4042
12365	11,025	-3,0885	4,3375	10,002
12366	9,9165	-2,8867	3,9946	9,6469
12367	11,193	-3,235	3,5896	10,193
12368	18,216	-3,1826	-0,929	14,369
12369	10,154	-3,054	3,2434	9,8544
12370	11,524	-3,1276	2,8248	10,44
12371	17,175	-3,0233	-0,81323	13,831
12372	10,526	-3,0223	2,4813	10,087
12373	11,834	-3,1264	2,0518	10,693
12374	16,32	-3,1841	-0,74539	13,331
12375	10,765	-3,0786	1,6602	10,272
12376	11,859	-3,2739	1,4387	10,781
12377	15,414	-3,2835	-0,74668	12,775
12378	11,129	-3,1207	1,0994	10,472
12379	12,159	-3,3455	0,84766	10,954
12380	14,299	-2,9245	-0,79136	12,11
12381	11,569	-3,023	0,36976	10,705
12382	13,449	-2,908	-0,68602	11,632
12383	11,878	-2,9901	-8,7352e-002	10,848
12384	12,564	-3,2021	-0,2324	11,193
12385	18,074	-3,1544	-1,7923	14,243
12386	17,136	-3,0087	-1,5622	13,737
12387	8,6122	-3,0862	4,1033	9,1957
12388	16,181	-3,0431	-1,4414	13,179
12389	8,8476	-3,0249	3,5036	9,3567
12390	15,274	-3,1182	-1,3727	12,653
12391	9,2785	-3,0484	2,7777	9,6016
12392	14,017	-3,1056	-1,4348	11,894
12393	9,5874	-3,0676	1,965	9,8007
12394	13,169	-3,0547	-1,3432	11,44
12395	9,7857	-3,0394	1,1777	9,9343
12396	12,257	-3,1887	-1,116	10,999
12397	10,343	-3,0344	0,27639	10,189
12398	11,401	-2,9734	-0,78626	10,614
12399	10,705	-2,693	-0,38754	10,322
12400	7,601	-3,0297	3,7185	8,9712
12401	6,9492	-3,002	2,8453	8,9377
12402	7,9612	-3,0189	2,887	9,1858
12403	5,7781	-2,9423	2,5881	8,7158
12404	7,1366	-3,1162	2,2809	9,0409
12405	8,2537	-2,9655	2,1706	9,3528
12406	6,1274	-2,9486	1,687	8,8728
12407	7,5836	-3,0567	1,4679	9,2305
12408	8,5543	-3,0042	1,3514	9,5119
12409	4,811	-3,0245	2,125	8,5987
12410	6,4935	-2,8713	0,77227	8,997
12411	7,9387	-3,136	0,83767	9,3589
12412	5,2829	-2,9945	0,99662	8,7566
12413	9,1033	-3,0095	0,54648	9,7223
12414	6,9656	-2,9802	8,4608e-002	9,1139
12415	8,1844	-3,4222	-9,8911e-002	9,4556
12416	9,887	-2,892	2,9235e-003	10,008
12417	5,8381	-2,8984	-3,7289e-002	8,8816
12418	10,36	-2,5678	-0,83131	10,179
12419	3,8623	-3,0197	1,157	8,5415
12420	7,6049	-3,2702	-0,89798	9,2695
12421	8,8169	-3,0022	-1,0621	9,6181
12422	6,2406	-2,9293	-0,8574	8,9404
12423	9,3849	-3,0001	-1,834	9,7534
12424	3,2697	-2,8729	0,31144	8,4993
12425	4,5519	-2,998	0,17278	8,6614
12426	7,8907	-2,9779	-1,9428	9,2848
12427	6,9855	-3,1316	-1,6028	9,0667
12428	5,0617	-2,8738	-0,87808	8,7205
12429	2,1765	-2,9216	-0,52587	8,399
12430	3,7792	-2,8822	-0,63503	8,5513
12431	8,7148	-3,0145	-2,5385	9,4672
12432	5,5178	-2,935	-1,6505	8,7498
12433	2,6873	-2,9281	-1,4196	8,4025
12434	7,2895	-3,1105	-2,5495	9,0518
12435	4,2561	-2,9329	-1,6642	8,551
12436	6,1357	-2,8902	-2,4567	8,798
12437	4,7911	-2,9631	-2,4276	8,5567
12438	2,1462	-2,7449	-2,2953	8,2701
12439	3,648	-2,9496	-2,7232	8,3689
12440	8,0352	-3,0638	-3,2202	9,166
12441	6,776	-2,8639	-3,2935	8,8293
12442	5,4305	-2,8734	-3,4154	8,538
12443	2,9451	-2,9783	-3,5503	8,1727
12444	7,4189	-2,9895	-4,1059	8,8706
12445	4,1605	-2,7214	-3,5232	8,3247
12446	6,103	-2,5579	-4,2718	8,53
12447	4,8971	-2,8972	-4,2408	8,3096
12448	3,5168	-2,6603	-4,4051	8,1011
12449	6,7671	-2,9821	-4,7659	8,5981
12450	5,6776	-2,8051	-4,9947	8,3223
12451	4,154	-2,833	-5,2151	8,0202
12452	6,099	-3,4403	-5,7402	8,2653
12453	5,0499	-2,7306	-5,9929	8,0092
12454	5,5954	-3,1541	-6,5601	8,0037
12455	6,1533	-2,9274	-7,2206	7,99
12456	7,0279	-2,973	-6,6471	8,2993
12457	7,5061	-2,8773	-5,8591	8,5722
12458	8,2363	-3,1049	-4,9689	8,9417
12459	8,785	-3,1244	-4,191	9,2576
12460	9,4126	-3,0833	-3,3381	9,5885
12461	10,93	-2,9537	-1,5605	10,367
12462	-6,2919	-2,9682	4,5439	8,5232
12463	10,19	-2,9221	-2,5548	9,9726
12464	-6,8638	-2,799	3,6986	8,7875
12465	9,9402	-3,214	-4,019	9,661
12466	10,464	-3,2156	-3,7935	9,8971
12467	11,855	-3,0026	-1,9489	10,739
12468	9,3531	-3,1176	-4,9258	9,3013
12469	11,515	-2,9774	-2,7858	10,481
12470	10,863	-3,1019	-4,1216	9,9906
12471	11,351	-3,3169	-3,5255	10,303
12472	-5,7021	-2,9047	3,6186	8,5663
12473	10,551	-3,1159	-4,5929	9,7852
12474	11,358	-3,2514	-4,1504	10,198
12475	12,847	-3,0312	-2,0988	11,197
12476	9,947	-3,0505	-5,3087	9,4165
12477	12,553	-3,1055	-2,8806	10,957
12478	11,053	-3,1222	-4,9531	9,904
12479	12,299	-3,3389	-3,741	10,686
12480	-7,5544	-2,7928	2,9318	9,0754
12481	12,208	-3,2705	-4,3198	10,524
12482	-6,1018	-2,731	2,9506	8,7344
12483	11,731	-3,0347	-5,1875	10,133
12484	-5,0783	-2,844	2,6014	8,591
12485	10,681	-2,8802	-5,753	9,5934
12486	-7,0663	-2,938	2,0084	9,0554
12487	13,796	-3,1295	-2,13	11,68
12488	-5,7505	-2,8709	1,9034	8,7813
12489	13,602	-3,2066	-2,8284	11,489
12490	-4,413	-3,0085	1,8396	8,565
12491	13,465	-3,1804	-3,6283	11,281
12492	11,288	-3,1131	-6,0344	9,7737
12493	13,19	-3,1474	-4,4715	10,945
12494	-6,4496	-2,9761	1,225	8,9719
12495	12,807	-3,0881	-5,2723	10,592
12496	-5,1377	-3,0812	0,73014	8,7422
12497	12,557	-3,1693	-6,0696	10,293
12498	-3,906	-2,9397	0,79848	8,5649
12499	12,062	-3,1564	-6,9193	9,8801
12500	8,8263	-3,0806	-5,5045	9,0006
12501	-5,7744	-3,1848	-8,7607e-002	8,8719
12502	-3,3613	-2,6725	-0,25038	8,5113
12503	-4,6866	-2,9415	-0,19051	8,6798
12504	8,1912	-2,9597	-6,3362	8,668
12505	9,395	-3,0859	-6,2117	9,0565
12506	-5,3333	-3,1334	-0,88812	8,7683
12507	-4,1936	-2,6677	-0,88218	8,5932
12508	-2,8266	-2,8143	-1,2436	8,4231
12509	8,8182	-2,9858	-6,9652	8,7353
12510	0,86314	-2,8244	-2,4038	8,2058
12511	-4,9611	-3,1341	-1,8783	8,6386
12512	10,061	-3,0002	-6,6319	9,2042
12513	1,4746	-2,8829	-3,5765	8,0714
12514	-3,6008	-2,9188	-2,1607	8,4265
12515	9,5769	-2,9891	-7,4884	8,8688
12516	12,213	-3,0474	-7,4983	9,7835
12517	10,96	-3,119	-6,8731	9,4804
12518	2,1799	-3,0699	-4,3406	7,9809
12519	-4,6512	-3,4448	-2,8675	8,4781
12520	10,159	-3,116	-7,8594	8,9785
12521	15,104	-3,0255	-2,112	12,45
12522	2,8528	-2,7571	-5,2801	7,8579
12523	11,768	-3,1306	-8,0112	9,5173
12524	14,853	-3,1402	-2,9074	12,149
12525	-2,5509	-2,6374	-2,4299	8,2906
12526	14,565	-3,1717	-3,8238	11,813
12527	3,6278	-2,8905	-5,9279	7,8156
12528	7,5762	-2,9861	-7,2844	8,3211
12529	14,081	-3,164	-4,6405	11,346
12530	-3,2823	-2,6955	-3,0957	8,2679
12531	13,825	-3,0361	-5,375	11,02
12532	8,2617	-2,9412	-7,8451	8,4057
12533	13,412	-3,1406	-6,1978	10,62
12534	4,7424	-2,4866	-6,705	7,8264
12535	13,146	-3,0154	-6,9204	10,306
12536	9,0346	-2,9866	-8,3141	8,5446
12537	12,822	-3,006	-7,7238	9,9679
12538	-4,2166	-3,1852	-3,9196	8,2665
12539	5,7888	-3,2274	-7,267	7,9132
12540	11,2	-3,0567	-8,7844	9,1525
12541	9,4672	-3,1461	-8,6299	8,6134
12542	-1,8717	-2,7474	-3,3732	8,1174
12543	6,5748	-2,9147	-8,0778	7,9393
12544	-8,955e-002	-2,8244	-3,7565	8,0003
12545	-2,6598	-2,7142	-4,1523	8,0484
12546	7,5763	-2,9775	-8,7302	8,0778
12547	12,424	-3,0099	-8,5041	9,6426
12548	-1,1005	-3,0477	-4,483	7,8961
12549	-3,6149	-2,963	-4,7975	8,0319
12550	8,4425	-2,8934	-9,3024	8,2286
12551	-2,1867	-3,0007	-5,1045	7,8386
12552	10,754	-3,0465	-9,5575	8,884
12553	0,85128	-2,882	-4,6814	7,8526
12554	11,953	-3,0101	-9,2974	9,3113
12555	-3,2676	-2,8753	-5,7043	7,8251
12556	1,4568	-2,8902	-5,5237	7,7134
12557	9,2803	-2,9931	-9,8231	8,3973
12558	-2,8206	-2,872	-6,4318	7,6276
12559	-1,9157	-2,9815	-5,8514	7,6653
12560	2,291	-2,7273	-6,2733	7,6151
12561	11,489	-3,0108	-10,128	9,0111
12562	10,093	-3,0599	-10,451	8,5494
12563	-1,0087	-3,0733	-5,5385	7,6936
12564	3,0565	-2,8582	-6,9764	7,5458
12565	15,981	-3,0002	-2,2505	12,938
12566	-0,72285	-3,0261	-6,5023	7,4931
12567	6,2158e-002	-3,5016	-5,5501	7,669
12568	16,939	-3,0085	-2,4244	13,487
12569	-1,3384	-3,0449	-6,7586	7,461
12570	0,97242	-3,0968	-6,4298	7,504
12571	17,864	-3,12	-2,6598	13,992
12572	-0,46452	-3,0812	-6,7998	7,4246
12573	4,2426	-2,8129	-7,8311	7,5396
12574	-0,89417	-3,0358	-7,3227	7,3279
12575	0,6388	-2,9587	-7,4131	7,3035
12576	18,93	-3,	-2,7946	14,627
12577	1,7762	-2,9502	-7,2667	7,384
12578	4,5047	-2,8412	-8,8236	7,4184
12579	-0,30462	-3,0451	-8,0899	7,1759
12580	5,0295	-3,211	-8,4374	7,5674
12581	2,471	-2,9451	-8,0687	7,2858
12582	-2,3018	-3,0122	-7,1741	7,4375
12583	5,0578	-3,0578	-9,261	7,4562
12584	6,2627	-2,9466	-9,1043	7,714
12585	-1,9188	-3,2175	-8,0481	7,2465
12586	1,2186	-2,9167	-8,3482	7,1635
12587	7,0927	-3,0101	-9,6127	7,8408
12588	-1,1053	-3,0219	-8,6762	7,097
12589	0,43045	-3,0314	-8,9012	7,0404
12590	3,2176	-2,9634	-8,7952	7,245
12591	5,8379	-2,9688	-9,9262	7,5296
12592	7,9757	-2,9662	-10,253	7,9944
12593	-0,54315	-3,1021	-9,4222	6,9791
12594	6,6846	-2,969	-10,509	7,6614
12595	3,8906	-2,9688	-9,503	7,2384
12596	10,941	-3,0611	-10,972	8,7394
12597	8,8146	-3,0525	-10,728	8,1697
12598	7,5339	-2,9857	-11,06	7,8239
12599	4,6509	-2,9701	-10,159	7,2888
12600	-0,20979	-3,0466	-9,9615	6,9137
12601	9,6573	-3,0593	-11,273	8,3544
12602	5,4333	-2,9847	-10,754	7,387
12603	0,48949	-3,1119	-9,8017	6,9437
12604	6,268	-2,9879	-11,322	7,53
12605	1,9057	-2,9371	-9,0773	7,0875
12606	8,3793	-3,0604	-11,565	8,0079
12607	7,1032	-2,993	-11,877	7,7014
12608	2,7145	-3,065	-9,6527	7,0821
12609	0,52818	-3,1768	-10,407	6,8875
12610	1,5569	-3,1098	-10,214	6,9397
12611	15,733	-3,0198	-3,1043	12,629
12612	3,4459	-3,0053	-10,31	7,101
12613	0,13639	-3,1081	-10,694	6,8605
12614	16,676	-3,009	-3,2897	13,137
12615	1,3753	-3,0813	-10,974	6,874
12616	4,2294	-3,0024	-10,951	7,1728
12617	17,591	-3,0983	-3,5394	13,622
12618	9,2192	-3,0623	-12,107	8,199
12619	5,0459	-3,0131	-11,553	7,2921
12620	18,556	-3,0464	-3,7157	14,184
12621	1,0253	-3,0936	-11,536	6,8494
12622	5,8593	-3,0094	-12,131	7,4463
12623	7,9577	-3,0713	-12,399	7,8962
12624	19,48	-3,0018	-3,9575	14,833
12625	2,3309	-3,0081	-10,539	6,9667
12626	6,6794	-3,0069	-12,695	7,6285
12627	10,544	-3,0092	-11,812	8,5512
12628	8,7883	-3,0684	-12,942	8,0954
12629	1,9748	-2,9947	-11,349	6,9081
12630	20,363	-2,989	-4,2742	15,719
12631	7,5099	-3,0115	-13,245	7,83
12632	15,426	-3,0302	-3,9472	12,249
12633	1,5703	-2,994	-12,076	6,8902
12634	16,375	-3,0208	-4,1604	12,713
12635	3,0717	-3,0052	-11,115	7,0143
12636	10,085	-3,0115	-12,644	8,3979
12637	17,334	-3,0066	-4,3774	13,195
12638	8,3405	-3,0082	-13,785	8,039
12639	3,8432	-3,0084	-11,735	7,1051
12640	18,289	-2,9855	-4,6095	13,694
12641	15,114	-3,0347	-4,7848	11,828
12642	4,7001	-3,1165	-12,368	7,2509
12643	15,986	-3,1158	-5,0692	12,204
12644	19,193	-2,9716	-4,8807	14,209
12645	16,917	-3,0846	-5,3174	12,61
12646	5,5013	-3,1038	-12,949	7,421
12647	20,044	-2,9805	-5,2018	14,76
12648	17,947	-2,9843	-5,5295	13,084
12649	14,78	-3,0261	-5,6098	11,412
12650	2,6881	-3,0034	-11,915	6,9724
12651	15,721	-3,0159	-5,8734	11,787
12652	18,846	-2,9729	-5,8298	13,465
12653	16,661	-2,9991	-6,1456	12,145
12654	6,3049	-3,0939	-13,515	7,6156
12655	17,576	-2,9842	-6,4431	12,463
12656	19,705	-2,9858	-6,1679	13,808
12657	2,2792	-3,0023	-12,69	6,9761
12658	18,483	-2,9697	-6,7636	12,747
12659	3,4466	-3,0155	-12,529	7,0835
12660	20,532	-2,9912	-6,5477	14,072
12661	19,163	-3,1063	-7,3274	12,737
12662	3,0385	-3,0114	-13,314	7,11
12663	4,2339	-3,0246	-13,144	7,2378
12664	19,98	-3,12	-7,9378	12,641
12665	21,341	-2,6542	-6,7877	14,395
12666	5,0281	-3,0159	-13,733	7,4234
12667	14,44	-3,0155	-6,4204	11,009
12668	20,787	-2,9687	-8,0604	12,836
12669	15,247	-3,1031	-6,78	11,254
12670	22,154	-3,079	-7,2402	14,373
12671	16,154	-3,0707	-7,1076	11,529
12672	5,8353	-3,0176	-14,318	7,6344
12673	17,191	-2,9844	-7,3527	11,864
12674	21,71	-3,1956	-7,9386	13,285
12675	18,004	-2,9381	-7,7125	12,023
12676	3,8179	-3,0206	-13,932	7,2837
12677	22,485	-3,279	-8,2367	13,176
12678	19,062	-2,8824	-8,1312	12,173
12679	9,624	-3,0661	-13,473	8,2946
12680	23,031	-3,1399	-7,481	14,456
12681	19,967	-2,8276	-8,4958	12,223
12682	4,6038	-3,0148	-14,531	7,4862
12683	23,233	-3,2081	-7,9486	13,769
12684	21,222	-2,762	-8,6561	12,42
12685	14,074	-3,0049	-7,2331	10,605
12686	22,681	-3,1569	-8,5723	12,807
12687	14,959	-3,0137	-7,5839	10,86
12688	7,1154	-3,0853	-14,075	7,8265
12689	15,746	-3,061	-7,9892	11,03
12690	22,062	-2,7128	-9,0183	12,241
12691	16,752	-3,009	-8,2755	11,301
12692	5,4033	-3,0129	-15,12	7,7106
12693	17,684	-2,946	-8,7268	11,412
12694	13,643	-3,0286	-8,0704	10,196
12695	18,507	-2,9151	-8,9971	11,508
12696	14,556	-3,011	-8,4422	10,433
12697	19,562	-2,9286	-9,5001	11,458
12698	15,321	-3,0471	-8,8877	10,562
12699	6,6456	-3,0085	-14,88	7,8566
12700	16,267	-3,1021	-9,189	10,764
12701	20,551	-2,9449	-9,8449	11,369
12702	17,136	-2,9834	-9,6792	10,821
12703	7,9379	-3,0776	-14,618	8,0432
12704	18,213	-2,9241	-10,061	10,891
12705	21,53	-2,9328	-10,205	11,15
12706	19,173	-2,9319	-10,384	10,878
12707	9,1837	-3,0096	-14,31	8,2467
12708	6,2149	-3,0127	-15,696	7,9457
12709	18,791	-2,9528	-11,347	10,348
12710	20,111	-3,001	-10,637	10,815
12711	7,4669	-3,002	-15,432	8,0826
12712	13,252	-3,0107	-8,9059	9,8387
12713	19,743	-2,9591	-11,548	10,281
12714	14,132	-3,0202	-9,3052	10,038
12715	21,083	-3,0115	-11,009	10,578
12716	15,035	-3,0049	-9,7163	10,211
12717	8,7691	-3,0704	-15,15	8,2549
12718	16,066	-3,0032	-10,091	10,382
12719	20,662	-3,036	-11,886	10,049
12720	17,098	-2,9306	-10,625	10,427
12721	7,0315	-3,0035	-16,255	8,1786
12722	17,814	-2,8525	-11,139	10,344
12723	12,793	-3,017	-9,7558	9,4935
12724	18,551	-2,8856	-11,852	10,107
12725	13,685	-3,0154	-10,185	9,6785
12726	19,329	-2,9727	-12,36	9,8834
12727	14,588	-3,0097	-10,621	9,8339
12728	8,3106	-3,0105	-15,973	8,3026
12729	15,456	-2,9925	-11,091	9,9249
12730	20,215	-2,9861	-12,782	9,6053
12731	16,33	-2,9727	-11,596	9,9496
12732	12,345	-3,0155	-10,602	9,1958
12733	17,095	-2,986	-12,082	9,9005
12734	13,117	-3,0447	-11,096	9,3316
12735	17,943	-3,0169	-12,655	9,763
12736	14,098	-3,0146	-11,521	9,5045
12737	18,862	-3,0394	-13,149	9,5598
12738	14,962	-3,008	-11,994	9,5923
12739	7,8685	-3,0085	-16,8	8,4016
12740	15,753	-3,0047	-12,497	9,6088
12741	19,753	-3,0415	-13,59	9,2825
12742	16,627	-3,0076	-12,998	9,5765
12743	11,799	-3,0562	-11,474	8,9181
12744	17,513	-3,0236	-13,493	9,4687
12745	11,411	-3,0098	-12,304	8,7373
12746	18,412	-2,997	-13,994	9,2708
12747	10,948	-3,0102	-13,146	8,5858
12748	12,743	-3,0213	-11,93	9,1053
12749	10,481	-3,0619	-13,981	8,4861
12750	12,269	-3,0194	-12,79	8,8999
12751	10,036	-3,0138	-14,824	8,4415
12752	11,779	-3,0548	-13,642	8,7461
12753	9,625	-3,0632	-15,665	8,4524
12754	11,333	-3,0569	-14,482	8,6536
12755	9,1612	-3,0173	-16,501	8,503
12756	10,894	-3,0148	-15,331	8,6118
12757	8,7643	-3,068	-17,354	8,6108
12758	10,479	-3,057	-16,17	8,6214
12759	19,29	-2,9984	-14,465	8,99
12760	10,054	-3,0564	-17,024	8,677
12761	13,548	-3,0364	-12,426	9,2212
12762	9,6064	-3,0594	-17,872	8,7743
12763	14,426	-3,0271	-12,899	9,3153
12764	13,094	-3,0436	-13,286	9,0239
12765	15,303	-3,0216	-13,386	9,3525
12766	12,646	-3,0485	-14,132	8,8815
12767	13,973	-3,0364	-13,761	9,1182
12768	16,181	-3,0217	-13,866	9,3261
12769	13,522	-3,0423	-14,612	8,9749
12770	14,848	-3,0315	-14,244	9,1569
12771	17,063	-3,0272	-14,348	9,2252
12772	14,395	-3,0368	-15,095	9,0139
12773	15,742	-3,0032	-14,74	9,1299
12774	17,945	-3,0302	-14,814	9,0465
12775	15,268	-3,0328	-15,581	8,9898
12776	12,206	-3,0111	-14,983	8,7901
12777	16,614	-3,0008	-15,223	9,0303
12778	11,752	-3,0071	-15,833	8,7463
12779	17,485	-3,0274	-15,672	8,8606
12780	11,302	-3,0087	-16,683	8,751
12781	18,827	-2,9997	-15,313	8,7672
12782	10,852	-3,0039	-17,531	8,8014
12783	16,147	-3,0044	-16,079	8,8919
12784	10,406	-3,01	-18,376	8,8947
12785	17,024	-3,0267	-16,532	8,7238
12786	13,071	-3,0046	-15,477	8,8809
12787	18,363	-3,0264	-16,146	8,5992
12788	12,612	-3,0015	-16,33	8,8359
12789	13,94	-3,0107	-15,963	8,9185
12790	12,16	-3,0017	-17,183	8,838
12791	14,812	-3,0343	-16,428	8,8961
12792	11,72	-3,0091	-18,038	8,8845
12793	15,686	-3,031	-16,916	8,8019
12794	11,265	-3,01	-18,885	8,9719
12795	16,558	-3,0277	-17,395	8,6327
12796	13,483	-3,0095	-16,82	8,872
12797	17,902	-3,0242	-17,009	8,4681
12798	13,031	-3,005	-17,677	8,8703
12799	14,366	-3,035	-17,291	8,8462
12800	12,584	-3,0096	-18,536	8,911
12801	15,222	-3,0082	-17,792	8,7507
12802	12,175	-3,0402	-19,398	8,9894
12803	16,1	-3,03	-18,256	8,5828
12804	13,922	-3,0352	-18,156	8,839
12805	17,437	-3,0249	-17,872	8,3817
12806	14,789	-3,0334	-18,644	8,7398
12807	13,489	-3,0354	-19,031	8,8712
12808	15,653	-3,0326	-19,12	8,5696
12809	13,035	-3,038	-19,894	8,9429
12810	14,317	-3,012	-19,516	8,7705
12811	16,977	-3,0277	-18,737	8,3346
12812	15,181	-3,0108	-20,002	8,5967
12813	13,858	-3,0126	-20,378	8,837
12814	16,522	-3,0312	-19,603	8,3229
12815	14,718	-3,01	-20,865	8,6586
12816	16,042	-3,0067	-20,484	8,3511
12817	15,604	-3,0367	-21,34	8,403
12818	15,138	-3,0363	-22,207	8,4912
12819	14,669	-3,0337	-23,06	8,6094
12820	14,203	-3,0303	-23,918	8,7526
12821	13,719	-3,0087	-24,791	8,9281
12822	13,279	-3,0297	-25,648	9,1114
12823	12,792	-3,0071	-26,516	9,3372
12824	12,335	-3,0105	-27,376	9,5744
12825	11,905	-3,0331	-28,233	9,8206
12826	11,418	-3,0154	-29,096	10,118
12827	10,947	-3,0097	-29,962	10,431
12828	10,491	-3,0089	-30,821	10,76
12829	10,024	-3,001	-31,675	11,12
12830	9,5657	-3,0019	-32,538	11,498
12831	9,098	-2,9982	-33,389	11,908
12832	8,631	-3,0094	-34,245	12,342
12833	14,248	-3,0082	-21,724	8,7541
12834	8,1252	-2,9856	-35,094	12,839
12835	13,785	-3,0115	-22,578	8,8783
12836	7,648	-2,9627	-35,97	13,349
12837	13,336	-3,0325	-23,425	9,0263
12838	7,2083	-2,9964	-36,838	13,846
12839	5,8434	-3,1709	-37,295	15,656
12840	12,854	-3,0091	-24,294	9,2125
12841	6,7613	-3,0051	-37,724	14,403
12842	5,4035	-3,1616	-37,197	16,344
12843	5,5793	-3,158	-38,322	16,268
12844	6,3172	-3,0227	-38,612	15,01
12845	12,417	-3,0323	-25,15	9,4103
12846	4,9307	-3,1997	-37,868	17,255
12847	5,8774	-2,9935	-39,495	15,733
12848	5,1627	-3,1124	-39,113	17,163
12849	11,934	-3,0101	-26,014	9,65
12850	5,2906	-2,9055	-40,413	16,9
12851	4,3866	-3,1408	-38,68	18,672
12852	4,7558	-2,8779	-39,991	18,274
12853	3,7988	-2,9513	-39,359	20,412
12854	11,042	-3,036	-27,723	10,178
12855	10,592	-3,0387	-28,585	10,483
12856	10,14	-3,0412	-29,452	10,815
12857	9,6928	-3,0431	-30,321	11,172
12858	9,1837	-3,0026	-31,163	11,592
12859	8,7137	-2,9935	-32,004	12,022
12860	3,1352	-3,0131	-38,953	21,625
12861	8,2522	-2,9944	-32,859	12,483
12862	3,7715	-3,0334	-38,195	19,624
12863	7,7765	-3,0137	-33,703	12,989
12864	4,3884	-3,0325	-37,431	17,98
12865	7,2379	-2,9836	-34,528	13,6
12866	5,0484	-3,1223	-36,79	16,66
12867	6,7806	-2,9769	-35,384	14,187
12868	6,1556	-3,0987	-36,342	15,076
12869	2,4236	-3,0011	-38,382	22,358
12870	3,0758	-3,0122	-37,618	20,312
12871	3,7181	-3,0113	-36,873	18,612
12872	4,393	-3,0293	-36,189	17,256
12873	5,1791	-3,0015	-35,489	15,971
12874	5,9044	-3,0043	-34,754	14,91
12875	6,3821	-3,0144	-33,925	14,213
12876	6,9372	-3,0331	-33,138	13,539
12877	7,4211	-2,9963	-32,318	12,97
12878	7,8863	-2,9984	-31,471	12,459
12879	8,3445	-3,	-30,624	11,994
12880	8,8041	-3,0078	-29,782	11,567
12881	9,2551	-3,0072	-28,923	11,174
12882	9,7052	-3,008	-28,069	10,814
12883	10,192	-3,0418	-27,213	10,469
12884	10,651	-3,0389	-26,354	10,165
12885	11,105	-3,0374	-25,498	9,8909
12886	11,563	-3,0361	-24,638	9,6429
12887	11,99	-3,0085	-23,792	9,4323
12888	12,475	-3,0363	-22,927	9,2327
12889	13,387	-3,0105	-21,234	8,9396
12890	12,914	-3,0077	-22,086	9,0752
12891	-8,0956	-2,8288	1,9646	9,3297
12892	-7,4601	-2,7809	1,1558	9,2161
12893	-7,1566	-3,0674	0,36064	9,176
12894	-6,7457	-3,0325	-0,79651	9,0513
12895	-6,1159	-2,9966	-1,5932	8,8788
12896	-5,8691	-3,099	-2,4064	8,7512
12897	-5,482	-3,2349	-3,5847	8,5196
12898	-5,0547	-3,0802	-4,4619	8,3022
12899	-4,6439	-3,1987	-5,3102	8,0663
12900	-4,2714	-3,046	-6,1523	7,8572
12901	-3,6946	-3,0679	-7,1326	7,5893
12902	-3,0713	-2,9808	-7,9407	7,3678
12903	-2,4828	-3,1383	-8,5194	7,209
12904	-1,8721	-3,0319	-9,2395	7,0591
12905	-1,3085	-3,1114	-10,032	6,9366
12906	-0,93321	-3,0471	-10,772	6,868
12907	-0,50521	-3,1605	-11,242	6,8408
12908	0,53836	-3,1254	-12,177	6,8582
12909	1,1241	-3,0261	-12,784	6,9117
12910	1,8559	-3,0055	-13,456	7,0284
12911	2,6149	-3,0109	-14,098	7,1857
12912	3,3806	-3,0058	-14,719	7,3771
12913	4,1647	-3,0033	-15,325	7,5965
12914	4,9602	-2,9995	-15,917	7,8332
12915	5,7724	-3,0021	-16,498	8,0778
12916	6,5893	-2,9997	-17,064	8,3173
12917	7,4221	-3,0092	-17,622	8,5439
12918	8,2957	-3,0735	-18,177	8,7491
12919	12,555	-3,0411	-20,741	9,0537
12920	9,1382	-3,0643	-18,701	8,9104
12921	11,694	-3,0444	-20,243	9,1073
12922	9,9884	-3,056	-19,217	9,0289
12923	10,844	-3,0492	-19,731	9,0964
12924	12,063	-3,0166	-21,583	9,2004
12925	11,612	-3,0406	-22,421	9,3724
12926	11,206	-3,0188	-21,078	9,2616
12927	11,127	-3,0062	-23,287	9,5856
12928	10,761	-3,0455	-21,914	9,4449
12929	10,667	-3,0032	-24,141	9,8233
12930	10,275	-3,0114	-22,773	9,6701
12931	10,347	-3,0153	-20,567	9,2598
12932	9,8154	-3,0071	-23,624	9,9224
12933	9,4868	-3,0098	-20,051	9,1992
12934	9,9106	-3,0515	-21,4	9,4542
12935	8,6426	-3,0094	-19,524	9,0848
12936	9,4551	-3,0521	-22,248	9,6859
12937	7,807	-3,0163	-18,988	8,9251
12938	9,0072	-3,0549	-23,095	9,9491
12939	9,0304	-3,0048	-20,884	9,4063
12940	6,9721	-3,0023	-18,435	8,7259
12941	8,1879	-3,0043	-20,352	9,2995
12942	8,5791	-3,0101	-21,723	9,649
12943	7,3574	-3,0071	-19,807	9,1442
12944	8,1309	-3,0059	-22,56	9,9237
12945	6,1481	-2,999	-17,873	8,4994
12946	7,7416	-3,0032	-21,181	9,5495
12947	6,5324	-3,0073	-19,252	8,9492
12948	6,9083	-3,0062	-20,635	9,4017
12949	7,2967	-3,003	-22,014	9,8334
12950	5,3319	-2,9986	-17,3	8,2548
12951	5,7161	-3,0096	-18,685	8,7233
12952	6,0902	-3,0069	-20,073	9,2099
12953	6,4756	-3,0031	-21,455	9,6896
12954	4,521	-3,0007	-16,717	8,0034
12955	4,9016	-3,0055	-18,105	8,4757
12956	5,2813	-3,0077	-19,495	8,9834
12957	5,6588	-2,9996	-20,885	9,5012
12958	4,0913	-3,0154	-17,523	8,2203
12959	3,7259	-3,0091	-16,125	7,757
12960	4,4789	-3,0185	-18,909	8,7333
12961	4,851	-3,0007	-20,307	9,2775
12962	3,2644	-3,0073	-16,931	7,9632
12963	3,7316	-3,1106	-18,344	8,4855
12964	4,0842	-3,1829	-19,768	9,0499
12965	2,8386	-3,1627	-17,915	8,2829
12966	3,2008	-3,4773	-19,154	8,7759
12967	2,9244	-3,0024	-15,506	7,5197
12968	2,449	-3,0582	-18,621	8,5345
12969	2,1799	-3,0115	-14,885	7,3108
12970	2,1928	-3,0161	-16,092	7,6302
12971	1,9073	-3,1757	-18,306	8,3842
12972	1,4306	-3,0059	-14,228	7,1303
12973	1,6647	-3,0518	-15,697	7,4882
12974	1,5196	-3,4632	-17,381	8,0279
12975	-8,858	-2,9712	1,1511	9,6211
12976	0,72404	-3,0351	-13,519	6,9844
12977	1,0664	-3,1294	-15,035	7,2911
12978	0,97142	-3,2268	-16,488	7,703
12979	-8,3831	-3,01	0,23543	9,5058
12980	0,31969	-3,184	-14,272	7,1079
12981	0,55927	-3,1284	-15,808	7,4853
12982	0,16506	-3,1677	-12,786	6,8916
12983	-7,7877	-2,9854	-0,55738	9,3222
12984	-0,22505	-3,2189	-14,774	7,2193
12985	-0,28772	-3,246	-13,636	6,9818
12986	-7,4594	-2,9972	-1,4309	9,2048
12987	-0,56843	-3,2643	-14,243	7,1083
12988	-7,0108	-3,0132	-2,2427	9,0171
12989	-0,87046	-3,321	-13,922	7,0602
12990	-6,8786	-3,0163	-2,9666	8,9064
12991	-0,86173	-3,3507	-13,214	6,9499
12992	-6,5257	-3,0072	-4,1602	8,6438
12993	-1,146	-3,2715	-11,95	6,8684
12994	-6,132	-2,9974	-5,0906	8,3901
12995	-1,7094	-3,0477	-11,388	6,889
12996	-5,7898	-3,1221	-5,9135	8,1655
12997	-2,0521	-3,1243	-10,645	6,9367
12998	-5,2342	-2,998	-6,6973	7,9091
12999	-2,5952	-3,0503	-9,8419	7,0479
13000	-4,7432	-3,0381	-7,5816	7,66
13001	-2,9836	-3,3065	-9,2827	7,1526
13002	-4,0773	-3,1859	-8,5633	7,3912
13003	-3,9622	-3,1491	-9,3468	7,2693
13004	-3,5175	-3,2055	-9,6664	7,1662
13005	-3,3456	-3,0596	-10,457	7,0773
13006	-2,8257	-3,1398	-11,269	6,9844
13007	-2,492	-3,0201	-12,01	6,9567
13008	-2,1397	-3,0439	-12,816	6,976
13009	-1,7887	-3,0384	-13,602	7,046
13010	-1,4927	-3,0611	-14,379	7,1608
13011	-1,1226	-3,0477	-15,094	7,3083
13012	-0,67835	-3,0473	-15,779	7,4771
13013	-0,14916	-3,0066	-16,502	7,6939
13014	0,34411	-2,8421	-17,456	8,0272
13015	0,74168	-2,9524	-17,876	8,1973
13016	1,6877	-2,9194	-18,558	8,4936
13017	2,3592	-2,5881	-19,068	8,7036
13018	2,9443	-2,8637	-19,741	9,007
13019	3,628	-2,7737	-20,401	9,2985
13020	4,4283	-2,9959	-21,113	9,6004
13021	5,2376	-3,0174	-21,71	9,8275
13022	6,0439	-3,015	-22,285	10,012
13023	6,8587	-3,012	-22,849	10,149
13024	7,688	-3,0123	-23,4	10,23
13025	10,211	-3,0023	-24,991	10,089
13026	8,5669	-3,058	-23,937	10,241
13027	9,3635	-3,0076	-24,472	10,203
13028	9,7557	-3,0052	-25,844	10,384
13029	8,912	-3,0082	-25,319	10,514
13030	8,1228	-3,0614	-24,783	10,564
13031	7,2894	-3,0701	-24,24	10,56
13032	6,473	-3,0785	-23,684	10,489
13033	5,6637	-3,0874	-23,118	10,361
13034	4,8705	-3,0981	-22,54	10,183
13035	4,0066	-3,0127	-21,928	9,9544
13036	3,227	-2,9832	-21,299	9,6884
13037	2,4787	-3,0363	-20,701	9,4172
13038	1,7831	-2,9769	-20,045	9,1158
13039	1,1578	-2,9824	-19,571	8,9043
13040	0,42184	-3,0506	-18,832	8,5795
13041	-0,21645	-2,9582	-17,902	8,1975
13042	-0,83962	-3,0065	-17,214	7,9488
13043	-1,3303	-3,0311	-16,46	7,7042
13044	-1,7743	-3,04	-15,712	7,4981
13045	-2,1724	-3,0478	-14,954	7,3261
13046	-2,5472	-3,0359	-14,173	7,1933
13047	-2,9235	-3,0269	-13,391	7,1078
13048	-3,3194	-3,0263	-12,614	7,0742
13049	-3,7193	-3,0421	-11,84	7,09
13050	-4,1586	-3,0575	-11,068	7,1608
13051	-4,5665	-3,126	-10,443	7,2528
13052	-4,8579	-3,1665	-9,7936	7,3571
13053	-5,1646	-3,0906	-8,9966	7,5072
13054	-5,6456	-3,0297	-8,1906	7,7225
13055	-6,1796	-3,024	-7,309	7,9848
13056	-6,6788	-3,0455	-6,4691	8,2521
13057	-6,9535	-3,1226	-5,9274	8,429
13058	-7,2599	-3,0392	-4,8035	8,7005
13059	-7,7469	-2,9782	-3,9078	8,9865
13060	-7,8783	-3,0363	-2,9327	9,1662
13061	-9,6724	-2,923	0,3155	9,9276
13062	-8,0877	-2,8345	-2,0934	9,3165
13063	-9,1536	-2,9459	-0,38465	9,7431
13064	-8,4258	-2,7853	-1,1495	9,4886
13065	-10,196	-2,9196	-0,40054	10,126
13066	-10,03	-2,9756	-1,1705	10,033
13067	-9,5381	-3,024	-1,9216	9,7985
13068	-9,1891	-3,018	-2,7964	9,5814
13069	-8,9123	-2,9005	-3,6316	9,3697
13070	-8,6992	-3,0737	-4,517	9,1535
13071	-8,3361	-3,0142	-5,2772	8,9104
13072	-7,9807	-2,9987	-6,1196	8,6507
13073	-7,6483	-3,0418	-6,9861	8,3986
13074	-6,9422	-3,0288	-7,6943	8,084
13075	-6,6173	-3,0262	-8,6482	7,8592
13076	-6,122	-3,222	-9,3165	7,6485
13077	-5,6521	-3,1391	-10,191	7,4646
13078	9,3018	-3,0029	-26,694	10,708
13079	-5,3567	-3,1366	-10,989	7,3694
13080	8,8475	-2,999	-27,544	11,062
13081	8,4648	-3,0107	-26,166	10,855
13082	-4,8664	-3,1616	-11,754	7,2601
13083	8,0177	-3,0096	-27,011	11,226
13084	7,6821	-3,0662	-25,627	10,917
13085	-4,4342	-3,1404	-12,487	7,216
13086	7,2511	-3,0715	-26,469	11,299
13087	6,8588	-3,0737	-25,077	10,924
13088	-4,1138	-3,0284	-13,212	7,228
13089	6,4394	-3,0772	-25,908	11,312
13090	5,9922	-3,0199	-24,507	10,865
13091	-3,7072	-3,0321	-13,994	7,2801
13092	5,1794	-3,0185	-23,929	10,738
13093	5,6261	-3,0798	-25,343	11,259
13094	-3,329	-3,0159	-14,774	7,3836
13095	4,3736	-3,0181	-23,341	10,557
13096	4,7394	-3,0115	-24,752	11,144
13097	-2,9035	-3,0536	-15,564	7,5322
13098	3,5691	-3,0078	-22,733	10,329
13099	3,9359	-3,0121	-24,161	10,964
13100	-2,4997	-3,0298	-16,335	7,7221
13101	2,8051	-3,0328	-22,125	10,068
13102	3,1242	-3,0059	-23,547	10,732
13103	-2,0481	-3,0357	-17,108	7,9503
13104	2,0944	-3,0386	-21,454	9,7708
13105	2,3466	-3,0426	-22,89	10,451
13106	-1,5029	-3,1027	-17,88	8,2121
13107	1,8427	-3,1579	-21,981	10,027
13108	1,337	-3,1782	-20,791	9,4567
13109	-0,96398	-3,0633	-18,707	8,5318
13110	0,55388	-3,2606	-20,215	9,1796
13111	1,0375	-3,3343	-21,654	9,8554
13112	-0,11639	-3,0538	-19,696	8,9517
13113	0,3716	-3,2719	-21,287	9,6972
13114	-0,13646	-3,0258	-20,719	9,4232
13115	-0,10929	-3,1379	-21,183	9,6439
13116	8,877e-002	-3,2673	-21,597	9,8356
13117	0,66055	-3,1038	-22,341	10,194
13118	1,2319	-3,1651	-23,105	10,577
13119	1,8722	-3,0422	-23,707	10,865
13120	2,6719	-3,0114	-24,368	11,163
13121	3,4972	-3,0208	-24,983	11,396
13122	4,3007	-3,014	-25,574	11,577
13123	8,4058	-3,0003	-28,389	11,443
13124	5,1212	-3,0187	-26,157	11,696
13125	7,5796	-3,0082	-27,847	11,624
13126	5,9323	-3,0135	-26,73	11,751
13127	6,8225	-3,0776	-27,308	11,712
13128	7,9639	-3,0019	-29,232	11,856
13129	7,5188	-3,0036	-30,074	12,307
13130	7,1416	-3,0087	-28,683	12,057
13131	7,0712	-3,0101	-30,916	12,8
13132	6,7045	-3,0117	-29,516	12,527
13133	6,4041	-3,0875	-28,138	12,151
13134	6,26	-3,0168	-30,355	13,043
13135	5,8944	-3,0197	-28,951	12,654
13136	5,5019	-3,0132	-27,553	12,205
13137	5,4613	-3,0215	-29,77	13,174
13138	4,6937	-3,0212	-26,979	12,156
13139	5,0869	-3,0201	-28,375	12,688
13140	3,8534	-3,0087	-26,41	12,046
13141	4,2916	-3,0037	-27,794	12,636
13142	4,6569	-3,0265	-29,198	13,216
13143	3,4893	-2,6626	-27,169	12,492
13144	3,8958	-3,0454	-28,61	13,146
13145	3,3035	-2,9146	-28,026	12,984
13146	3,0197	-3,0312	-25,818	11,868
13147	2,671	-3,205	-27,616	12,866
13148	2,14	-3,0465	-25,224	11,636
13149	2,3512	-3,1931	-26,842	12,483
13150	1,665	-3,345	-26,047	12,119
13151	1,4045	-3,1251	-26,842	12,567
13152	1,8929	-3,1705	-27,277	12,779
13153	2,4102	-3,204	-28,076	13,183
13154	2,842	-3,1108	-28,749	13,458
13155	6,6049	-3,0085	-31,74	13,343
13156	3,4098	-3,0861	-29,39	13,699
13157	5,8071	-3,0225	-31,159	13,598
13158	4,2578	-3,0351	-30,008	13,771
13159	5,0293	-3,0406	-30,575	13,732
13160	6,1133	-3,0609	-32,546	13,956
13161	5,3144	-3,0925	-31,94	14,216
13162	4,556	-3,1242	-31,33	14,342
13163	3,8226	-3,1547	-30,715	14,319
13164	3,2129	-3,1637	-30,228	14,256
13165	2,3541	-3,3102	-29,398	13,969
13166	1,6943	-3,2349	-28,644	13,611
13167	1,2766	-3,1381	-27,997	13,255
13168	1,2217	-3,1014	-27,339	12,873
13169	1,3334	-3,0214	-24,568	11,337
13170	0,73474	-3,0511	-26,461	12,397
13171	0,54274	-2,9678	-23,887	10,994
13172	0,20287	-3,0993	-25,582	11,909
13173	0,16827	-3,1445	-23,206	10,646
13174	-0,30916	-2,8967	-24,883	11,517
13175	-0,39503	-3,2695	-22,474	10,256
13176	-0,48882	-3,0997	-24,19	11,155
13177	-0,76731	-3,0701	-21,665	9,8766
13178	-0,69013	-3,1637	-23,066	10,563
13179	-1,1123	-3,0376	-20,992	9,5457
13180	-1,483	-3,0598	-22,308	10,18
13181	-1,5179	-3,0303	-20,129	9,1556
13182	-1,9376	-3,0271	-21,514	9,7939
13183	-1,9049	-3,0158	-19,314	8,8028
13184	-2,2215	-3,1136	-20,7	9,4172
13185	-2,3676	-3,0131	-18,515	8,4882
13186	-2,6422	-3,0849	-19,925	9,081
13187	-2,8165	-3,0192	-17,731	8,2101
13188	-3,0723	-3,091	-19,142	8,7647
13189	-3,2498	-3,031	-16,951	7,9683
13190	-3,5126	-3,1034	-18,353	8,4771
13191	-3,6759	-3,0315	-16,167	7,7643
13192	-3,952	-3,1103	-17,567	8,2246
13193	-10,835	-3,0194	-0,99691	10,358
13194	-4,1085	-3,013	-15,373	7,6014
13195	-4,4562	-3,0266	-16,765	8,0113
13196	-10,752	-3,1049	-1,6795	10,282
13197	-4,5261	-3,006	-14,583	7,4852
13198	-4,8927	-3,0176	-15,965	7,8371
13199	-10,35	-3,1612	-2,2527	10,062
13200	-4,9233	-3,0251	-13,801	7,416
13201	-5,3255	-3,0071	-15,166	7,7089
13202	-10,361	-3,1664	-3,1929	9,9511
13203	-5,2635	-3,1301	-13,064	7,3887
13204	-5,7465	-3,0094	-14,372	7,6282
13205	-10,084	-3,2194	-3,9104	9,7369
13206	-5,6846	-3,1388	-12,297	7,4182
13207	-6,0867	-3,1168	-13,617	7,5862
13208	-9,7488	-3,1751	-4,979	9,4184
13209	-6,1939	-3,0504	-11,438	7,5017
13210	-6,5163	-3,1198	-12,833	7,6018
13211	-9,3227	-3,0477	-5,6868	9,1384
13212	-6,5417	-3,1648	-10,792	7,6127
13213	-7,0157	-3,0343	-11,976	7,683
13214	-9,1107	-3,1113	-6,5428	8,9037
13215	-7,3281	-3,2161	-9,9367	7,8636
13216	-7,4515	-3,0405	-11,18	7,7989
13217	-8,7219	-3,2065	-7,326	8,6379
13218	-7,8162	-3,0278	-9,2646	8,0549
13219	-7,897	-3,0524	-10,395	7,9607
13220	-8,2229	-3,173	-8,5316	8,2813
13221	-8,2844	-3,1549	-9,7953	8,1216
13222	-8,7737	-3,1751	-8,8562	8,3861
13223	-9,2858	-3,2842	-8,7053	8,5632
13224	-9,3969	-3,3704	-8,3195	8,6581
13225	-9,6192	-3,384	-7,5549	8,8716
13226	-9,9883	-3,2553	-6,8218	9,1339
13227	-10,321	-3,2601	-6,0013	9,4165
13228	-10,634	-3,3551	-5,3299	9,6704
13229	-10,973	-3,1822	-4,2217	10,025
13230	-11,641	-2,8425	-1,5058	10,672
13231	-11,292	-3,0786	-3,4749	10,281
13232	-11,631	-2,9487	-2,0531	10,625
13233	-11,547	-3,0807	-2,8032	10,49
13234	-13,04	-3,0072	-1,5396	11,356
13235	-12,824	-2,9798	-2,328	11,16
13236	-12,55	-3,0012	-3,0942	10,912
13237	-12,245	-3,0354	-3,8672	10,633
13238	-11,897	-3,0821	-4,6356	10,336
13239	-11,625	-3,2044	-5,4763	10,034
13240	-11,337	-3,248	-6,3265	9,729
13241	-10,979	-3,2953	-7,1136	9,4218
13242	-10,435	-3,3454	-7,6679	9,116
13243	-10,193	-3,3545	-8,4211	8,8964
13244	-9,8506	-3,1971	-9,1844	8,657
13245	-9,5458	-3,0271	-9,7188	8,488
13246	-9,1123	-3,1768	-10,296	8,2915
13247	-8,7223	-3,0852	-10,931	8,1246
13248	-8,2974	-3,0437	-11,714	7,9833
13249	-7,8628	-3,0271	-12,509	7,8765
13250	-7,359	-3,105	-13,365	7,8077
13251	-6,9273	-3,1015	-14,161	7,8019
13252	-6,5574	-3,0177	-14,936	7,8517
13253	-6,1335	-3,0074	-15,74	7,9436
13254	-5,6945	-3,0192	-16,542	8,08
13255	-5,2476	-3,0328	-17,348	8,2614
13256	-4,7557	-3,0959	-18,16	8,4844
13257	-4,3123	-3,0921	-18,957	8,7439
13258	-3,8781	-3,0882	-19,754	9,0378
13259	-3,5261	-3,0206	-20,539	9,3569
13260	-3,106	-3,0292	-21,335	9,7056
13261	-2,6903	-3,0229	-22,134	10,077
13262	-2,2329	-3,0265	-22,942	10,477
13263	-1,7652	-3,1155	-23,701	10,871
13264	-1,307	-3,0809	-24,497	11,295
13265	-1,0004	-2,9735	-25,364	11,769
13266	-0,46562	-3,0522	-26,116	12,201
13267	-0,19715	-3,0534	-26,926	12,667
13268	0,22591	-3,1583	-27,857	13,222
13269	0,68975	-3,0535	-28,773	13,776
13270	1,3125	-3,0356	-29,309	14,066
13271	1,9159	-3,098	-30,049	14,464
13272	2,8641	-3,0828	-30,922	14,79
13273	3,4233	-3,1422	-31,449	14,906
13274	5,5619	-3,0546	-33,306	14,654
13275	4,0853	-3,1469	-32,022	14,965
13276	4,81	-3,0373	-32,72	14,907
13277	4,9557	-3,0618	-34,065	15,493
13278	4,0824	-3,0598	-33,526	15,87
13279	3,3271	-3,1225	-32,858	15,909
13280	2,6755	-3,1562	-32,246	15,766
13281	2,0478	-3,0667	-31,509	15,445
13282	1,4264	-3,1824	-30,848	15,104
13283	0,79997	-3,0211	-30,105	14,652
13284	1,533e-002	-3,0562	-29,331	14,156
13285	-0,30657	-3,1548	-28,536	13,632
13286	-0,80856	-3,0861	-27,653	13,08
13287	-1,2464	-3,0468	-26,789	12,554
13288	-1,6635	-3,0475	-25,943	12,054
13289	-2,0922	-3,0718	-25,13	11,592
13290	-2,5355	-3,0904	-24,327	11,15
13291	-3,0404	-3,0293	-23,546	10,737
13292	-3,4772	-3,0201	-22,747	10,339
13293	-3,9142	-3,0101	-21,945	9,9637
13294	-4,3377	-3,0107	-21,145	9,6141
13295	-4,6893	-3,0842	-20,357	9,2957
13296	-5,1217	-3,0823	-19,554	8,9998
13297	-5,5616	-3,083	-18,745	8,7348
13298	-6,0066	-3,0836	-17,935	8,5065
13299	-6,4436	-3,0843	-17,13	8,3189
13300	-6,9514	-3,0161	-16,293	8,1763
13301	-7,3907	-3,01	-15,483	8,0795
13302	-7,7638	-3,0877	-14,696	8,0219
13303	-8,2139	-3,0928	-13,889	8,0217
13304	-8,7086	-3,0298	-13,039	8,0802
13305	-9,147	-3,046	-12,234	8,1779
13306	-9,534	-3,183	-11,539	8,3058
13307	-10,037	-3,2948	-10,855	8,4984
13308	-10,357	-3,1244	-10,216	8,6644
13309	-10,759	-3,1391	-9,4575	8,8939
13310	-11,111	-3,297	-8,8249	9,1208
13311	-11,529	-3,2971	-8,0449	9,422
13312	-13,981	-2,999	-1,6882	11,857
13313	-11,837	-3,1432	-7,3851	9,6779
13314	-13,787	-3,003	-2,564	11,629
13315	-12,199	-3,1068	-6,5753	10,008
13316	-13,531	-3,0202	-3,3863	11,349
13317	-12,556	-3,0538	-5,7945	10,345
13318	-13,231	-3,0354	-4,1752	11,032
13319	-12,908	-3,0513	-4,9907	10,695
13320	-14,979	-2,9929	-1,9001	12,404
13321	-14,762	-3,0008	-2,7696	12,135
13322	-14,512	-3,013	-3,6186	11,819
13323	-14,34	-3,1051	-4,4668	11,521
13324	-14,04	-3,1084	-5,2827	11,153
13325	-13,702	-3,1144	-6,0759	10,777
13326	-13,356	-3,1233	-6,8644	10,41
13327	-12,991	-3,136	-7,6373	10,059
13328	-12,504	-3,2514	-8,38	9,6988
13329	-12,028	-3,265	-9,189	9,3569
13330	-11,649	-3,113	-9,8608	9,1084
13331	-11,199	-3,109	-10,639	8,8539
13332	-10,869	-3,1407	-11,337	8,6759
13333	-10,445	-3,103	-12,018	8,5094
13334	-10,01	-3,0381	-12,744	8,3797
13335	-9,5184	-3,095	-13,612	8,2765
13336	-9,0698	-3,0837	-14,417	8,2338
13337	-8,6186	-3,0759	-15,227	8,2397
13338	-8,2286	-3,0108	-16,02	8,299
13339	-7,7849	-3,0155	-16,836	8,399
13340	-7,2807	-3,0713	-17,679	8,5456
13341	-6,8919	-3,0174	-18,476	8,7328
13342	-6,4563	-3,0021	-19,294	8,9596
13343	-6,0162	-3,0029	-20,11	9,2218
13344	-5,5811	-3,005	-20,925	9,5167
13345	-5,1384	-3,0164	-21,737	9,841
13346	-4,6393	-3,0864	-22,554	10,2
13347	-4,2093	-3,0869	-23,351	10,574
13348	-3,7624	-3,0854	-24,148	10,973
13349	-3,3267	-3,0785	-24,947	11,396
13350	-2,9901	-2,9957	-25,772	11,844
13351	-2,5703	-2,9789	-26,6	12,327
13352	-2,1193	-2,9703	-27,447	12,848
13353	-1,5429	-2,9488	-28,364	13,452
13354	4,2474	-3,0886	-34,86	16,57
13355	-0,86311	-3,105	-29,219	14,055
13356	3,648	-3,0467	-34,22	16,656
13357	-0,37562	-2,9543	-30,042	14,63
13358	2,8038	-3,0105	-33,524	16,672
13359	0,2827	-3,0197	-30,807	15,183
13360	2,1733	-3,1362	-32,898	16,461
13361	0,886	-3,1652	-31,56	15,709
13362	1,519	-3,1551	-32,24	16,136
13363	3,6939	-3,0697	-35,513	17,556
13364	2,9638	-3,0888	-34,896	17,707
13365	3,025	-3,0071	-36,264	18,927
13366	2,2664	-3,1096	-34,27	17,597
13367	2,3349	-3,0907	-35,634	18,917
13368	1,583	-3,129	-33,623	17,305
13369	1,65	-3,1055	-34,998	18,662
13370	0,93145	-3,0579	-32,93	16,839
13371	0,97848	-3,1212	-34,352	18,213
13372	0,31618	-3,0436	-32,229	16,299
13373	0,34178	-3,1346	-33,666	17,609
13374	-0,26633	-3,0154	-31,51	15,717
13375	-0,27593	-3,037	-32,926	16,909
13376	-0,86554	-3,0133	-30,733	15,092
13377	-0,85339	-3,0141	-32,202	16,224
13378	-1,7247	-2,9944	-30,118	14,545
13379	-1,429	-3,006	-31,434	15,526
13380	-2,1272	-3,0274	-30,619	14,807
13381	-2,4272	-3,0025	-30,117	14,398
13382	-2,152	-2,9866	-29,048	13,782
13383	-2,7632	-3,0062	-28,101	13,124
13384	-3,2791	-3,0342	-27,174	12,53
13385	-3,71	-3,0593	-26,369	12,049
13386	-4,1345	-3,0717	-25,562	11,596
13387	-4,5724	-3,0762	-24,756	11,167
13388	-5,0762	-3,0174	-23,945	10,756
13389	-5,4491	-3,0768	-23,138	10,388
13390	-5,8918	-3,0746	-22,329	10,038
13391	-6,3349	-3,0707	-21,515	9,7164
13392	-6,7811	-3,0664	-20,69	9,4214
13393	-7,2922	-3,0009	-19,843	9,1539
13394	-7,7382	-3,0042	-19,018	8,9305
13395	-8,1848	-3,0063	-18,194	8,7454
13396	-8,6311	-3,0076	-17,369	8,6006
13397	-9,0798	-3,0096	-16,539	8,4989
13398	-9,5215	-3,0147	-15,719	8,4433
13399	-9,966	-3,0257	-14,895	8,4344
13400	-15,966	-2,9996	-2,0885	12,964
13401	-10,382	-3,0874	-14,114	8,4706
13402	-15,755	-3,0022	-2,9782	12,668
13403	-10,876	-3,031	-13,233	8,5668
13404	-15,608	-3,0984	-3,8467	12,369
13405	-11,347	-3,0676	-12,445	8,7164
13406	-15,339	-3,1033	-4,6931	11,979
13407	-11,775	-3,1428	-11,725	8,8692
13408	-15,017	-3,1069	-5,5231	11,559
13409	-12,166	-3,1495	-11,06	9,0792
13410	-14,684	-3,1115	-6,3403	11,144
13411	-12,529	-3,2045	-10,239	9,3138
13412	-14,329	-3,1178	-7,1473	10,738
13413	-12,928	-3,3145	-9,5497	9,5812
13414	-13,95	-3,1263	-7,9428	10,35
13415	-13,436	-3,1973	-8,7643	9,9435
13416	-16,951	-2,9989	-2,3058	13,519
13417	-16,728	-3,0098	-3,1931	13,193
13418	-16,583	-3,0936	-4,0519	12,867
13419	-16,298	-3,098	-4,9204	12,421
13420	-15,983	-3,1011	-5,7765	11,953
13421	-15,643	-3,1034	-6,6168	11,487
13422	-15,28	-3,1063	-7,4478	11,037
13423	-14,889	-3,111	-8,2667	10,612
13424	-14,353	-3,0607	-9,1458	10,167
13425	-14,18	-3,1313	-9,8882	9,9094
13426	-13,479	-3,1095	-10,575	9,528
13427	-13,085	-3,0758	-11,417	9,2662
13428	-12,703	-3,068	-12,095	9,0764
13429	-12,198	-3,0375	-12,912	8,8707
13430	-11,742	-3,0238	-13,725	8,7361
13431	-11,252	-3,0771	-14,612	8,6414
13432	-10,832	-3,0145	-15,394	8,6064
13433	-10,389	-3,0009	-16,218	8,6151
13434	-9,9366	-3,0024	-17,056	8,6703
13435	-9,4761	-3,009	-17,898	8,7705
13436	-9,0319	-3,0007	-18,724	8,9112
13437	-8,5883	-2,9957	-19,551	9,091
13438	-8,1316	-3,0022	-20,384	9,3093
13439	-7,6755	-3,0095	-21,219	9,5639
13440	-7,2292	-3,0062	-22,05	9,8504
13441	-6,7785	-3,0115	-22,879	10,168
13442	-6,2707	-3,0665	-23,713	10,525
13443	-5,8881	-3,0167	-24,526	10,888
13444	-5,3802	-3,0681	-25,353	11,306
13445	-4,9478	-3,0666	-26,163	11,734
13446	-4,5073	-3,0591	-26,976	12,195
13447	2,384	-3,0111	-37,015	20,532
13448	-4,0764	-3,0416	-27,804	12,693
13449	1,6937	-3,0133	-36,381	20,342
13450	-3,6871	-2,9941	-28,681	13,243
13451	1,0159	-3,017	-35,725	19,834
13452	-3,2003	-3,055	-29,527	13,846
13453	0,35401	-3,0363	-35,043	19,123
13454	-2,9588	-2,999	-30,435	14,451
13455	-0,28181	-3,1215	-34,365	18,344
13456	-2,567	-3,0004	-31,279	15,121
13457	-0,89984	-3,0347	-33,614	17,478
13458	-2,0515	-3,0118	-32,061	15,843
13459	-1,4868	-3,0191	-32,851	16,643
13460	-17,938	-3,0042	-2,5208	14,06
13461	-17,7	-3,0103	-3,4195	13,717
13462	-17,414	-3,0114	-4,3189	13,264
13463	-17,091	-3,0064	-5,2167	12,742
13464	-16,753	-3,0046	-6,0946	12,211
13465	-16,399	-3,0024	-6,956	11,695
13466	-16,039	-3,0088	-7,8008	11,212
13467	-15,668	-3,0149	-8,6341	10,767
13468	-15,389	-3,0958	-9,431	10,409
13469	-14,923	-3,0986	-10,248	10,024
13470	-14,449	-3,0995	-11,047	9,696
13471	-13,975	-3,0985	-11,852	9,4117
13472	-13,507	-3,0948	-12,656	9,1795
13473	-13,041	-3,0877	-13,464	8,998
13474	-12,58	-3,0775	-14,279	8,8636
13475	-12,122	-3,0667	-15,094	8,7783
13476	-11,699	-3,0088	-15,89	8,7427
13477	-11,25	-2,9997	-16,723	8,7498
13478	-10,797	-2,9986	-17,562	8,802
13479	1,7256	-3,0048	-37,765	22,425
13480	-10,345	-2,9961	-18,404	8,8974
13481	1,045	-3,0052	-37,115	21,925
13482	-9,8937	-2,9917	-19,241	9,0326
13483	0,37029	-3,0093	-36,435	21,065
13484	-9,4294	-2,9985	-20,084	9,2078
13485	-0,29295	-3,0211	-35,741	20,042
13486	-8,9705	-3,0038	-20,922	9,4188
13487	-0,93563	-3,1043	-35,025	18,981
13488	-8,5233	-3,0029	-21,754	9,6618
13489	-1,5577	-3,0262	-34,283	17,947
13490	-8,075	-3,0003	-22,591	9,9383
13491	-2,1512	-3,0196	-33,496	16,964
13492	-7,6158	-3,0069	-23,428	10,249
13493	-2,7072	-3,0133	-32,695	16,077
13494	-7,1023	-3,0572	-24,276	10,604
13495	-3,2208	-3,0049	-31,871	15,275
13496	-6,7097	-3,0153	-25,094	10,958
13497	-3,6702	-3,0058	-31,012	14,553
13498	-6,2057	-3,0612	-25,931	11,374
13499	-4,0184	-3,0594	-30,127	13,922
13500	-5,7624	-3,0613	-26,747	11,801
13501	-4,4322	-3,0372	-29,249	13,316
13502	-5,3143	-3,0575	-27,572	12,266
13503	-4,8643	-3,0465	-28,401	12,771
13504	1,0084	-3,0149	-38,535	24,414
13505	0,38638	-3,0618	-37,839	23,516
13506	-0,29663	-3,0065	-37,122	22,234
13507	-0,96315	-3,0128	-36,419	20,845
13508	-1,6206	-3,0822	-35,667	19,46
13509	-2,2496	-3,0248	-34,928	18,243
13510	-2,8504	-3,017	-34,135	17,131
13511	-3,4124	-3,0211	-33,311	16,156
13512	-3,937	-3,0127	-32,457	15,293
13513	-4,413	-3,0203	-31,594	14,546
13514	-4,8013	-3,0538	-30,705	13,899
13515	-5,2386	-3,041	-29,832	13,295
13516	-5,7519	-3,0052	-28,988	12,723
13517	-6,2024	-3,0044	-28,148	12,224
13518	-6,6489	-3,0094	-27,312	11,767
13519	-7,0354	-3,0538	-26,49	11,367
13520	-7,5454	-3,0117	-25,646	10,958
13521	-7,9363	-3,0489	-24,827	10,618
13522	-8,4531	-3,0072	-23,97	10,27
13523	-8,8568	-3,0452	-23,149	9,9858
13524	-9,3675	-3,0014	-22,286	9,7053
13525	-9,8245	-3,0004	-21,443	9,471
13526	-10,287	-2,9962	-20,598	9,2694
13527	-10,742	-2,9985	-19,758	9,1044
13528	-11,195	-3,0026	-18,917	8,9761
13529	-11,652	-3,0029	-18,069	8,8862
13530	-12,11	-3,0048	-17,227	8,8382
13531	-12,535	-3,0498	-16,424	8,8325
13532	-12,997	-3,0571	-15,581	8,8714
13533	-18,967	-3,0128	-2,7505	14,641
13534	-13,452	-3,0659	-14,749	8,9568
13535	-18,763	-3,0644	-3,5799	14,361
13536	-13,909	-3,0746	-13,915	9,091
13537	-18,356	-3,016	-4,5692	13,757
13538	-14,378	-3,0804	-13,106	9,2728
13539	-18,027	-3,0116	-5,4885	13,15
13540	-14,85	-3,0828	-12,29	9,5073
13541	-17,684	-3,005	-6,3904	12,541
13542	-15,325	-3,0207	-11,436	9,8023
13543	-17,336	-3,0021	-7,2703	11,965
13544	-15,774	-3,0243	-10,634	10,134
13545	-16,98	-3,0009	-8,1328	11,435
13546	-16,193	-3,0155	-9,8176	10,514
13547	-16,602	-3,0001	-8,9796	10,951
13548	-0,30203	-3,0111	-38,5	24,701
13549	-0,98169	-3,0021	-37,778	23,14
13550	-1,6622	-3,0176	-37,06	21,359
13551	-2,3412	-3,06	-36,28	19,655
13552	-2,978	-3,0047	-35,558	18,292
13553	-3,5907	-3,0157	-34,756	17,076
13554	-4,1386	-3,0542	-33,884	16,041
13555	-4,6541	-3,0553	-33,022	15,176
13556	-5,1318	-3,0516	-32,146	14,425
13557	-5,6003	-3,0428	-31,27	13,758
13558	-6,0562	-3,039	-30,402	13,163
13559	-6,5072	-3,0426	-29,549	12,627
13560	-6,9596	-3,0453	-28,709	12,141
13561	-7,4195	-3,0464	-27,874	11,692
13562	-7,8756	-3,0461	-27,04	11,283
13563	-8,3884	-3,0077	-26,187	10,883
13564	-8,7921	-3,0414	-25,361	10,557
13565	-9,2452	-3,0394	-24,519	10,242
13566	-9,7132	-3,0377	-23,675	9,954
13567	-10,215	-3,0045	-22,81	9,6873
13568	-10,674	-3,0034	-21,963	9,4651
13569	-11,134	-3,0038	-21,117	9,2753
13570	-19,683	-3,0573	-3,8246	15,07
13571	-11,593	-3,005	-20,27	9,1192
13572	-19,252	-3,0151	-4,848	14,284
13573	-12,021	-3,034	-19,441	9,0023
13574	-18,904	-3,0033	-5,7898	13,524
13575	-12,485	-3,0371	-18,596	8,9176
13576	-18,545	-2,991	-6,711	12,802
13577	-12,973	-3,0075	-17,722	8,8715
13578	-18,246	-3,0028	-7,6026	12,175
13579	-13,41	-3,0429	-16,908	8,8696
13580	-18,043	-3,056	-8,4562	11,651
13581	-13,869	-3,0478	-16,064	8,9103
13582	-17,503	-2,9926	-9,3579	11,054
13583	-14,324	-3,0542	-15,217	8,9971
13584	-17,086	-3,007	-10,216	10,588
13585	-14,783	-3,0611	-14,385	9,1307
13586	-16,649	-3,0105	-11,051	10,188
13587	-15,252	-3,0661	-13,562	9,3128
13588	-16,199	-3,0164	-11,877	9,8452
13589	-15,71	-3,0682	-12,731	9,5464
13590	-20,423	-3,0161	-4,1838	15,858
13591	-20,11	-3,0181	-5,148	14,849
13592	-19,778	-3,0115	-6,0945	13,909
13593	-19,425	-2,999	-7,0097	13,056
13594	-19,146	-3,0099	-7,9347	12,327
13595	-18,779	-2,9943	-8,8425	11,664
13596	-18,413	-3,0007	-9,7532	11,085
13597	-17,98	-3,0055	-10,633	10,586
13598	-17,548	-3,0499	-11,517	10,16
13599	-17,076	-3,0042	-12,318	9,8221
13600	-16,592	-3,0549	-13,186	9,522
13601	-16,126	-3,0527	-14,025	9,2879
13602	-15,668	-3,0481	-14,865	9,1061
13603	-15,202	-3,0433	-15,702	8,9737
13604	-14,743	-3,0394	-16,547	8,8868
13605	-14,281	-3,037	-17,401	8,8442
13606	-13,845	-3,0045	-18,21	8,8428
13607	-13,361	-3,0329	-19,085	8,8834
13608	-12,89	-3,0296	-19,944	8,9624
13609	-0,89471	-3,0524	-39,174	25,132
13610	-12,46	-3,0032	-20,765	9,0688
13611	-1,8999	-3,0862	-38,298	23,098
13612	-11,991	-3,0068	-21,624	9,2163
13613	-2,3742	-3,0312	-37,712	21,486
13614	-11,494	-3,0312	-22,5	9,4047
13615	-3,0725	-3,0343	-36,918	19,552
13616	-11,034	-3,0314	-23,345	9,6147
13617	-3,7284	-2,9953	-36,18	18,053
13618	-10,568	-3,0318	-24,195	9,8568
13619	-4,4098	-3,0001	-35,302	16,675
13620	-10,107	-3,0332	-25,046	10,128
13621	-4,9113	-3,0204	-34,444	15,718
13622	-9,646	-3,0345	-25,887	10,427
13623	-5,4939	-3,011	-33,575	14,822
13624	-9,1771	-3,0362	-26,734	10,759
13625	-5,9276	-3,0285	-32,692	14,138
13626	-8,7142	-3,0379	-27,583	11,123
13627	-6,4174	-3,0293	-31,821	13,49
13628	-8,2572	-3,0384	-28,425	11,515
13629	-6,8797	-3,0329	-30,954	12,921
13630	-7,7956	-3,0381	-29,265	11,945
13631	-7,3387	-3,0362	-30,105	12,41
13632	11,475	-3,0109	-26,871	9,9073
13633	6,1582	-2,9336	-40,919	14,794
13634	6,6597	-3,0385	-40,08	14,122
13635	7,158	-2,9939	-39,081	13,64
13636	7,6019	-3,0197	-38,26	13,222
13637	8,0692	-2,9923	-37,347	12,82
13638	8,5313	-2,9883	-36,478	12,426
13639	11,015	-2,9808	33,917	11,45
13640	10,529	-2,9738	34,788	11,924
13641	9,0083	-3,0021	-35,625	12,028
13642	11,488	-2,987	33,045	11,026
13643	10,043	-2,969	35,656	12,449
13644	9,4752	-2,9945	-34,76	11,648
13645	11,96	-2,9912	32,173	10,636
13646	9,5732	-2,998	36,554	13,037
13647	9,951	-3,003	-33,902	11,273
13648	12,433	-2,9936	31,301	10,275
13649	9,117	-2,9928	37,408	13,676
13650	10,416	-3,0059	-33,042	10,921
13651	12,906	-2,9949	30,428	9,9403
13652	8,6257	-3,0389	38,342	14,467
13653	10,883	-3,0118	-32,184	10,583
13654	13,38	-2,9959	29,554	9,629
13655	8,1697	-3,0589	39,254	15,344
13656	11,377	-3,0406	-31,321	10,247
13657	13,853	-2,9963	28,68	9,34
13658	7,7819	-3,1091	40,16	16,242
13659	11,837	-3,0385	-30,458	9,9506
13660	14,326	-2,9963	27,806	9,0727
13661	7,5095	-3,2041	41,115	17,034
13662	12,298	-3,0357	-29,595	9,6727
13663	14,8	-2,9964	26,931	8,8268
13664	7,0232	-3,1287	41,927	18,278
13665	12,759	-3,0336	-28,731	9,4135
13666	15,274	-2,9972	26,055	8,6027
13667	6,5711	-3,0948	42,8	19,578
13668	13,221	-3,0319	-27,866	9,1739
13669	6,1587	-3,092	43,683	20,873
13670	5,8692	-3,1382	44,471	21,794
13671	15,747	-2,9986	25,18	8,4012
13672	13,661	-3,0102	-27,009	8,9635
13673	16,221	-3,	24,305	8,2231
13674	14,144	-3,0294	-26,136	8,7534
13675	16,695	-3,0014	23,431	8,0694
13676	14,585	-3,0073	-25,283	8,5827
13677	17,169	-3,0029	22,556	7,9421
13678	15,048	-3,0075	-24,419	8,4242
13679	6,1796	-3,1234	44,815	20,117
13680	17,648	-2,9992	21,679	7,8407
13681	6,9033	-3,0502	44,083	18,065
13682	15,514	-3,008	-23,556	8,2876
13683	7,3748	-3,055	43,245	17,285
13684	18,116	-3,0062	20,807	7,7725
13685	7,8561	-3,0986	42,421	16,438
13686	15,98	-3,0084	-22,692	8,175
13687	8,2956	-3,0806	41,51	15,696
13688	18,59	-3,0079	19,933	7,7346
13689	8,7196	-3,0649	40,594	14,971
13690	16,446	-3,0082	-21,829	8,0884
13691	9,1362	-3,0446	39,686	14,284
13692	19,067	-3,0023	19,056	7,7313
13693	9,5549	-3,0211	38,793	13,643
13694	16,91	-3,0054	-20,964	8,0304
13695	10,007	-3,0012	37,917	13,028
13696	19,538	-3,0115	18,186	7,7662
13697	10,476	-2,9883	37,047	12,461
13698	17,375	-3,006	-20,098	8,002
13699	10,953	-2,9822	36,169	11,943
13700	20,012	-3,0129	17,312	7,8423
13701	11,424	-2,9841	35,29	11,474
13702	17,839	-3,0042	-19,232	8,0063
13703	11,909	-2,9886	34,422	11,036
13704	20,486	-2,9996	16,434	7,9664
13705	12,381	-2,9923	33,547	10,636
13706	18,305	-3,0028	-18,367	8,045
13707	12,853	-2,9949	32,672	10,262
13708	20,959	-3,014	15,566	8,1379
13709	13,326	-2,9966	31,797	9,9109
13710	18,781	-3,022	-17,483	8,1244
13711	13,798	-2,9974	30,922	9,5816
13712	21,431	-2,9942	14,69	8,3713
13713	14,27	-2,9978	30,046	9,2724
13714	19,244	-3,0238	-16,618	8,2457
13715	14,743	-2,9979	29,17	8,9827
13716	21,905	-3,0105	13,819	8,6682
13717	15,216	-2,9976	28,294	8,7126
13718	19,703	-2,9991	-15,783	8,4026
13719	15,689	-2,9978	27,417	8,4621
13720	22,375	-3,0046	12,941	9,047
13721	16,161	-2,9984	26,54	8,232
13722	20,167	-2,9977	-14,927	8,6159
13723	16,634	-2,9992	25,663	8,0231
13724	22,841	-2,9961	12,044	9,5344
13725	17,107	-3,0002	24,787	7,8362
13726	20,632	-2,9984	-14,075	8,8834
13727	17,58	-3,0011	23,91	7,6725
13728	23,299	-2,9897	11,142	10,147
13729	18,053	-3,0021	23,033	7,5335
13730	21,095	-2,9948	-13,219	9,2169
13731	18,526	-3,0032	22,157	7,4206
13732	23,757	-2,9987	10,237	10,916
13733	18,999	-3,0047	21,281	7,336
13734	21,551	-3,0296	-12,316	9,6575
13735	19,472	-3,0061	20,404	7,2816
13736	24,218	-3,0095	9,3316	11,885
13737	19,944	-3,0078	19,528	7,2602
13738	21,995	-3,0174	-11,454	10,167
13739	20,417	-3,0092	18,652	7,275
13740	24,687	-3,0137	8,4401	13,107
13741	20,89	-3,0107	17,776	7,3295
13742	22,453	-2,9664	-10,637	10,747
13743	21,365	-3,0003	16,9	7,4278
13744	25,137	-3,0108	7,5418	14,726
13745	21,837	-2,9999	16,024	7,5775
13746	20,865	-3,0332	-5,6139	15,288
13747	22,31	-2,9972	15,151	7,783
13748	22,751	-2,7736	-9,7328	11,569
13749	22,781	-3,0104	14,276	8,0569
13750	23,253	-3,0053	13,401	8,4087
13751	23,333	-3,3045	-8,8499	12,543
13752	23,72	-2,9976	12,509	8,8689
13753	21,792	-2,7221	-5,9033	16,03
13754	24,185	-2,9903	11,616	9,4509
13755	24,645	-2,9887	10,714	10,188
13756	23,754	-3,2693	-8,0885	13,663
13757	25,095	-2,9938	9,8067	11,12
13758	22,597	-2,983	-6,2754	16,381
13759	25,558	-2,9964	8,9159	12,254
13760	25,565	-2,99	6,6176	16,972
13761	26,009	-2,9964	8,0263	13,659
13762	26,458	-2,9954	7,1436	15,364
13763	26,928	-3,0081	6,3138	17,206
13764	27,489	-2,9932	5,7035	18,463
13765	23,634	-2,9934	-6,8788	15,928
13766	24,686	-3,2627	-8,3153	13,309
13767	24,712	-3,1349	-7,467	14,964
13768	24,254	-3,0144	-9,4274	11,778
13769	25,647	-2,8799	-6,3903	17,691
13770	26,993	-3,0567	-6,1406	17,799
13771	23,828	-2,989	-10,274	10,883
13772	26,54	-3,0002	-6,8226	16,159
13773	23,362	-2,995	-11,109	10,17
13774	26,38	-3,129	-7,5617	14,513
13775	22,898	-3,0212	-11,917	9,6165
13776	25,761	-3,1394	-7,6914	14,377
13777	22,435	-3,0222	-12,784	9,122
13778	25,481	-3,1875	-8,9454	12,214
13779	21,974	-3,0018	-13,67	8,7087
13780	25,126	-2,9809	-9,8332	11,095
13781	21,51	-2,9964	-14,533	8,3888
13782	24,703	-2,9865	-10,7	10,185
13783	21,044	-2,9949	-15,393	8,1361
13784	24,246	-2,9953	-11,552	9,4806
13785	20,579	-2,9997	-16,252	7,9397
13786	23,782	-3,0208	-12,387	8,9273
13787	20,115	-3,0209	-17,107	7,7938
13788	23,32	-3,0184	-13,256	8,4544
13789	19,649	-3,0205	-17,973	7,6889
13790	22,855	-3,0019	-14,131	8,0717
13791	19,18	-3,0011	-18,845	7,6236
13792	22,39	-3,0197	-14,988	7,7797
13793	18,717	-3,0228	-19,703	7,5963
13794	21,924	-3,0197	-15,854	7,5477
13795	23,275	-3,0179	-15,453	7,0377
13796	22,808	-3,018	-16,319	6,8384
13797	21,457	-2,9998	-16,723	7,3709
13798	18,25	-3,0247	-20,568	7,601
13799	22,336	-3,0013	-17,195	6,6929
13800	23,736	-2,9998	-14,599	7,2969
13801	20,992	-3,0189	-17,585	7,245
13802	17,784	-3,0265	-21,433	7,6358
13803	21,874	-3,0176	-18,053	6,5974
13804	24,208	-3,017	-13,72	7,6456
13805	20,526	-3,0189	-18,451	7,161
13806	24,674	-3,0166	-12,852	8,0857
13807	21,407	-3,0174	-18,919	6,5407
13808	17,317	-3,0275	-22,299	7,698
13809	20,057	-3,002	-19,32	7,1146
13810	25,128	-3,0153	-11,979	8,6548
13811	20,94	-3,0172	-19,786	6,5196
13812	16,851	-3,0276	-23,164	7,7853
13813	19,592	-3,0195	-20,183	7,1029
13814	25,579	-3,0092	-11,105	9,3682
13815	20,473	-3,017	-20,653	6,5296
13816	16,386	-3,0274	-24,03	7,8959
13817	19,125	-3,0199	-21,049	7,1212
13818	26,027	-2,9741	-10,268	10,201
13819	20,003	-3,0031	-21,529	6,5665
13820	15,92	-3,0271	-24,897	8,0282
13821	18,658	-3,0204	-21,915	7,167
13822	26,44	-3,0077	-9,3745	11,29
13823	19,535	-3,0011	-22,398	6,6293
13824	15,454	-3,0066	-25,77	8,181
13825	18,192	-3,0206	-22,781	7,2378
13826	26,984	-2,9655	-8,5383	12,526
13827	19,068	-3,0012	-23,265	6,7142
13828	15,	-3,0288	-26,629	8,3476
13829	17,725	-3,0211	-23,648	7,3313
13830	27,249	-3,014	-8,1044	13,198
13831	18,601	-3,002	-24,131	6,8189
13832	14,528	-3,0091	-27,499	8,5405
13833	17,258	-3,0216	-24,515	7,4455
13834	27,865	-3,0942	-7,1625	14,807
13835	18,135	-3,0031	-24,998	6,9418
13836	14,073	-3,0314	-28,359	8,7425
13837	16,792	-3,0228	-25,381	7,5788
13838	28,228	-3,0808	-6,3452	16,322
13839	17,669	-3,0176	-25,856	7,0812
13840	13,609	-3,033	-29,225	8,965
13841	16,326	-3,0048	-26,252	7,7289
13842	17,201	-3,0053	-26,731	7,2344
13843	13,146	-3,0349	-30,09	9,2028
13844	15,859	-3,0254	-27,115	7,8965
13845	16,735	-3,0196	-27,59	7,4015
13846	12,682	-3,037	-30,955	9,4557
13847	15,395	-3,0064	-27,985	8,0768
13848	16,268	-3,0047	-28,465	7,5791
13849	12,219	-3,0384	-31,819	9,7223
13850	14,927	-3,0276	-28,847	8,2738
13851	15,801	-3,0208	-29,324	7,7681
13852	11,754	-3,0383	-32,683	10,003
13853	14,461	-3,0288	-29,714	8,4821
13854	15,334	-3,0057	-30,2	7,9647
13855	11,275	-3,0097	-33,544	10,304
13856	13,995	-3,0302	-30,58	8,7019
13857	14,867	-3,0223	-31,058	8,1696
13858	10,806	-3,0026	-34,405	10,607
13859	13,534	-3,0125	-31,447	8,9292
13860	14,401	-3,0057	-31,933	8,3789
13861	10,338	-3,0011	-35,268	10,914
13862	13,069	-3,0141	-32,311	9,1681
13863	13,936	-3,0077	-32,798	8,5921
13864	-2,3715	-3,2382	-39,062	23,211
13865	12,608	-3,033	-33,173	9,4118
13866	13,467	-3,0248	-33,657	8,8117
13867	9,8852	-3,0138	-36,141	11,206
13868	-3,1006	-3,0487	-38,334	21,028
13869	12,136	-3,0088	-34,039	9,6681
13870	-3,0124	-3,2483	-39,244	22,123
13871	13,003	-3,0062	-34,53	9,0267
13872	-3,7152	-3,0656	-38,848	20,234
13873	-4,1102	-3,1871	-39,221	19,504
13874	11,665	-3,0046	-34,907	9,9259
13875	12,536	-3,0025	-35,396	9,2417
13876	-3,8215	-3,323	-39,873	20,567
13877	9,3992	-2,9934	-36,99	11,525
13878	11,199	-3,003	-35,77	10,179
13879	12,07	-3,0027	-36,26	9,451
13880	11,601	-3,0179	-37,122	9,6524
13881	8,9322	-2,994	-37,858	11,814
13882	10,266	-3,0142	-37,504	10,655
13883	11,134	-3,0147	-37,989	9,8383
13884	8,4571	-3,0116	-38,76	12,088
13885	-5,4442	-3,0005	-41,968	16,143
13886	9,7931	-3,0114	-38,371	10,873
13887	-4,3724	-3,2213	-40,143	19,16
13888	10,665	-3,0118	-38,855	10,006
13889	28,358	-3,	6,1478	16,675
13890	-5,2154	-3,0694	-40,538	17,097
13891	7,9698	-3,0166	-39,648	12,372
13892	27,841	-3,0312	6,8436	15,465
13893	9,3192	-3,0086	-39,247	11,063
13894	10,196	-3,0083	-39,72	10,152
13895	-5,9561	-3,0076	-41,037	15,155
13896	27,365	-3,0051	7,6615	13,997
13897	-4,7052	-3,0515	-39,122	18,17
13898	7,4852	-3,0134	-40,541	12,662
13899	-5,7008	-3,1127	-39,686	16,035
13900	26,901	-2,9913	8,5133	12,572
13901	-3,8242	-2,9867	-37,608	19,084
13902	-6,4991	-2,985	-40,079	14,421
13903	-4,835	-2,9403	-38,317	17,667
13904	8,8355	-3,0068	-40,119	11,242
13905	26,448	-2,9868	9,4011	11,274
13906	9,7197	-3,004	-40,594	10,278
13907	-5,9322	-2,9696	-38,919	15,656
13908	-4,7958	-2,7086	-36,852	17,059
13909	25,988	-2,984	10,296	10,187
13910	-6,8846	-2,9479	-39,192	14,013
13911	-5,4064	-2,8778	-37,382	16,341
13912	8,35	-3,0006	-41,003	11,391
13913	7,0023	-2,9725	-41,324	12,997
13914	9,2387	-2,9977	-41,461	10,394
13915	-6,4172	-2,9199	-37,799	14,891
13916	25,533	-2,9851	11,194	9,299
13917	-7,3825	-2,9372	-38,292	13,496
13918	7,8476	-2,9831	-41,88	11,6
13919	-5,3303	-2,9804	-35,87	15,92
13920	8,7498	-2,9883	-42,332	10,477
13921	-6,0561	-2,9433	-36,391	15,205
13922	-5,8284	-2,9863	-34,99	15,07
13923	-6,9641	-2,9382	-36,905	14,14
13924	-6,5928	-2,9676	-35,504	14,408
13925	25,072	-2,9911	12,094	8,5898
13926	-7,8775	-2,9487	-37,403	13,026
13927	-7,4832	-2,9584	-36,019	13,52
13928	6,0144	-3,0654	-42,283	14,494
13929	-6,3289	-2,9989	-34,106	14,314
13930	7,3547	-3,0231	-42,746	11,694
13931	-7,1097	-2,985	-34,62	13,73
13932	8,2659	-2,9802	-43,2	10,572
13933	-8,3873	-2,9632	-36,521	12,567
13934	-7,9928	-2,9761	-35,139	12,965
13935	24,602	-2,9979	12,983	8,0437
13936	6,9595	-3,0824	-43,734	11,737
13937	-8,8795	-2,9764	-35,653	12,143
13938	7,795	-2,9889	-44,075	10,598
13939	24,13	-3,0041	13,86	7,628
13940	-9,7787	-2,9813	-36,159	11,296
13941	23,658	-3,0075	14,736	7,3092
13942	-6,7551	-3,0116	-33,226	13,703
13943	-7,6107	-2,999	-33,744	13,133
13944	-8,4882	-2,9919	-34,266	12,464
13945	6,2929	-2,9748	-44,615	12,366
13946	23,189	-2,9984	15,616	7,0655
13947	7,3592	-3,0342	-44,941	10,506
13948	-9,3761	-2,99	-34,784	11,73
13949	-9,2845	-2,9707	-37,027	11,625
13950	22,717	-3,0003	16,493	6,8929
13951	-10,262	-2,9908	-35,296	10,973
13952	22,244	-3,0003	17,37	6,7763
13953	-7,2453	-3,0193	-32,353	13,102
13954	-8,0989	-3,0109	-32,881	12,6
13955	21,77	-3,0072	18,244	6,7101
13956	-8,9684	-3,0056	-33,403	12,008
13957	-9,8403	-3,0015	-33,926	11,358
13958	21,298	-3,0064	19,122	6,6841
13959	-8,7977	-2,9605	-37,9	11,94
13960	20,826	-3,0056	19,999	6,6959
13961	-10,729	-2,998	-34,436	10,664
13962	-8,3003	-2,9514	-38,788	12,255
13963	-7,7237	-3,0258	-31,493	12,567
13964	-8,5805	-3,0202	-32,025	12,115
13965	20,354	-3,0048	20,877	6,7416
13966	-9,4342	-3,0142	-32,557	11,592
13967	-10,306	-3,0074	-33,072	11,
13968	-8,1901	-3,0303	-30,647	12,088
13969	19,881	-3,0041	21,754	6,8182
13970	-9,0372	-3,0246	-31,177	11,685
13971	-7,8103	-2,9485	-39,679	12,56
13972	-9,9002	-3,0179	-31,7	11,202
13973	19,408	-3,0003	22,631	6,9238
13974	-11,196	-3,002	-33,576	10,359
13975	-10,774	-3,01	-32,213	10,656
13976	-7,3104	-2,958	-40,589	12,888
13977	18,934	-2,9996	23,509	7,0559
13978	-11,663	-3,0034	-32,715	10,062
13979	-6,8221	-2,9574	-41,511	13,247
13980	18,461	-2,9994	24,386	7,2117
13981	-11,573	-3,0208	33,073	10,986
13982	17,99	-2,9992	25,263	7,3897
13983	-8,65	-3,0314	-29,806	11,652
13984	-9,5091	-3,0257	-30,328	11,277
13985	-10,367	-3,0187	-30,851	10,837
13986	-11,241	-3,0105	-31,358	10,332
13987	-12,05	-3,0227	32,199	10,596
13988	17,52	-3,0023	26,143	7,589
13989	-12,131	-3,0045	-31,854	9,7766
13990	17,047	-3,0021	27,021	7,81
13991	-11,069	-3,01	33,942	11,425
13992	-12,519	-3,0225	31,322	10,238
13993	-6,2736	-2,9393	-42,448	13,834
13994	16,575	-3,0017	27,899	8,0505
13995	-10,586	-3,0067	34,821	11,897
13996	-12,986	-3,0202	30,442	9,9059
13997	16,103	-3,0014	28,777	8,3098
13998	-9,1138	-3,0313	-28,957	11,248
13999	-9,9673	-3,0256	-29,477	10,908
14000	-10,1	-3,002	35,702	12,423
14001	-10,833	-3,0187	-29,991	10,497
14002	15,625	-2,9979	29,65	8,5893
14003	-11,71	-3,0108	-30,498	10,026
14004	15,148	-3,0006	30,528	8,8862
14005	-13,453	-3,0157	29,558	9,5969
14006	-12,599	-3,0051	-30,992	9,5043
14007	-9,624	-2,9937	36,599	13,011
14008	14,675	-3,0004	31,404	9,1975
14009	-13,92	-3,0108	28,667	9,3098
14010	14,203	-2,9999	32,281	9,5246
14011	-9,5733	-3,0305	-28,114	10,88
14012	-10,438	-3,0247	-28,625	10,561
14013	-9,1492	-2,9819	37,505	13,678
14014	-11,302	-3,0181	-29,139	10,181
14015	13,733	-2,9992	33,159	9,8669
14016	-12,182	-3,0111	-29,636	9,7365
14017	13,262	-2,9978	34,035	10,225
14018	-13,067	-3,0063	-30,129	9,2465
14019	12,79	-2,9957	34,912	10,601
14020	-14,388	-3,0067	27,762	9,0434
14021	12,317	-2,9932	35,789	10,996
14022	-8,6299	-2,9709	38,451	14,504
14023	11,841	-2,9919	36,666	11,412
14024	-10,034	-3,0291	-27,258	10,539
14025	-10,899	-3,0237	-27,773	10,247
14026	11,361	-2,9954	37,544	11,855
14027	10,891	-3,0035	38,415	12,315
14028	-11,765	-3,0178	-28,278	9,8906
14029	-14,859	-3,0074	26,867	8,7994
14030	10,43	-3,0186	39,291	12,795
14031	-12,648	-3,0117	-28,779	9,4714
14032	-8,1215	-2,9644	39,385	15,449
14033	-10,505	-3,0287	-26,407	10,226
14034	9,978	-3,0358	40,173	13,288
14035	-11,367	-3,0241	-26,917	9,9559
14036	-13,535	-3,0071	-29,266	9,0039
14037	9,5139	-3,0174	41,072	13,804
14038	-12,237	-3,0186	-27,423	9,6206
14039	-15,334	-3,0105	25,985	8,5767
14040	9,0786	-3,0143	41,951	14,268
14041	-13,117	-3,0126	-27,916	9,2245
14042	-7,5855	-2,9523	40,322	16,597
14043	8,6328	-3,0255	42,827	14,695
14044	8,1695	-3,0299	43,7	15,071
14045	-14,003	-3,0082	-28,402	8,7775
14046	-15,813	-3,0155	25,106	8,3751
14047	7,6866	-3,0513	44,57	15,395
14048	-7,0484	-2,9299	41,261	17,935
14049	-10,971	-3,0287	-25,556	9,9429
14050	-11,83	-3,0246	-26,064	9,6937
14051	7,1647	-3,0728	45,44	15,648
14052	-12,699	-3,0193	-26,561	9,3784
14053	-16,297	-3,0219	24,245	8,195
14054	-13,584	-3,0137	-27,054	8,9986
14055	-6,2033	-2,901	42,218	20,308
14056	-14,471	-3,0092	-27,538	8,5676
14057	-16,772	-3,0261	23,393	8,0415
14058	-11,44	-3,0279	-24,706	9,6873
14059	-12,295	-3,0245	-25,212	9,457
14060	-13,172	-3,0195	-25,704	9,1551
14061	-14,044	-3,0142	-26,196	8,7968
14062	-14,938	-3,0096	-26,674	8,375
14063	-17,206	-3,0103	22,539	7,9291
14064	-11,895	-3,0274	-23,851	9,464
14065	-12,766	-3,0238	-24,35	9,244
14066	-13,639	-3,0192	-24,842	8,9587
14067	-14,513	-3,0144	-25,334	8,6117
14068	-15,406	-3,0105	-25,81	8,2005
14069	-17,665	-3,0037	21,672	7,8349
14070	-12,364	-3,0269	-22,996	9,2651
14071	-13,228	-3,0231	-23,497	9,0609
14072	-6,7851	-2,9464	-43,633	12,109
14073	-7,6931	-2,9679	-44,18	10,63
14074	-14,109	-3,0192	-23,985	8,7854
14075	-15,013	-2,9998	-24,45	8,4372
14076	-7,195	-2,9353	-42,882	11,914
14077	-8,1617	-2,9565	-43,298	10,608
14078	-12,861	-3,0043	-22,12	9,0885
14079	-15,875	-3,0114	-24,946	8,0449
14080	-13,699	-3,0228	-22,634	8,9025
14081	-14,576	-3,0195	-23,123	8,6384
14082	-7,7095	-2,9469	-41,97	11,696
14083	-8,6479	-2,9562	-42,41	10,546
14084	-15,451	-3,016	-23,611	8,3086
14085	-18,132	-3,0028	20,801	7,7675
14086	-8,272	-2,9705	-41,02	11,473
14087	-6,4812	-2,8439	44,586	19,133
14088	-9,1422	-2,9614	-41,522	10,45
14089	-7,5567	-2,9465	44,734	15,501
14090	-16,343	-3,0128	-24,082	7,91
14091	-6,9122	-2,8937	43,516	18,42
14092	-13,329	-3,0023	-21,26	8,9519
14093	-7,9148	-2,9555	43,867	15,505
14094	-14,172	-3,0232	-21,777	8,7728
14095	-7,4181	-2,9113	42,593	17,379
14096	-15,07	-3,0032	-22,242	8,5108
14097	-8,3873	-2,9452	42,962	15,096
14098	-8,7131	-2,9571	-40,168	11,346
14099	-9,6272	-2,9674	-40,638	10,34
14100	-7,9564	-2,9343	41,663	16,306
14101	-8,8892	-2,9499	42,057	14,548
14102	-15,945	-3,0024	-22,725	8,1851
14103	-18,611	-3,019	19,92	7,7291
14104	-9,2091	-2,9631	-39,277	11,158
14105	-8,4877	-2,9509	40,732	15,329
14106	-10,122	-2,9746	-39,76	10,201
14107	-9,3984	-2,9605	41,148	13,952
14108	-16,811	-3,0144	-23,218	7,7966
14109	-9,0007	-2,9637	39,805	14,467
14110	-13,791	-3,0033	-20,407	8,849
14111	-9,9007	-2,9706	40,246	13,374
14112	-14,637	-3,0251	-20,92	8,6755
14113	-9,5126	-2,9735	38,898	13,703
14114	-15,513	-3,022	-21,404	8,4251
14115	-10,401	-2,9796	39,347	12,824
14116	-9,7089	-2,9712	-38,396	10,942
14117	-10,613	-2,9827	-38,887	10,04
14118	-10,019	-2,9822	37,989	13,03
14119	-10,9	-2,9884	38,453	12,31
14120	-16,389	-3,0189	-21,888	8,1027
14121	-19,072	-3,0012	19,052	7,7301
14122	-10,19	-2,9802	-37,525	10,716
14123	-10,499	-2,9946	37,078	12,449
14124	-11,091	-2,9906	-38,015	9,8656
14125	-11,374	-2,9955	37,558	11,846
14126	-17,278	-3,016	-22,354	7,7066
14127	-10,983	-3,0008	36,194	11,927
14128	-14,228	-3,0299	-19,584	8,7828
14129	-11,852	-3,0003	36,675	11,406
14130	-15,101	-3,0266	-20,07	8,6099
14131	-11,454	-3,0055	35,309	11,459
14132	-15,981	-3,0235	-20,546	8,3621
14133	-12,331	-3,0041	35,796	10,988
14134	-10,678	-2,9887	-36,657	10,465
14135	-11,573	-2,9979	-37,151	9,6688
14136	-11,933	-3,0086	34,431	11,024
14137	-12,803	-3,0055	34,917	10,595
14138	-16,858	-3,0202	-21,027	8,04
14139	-19,541	-2,9975	18,181	7,7661
14140	-11,165	-2,9966	-35,797	10,202
14141	-12,427	-3,0205	33,558	10,612
14142	-12,05	-3,0039	-36,283	9,4617
14143	-13,281	-3,0166	34,04	10,216
14144	-17,747	-3,0174	-21,49	7,6418
14145	-12,894	-3,0216	32,681	10,242
14146	-14,694	-3,0319	-18,727	8,7475
14147	-13,75	-3,0164	33,164	9,8583
14148	-15,572	-3,0287	-19,208	8,5775
14149	-13,363	-3,0209	31,803	9,8927
14150	-16,45	-3,0252	-19,686	8,3311
14151	-14,222	-3,0149	32,283	9,5152
14152	-11,631	-3,0015	-34,933	9,9486
14153	-12,516	-3,0075	-35,418	9,2525
14154	-13,832	-3,0181	30,921	9,5647
14155	-14,689	-3,005	31,403	9,1903
14156	-17,327	-3,0223	-20,166	8,0069
14157	-14,301	-3,0139	30,035	9,2567
14158	-20,012	-2,9983	17,307	7,8437
14159	-15,16	-3,0075	30,513	8,8787
14160	-12,097	-3,0038	-34,07	9,6928
14161	-12,983	-3,0091	-34,553	9,0374
14162	-14,772	-3,0094	29,136	8,9667
14163	-15,629	-3,004	29,613	8,5852
14164	-18,215	-3,0198	-20,626	7,6041
14165	-15,156	-3,0328	-17,883	8,7499
14166	-15,243	-3,0065	28,236	8,6969
14167	-16,034	-3,0299	-18,362	8,5812
14168	-16,106	-3,0038	28,726	8,3063
14169	-12,564	-3,0049	-33,206	9,4388
14170	-13,45	-3,0099	-33,687	8,8198
14171	-15,721	-3,008	27,349	8,4452
14172	-16,58	-3,0071	27,839	8,0468
14173	-16,918	-3,0276	-18,828	8,3344
14174	-16,197	-3,0115	26,472	8,2156
14175	-17,797	-3,0251	-19,306	8,0058
14176	-17,058	-3,0109	26,967	7,8051
14177	-13,031	-3,0055	-32,341	9,1901
14178	-13,917	-3,0103	-32,822	8,6024
14179	-16,675	-3,0164	25,608	8,0056
14180	-17,539	-3,0157	26,106	7,5804
14181	-13,498	-3,0057	-31,477	8,9492
14182	-14,384	-3,0107	-31,956	8,3875
14183	-17,158	-3,0222	24,746	7,8149
14184	-18,016	-3,0203	25,247	7,3773
14185	-13,965	-3,0064	-30,612	8,7175
14186	-14,86	-3,0115	-31,089	8,1714
14187	-17,624	-3,0256	23,889	7,6543
14188	-18,48	-3,0213	24,385	7,2023
14189	-14,432	-3,0073	-29,746	8,4965
14190	-15,326	-3,0122	-30,222	7,9674
14191	-18,086	-3,0256	23,022	7,5199
14192	-18,945	-3,0204	23,51	7,0499
14193	-14,899	-3,008	-28,881	8,2871
14194	-15,793	-3,0127	-29,355	7,7705
14195	-20,481	-3,0152	16,417	7,9745
14196	-18,683	-3,0223	-19,763	7,5962
14197	-15,365	-3,0087	-28,015	8,0905
14198	-18,537	-3,0046	22,154	7,416
14199	-16,259	-3,0128	-28,488	7,5823
14200	-19,403	-3,0172	22,634	6,926
14201	-15,833	-3,0093	-27,149	7,9075
14202	-15,625	-3,0343	-17,026	8,7933
14203	-16,725	-3,0129	-27,621	7,4041
14204	-16,505	-3,032	-17,502	8,6238
14205	-16,3	-3,0101	-26,283	7,7393
14206	-17,383	-3,03	-17,983	8,3727
14207	-17,192	-3,0135	-26,753	7,2373
14208	-20,949	-3,013	15,542	8,1522
14209	-18,266	-3,0277	-18,447	8,0391
14210	-19,005	-3,0029	21,279	7,3333
14211	-16,767	-3,0114	-25,417	7,5873
14212	-19,881	-3,0029	21,757	6,8181
14213	-17,658	-3,0144	-25,886	7,0834
14214	-16,086	-3,0365	-16,188	8,878
14215	-19,151	-3,0248	-18,9	7,6209
14216	-16,966	-3,0336	-16,662	8,7055
14217	-19,477	-3,0156	20,401	7,2798
14218	-17,234	-3,0127	-24,551	7,4527
14219	-20,35	-3,0098	20,879	6,7432
14220	-18,125	-3,0155	-25,019	6,9441
14221	-17,851	-3,0322	-17,128	8,451
14222	-21,417	-3,0093	14,666	8,3885
14223	-17,701	-3,0138	-23,686	7,3373
14224	-18,735	-3,0303	-17,588	8,1098
14225	-18,592	-3,0017	-24,147	6,8216
14226	-19,947	-3,002	19,527	7,2591
14227	-20,825	-3,001	20,002	6,6954
14228	-16,567	-3,0062	-15,293	9,0177
14229	-17,451	-3,0032	-15,761	8,8427
14230	-19,619	-3,0275	-18,037	7,681
14231	-18,168	-3,0145	-22,82	7,2427
14232	-18,32	-3,0349	-16,276	8,5713
14233	-19,057	-3,0007	-23,282	6,7168
14234	-20,419	-2,999	18,652	7,2742
14235	-21,297	-2,9995	19,125	6,6834
14236	-19,214	-3,0071	-16,696	8,229
14237	-18,635	-3,0159	-21,954	7,1707
14238	-21,885	-3,0053	13,791	8,6907
14239	-19,525	-3,0011	-22,415	6,6314
14240	-20,889	-3,0097	17,77	7,3318
14241	-21,769	-3,0061	18,248	6,7096
14242	-20,098	-3,0021	-17,151	7,7847
14243	-22,352	-3,0011	12,916	9,0715
14244	-17,03	-3,0054	-14,449	9,1995
14245	-21,36	-3,0088	16,894	7,4327
14246	-17,912	-3,0089	-14,92	9,0184
14247	-22,242	-3,0056	17,371	6,7773
14248	-19,103	-3,0178	-21,088	7,1235
14249	-19,992	-3,0015	-21,548	6,5681
14250	-18,783	-3,0388	-15,428	8,738
14251	-21,831	-3,0072	16,018	7,5835
14252	-19,681	-3,0048	-15,836	8,3894
14253	-22,714	-3,0049	16,494	6,8936
14254	-17,493	-2,9991	-13,602	9,4344
14255	-18,363	-3,0434	-14,12	9,2315
14256	-22,797	-2,9704	12,121	9,4896
14257	-22,302	-3,0048	15,142	7,7919
14258	-19,25	-3,0436	-14,584	8,9518
14259	-23,187	-3,0043	15,618	7,0662
14260	-20,564	-3,0027	-16,29	7,9299
14261	-20,144	-3,007	-14,983	8,5984
14262	-19,57	-3,02	-20,222	7,1036
14263	-23,285	-2,9819	11,261	10,04
14264	-20,459	-3,0026	-20,682	6,5296
14265	-17,954	-3,0045	-12,771	9,7191
14266	-18,834	-3,0051	-13,226	9,5307
14267	-21,029	-3,0081	-15,436	8,1223
14268	-22,773	-3,0025	14,266	8,0671
14269	-19,706	-3,0478	-13,739	9,2237
14270	-23,659	-3,0038	14,741	7,3054
14271	-23,844	-3,046	10,408	10,729
14272	-20,603	-3,0165	-14,141	8,8587
14273	-18,414	-3,0434	-11,969	10,052
14274	-23,243	-3,0007	13,39	8,4213
14275	-19,278	-3,0455	-12,439	9,8496
14276	-24,131	-3,0027	13,864	7,6242
14277	-20,037	-3,0216	-19,357	7,114
14278	-20,919	-3,0192	-19,827	6,519
14279	-20,156	-3,0548	-12,901	9,5541
14280	-21,492	-3,01	-14,584	8,3693
14281	-21,053	-3,0565	-13,345	9,1581
14282	-24,309	-2,9127	9,3728	11,83
14283	-23,713	-2,9981	12,513	8,8704
14284	-20,504	-3,0236	-18,491	7,158
14285	-24,603	-3,0008	12,987	8,0399
14286	-21,387	-3,0201	-18,96	6,5382
14287	-21,945	-3,0544	-13,778	8,6552
14288	-24,684	-3,0042	8,457	13,077
14289	-18,869	-3,0014	-11,069	10,492
14290	-24,166	-2,9751	11,713	9,3697
14291	-19,748	-3,0091	-11,523	10,3
14292	-25,067	-2,9966	12,1	8,5854
14293	-20,979	-3,0014	-17,617	7,2392
14294	-21,861	-3,0022	-18,084	6,5923
14295	-20,624	-3,0128	-11,985	9,9944
14296	-19,32	-3,0023	-10,184	11,013
14297	-21,517	-3,0215	-12,448	9,5814
14298	-20,252	-3,018	-10,733	10,754
14299	-24,644	-2,9888	10,741	10,157
14300	-21,446	-3,0027	-16,753	7,363
14301	-25,537	-2,9904	11,217	9,266
14302	-22,328	-3,004	-17,22	6,6866
14303	-21,137	-3,0392	-11,151	10,484
14304	-25,005	-2,9841	9,6823	11,252
14305	-22,412	-3,0168	-12,888	9,0587
14306	-26,033	-2,9958	10,372	10,047
14307	-21,979	-3,0203	-11,615	10,05
14308	-25,143	-2,9938	7,5401	14,732
14309	-25,56	-2,9805	8,9271	12,277
14310	-21,912	-3,0086	-15,895	7,5332
14311	-26,504	-2,9791	9,4286	11,215
14312	-22,795	-3,0069	-16,357	6,8268
14313	-22,866	-3,0196	-12,056	9,5185
14314	-25,919	-3,1045	7,9068	13,879
14315	-26,984	-3,1094	8,6596	12,288
14316	-21,536	-3,0816	-10,522	10,879
14317	-25,626	-3,0513	6,5101	17,258
14318	-22,371	-3,024	-10,887	10,537
14319	-26,402	-3,1431	7,0639	15,545
14320	-27,42	-3,1174	7,8323	13,636
14321	-22,372	-3,0426	-15,061	7,7484
14322	-23,257	-3,0351	-15,504	7,0188
14323	-26,928	-3,0129	6,3222	17,181
14324	-27,8	-2,9943	6,9528	15,343
14325	-23,284	-3,082	-11,304	10,019
14326	-22,837	-3,0493	-14,211	8,0301
14327	-19,779	-3,068	-9,2015	11,681
14328	-23,722	-3,0401	-14,646	7,2739
14329	-20,828	-3,0878	-9,6539	11,549
14330	-27,148	-3,0565	5,7934	18,628
14331	-19,935	-2,9925	-8,1132	12,499
14332	-21,898	-3,2009	-9,7185	11,58
14333	-28,284	-3,0076	6,1011	16,827
14334	-20,901	-3,1261	-8,4144	12,558
14335	-22,945	-3,1404	-10,078	11,221
14336	-21,333	-3,1393	-8,6991	12,407
14337	-20,305	-3,0205	-7,3054	13,277
14338	-23,704	-3,0815	-10,483	10,685
14339	-22,175	-3,1224	-9,0774	12,189
14340	-21,011	-3,0237	-7,5535	13,406
14341	-23,21	-3,12	-9,3328	11,952
14342	-22,022	-3,0321	-7,9284	13,411
14343	-23,304	-3,0124	-13,327	8,4092
14344	-22,707	-3,0263	-8,2092	13,281
14345	-24,193	-3,0062	-13,771	7,6156
14346	-23,66	-3,0368	-8,4439	13,143
14347	-23,762	-3,0165	-12,484	8,8558
14348	-24,655	-3,0076	-12,914	8,0424
14349	-24,203	-3,0586	-11,682	9,3747
14350	-25,11	-3,0429	-12,089	8,5544
14351	-24,208	-3,007	-9,5727	11,608
14352	-24,649	-3,0546	-10,838	10,055
14353	-24,584	-3,0134	-8,7272	12,705
14354	-25,564	-3,0367	-11,234	9,2262
14355	-25,11	-3,0062	-9,943	10,951
14356	-26,021	-3,0234	-10,359	10,086
14357	-25,539	-3,0094	-9,0728	12,035
14358	-26,478	-3,0044	-9,4568	11,175
14359	-28,275	-2,8854	-6,2604	16,464
14360	-27,341	-3,0945	-5,5408	19,139
14361	-26,976	-3,1517	-5,6266	19,209
14362	-20,665	-3,0399	-6,3961	14,318
14363	-20,96	-3,0202	-5,4718	15,548
14364	-21,473	-3,0347	-6,7015	14,612
14365	-21,806	-3,0271	-5,8005	16,203
14366	-22,277	-3,0867	-7,0192	14,773
14367	-22,657	-3,0439	-6,1348	16,684
14368	-23,026	-3,1111	-7,2834	14,782
14369	-23,504	-3,0256	-6,4436	16,83
14370	-24,021	-3,0214	-7,593	14,574
14371	-24,361	-3,0388	-6,7653	16,536
14372	-24,909	-3,0236	-7,8793	14,102
14373	-25,209	-3,0522	-7,0581	15,875
14374	-25,972	-3,1291	-7,288	15,221
14375	-25,975	-3,1136	-8,0337	13,622
14376	-26,97	-2,9742	-8,5786	12,407
14377	-27,421	-3,0473	-7,7359	13,814
14378	-27,714	-3,0368	-6,813	15,543
14379	-26,816	-3,2357	-7,225	15,084
14380	-27,103	-3,219	-6,6403	16,259
14381	-26,307	-3,2124	-6,7494	16,383
14382	-26,769	-3,2093	-6,3188	17,292
14383	-25,575	-3,1676	-6,2813	18,063
14384	10,736	-3,018	-36,637	10,422
14385	3,8188	-0,50721	47,938	21,278
14386	-20,534	-3,0228	3,1978	16,258
14387	-6,3124	-2,4015	46,397	16,918
14388	-0,23384	-2,6189	39,432	15,285
14389	30,458	-1,5331	-1,9303	21,197
14390	0,23657	-2,6431	-21,111	9,5994
14391	-26,136	-3,1908	-5,6358	20,017
14392	4,2655	-4,1506	48,038	19,654
14393	29,162	-0,42336	-1,9131	23,424
14394	27,735	-2,7355	-4,9504	20,517
14395	-26,375	-2,5442	5,0085	23,341
14396	-9,7259	-2,0418	4,3213	9,4944
14397	15,892	-2,3354	9,3128	10,51
14398	3,2445	-2,4887	-32,134	15,495
14399	0,56993	-2,3999	23,479	9,9749
14400	-7,3388	-2,0899	4,2709	8,8103
14401	-4,5468	-2,1665	39,392	18,883
14402	-26,171	-2,5712	-5,58	20,464
14403	-23,342	-2,3761	10,057	11,14
14404	-6,1383	-2,7111	-4,4942	8,5226
14405	-0,63585	-2,6653	33,367	14,17
14406	26,998	-0,49291	4,347	25,688
14407	23,214	-2,5666	5,9337	17,957
14408	29,842	-2,1893	-2,4628	21,604
14409	2,0835e-002	-2,5541	22,277	9,4917
14410	25,781	-2,0132	-6,2049	18,261
14411	0,64203	-2,1619	-17,974	8,2179
14412	12,607	-2,2617	1,6384	11,197
14413	3,2146e-003	-2,5325	19,05	8,2488
14414	-26,454	-2,6296	6,0851	18,252
14415	-20,698	-1,9761	3,1084	16,545
14416	-0,35753	-1,9559	-24,455	11,31
14417	-5,2734	-2,7003	-9,9191	7,4228
14418	5,7415	-2,4274	-7,0874	7,9384
14419	27,527	-2,2477	-7,485	14,172
14420	-8,6128	-2,4812	9,5162	8,1728
14421	-0,22461	-1,9444	-39,802	24,579
14422	25,14	-2,3748	-8,1999	13,61
14423	-21,359	-2,6407	-8,1111	12,979
14424	5,8431	-2,0359	44,384	22,092
14425	13,306	-1,9082	0,43826	11,546
14426	-9,5161	-2,3191	-3,0777	9,6531
14427	0,26759	-2,7367	20,917	8,9483
14428	-6,6428	-2,8173	8,4265	7,8647
14429	3,7331	-2,508	30,863	12,877
14430	4,6285e-003	-2,5412	11,023	6,8103
14431	3,7706	-2,4628	33,358	13,997
14432	-3,1212	-2,559	-2,3672	8,3474
14433	-3,3747	-2,616	9,006	7,2244
14434	1,8197	-2,5507	9,9825	6,9555
14435	-3,0521	-2,404	0,20214	8,4786
14436	4,1411	-2,9803	39,338	19,099
14437	2,8373	-2,733	-30,224	14,371
14438	-26,433	-3,934	-4,6382	25,312
14439	15,185	-2,482	10,848	9,8253
14440	6,6378	-2,7684	40,663	18,377
14441	6,3701	-2,7575	38,892	17,085
14442	0,79595	-2,689	37,435	15,678
14443	-0,88736	-0,49872	40,333	16,056
14444	11,207	-2,6878	9,6505	8,9029
14445	7,8764	-2,5265	7,5501	8,3132
14446	-0,23827	-2,2783	7,7683	7,2574
14447	6,411	-2,6365	5,7352	8,3324
14448	3,88	-2,6434	3,1232	8,3474
14449	-26,733	-2,5634	-5,3448	20,737
14450	-3,3125	-2,3068	2,1616	8,4071
14451	-0,40643	-2,3959	1,8272	8,2726
14452	19,635	-3,0343	1,9862	15,062
14453	1,741	-2,6419	34,16	14,488
14454	11,384	-2,2504	0,60613	10,595
14455	-2,7319	-2,7226	39,02	17,685
14456	-1,9942	-2,4383	-1,7224	8,3203
14457	-5,9759	-2,2098	3,1236	8,69
14458	17,207	-2,3445	8,8044	11,14
14459	0,61369	-2,6142	-26,109	12,191
14460	1,544	-2,4018	28,71	12,119
14461	4,0024	-2,552	10,862	7,0944
14462	2,3594	-2,5281	1,1536	8,3996
14463	-8,3638	-2,5619	-0,15705	9,4941
14464	-10,711	-2,7279	8,5736	8,9495
14465	-8,5155	-2,4304	7,9274	8,4084
14466	-5,9282	-2,3213	48,415	14,843
14467	-20,989	-0,49816	-2,6898	16,925
14468	25,938	-1,9945	5,4308	21,678
14469	-6,6231	-2,6964	0,28141	9,0506
14470	-5,1757	-2,3291	5,4056	8,1451
14471	27,854	-2,4273	4,5303	21,709
14472	5,4749	-2,4781	33,473	13,766
14473	25,726	-1,8481	-5,4003	21,877
14474	8,434	-2,4692	4,8004	9,0117
14475	-5,2287	-2,2428	44,805	25,82
14476	-7,8691	-2,3256	3,7453	9,0325
14477	-11,375	-2,5876	-2,0174	10,529
14478	4,2713	-3,0262	48,465	18,335
14479	-7,9917	-2,5609	-3,5184	9,1207
14480	-4,0192	-2,1014	4,9454	8,0685
14481	8,5735	-2,3547	-6,6024	8,7347
14482	5,2904	-2,6776	37,58	16,595
14483	-4,4207	-3,1969	-3,3351	8,3764
14484	6,1239	-2,1466	-0,34866	8,9333
14485	10,938	-2,987	-3,7621	10,079
14486	7,4841	-2,6057	-1,8258	9,1763
14487	-6,2577	-2,393	1,916	8,8764
14488	10,344	-2,571	-5,5353	9,5141
14489	19,884	-3,0016	-3,0292	15,399
14490	-10,211	-2,5289	-4,6235	9,6371
14491	-2,0687	-1,9885	50,151	16,483
14492	0,15413	-1,508	50,669	16,338
14493	-12,218	-1,8772	0,14764	11,004
14494	7,59	-2,6491	0,33337	9,2933
14495	11,315	-2,6758	-7,3382	9,501
14496	-27,137	-2,0429	-5,0917	21,099
14497	-0,67214	-2,6757	-5,9036	7,6053
14498	6,1442	-2,0959	2,9164	8,7552
14499	-1,2873	-2,7084	-3,4405	8,0776
14500	4,3712	-2,2845	-1,9704	8,5353
14501	2,3092	-2,2738	-7,0318	7,4658
14502	-2,4178	-1,9835	9,5707	7,0508
14503	-27,163	-1,4454	-4,6281	23,397
14504	12,914	-2,6688	-3,6274	11,004
14505	0,63764	-2,5154	0,80002	8,3301
14506	-13,082	-2,5849	-10,414	9,4469
14507	4,6046	-2,2547	-8,459	7,4912
14508	-1,3952	-2,3383	8,1206	7,2159
14509	-0,7103	-1,8572	51,518	16,422
14510	-22,572	-2,4507	-7,6873	13,938
14511	-27,363	-2,3557	-4,3869	24,504
14512	-0,34415	-2,1071	-20,033	9,105
14513	0,76926	-2,3246	-28,633	13,683
14514	-4,6711	-2,3037	-36,367	16,981
14515	-5,2869	-1,9651	-44,342	15,866
14516	-27,022	-0,97816	-3,9979	29,1
14517	1,4526	-1,5452	-50,114	5,3366
14518	-2,9587	-0,89215	-48,397	9,1623
14519	-2,1669	-2,6896	-39,759	23,794
14520	5,4192	-3,109	43,52	23,995
14521	-27,387	-1,6251	-4,5752	23,302
14522	24,766	-2,0904	5,9431	19,354
14523	30,321	-1,2718	-1,4387	21,528
14524	-5,275	-2,1699	-37,624	16,635
14525	23,667	-2,4391	-7,0453	15,514
14526	4,7503	-2,7289	6,3029	7,9091
14527	5,9967	-2,7185	-44,102	13,6
14528	5,3419	-2,329	44,094	24,807
14529	18,409	-2,3273	-8,4442	11,758
14530	16,897	-2,5092	-9,6573	10,75
14531	0,36907	-2,656	-28,986	13,926
14532	-1,9725	-2,216	-29,156	13,873
14533	-29,601	-2,3577	4,695	18,036
14534	4,738	-0,50206	-44,307	20,036
14535	-2,7973	-2,6856	-50,376	6,3849
14536	-26,479	-3,0205	5,218	21,916
14537	8,8033	-2,646	6,7427	8,7289
14538	-4,4224	-2,3674	1,9232	8,554
14539	1,1796	-2,7821	0,67311	8,3473
14540	10,187	-2,5412	4,4639	9,6492
14541	20,642	-4,5	1,8942	15,937
14542	20,962	-4,4928	-2,7113	16,884
14543	10,605	-2,5062	1,3302	10,239
14544	8,4906	-2,8387	0,7157	9,5218
14545	5,2983	-2,7682	2,9116	8,5805
14546	5,1808	-2,7311	-1,1345	8,726
14547	-4,8918	-2,6568	1,7471	8,6352
14548	1,7879	-2,5291	-4,9155	7,844
14549	2,4349	-2,5968	3,5762	8,1459
14550	5,4677	-2,5741	-5,7992	8,135
14551	9,4459	-2,8845	-5,1461	9,2977
14552	-5,364	-2,4234	-1,8308	8,7148
14553	-5,6418	-2,6125	-2,9832	8,6325
14554	7,2535	-2,4102	-5,152	8,6298
14555	-3,8367	-2,7006	-5,93	7,8468
14556	9,0126	-2,3182	-9,0632	8,4161
14557	-26,58	-2,5276	-5,1674	22,258
14558	16,46	-2,6603	-9,1742e-003	13,403
14559	0,74358	-2,5812	-10,728	6,8508
14560	-11,616	-2,6701	9,3162	9,0977
14561	21,772	-2,5313	-8,2219	12,957
14562	30,834	-2,2524	-0,54093	21,517
14563	4,6917	-2,395	-34,476	15,963
14564	-10,137	-2,7828	7,1048e-002	10,105
14565	-7,6961	-2,2503	-8,0206	8,2519
14566	-7,467	-2,3641	-0,87636	9,226
14567	4,4335	-2,4796	-39,437	18,933
14568	-11,251	-2,6818	-11,483	8,7616
14569	1,2475	-2,5028	-27,659	13,056
14570	-0,36978	-2,7395	-27,305	12,889
14571	2,3099	-2,8877	-27,322	12,753
14572	4,9621	-2,3601	49,193	16,371
14573	0,17697	-2,3759	-1,852	8,251
14574	-3,6645	-2,9332	-39,52	20,864
14575	2,1578	-2,506	-50,358	6,1187
14576	26,135	-4,4922	4,6509	25,968
14577	6,1218	-2,6928	46,477	17,579
14578	1,2832	-0,97666	-49,334	4,6704
14579	-5,3268	-2,5834	-39,568	16,898
14580	-3,1744	-2,5038	50,543	16,227
14581	30,28	-3,6513	0,18182	21,69
14582	-4,5864	-4,4653	-43,348	21,027
14583	4,8222	-4,4856	-44,13	19,455
14584	30,492	-3,1982	1,0278	21,424
14585	4,5853	-2,7068	10,056	7,245
14586	-4,5676	-2,0089	-48,909	8,5485
14587	-5,001	-4,672	44,134	26,006
14588	-1,6794	-3,631	-50,647	5,8467
14589	29,651	-4,141	0,54408	22,44
14590	-29,985	-4,152	-1,5933	22,11
14591	-22,67	-2,5857	-9,3059	11,979
14592	7,7951	-2,6296	5,6037	8,6774
14593	-4,8158	-0,97931	44,476	28,01
14594	-20,595	-4,2595	2,921	16,167
14595	2,638e-002	-0,50437	-40,243	26,483
14596	4,819	-0,52544	44,151	27,658
14597	20,551	-0,50577	1,9413	15,857
14598	26,203	-0,51305	-4,6425	25,967
14599	0,87098	-4,5114	40,367	16,054
14600	2,0435e-002	-4,5015	-40,224	26,574
14601	-21,024	-4,5035	-2,657	17,027
14602	4,4292	-4,0213	44,376	32,069
14603	-21,022	-0,50874	2,6842	17,064
14604	-26,52	-4,5928	4,6052	25,181
14605	-29,381	-4,1759	-1,6598	22,779
14606	21,036	-0,5002	-2,6551	17,064
14607	3,2373	-4,5391	-48,289	9,8825
14608	4,8316	-3,003	46,192	25,654
14609	5,049	-3,0948	44,979	27,229
14610	4,4869	-3,0395	47,434	21,75
14611	5,0884	-2,0728	44,969	26,699
14612	4,2996	-2,0302	47,389	23,055
14613	4,8303	-2,0031	46,189	25,718
14614	-20,261	-1,9892	-2,127	15,52
14615	-20,413	-2,9989	-2,1413	15,715
14616	-20,21	-1,9928	-0,96566	14,75
14617	-20,229	-3,0099	-0,98964	14,746
14618	-20,165	-3,0042	5,8176e-004	14,401
14619	-20,159	-1,9877	-3,228e-003	14,407
14620	-20,209	-3,0085	0,98775	14,778
14621	-20,222	-1,9943	0,98717	14,761
14622	-20,387	-2,9848	2,1914	15,831
14623	-20,411	-1,994	2,135	15,772
14624	20,437	-1,9898	-2,1316	15,744
14625	20,163	-1,9887	1,8539e-002	14,403
14626	20,222	-1,9901	-0,988	14,735
14627	20,405	-2,9938	-2,1535	15,747
14628	20,17	-1,9988	1,1911	14,932
14629	20,203	-3,0016	-0,98744	14,745
14630	20,154	-3,0092	4,8812e-003	14,406
14631	20,182	-2,9884	1,1649	14,915
14632	3,7453	-1,9259	48,339	19,841
14633	3,8721	-3,012	48,445	19,289
14634	2,8609	-3,0204	48,786	18,921
14635	2,5262	-2,1054	48,966	18,325
14636	1,5934	-3,0015	49,532	15,733
14637	1,6567	-2,0025	49,487	15,642
14638	0,62262	-2,0114	49,768	15,37
14639	0,52006	-3,0052	49,79	15,462
14640	-0,60104	-3,0003	49,936	15,861
14641	-1,7656	-3,0003	49,65	16,657
14642	-3,1756	-3,1368	49,	18,413
14643	-0,52923	-2,0107	49,972	15,829
14644	-3,6279	-2,938	48,337	19,784
14645	-4,018	-2,8446	47,254	26,551
14646	-1,7888	-1,8938	49,599	16,297
14647	-4,6456	-2,9753	46,231	27,753
14648	-2,6953	-2,0719	49,19	17,649
14649	-5,2121	-2,8878	44,894	25,675
14650	-3,8572	-2,1227	48,076	20,697
14651	-4,2133	-1,9989	47,222	25,095
14652	-5,0819	-1,8792	45,228	26,619
14653	-4,8284	-1,9987	46,191	25,708
14654	4,7879	-2,0606	43,272	26,901
14655	4,6377	-3,1303	43,35	27,986
14656	4,1419	-2,026	42,409	25,65
14657	4,1066	-3,0311	42,445	25,737
14658	3,4335	-3,0348	41,656	23,039
14659	2,6661	-3,0316	41,027	20,144
14660	1,6524	-3,9888	40,698	17,408
14661	2,6994	-2,0237	41,	20,246
14662	1,5319	-3,1345	40,509	17,207
14663	0,76681	-1,9619	40,404	16,133
14664	1,6923	-2,0982	40,609	17,514
14665	-0,29401	-1,8451	40,168	15,7
14666	-1,6018	-2,0805	40,519	17,323
14667	-4,7443	-1,9562	43,257	27,239
14668	-4,0991	-1,9602	42,35	25,452
14669	-3,4052	-1,966	41,642	22,938
14670	-2,6755	-1,9834	41,016	20,17
14671	20,682	-2,0075	2,77	16,503
14672	21,593	-2,0097	3,55	19,054
14673	22,415	-1,9997	4,0756	21,469
14674	23,276	-1,9873	4,4718	23,693
14675	25,263	-1,9076	4,969	24,721
14676	24,21	-1,9798	4,7457	25,298
14677	26,179	-1,7665	5,0627	23,768
14678	26,733	-3,0475	4,8453	23,765
14679	27,875	-3,0458	3,7646	25,452
14680	27,86	-1,9357	3,8946	24,832
14681	21,448	-1,9865	-3,3416	18,559
14682	22,39	-1,9726	-4,0259	21,577
14683	28,538	-3,0562	3,0282	24,385
14684	23,289	-1,9688	-4,4484	23,923
14685	29,018	-3,1694	2,218	23,429
14686	29,293	-3,9625	1,3392	22,695
14687	28,855	-2,1464	2,1502	24,088
14688	29,561	-3,133	1,283	22,218
14689	24,225	-1,9558	-4,7358	25,441
14690	29,286	-2,2164	1,3395	22,318
14691	25,426	-1,9604	-4,9506	25,286
14692	29,667	-2,2344	0,7665	22,133
14693	29,708	-1,9783	-0,73582	22,135
14694	26,957	-2,4638	-4,5765	24,534
14695	29,445	-1,846	-1,5674	22,47
14696	28,128	-2,1149	-3,9967	23,047
14697	28,86	-1,8742	-2,8969	23,299
14698	21,468	-2,9853	-3,4462	18,55
14699	29,921	-3,1185	0,27224	22,056
14700	22,397	-2,9941	-4,0753	21,455
14701	29,829	-3,0053	-1,1848	22,271
14702	23,293	-2,9814	-4,4973	23,629
14703	29,464	-3,0206	-1,9774	22,418
14704	24,221	-2,9743	-4,7748	25,036
14705	28,856	-2,99	-3,0657	23,003
14706	25,432	-2,9971	-4,9722	24,897
14707	27,861	-3,1668	-4,066	23,814
14708	26,675	-3,125	-4,5399	26,036
14709	20,702	-3,0064	2,7479	16,525
14710	21,607	-3,0103	3,521	19,132
14711	22,445	-3,01	4,0506	21,7
14712	25,424	-2,8718	5,1661	23,529
14713	23,28	-2,9996	4,4774	23,704
14714	24,228	-2,9759	4,7702	25,108
14715	0,27319	-3,2133	40,192	15,714
14716	-0,76661	-3,0306	40,277	16,071
14717	-4,9704	-3,0381	43,369	26,014
14718	-1,717	-3,0108	40,576	17,549
14719	-4,1222	-2,9776	42,295	25,397
14720	-2,6629	-2,9965	41,	20,168
14721	-3,4222	-2,9716	41,618	22,936
14722	-1,2208	-4,0262	39,672	16,453
14723	6,2456e-002	-3,9935	40,156	15,53
14724	-0,82923	-4,0469	39,215	15,948
14725	-0,92727	-4,0311	40,289	16,049
14726	-1,7933	-4,0222	40,578	17,682
14727	-2,1311	-4,0465	39,505	17,685
14728	-3,1836	-3,9957	40,144	19,863
14729	-1,5597	-4,0503	38,566	16,408
14730	-2,7189	-4,0035	41,016	20,348
14731	-3,7644	-3,9987	39,217	18,805
14732	-2,9895	-4,055	38,563	17,617
14733	-3,458	-3,9897	41,594	22,98
14734	-2,2972	-4,0381	37,889	16,567
14735	-3,99	-3,9856	40,742	21,486
14736	-4,8134	-3,9294	39,722	19,39
14737	-4,3514	-4,009	38,338	17,667
14738	-4,1633	-3,9784	42,272	25,105
14739	-5,1342	-3,9443	38,874	18,059
14740	-4,8866	-3,9902	37,463	16,624
14741	-3,629	-4,046	37,742	16,977
14742	-4,7955	-3,9674	41,281	22,066
14743	-4,1884	-4,0456	36,913	16,251
14744	-5,6479	-3,9501	37,972	16,811
14745	-2,9626	-4,0243	37,116	16,28
14746	-4,7592	-4,0662	36,083	15,51
14747	-5,371	-4,0103	36,608	15,741
14748	-5,1407	-4,031	35,502	15,016
14749	-6,1796	-4,0057	37,029	15,717
14750	-5,7175	-4,0274	35,707	14,959
14751	-5,3611	-3,9789	40,357	19,848
14752	-6,4317	-4,0774	36,349	15,096
14753	-3,5531	-4,0469	36,318	15,778
14754	-5,9173	-3,9578	39,405	18,113
14755	-4,1271	-4,0623	35,507	15,204
14756	-6,459	-3,9915	38,483	16,709
14757	-4,9346	-4,0771	34,756	14,605
14758	-6,9651	-3,9899	37,518	15,554
14759	-5,8564	-4,0374	34,103	13,995
14760	-7,4083	-3,9745	36,592	14,663
14761	-7,0254	-3,9744	35,089	14,056
14762	-7,4797	-3,9807	34,18	13,407
14763	-7,9172	-3,9776	35,644	13,848
14764	-6,5835	-3,983	33,578	13,497
14765	-8,3908	-3,9901	34,732	13,182
14766	-8,0344	-3,9834	33,337	12,815
14767	-7,1696	-3,9915	32,757	12,929
14768	-8,8996	-3,9909	33,855	12,589
14769	-8,5416	-3,9988	32,444	12,285
14770	-7,7063	-3,9967	31,924	12,424
14771	-9,3929	-4,0011	32,962	12,068
14772	-9,0294	-4,0059	31,568	11,82
14773	-8,2014	-4,0061	31,057	11,964
14774	-9,5071	-4,0095	30,701	11,403
14775	-8,6664	-4,011	30,179	11,549
14776	-9,9688	-4,0104	29,821	11,024
14777	-9,1256	-4,0124	29,311	11,171
14778	-9,5779	-4,0095	28,43	10,822
14779	-9,8748	-4,0066	32,081	11,607
14780	-10,434	-4,01	28,952	10,677
14781	-10,039	-4,0099	27,561	10,5
14782	-10,891	-4,0083	28,075	10,359
14783	-10,501	-4,0077	26,681	10,201
14784	-11,349	-4,0061	27,194	10,065
14785	-10,355	-4,0098	31,208	11,192
14786	-10,955	-4,005	25,795	9,9275
14787	-10,817	-4,0105	30,335	10,819
14788	-11,809	-4,004	26,306	9,7955
14789	-11,421	-4,006	24,908	9,6763
14790	-12,273	-4,0028	25,413	9,549
14791	-11,282	-4,0094	29,453	10,475
14792	-11,882	-4,0052	24,02	9,4519
14793	-11,746	-4,0074	28,571	10,159
14794	-12,743	-4,0036	24,517	9,3263
14795	-12,353	-4,0081	23,138	9,2531
14796	-12,209	-4,0051	27,684	9,8676
14797	-12,823	-4,0118	22,279	9,0849
14798	-13,213	-4,0064	23,636	9,1315
14799	-13,284	-4,0086	21,427	8,9468
14800	-13,756	-4,0152	20,575	8,8375
14801	-14,205	-4,0108	19,712	8,7625
14802	-13,694	-4,0102	22,767	8,9626
14803	-14,666	-4,0143	18,852	8,7216
14804	-15,122	-4,013	17,993	8,7184
14805	-12,671	-4,003	26,795	9,6019
14806	-14,164	-4,0129	21,916	8,8247
14807	-15,583	-4,0126	17,134	8,7552
14808	-14,63	-4,0135	21,065	8,7164
14809	-16,045	-4,0149	16,275	8,8354
14810	-15,081	-4,0127	20,197	8,6419
14811	-13,133	-4,0021	25,902	9,3598
14812	-15,536	-4,0104	19,338	8,5997
14813	-13,603	-4,003	25,01	9,1407
14814	-15,999	-4,0114	18,472	8,5932
14815	-14,079	-4,0056	24,123	8,9458
14816	-16,52	-4,0162	15,422	8,961
14817	-16,462	-4,0117	17,611	8,6253
14818	-14,56	-4,0094	23,261	8,777
14819	-16,985	-4,0157	14,566	9,1368
14820	-16,919	-4,0129	16,747	8,7007
14821	-15,026	-4,0098	22,407	8,6387
14822	-17,393	-4,0139	15,897	8,8168
14823	-15,488	-4,0091	21,55	8,5292
14824	-17,862	-4,0131	15,03	8,986
14825	-17,458	-4,0189	13,707	9,3675
14826	-15,947	-4,0067	20,69	8,4506
14827	-18,323	-4,0143	14,161	9,21
14828	-16,41	-4,0106	19,82	8,4037
14829	-17,886	-4,0186	12,84	9,6571
14830	-16,869	-4,0043	18,959	8,3916
14831	-18,781	-4,0134	13,284	9,4964
14832	-19,217	-4,0113	12,402	9,8512
14833	-18,318	-4,0194	11,969	10,011
14834	-18,732	-4,0165	11,105	10,428
14835	-19,642	-4,0044	11,553	10,262
14836	-17,335	-4,008	18,088	8,4172
14837	-20,071	-3,9977	10,654	10,782
14838	-17,8	-4,006	17,225	8,4826
14839	-19,139	-4,0067	10,246	10,917
14840	-20,486	-3,9889	9,7731	11,392
14841	-20,827	-3,9903	8,8577	12,142
14842	-19,527	-4,0011	9,3646	11,502
14843	-18,267	-4,0056	16,362	8,5914
14844	-19,875	-4,0032	8,447	12,203
14845	-18,744	-4,0122	15,495	8,7479
14846	-20,198	-4,0064	7,5132	13,031
14847	-19,2	-4,0106	14,617	8,9644
14848	-21,08	-4,0063	7,9116	13,049
14849	-20,495	-4,0187	6,5801	13,991
14850	-19,659	-4,0093	13,737	9,2406
14851	-21,354	-4,0216	6,9011	14,241
14852	-20,838	-4,0173	5,5954	15,23
14853	-20,112	-4,0063	12,858	9,5841
14854	-21,702	-4,025	5,9373	15,798
14855	-20,552	-3,9991	11,999	9,9924
14856	-21,183	-4,0008	4,6031	16,744
14857	-20,996	-3,9875	11,12	10,497
14858	-21,444	-3,9829	10,201	11,143
14859	-21,961	-4,0101	8,1209	13,137
14860	-21,906	-3,9895	9,1852	12,033
14861	-22,234	-4,0132	7,2165	14,386
14862	-22,677	-4,012	8,4739	12,892
14863	-22,57	-4,0296	6,2723	16,207
14864	-22,038	-4,013	4,9854	17,954
14865	-23,051	-4,0262	7,5651	14,245
14866	-22,946	-4,003	5,3581	19,005
14867	-23,431	-4,0238	6,6469	16,163
14868	-4,9027	-3,8923	43,023	25,26
14869	-5,5859	-3,9593	41,811	21,382
14870	-25,351	-3,931	5,0336	24,522
14871	-6,1726	-3,9561	40,828	19,319
14872	-24,732	-4,0029	6,1067	18,468
14873	-6,7345	-3,9787	39,902	17,62
14874	-24,299	-4,0055	7,0702	15,614
14875	-7,2686	-3,9844	38,95	16,271
14876	-23,842	-4,013	7,9909	13,763
14877	-7,7849	-3,9872	37,995	15,162
14878	-23,37	-4,0048	8,9316	12,411
14879	-8,2818	-3,9879	37,061	14,258
14880	-22,895	-3,9808	9,7869	11,49
14881	-8,7714	-3,9904	36,139	13,498
14882	-22,386	-3,9875	10,69	10,709
14883	-9,26	-3,9954	35,235	12,848
14884	-21,924	-3,9934	11,566	10,105
14885	-9,7478	-4,0005	34,342	12,281
14886	-21,462	-3,9996	12,441	9,6126
14887	-10,244	-4,0038	33,463	11,775
14888	-20,997	-4,0036	13,325	9,2065
14889	-10,731	-4,0083	32,586	11,325
14890	-20,537	-4,0063	14,19	8,8855
14891	-11,2	-4,0107	31,707	10,924
14892	-20,081	-4,0083	15,073	8,6213
14893	-11,668	-4,0108	30,829	10,556
14894	-19,61	-4,0072	15,954	8,4208
14895	-12,133	-4,0094	29,95	10,219
14896	-19,141	-4,0043	16,828	8,2756
14897	-12,6	-4,0072	29,067	9,9062
14898	-18,673	-4,0028	17,699	8,1787
14899	-13,065	-4,0047	28,183	9,6187
14900	-18,208	-4,0066	18,566	8,1247
14901	-13,529	-4,0027	27,286	9,3543
14902	-17,741	-4,0036	19,44	8,1094
14903	-13,996	-4,0022	26,38	9,1119
14904	-17,282	-4,0089	20,308	8,1292
14905	-14,468	-4,0034	25,493	8,893
14906	-16,818	-4,0085	21,176	8,1837
14907	-14,945	-4,0058	24,62	8,6974
14908	-16,355	-4,0075	22,041	8,269
14909	-15,429	-4,0093	23,75	8,5241
14910	-15,901	-4,0122	22,896	8,3808
14911	3,494	-1,0112	41,613	23,138
14912	2,7049	-1,0152	40,992	20,3
14913	1,8321	-1,0114	40,572	17,808
14914	4,2987	-1,0137	42,411	25,428
14915	0,94069	-0,99803	40,279	16,064
14916	4,0352	-1,0207	40,75	21,48
14917	3,2929	-1,026	40,166	20,009
14918	4,8214	-1,0461	41,416	22,263
14919	3,9193	-1,024	39,286	18,901
14920	1,2477	-0,99297	39,677	16,487
14921	4,6842	-1,0366	39,886	19,715
14922	4,582	-1,0358	38,457	17,772
14923	5,3652	-1,0474	39,089	18,211
14924	5,3951	-1,037	40,454	19,981
14925	2,5074	-1,0148	39,382	18,05
14926	6,249	-1,0558	39,654	18,046
14927	3,1439	-1,0286	38,629	17,744
14928	5,2495	-1,043	37,633	16,68
14929	3,81	-1,0431	37,817	17,082
14930	5,8905	-1,0246	36,821	15,702
14931	4,4661	-1,017	37,013	16,306
14932	6,0651	-1,072	38,21	16,776
14933	5,0812	-1,007	36,189	15,512
14934	6,7139	-1,0319	37,373	15,644
14935	6,966	-1,052	38,793	16,484
14936	6,4689	-1,0096	35,941	14,812
14937	7,3083	-1,0278	36,525	14,69
14938	5,6911	-1,0027	35,378	14,775
14939	6,238	-0,99674	34,528	14,088
14940	7,0427	-1,0085	35,087	14,046
14941	7,587	-1,0369	37,92	15,3
14942	7,8689	-1,0178	35,637	13,871
14943	8,157	-1,0353	37,06	14,356
14944	7,5406	-0,99607	34,185	13,381
14945	8,7051	-1,0151	36,126	13,538
14946	6,7424	-0,99188	33,656	13,471
14947	8,3714	-1,0015	34,712	13,183
14948	8,0425	-0,99548	33,308	12,8
14949	9,229	-1,007	35,225	12,864
14950	7,223	-0,98613	32,764	12,913
14951	7,686	-0,98482	31,893	12,42
14952	8,8826	-1,0005	33,825	12,588
14953	8,5179	-0,99078	32,427	12,289
14954	9,7298	-1,0027	34,333	12,288
14955	8,1425	-0,98339	31,021	11,973
14956	9,3617	-0,99446	32,941	12,076
14957	8,9747	-0,98839	31,551	11,837
14958	10,208	-0,99617	33,446	11,79
14959	9,8252	-0,99152	32,066	11,625
14960	9,4387	-0,98794	30,676	11,422
14961	10,68	-0,99336	32,563	11,345
14962	8,5978	-0,98355	30,153	11,563
14963	10,289	-0,99075	31,185	11,214
14964	9,9025	-0,98869	29,807	11,044
14965	11,14	-0,99279	31,683	10,947
14966	10,755	-0,99119	30,308	10,838
14967	9,0628	-0,98494	29,285	11,184
14968	11,609	-0,99304	30,811	10,579
14969	10,377	-0,98967	28,93	10,691
14970	9,5292	-0,98643	28,418	10,833
14971	11,223	-0,99164	29,435	10,493
14972	10,841	-0,98991	28,056	10,371
14973	11,301	-0,9899	27,188	10,079
14974	12,082	-0,9935	29,935	10,238
14975	9,9888	-0,98706	27,546	10,51
14976	11,697	-0,99189	28,563	10,175
14977	10,454	-0,98725	26,678	10,212
14978	12,164	-0,99201	27,694	9,8847
14979	12,548	-0,99334	29,064	9,9265
14980	11,767	-0,99034	26,32	9,8096
14981	13,031	-0,99337	28,193	9,633
14982	12,632	-0,99233	26,818	9,6174
14983	10,916	-0,98814	25,81	9,939
14984	13,487	-0,99361	27,316	9,3726
14985	12,238	-0,99103	25,448	9,5628
14986	13,095	-0,9927	25,949	9,3765
14987	11,378	-0,98893	24,947	9,6919
14988	13,969	-0,99384	26,444	9,1262
14989	13,569	-0,99293	25,075	9,1559
14990	14,428	-0,99386	25,567	8,9108
14991	12,703	-0,99175	24,578	9,3429
14992	13,179	-0,99224	23,713	9,146
14993	13,64	-0,99236	22,836	8,9782
14994	14,043	-0,99302	24,206	8,9607
14995	11,846	-0,99001	24,077	9,4669
14996	14,907	-0,99379	24,694	8,7121
14997	12,31	-0,99087	23,211	9,2695
14998	14,505	-0,99307	23,327	8,7937
14999	12,777	-0,99124	22,34	9,0979
15000	14,112	-0,99241	21,969	8,8367
15001	13,248	-0,99135	21,476	8,9552
15002	15,368	-0,99379	23,818	8,5443
15003	14,573	-0,99253	21,092	8,7268
15004	14,974	-0,9938	22,455	8,6524
15005	13,707	-0,9915	20,602	8,8444
15006	15,445	-0,99345	21,581	8,5392
15007	15,046	-0,99269	20,224	8,6469
15008	14,178	-0,99163	19,736	8,7656
15009	15,916	-0,99368	20,709	8,4568
15010	15,847	-0,99397	22,943	8,3968
15011	15,509	-0,99285	19,349	8,6032
15012	16,31	-0,99425	22,068	8,2816
15013	14,637	-0,99166	18,863	8,7236
15014	16,375	-0,99398	19,837	8,4099
15015	15,975	-0,9934	18,479	8,5957
15016	16,787	-0,99457	21,192	8,1916
15017	16,849	-0,99459	18,962	8,3955
15018	17,254	-0,99543	20,317	8,1362
15019	15,103	-0,9926	17,995	8,7193
15020	17,723	-0,99557	19,443	8,114
15021	17,319	-0,9948	18,089	8,4201
15022	18,195	-0,99538	18,568	8,1279
15023	16,445	-0,99256	17,608	8,6277
15024	17,79	-0,99289	17,215	8,4862
15025	15,571	-0,9903	17,127	8,7565
15026	16,913	-0,99066	16,737	8,7029
15027	18,665	-0,99496	17,695	8,1819
15028	16,032	-0,98985	16,263	8,8374
15029	16,497	-0,98737	15,403	8,9648
15030	17,373	-0,98832	15,875	8,8234
15031	16,963	-0,98306	14,55	9,1408
15032	18,254	-0,99093	16,349	8,5972
15033	17,844	-0,9849	15,02	8,9901
15034	19,134	-0,99364	16,822	8,2793
15035	18,723	-0,98784	15,483	8,7547
15036	18,317	-0,98042	14,167	9,2086
15037	19,606	-0,99127	15,945	8,4254
15038	17,438	-0,9781	13,715	9,3648
15039	19,199	-0,98363	14,629	8,9606
15040	18,803	-0,97552	13,334	9,4763
15041	20,078	-0,98645	15,088	8,6163
15042	19,674	-0,97908	13,779	9,2211
15043	17,924	-0,97216	12,887	9,6425
15044	20,549	-0,98353	14,224	8,8673
15045	20,157	-0,9747	12,929	9,5441
15046	19,293	-0,97057	12,495	9,8077
15047	21,027	-0,97937	13,374	9,174
15048	18,424	-0,96617	12,058	9,9804
15049	20,641	-0,97051	12,078	9,9398
15050	19,789	-0,9659	11,656	10,208
15051	21,506	-0,97517	12,525	9,5533
15052	18,936	-0,96077	11,233	10,386
15053	21,129	-0,96665	11,231	10,418
15054	20,292	-0,96229	10,81	10,696
15055	21,988	-0,97083	11,672	10,02
15056	19,451	-0,95728	10,396	10,876
15057	21,624	-0,96455	10,383	11,002
15058	22,109	-0,96148	9,5284	11,729
15059	22,47	-0,96744	10,82	10,593
15060	20,78	-0,9589	9,958	11,291
15061	22,95	-0,96258	9,982	11,289
15062	19,935	-0,95461	9,5509	11,455
15063	22,587	-0,95968	8,683	12,642
15064	23,425	-0,95833	9,1479	12,159
15065	21,277	-0,96078	9,1017	12,02
15066	23,916	-0,95133	8,3491	13,229
15067	20,447	-0,95909	8,689	12,181
15068	23,055	-0,95225	7,8652	13,793
15069	21,747	-0,96225	8,245	12,934
15070	24,427	-0,93941	7,5401	14,644
15071	24,957	-0,94397	6,7499	16,552
15072	23,613	-0,93953	7,1053	15,327
15073	25,451	-0,95506	5,9644	19,114
15074	24,128	-0,93508	6,3918	17,252
15075	20,91	-0,96488	7,8218	13,063
15076	23,604	-0,93811	6,0933	17,748
15077	26,18	-1,0393	4,8881	24,744
15078	22,224	-0,96158	7,3619	14,163
15079	24,575	-0,93658	5,6658	20,197
15080	21,357	-0,97208	6,9434	14,197
15081	23,789	-0,95152	5,5078	20,001
15082	22,81	-0,94924	6,3885	16,227
15083	25,083	-0,96736	4,8189	25,797
15084	22,811	-0,94371	5,3478	18,72
15085	21,724	-0,97522	6,0343	15,698
15086	24,157	-0,97721	4,6918	25,306
15087	22,053	-0,97507	5,0808	17,8
15088	23,284	-0,98246	4,4517	23,672
15089	22,417	-0,99484	4,0772	21,373
15090	21,619	-1,0038	3,5834	19,061
15091	21,199	-0,99688	4,5884	16,807
15092	20,723	-1,0852	2,9079	16,65
15093	20,854	-0,98854	5,5933	15,246
15094	20,37	-1,014	4,2515	15,748
15095	20,476	-0,97416	6,5464	14,005
15096	19,982	-0,99108	5,2129	14,677
15097	20,062	-0,96394	7,4381	13,024
15098	19,604	-0,97343	6,1717	13,718
15099	19,598	-0,95707	8,3037	12,209
15100	19,188	-0,96311	7,0635	12,88
15101	19,125	-0,95267	9,1601	11,535
15102	18,73	-0,95212	7,9361	12,143
15103	18,62	-0,95126	10,001	10,957
15104	18,278	-0,94857	8,7857	11,513
15105	18,096	-0,95311	10,828	10,471
15106	17,789	-0,94287	9,6175	10,961
15107	17,259	-0,94121	10,438	10,48
15108	17,563	-0,95904	11,635	10,066
15109	16,696	-0,94874	11,208	10,077
15110	15,828	-0,94013	10,839	10,01
15111	16,471	-0,93141	10,05	10,44
15112	15,402	-0,94948	10,375	10,037
15113	16,935	-0,9473	9,2535	10,885
15114	15,645	-0,94544	9,7736	10,303
15115	17,416	-0,95203	8,4279	11,408
15116	16,102	-0,95621	8,9313	10,748
15117	17,87	-0,96011	7,5796	11,999
15118	16,56	-0,96126	8,0919	11,25
15119	18,313	-0,96183	6,7112	12,666
15120	17,007	-0,9684	7,2441	11,801
15121	18,727	-0,97214	5,8173	13,39
15122	17,433	-0,9792	6,3782	12,401
15123	19,116	-0,98746	4,887	14,14
15124	17,832	-0,96859	5,4967	13,03
15125	18,211	-0,97908	4,5842	13,667
15126	19,445	-0,99809	3,9033	14,835
15127	17,279	-0,96962	4,311	13,196
15128	18,582	-0,9916	3,654	14,222
15129	19,615	-0,98312	2,9812	15,187
15130	16,916	-0,96394	5,1991	12,646
15131	18,775	-0,99063	2,7272	14,567
15132	16,523	-0,95928	6,0708	12,086
15133	17,584	-0,97352	3,4115	13,673
15134	16,096	-0,96006	6,928	11,535
15135	15,603	-0,95898	5,7731	11,741
15136	15,989	-0,95979	4,9191	12,245
15137	15,186	-0,95849	6,62	11,241
15138	19,916	-1,0437	1,9675	15,195
15139	17,84	-0,97746	2,5102	14,043
15140	16,33	-0,96083	4,0494	12,727
15141	15,653	-0,95384	7,7756	11,019
15142	19,024	-0,97863	1,8154	14,725
15143	14,794	-0,981	7,4662	10,777
15144	18,07	-0,96631	1,6346	14,288
15145	15,212	-0,95508	8,6234	10,548
15146	16,642	-0,96227	3,1722	13,167
15147	14,314	-0,96641	8,3432	10,306
15148	16,88	-0,9721	2,2735	13,516
15149	13,478	-0,99782	8,004	10,087
15150	17,084	-0,94974	1,3748	13,774
15151	12,521	-0,97192	7,6594	9,8137
15152	19,216	-0,93331	0,91977	14,717
15153	13,875	-0,98401	7,1457	10,496
15154	14,807	-0,96263	9,5206	10,123
15155	14,26	-0,96797	6,3033	10,923
15156	18,257	-0,98062	0,80313	14,418
15157	12,938	-0,98737	6,8003	10,205
15158	17,414	-0,95595	0,55949	14,017
15159	13,919	-0,97695	9,2632	9,899
15160	13,31	-0,96849	5,9697	10,593
15161	17,673	-0,95547	2,0265e-002	14,162
15162	13,042	-0,99489	8,9022	9,689
15163	18,34	-0,95891	2,3254e-002	14,457
15164	14,653	-0,96618	5,4664	11,372
15165	19,291	-0,91226	1,4114e-002	14,649
15166	20,278	-0,9625	1,0709	14,877
15167	13,703	-0,97026	5,146	11,003
15168	20,171	-0,98373	1,8248e-002	14,399
15169	15,026	-0,96801	4,6278	11,821
15170	17,041	-0,96856	12,435	9,7266
15171	14,069	-0,95392	4,3329	11,404
15172	16,157	-0,96495	11,981	9,7385
15173	15,347	-0,96525	11,467	9,7183
15174	20,222	-0,98081	-0,94081	14,71
15175	12,344	-0,97548	5,6168	10,264
15176	19,257	-0,95131	-0,89207	14,703
15177	12,736	-0,96568	4,8038	10,636
15178	14,398	-0,97563	10,684	9,6792
15179	13,112	-0,95491	3,9901	11,003
15180	13,501	-0,99623	10,238	9,5195
15181	16,552	-0,97708	13,244	9,4455
15182	12,611	-0,98966	9,8243	9,3314
15183	15,659	-0,97967	12,766	9,4545
15184	12,153	-1,0045	8,509	9,4701
15185	16,08	-0,9826	14,076	9,2137
15186	11,742	-1,0042	9,3889	9,1393
15187	18,311	-0,93808	-0,76835	14,435
15188	15,201	-0,9853	13,587	9,2195
15189	11,969	-0,98742	6,4208	9,9105
15190	17,334	-0,92015	-0,5294	13,977
15191	11,593	-0,98865	7,2515	9,5649
15192	14,777	-0,9879	12,214	9,4183
15193	11,215	-0,97405	8,0967	9,2358
15194	14,331	-0,99143	13,095	9,1675
15195	15,369	-0,97232	3,7861	12,252
15196	13,926	-0,99991	11,679	9,3316
15197	10,842	-0,98373	8,9496	8,9338
15198	13,457	-0,99749	12,612	9,0648
15199	14,413	-0,94497	3,5147	11,788
15200	15,683	-0,95126	2,9343	12,65
15201	13,462	-0,9433	3,1826	11,354
15202	15,941	-0,95487	2,0363	12,988
15203	14,734	-0,93587	2,694	12,145
15204	16,137	-0,95886	1,071	13,238
15205	13,054	-0,98945	11,183	9,1976
15206	13,792	-0,92523	2,419	11,667
15207	12,188	-1,0065	10,725	9,0284
15208	12,596	-0,99018	12,093	8,9331
15209	11,307	-0,98994	10,265	8,8422
15210	15,013	-0,93118	1,8304	12,458
15211	11,727	-0,99015	11,614	8,7676
15212	10,432	-0,98166	9,797	8,6539
15213	15,616	-0,98577	14,926	9,031
15214	14,075	-0,90253	1,6516	11,936
15215	10,866	-0,979	11,138	8,5894
15216	14,743	-0,9861	14,437	9,0317
15217	15,156	-0,98972	15,784	8,8981
15218	15,195	-0,9242	0,90013	12,673
15219	13,87	-0,99101	13,957	8,973
15220	14,694	-0,98865	16,645	8,8128
15221	14,369	-0,89593	0,78596	12,182
15222	13,001	-0,99138	13,464	8,8691
15223	13,691	-0,88128	0,68584	11,798
15224	14,23	-0,99329	17,511	8,7726
15225	13,253	-0,89692	1,2576	11,518
15226	12,137	-0,9875	12,968	8,7295
15227	12,961	-0,92138	1,9148	11,299
15228	14,282	-0,99003	15,301	8,8931
15229	12,587	-0,94684	2,7175	10,991
15230	11,27	-0,98251	12,482	8,5627
15231	13,411	-0,98589	14,814	8,8319
15232	12,208	-0,97448	3,5826	10,661
15233	10,407	-0,9759	11,986	8,3826
15234	11,776	-0,97215	4,4052	10,3
15235	13,769	-0,99005	18,376	8,7752
15236	11,363	-0,98583	5,2065	9,9541
15237	13,306	-0,99009	19,241	8,8175
15238	12,54	-0,99184	14,323	8,7237
15239	10,958	-0,99483	6,0113	9,6157
15240	13,82	-0,99317	16,162	8,8044
15241	10,596	-0,99379	6,8198	9,303
15242	11,676	-0,98246	13,823	8,5802
15243	12,95	-0,99309	15,672	8,7404
15244	10,81	-0,978	13,331	8,4098
15245	13,361	-0,98971	17,021	8,7626
15246	10,299	-0,98013	7,6627	9,0182
15247	12,493	-0,98528	16,531	8,6973
15248	16,387	-0,95157	-2,3e-002	13,445
15249	12,899	-0,98772	17,884	8,7646
15250	15,332	-0,95256	-8,275e-002	12,787
15251	12,437	-0,99251	18,745	8,8075
15252	9,9979	-0,97066	10,646	8,4064
15253	9,9516	-0,97227	12,822	8,2261
15254	9,9452	-0,985	8,4958	8,7361
15255	12,032	-0,99221	17,386	8,6986
15256	9,5636	-0,97956	9,3217	8,474
15257	11,575	-0,99063	18,244	8,7428
15258	9,1276	-0,96536	10,14	8,2292
15259	9,2828	-0,99753	7,1888	8,7924
15260	9,0393	-0,99879	8,0301	8,5518
15261	14,328	-0,91316	-4,6944e-002	12,179
15262	12,842	-0,98995	20,109	8,8968
15263	13,415	-0,89239	1,4281e-002	11,665
15264	11,978	-0,98753	19,607	8,8887
15265	8,3427	-0,9828	7,6934	8,4192
15266	11,117	-0,98798	19,102	8,8263
15267	9,5592	-1,0194	6,4083	9,0425
15268	12,387	-0,98967	20,979	9,01
15269	9,953	-1,0168	5,5532	9,3534
15270	11,517	-0,98719	20,474	9,0059
15271	10,389	-1,0006	4,7411	9,6798
15272	12,082	-0,99341	15,177	8,6296
15273	10,661	-0,98413	19,963	8,9469
15274	11,216	-0,99282	14,679	8,4822
15275	10,881	-0,98206	3,9128	10,023
15276	10,357	-0,9943	14,175	8,309
15277	11,627	-0,98254	16,03	8,5849
15278	11,328	-0,97064	3,0931	10,354
15279	10,77	-0,97897	15,522	8,4361
15280	9,5041	-0,99406	13,664	8,1206
15281	9,5518	-0,96982	11,481	8,2003
15282	11,733	-0,95297	2,3305	10,651
15283	8,7007	-0,96771	10,946	8,0269
15284	9,907	-0,99385	15,017	8,2584
15285	9,1061	-0,96698	12,304	8,0406
15286	12,788	-0,90726	0,49811	11,315
15287	8,6623	-0,99499	13,141	7,9284
15288	12,019	-0,93628	1,1719	10,903
15289	8,2772	-0,96445	11,772	7,8644
15290	9,0586	-0,99318	14,499	8,0652
15291	8,7066	-0,96299	8,8388	8,31
15292	7,834	-0,99175	12,602	7,7429
15293	8,221	-0,99258	13,971	7,8661
15294	8,2615	-0,96958	9,5884	8,0736
15295	7,3956	-0,99136	13,429	7,6711
15296	7,8371	-0,97384	10,382	7,8674
15297	11,173	-0,98956	16,883	8,5862
15298	7,4505	-0,96833	11,204	7,7046
15299	10,718	-0,99009	17,736	8,6312
15300	7,016	-0,99283	12,051	7,5726
15301	11,24	-0,94745	1,1571	10,536
15302	10,319	-0,97866	16,373	8,4364
15303	10,947	-0,95046	1,7363	10,367
15304	9,8745	-0,97862	17,223	8,4821
15305	10,442	-0,96861	2,6315	10,056
15306	7,8799	-0,98405	8,1983	8,2012
15307	9,4688	-0,97442	15,854	8,2574
15308	7,3902	-0,99152	8,9967	7,944
15309	9,0197	-0,97468	16,706	8,3018
15310	9,9519	-0,99211	3,3925	9,7602
15311	6,9733	-0,99253	9,8222	7,7301
15312	9,5073	-1,0163	4,1763	9,4713
15313	10,264	-0,98471	18,589	8,7168
15314	8,9676	-1,0411	5,0863	9,1261
15315	9,8044	-0,98843	19,442	8,8397
15316	6,5968	-0,98145	10,629	7,5611
15317	8,6121	-0,96926	15,336	8,0586
15318	6,3067	-0,96272	11,509	7,4445
15319	6,5851	-0,99302	12,878	7,4902
15320	7,7891	-0,96421	14,796	7,8539
15321	5,7819	-1,0057	12,317	7,3307
15322	8,1778	-0,96979	16,172	8,1004
15323	6,9686	-0,95987	14,25	7,6501
15324	7,3479	-0,96502	15,626	7,8881
15325	6,153	-0,95626	13,688	7,4557
15326	9,4143	-0,98167	18,07	8,5678
15327	5,3525	-0,95454	13,125	7,2824
15328	8,5458	-1,0298	5,8787	8,8403
15329	8,5708	-0,9741	17,55	8,3888
15330	8,9621	-0,98062	18,917	8,693
15331	6,5202	-0,96107	15,068	7,6731
15332	8,1286	-0,97309	18,383	8,5143
15333	5,7048	-0,95809	14,501	7,467
15334	11,911	-0,98926	21,839	9,1558
15335	4,9023	-0,95826	13,92	7,2782
15336	11,055	-0,98802	21,331	9,1543
15337	11,445	-0,98862	22,705	9,331
15338	7,735	-0,96956	17,005	8,1846
15339	8,2586	-0,9918	6,8706	8,5569
15340	6,9125	-0,96497	16,451	7,9676
15341	10,596	-0,98576	22,192	9,3333
15342	10,987	-0,98775	23,568	9,5324
15343	10,204	-0,98338	20,818	9,0998
15344	10,531	-0,98675	24,434	9,7596
15345	9,3551	-0,97974	20,295	8,9974
15346	9,7425	-0,98247	21,68	9,285
15347	8,5097	-0,97588	19,766	8,8543
15348	7,1413	-1,0075	7,6281	8,1231
15349	8,9052	-0,9787	21,146	9,1858
15350	6,5566	-1,0137	8,4144	7,8497
15351	7,2944	-0,96865	17,836	8,3098
15352	8,0662	-0,97471	20,609	9,0466
15353	6,0555	-1,0083	9,2729	7,609
15354	7,6774	-0,9719	19,222	8,6764
15355	5,6878	-1,0044	10,157	7,4268
15356	6,8503	-0,96698	18,672	8,4733
15357	7,2323	-0,97043	20,063	8,8724
15358	6,4696	-0,96372	17,28	8,0897
15359	10,133	-0,98798	23,051	9,5403
15360	6,0284	-0,96127	18,11	8,2516
15361	9,2882	-0,98164	22,532	9,496
15362	6,0901	-0,96107	15,887	7,7456
15363	6,4062	-0,96495	19,507	8,6707
15364	5,6572	-0,9594	16,712	7,863
15365	5,6005	-0,97195	18,928	8,4462
15366	8,4494	-0,97757	21,998	9,4031
15367	9,6749	-0,98772	23,911	9,7728
15368	5,3528	-0,98536	10,989	7,2936
15369	8,8374	-0,98078	23,385	9,733
15370	5,2751	-0,95855	15,314	7,5288
15371	5,0157	-1,0211	11,783	7,2027
15372	4,8532	-0,95674	16,128	7,6372
15373	5,2247	-0,97166	17,525	8,018
15374	4,5405	-0,98363	12,541	7,1327
15375	4,4245	-0,97061	16,936	7,7852
15376	4,8021	-0,97197	18,343	8,2116
15377	4,0937	-0,97218	13,325	7,1129
15378	4,0066	-0,97689	17,747	7,9727
15379	7,6232	-0,97331	21,454	9,2676
15380	7,9946	-0,98385	22,842	9,6438
15381	10,071	-0,98564	25,301	10,012
15382	7,1794	-0,97158	22,295	9,5131
15383	4,4681	-0,9589	14,725	7,3253
15384	6,796	-0,96752	20,896	9,0956
15385	3,6593	-0,96525	14,121	7,1432
15386	5,9813	-0,96282	20,331	8,8956
15387	6,3565	-0,96694	21,742	9,348
15388	9,2174	-0,98677	24,77	10,03
15389	4,0444	-0,95642	15,536	7,4216
15390	8,373	-0,98764	24,234	9,9935
15391	9,6044	-0,98447	26,163	10,29
15392	4,7443	-1,0464	10,702	7,2124
15393	8,7655	-0,9812	25,631	10,309
15394	4,2075	-0,97585	11,172	7,1021
15395	3,2268	-0,97688	14,932	7,2239
15396	3,639	-0,95179	16,34	7,5617
15397	3,7871	-1,0157	11,933	7,0237
15398	2,833	-0,95119	15,733	7,3523
15399	3,2761	-0,9843	12,717	6,9792
15400	7,9254	-0,97688	25,095	10,278
15401	7,5429	-0,98482	23,69	9,9088
15402	3,2392	-0,94553	17,141	7,7405
15403	6,7208	-0,98523	23,133	9,7806
15404	5,5429	-0,97156	21,159	9,1469
15405	7,0967	-0,97173	24,544	10,197
15406	2,4488	-0,94241	16,531	7,5209
15407	6,2847	-0,97976	23,975	10,07
15408	5,9096	-0,9837	22,564	9,6154
15409	2,8411	-0,98062	13,516	6,9919
15410	5,1059	-0,98274	21,983	9,4189
15411	5,1757	-0,96634	19,751	8,6728
15412	5,4796	-0,97995	23,399	9,9065
15413	2,4295	-0,96299	14,316	7,0563
15414	4,6831	-0,97807	22,812	9,712
15415	4,7448	-0,97375	20,571	8,9245
15416	4,3989	-0,95057	19,166	8,4395
15417	4,3139	-0,98135	21,388	9,1976
15418	1,9983	-0,9776	15,146	7,1709
15419	3,8902	-0,98535	22,206	9,49
15420	1,6432	-0,94309	15,928	7,3258
15421	3,5987	-0,97391	18,557	8,1938
15422	3,9735	-0,94845	19,982	8,6911
15423	2,8318	-0,95516	17,953	7,9566
15424	3,1917	-0,97123	19,364	8,442
15425	2,064	-0,94329	17,367	7,7367
15426	2,4633	-0,92643	18,753	8,2008
15427	3,5357	-0,97948	20,781	8,9588
15428	1,3232	-0,92497	16,838	7,5528
15429	2,7702	-0,98096	20,161	8,7097
15430	1,7312	-0,90606	18,165	7,9745
15431	3,1043	-0,99514	21,583	9,247
15432	2,0304	-0,94784	19,528	8,4571
15433	0,97168	-0,90421	17,662	7,7931
15434	2,3378	-0,9931	20,946	8,9917
15435	1,3319	-0,89893	18,918	8,2235
15436	1,6284	-0,92989	20,319	8,7406
15437	0,56543	-0,92963	18,453	8,0434
15438	0,91032	-0,94656	19,661	8,4812
15439	0,18853	-0,94875	19,179	8,3006
15440	-2,5516e-002	-0,98598	19,719	8,4991
15441	0,43662	-0,98637	20,265	8,706
15442	1,1153	-0,99083	21,006	8,9976
15443	1,8949	-0,98907	21,734	9,2895
15444	9,1452	-0,98338	27,021	10,589
15445	2,6916	-0,98835	22,389	9,553
15446	8,3162	-0,97906	26,485	10,609
15447	3,4791	-0,97804	23,023	9,7975
15448	7,4807	-0,97422	25,944	10,58
15449	4,2718	-0,9587	23,646	10,023
15450	6,6612	-0,96926	25,391	10,502
15451	5,0613	-0,96137	24,241	10,217
15452	5,8616	-0,96491	24,819	10,377
15453	8,6902	-0,98188	27,885	10,912
15454	7,8616	-0,97667	27,345	10,934
15455	8,2321	-0,97976	28,749	11,261
15456	7,4198	-0,97437	28,198	11,276
15457	7,7846	-0,97806	29,609	11,632
15458	7,0448	-0,97163	26,793	10,901
15459	6,9765	-0,97289	29,052	11,643
15460	7,3288	-0,97744	30,477	12,037
15461	6,2294	-0,96708	26,231	10,822
15462	6,5359	-0,97213	29,91	12,033
15463	6,8806	-0,97781	31,342	12,47
15464	5,4234	-0,96315	25,659	10,7
15465	6,0936	-0,97126	30,773	12,452
15466	6,6093	-0,9697	27,638	11,241
15467	6,4231	-0,97887	32,216	12,945
15468	6,1759	-0,96871	28,484	11,599
15469	5,8052	-0,96572	27,068	11,157
15470	5,7445	-0,96784	29,334	11,978
15471	5,3714	-0,96513	27,909	11,511
15472	5,6511	-0,96948	31,641	12,899
15473	5,3024	-0,96948	30,18	12,377
15474	4,9525	-0,96437	28,743	11,876
15475	4,9986	-0,96213	26,49	11,033
15476	4,881	-0,96205	31,04	12,798
15477	4,6375	-0,95992	25,067	10,536
15478	4,5369	-0,96185	29,584	12,258
15479	4,5758	-0,96166	27,316	11,378
15480	4,1248	-0,95405	30,428	12,654
15481	3,8508	-0,95801	24,47	10,344
15482	4,2105	-0,95886	25,896	10,869
15483	3,0816	-0,96011	23,851	10,122
15484	3,4296	-0,96016	25,295	10,676
15485	3,7815	-0,9582	26,719	11,211
15486	4,1447	-0,96908	28,145	11,736
15487	2,6702	-0,95855	24,692	10,46
15488	3,3689	-0,95684	27,537	11,56
15489	3,7264	-0,96635	28,98	12,107
15490	2,9985	-0,95562	26,122	11,018
15491	2,955	-0,94919	28,356	11,917
15492	3,3636	-0,96089	29,854	12,499
15493	2,2235	-0,96578	25,542	10,812
15494	2,5688	-0,95347	26,932	11,362
15495	1,7531	-0,96611	26,395	11,171
15496	2,1214	-0,94298	27,763	11,721
15497	2,5411	-0,91974	29,177	12,282
15498	1,2633	-0,95394	27,203	11,517
15499	1,7738	-0,90739	28,421	12,006
15500	0,93389	-0,92671	28,053	11,877
15501	5,9481	-0,98047	33,087	13,461
15502	0,77088	-0,90075	28,631	12,121
15503	5,1898	-0,96781	32,497	13,375
15504	1,294	-0,87222	29,052	12,285
15505	4,4536	-0,95428	31,901	13,24
15506	1,766	-0,87834	29,611	12,51
15507	3,7794	-0,94168	31,324	13,078
15508	2,3455	-0,92387	30,281	12,754
15509	3,1044	-0,92778	30,704	12,881
15510	-20,606	-4,0133	3,2277	16,403
15511	-20,324	-4,0009	4,2745	15,648
15512	-19,989	-4,0053	5,2487	14,658
15513	-19,643	-4,0098	6,2116	13,716
15514	-19,273	-4,0215	7,1596	12,86
15515	-18,953	-4,0127	8,0604	12,149
15516	-18,579	-4,0231	8,9569	11,508
15517	-18,219	-4,026	9,8282	10,963
15518	-17,83	-4,0166	10,693	10,487
15519	-17,42	-4,0134	11,552	10,077
15520	-16,531	-4,0409	11,118	10,077
15521	-17,009	-4,0285	12,4	9,7342
15522	-15,64	-4,0172	10,72	9,9994
15523	-16,122	-4,0387	11,962	9,7376
15524	-16,564	-4,0205	13,255	9,4435
15525	-15,233	-4,0363	11,545	9,672
15526	-15,697	-4,0347	12,803	9,4512
15527	-14,753	-4,0148	10,321	9,8738
15528	-14,818	-4,0445	12,37	9,3936
15529	-13,865	-4,0291	9,9315	9,7071
15530	-16,12	-4,0228	14,104	9,2104
15531	-14,353	-4,0455	11,131	9,5584
15532	-15,646	-4,02	14,945	9,0296
15533	-13,928	-4,0424	11,938	9,284
15534	-15,171	-4,018	15,798	8,897
15535	-12,971	-4,0628	9,5496	9,5099
15536	-12,11	-4,0869	9,1682	9,3084
15537	-14,709	-4,017	16,657	8,8123
15538	-11,489	-4,0915	8,9611	9,1446
15539	-14,25	-4,0137	17,507	8,7727
15540	-13,476	-4,0582	10,721	9,4067
15541	-13,792	-4,0113	18,364	8,7745
15542	-12,624	-4,0951	10,32	9,2357
15543	-15,248	-4,03	13,644	9,2154
15544	-11,781	-4,1162	9,909	9,0513
15545	-14,777	-4,0257	14,481	9,0296
15546	-14,369	-4,0385	13,197	9,1586
15547	-14,299	-4,0224	15,322	8,893
15548	-13,488	-4,0498	12,742	9,0541
15549	-11,036	-4,1237	9,1938	8,9502
15550	-13,906	-4,0327	14,017	8,9724
15551	-13,056	-4,0484	11,504	9,1407
15552	-13,034	-4,0403	13,545	8,8684
15553	-12,613	-4,0439	12,289	8,9127
15554	-13,429	-4,0281	14,842	8,8326
15555	-12,196	-4,0779	11,076	8,9741
15556	-12,568	-4,0346	14,37	8,7264
15557	-11,346	-4,0907	10,574	8,8061
15558	-11,75	-4,0448	11,823	8,7492
15559	-13,837	-4,0205	16,17	8,8055
15560	-10,902	-4,0707	11,342	8,5758
15561	-13,335	-4,0108	19,221	8,8151
15562	-10,562	-4,0977	10,05	8,6527
15563	-12,965	-4,0251	15,679	8,7423
15564	-10,089	-4,0651	10,859	8,406
15565	-12,099	-4,0303	15,192	8,6326
15566	-12,874	-4,0073	20,079	8,8924
15567	-12,163	-4,0475	13,085	8,7265
15568	-12,425	-4,0166	20,929	9,0016
15569	-11,704	-4,041	13,891	8,5838
15570	-13,38	-4,0168	17,018	8,7637
15571	-11,952	-4,0082	21,786	9,1446
15572	-12,51	-4,0232	16,521	8,6987
15573	-11,492	-4,0093	22,646	9,3162
15574	-11,298	-4,0392	12,608	8,5604
15575	-11,031	-4,0074	23,517	9,5171
15576	-10,845	-4,0473	13,407	8,4157
15577	-12,93	-4,0196	17,866	8,7648
15578	-11,649	-4,0254	16,031	8,5878
15579	-12,48	-4,0197	18,722	8,806
15580	-10,45	-4,0608	12,124	8,3835
15581	-11,241	-4,0358	14,703	8,4873
15582	-9,9945	-4,0543	12,916	8,2337
15583	-12,067	-4,0223	17,371	8,7003
15584	-10,388	-4,0416	14,213	8,3164
15585	-10,788	-4,0195	15,537	8,4396
15586	-11,204	-4,0257	16,878	8,5893
15587	-9,6193	-4,0518	11,636	8,2056
15588	-10,343	-4,0259	16,373	8,4396
15589	-12,015	-4,0106	19,579	8,885
15590	-11,622	-4,0221	18,225	8,7433
15591	-11,56	-4,0121	20,428	8,9981
15592	-10,761	-4,0253	17,728	8,6339
15593	-11,094	-4,0101	21,282	9,1442
15594	-9,5367	-4,0485	13,709	8,129
15595	-10,638	-4,0123	22,14	9,3205
15596	-9,9343	-4,0236	15,034	8,2645
15597	-10,178	-4,0121	23,008	9,527
15598	-10,57	-4,0084	24,4	9,7467
15599	-9,0887	-4,0281	14,523	8,0727
15600	-9,157	-4,0624	12,419	8,049
15601	-9,7207	-4,0116	23,885	9,7616
15602	-8,7016	-4,0565	13,203	7,9383
15603	-9,4918	-4,0301	15,862	8,2618
15604	-9,9066	-4,0293	17,217	8,4851
15605	-8,2512	-4,032	14,002	7,8742
15606	-9,0543	-4,034	16,7	8,3057
15607	-10,1	-4,0048	25,281	10,003
15608	-11,155	-4,0112	19,077	8,8239
15609	-9,2461	-4,0027	24,759	10,023
15610	-10,703	-4,0137	19,922	8,9404
15611	-10,303	-4,016	18,567	8,7157
15612	-10,25	-4,0183	20,767	9,0896
15613	-9,6395	-4,005	26,16	10,282
15614	-9,8478	-4,0127	19,409	8,8353
15615	-9,7891	-4,0172	21,624	9,2715
15616	-8,6466	-4,0406	15,345	8,0655
15617	-9,4498	-4,017	18,052	8,5677
15618	-8,215	-4,0397	16,174	8,1063
15619	-8,6051	-4,0195	17,527	8,3882
15620	-9,0029	-4,0167	18,887	8,6897
15621	-7,7689	-4,0223	16,991	8,186
15622	-7,8147	-4,0475	14,816	7,8609
15623	-8,7971	-4,0065	25,634	10,305
15624	-7,3912	-4,0458	15,631	7,8957
15625	-9,4034	-4,0219	20,252	8,9891
15626	-6,9437	-4,0253	16,444	7,9705
15627	-8,9448	-4,0214	21,101	9,1751
15628	-9,3297	-4,0156	22,49	9,4839
15629	-8,5636	-4,0262	19,727	8,8477
15630	-8,4835	-4,0161	21,961	9,3926
15631	-8,8609	-4,0054	23,36	9,7247
15632	-9,1936	-4,0127	27,045	10,584
15633	-8,02	-4,005	22,825	9,6376
15634	-8,1086	-4,0262	20,569	9,0373
15635	-8,1667	-4,0239	18,355	8,5116
15636	-8,4091	-4,0062	24,231	9,9889
15637	-7,335	-4,0277	17,814	8,3089
15638	-7,7251	-4,0313	19,19	8,6717
15639	-7,5723	-4,0039	23,688	9,9062
15640	-6,8996	-4,0369	18,647	8,4708
15641	-7,9518	-4,0021	25,093	10,274
15642	-8,3394	-4,0056	26,499	10,609
15643	-7,6584	-4,0255	21,422	9,2588
15644	-7,532	-4,0213	25,964	10,579
15645	-7,2786	-4,0303	20,031	8,8657
15646	-6,5157	-4,0316	17,261	8,0904
15647	-6,4638	-4,0361	19,48	8,6664
15648	-7,1527	-4,0231	24,557	10,196
15649	-7,1925	-4,0063	22,277	9,5073
15650	-6,7133	-4,0262	25,409	10,503
15651	-6,7442	-4,	23,131	9,7791
15652	-6,8397	-4,031	20,873	9,0897
15653	-8,7277	-4,0077	27,902	10,907
15654	-6,3052	-4,0009	23,98	10,07
15655	-7,8891	-4,0074	27,361	10,933
15656	-6,0891	-4,0424	18,087	8,2512
15657	-7,0923	-4,0234	26,817	10,902
15658	-5,6566	-4,0333	18,904	8,4433
15659	-6,2775	-4,0286	26,251	10,823
15660	-6,3798	-4,0111	21,718	9,3404
15661	-8,2709	-4,0075	28,766	11,256
15662	-5,9328	-4,0012	22,564	9,6148
15663	-7,4596	-4,0202	28,239	11,281
15664	-7,817	-4,0086	29,631	11,63
15665	-6,0288	-4,0352	20,314	8,8924
15666	-7,0146	-4,0206	29,092	11,647
15667	-5,2325	-4,0398	19,736	8,6714
15668	-5,5762	-4,0139	21,148	9,1435
15669	-7,368	-4,0111	30,506	12,036
15670	-4,785	-4,0169	20,562	8,9229
15671	-6,6457	-4,025	27,671	11,246
15672	-6,5524	-4,0195	29,941	12,041
15673	-6,1981	-4,0268	28,524	11,609
15674	-5,8385	-4,0305	27,09	11,161
15675	-5,1582	-4,0354	22,002	9,4259
15676	-5,4984	-4,0024	23,406	9,9081
15677	-5,3998	-4,0334	27,919	11,511
15678	-4,7393	-4,0371	22,837	9,7206
15679	-5,8809	-4,0144	24,828	10,378
15680	-5,7479	-4,0291	29,352	11,984
15681	-5,4625	-4,0339	25,679	10,704
15682	-4,3473	-4,0075	21,397	9,2015
15683	-5,0331	-4,0362	26,499	11,033
15684	-3,948	-4,0412	22,248	9,506
15685	-4,5972	-4,0397	27,31	11,374
15686	-5,0752	-4,0139	24,246	10,218
15687	-4,9189	-4,0264	28,714	11,869
15688	-4,6488	-4,0236	25,076	10,538
15689	-4,2826	-4,0165	23,656	10,026
15690	-4,2263	-4,0411	25,908	10,873
15691	-3,8553	-4,0245	24,478	10,347
15692	-3,5044	-4,0245	23,061	9,8117
15693	-3,7871	-4,044	26,697	11,203
15694	-3,4385	-4,0461	25,304	10,679
15695	-3,0743	-4,0284	23,876	10,131
15696	-4,1661	-4,0468	28,098	11,716
15697	-2,969	-4,0402	26,082	11,004
15698	-2,6627	-4,0541	24,7	10,464
15699	-3,3598	-4,0515	27,474	11,537
15700	-2,1972	-4,0422	25,459	10,779
15701	-2,5042	-4,0559	26,869	11,34
15702	-1,6737	-4,0662	26,231	11,105
15703	-1,0172	-4,0174	25,547	10,834
15704	-1,4767	-4,0279	24,864	10,549
15705	-0,59689	-4,0075	25,044	10,628
15706	-1,896	-4,0612	24,074	10,224
15707	-0,78106	-4,0223	24,42	10,373
15708	-2,297	-4,0291	23,275	9,9012
15709	-1,1008	-4,0404	23,538	10,01
15710	-2,7267	-4,019	22,454	9,5776
15711	-1,5341	-4,0333	22,68	9,6639
15712	-3,1806	-4,0449	21,645	9,2722
15713	-1,9781	-4,0288	21,837	9,3314
15714	-3,6016	-4,0349	20,799	8,9675
15715	-2,4377	-4,0494	21,029	9,0257
15716	-4,005	-4,019	19,961	8,685
15717	-2,8404	-4,034	20,181	8,7194
15718	-4,4499	-4,0426	19,138	8,4337
15719	-3,2371	-4,0209	19,343	8,4366
15720	-4,8628	-4,0363	18,315	8,2081
15721	-3,6633	-4,0435	18,524	8,1873
15722	-5,2922	-4,0475	17,508	8,0204
15723	-4,0801	-4,0376	17,708	7,9671
15724	-5,7089	-4,0351	16,691	7,864
15725	-4,5023	-4,0515	16,907	7,7853
15726	-6,1297	-4,0276	15,883	7,7502
15727	-4,9153	-4,0384	16,106	7,6396
15728	-16,922	-4,0409	10,274	10,469
15729	-6,5698	-4,0522	15,086	7,6836
15730	-5,3237	-4,0292	15,309	7,5344
15731	-17,312	-4,0195	9,4324	10,919
15732	-16,024	-4,0525	9,8795	10,379
15733	-5,7488	-4,0375	14,515	7,4755
15734	-16,393	-4,0506	9,0425	10,803
15735	-6,9869	-4,0549	14,272	7,6556
15736	-15,137	-4,0159	9,5041	10,233
15737	-7,4251	-4,0352	13,475	7,6793
15738	-6,1732	-4,0301	13,724	7,462
15739	-15,498	-4,0265	8,682	10,631
15740	-6,6099	-4,0388	12,941	7,4971
15741	-14,233	-4,0203	9,1355	10,043
15742	-7,8678	-4,0653	12,684	7,7508
15743	-14,566	-4,0559	8,335	10,405
15744	-8,3292	-4,071	11,917	7,87
15745	-7,0594	-4,0734	12,172	7,5801
15746	-8,8001	-4,0592	11,149	8,0343
15747	-13,32	-4,0288	8,781	9,8185
15748	-7,5191	-4,0785	11,411	7,7072
15749	-13,637	-4,0434	8,0041	10,149
15750	-9,29	-4,081	10,386	8,2427
15751	-12,383	-4,0989	8,4385	9,5704
15752	-7,979	-4,0821	10,66	7,8736
15753	-12,677	-4,0331	7,6942	9,8636
15754	-9,8117	-4,092	9,6229	8,4985
15755	-8,4764	-4,0841	9,9239	8,0834
15756	-10,361	-4,1058	8,8519	8,7987
15757	-9,0276	-4,0659	9,1892	8,3401
15758	-11,3	-4,098	8,1773	9,2458
15759	-9,6301	-4,0777	8,5015	8,6379
15760	-11,634	-4,0584	7,3914	9,5461
15761	-10,191	-4,0658	7,8081	8,9513
15762	-10,636	-4,0467	7,0826	9,2579
15763	-9,7897	-4,0375	6,7916	9,0368
15764	-9,2778	-4,0709	7,4677	8,7345
15765	-8,7679	-4,0791	8,0893	8,462
15766	-8,2246	-4,0798	8,7173	8,1995
15767	-7,6913	-4,0816	9,419	7,9545
15768	-7,1985	-4,0538	10,134	7,7434
15769	-6,7275	-4,0831	10,89	7,5677
15770	-6,2661	-4,0787	11,646	7,4313
15771	-5,8076	-4,041	12,399	7,3358
15772	-5,3605	-4,0239	13,17	7,2862
15773	-4,9313	-4,0284	13,953	7,2858
15774	-4,5511	-4,0564	14,725	7,3358
15775	-4,1252	-4,0528	15,494	7,4214
15776	-3,4614	-4,0172	14,979	7,2548
15777	-3,7062	-4,04	14,177	7,156
15778	-4,1154	-4,0252	13,406	7,122
15779	-4,5639	-4,062	12,625	7,1387
15780	-5,0173	-4,0379	11,844	7,2021
15781	-17,662	-4,0368	8,5685	11,428
15782	-5,4805	-4,0365	11,085	7,3104
15783	-18,016	-4,0354	7,6958	12,001
15784	-16,75	-4,0476	8,1975	11,276
15785	-5,9597	-4,0635	10,336	7,4599
15786	-17,127	-4,0313	7,3413	11,809
15787	-6,4375	-4,0793	9,5872	7,6438
15788	-15,85	-4,0376	7,8533	11,07
15789	-6,9285	-4,0461	8,8455	7,861
15790	-16,223	-4,0271	7,0077	11,56
15791	-14,902	-4,0604	7,5215	10,805
15792	-7,4519	-4,0241	8,1482	8,1013
15793	-13,964	-4,0541	7,2121	10,514
15794	-15,288	-4,0291	6,6962	11,259
15795	-7,9792	-4,0436	7,4661	8,3671
15796	-14,323	-4,0539	6,4043	10,92
15797	-13,025	-4,0187	6,9039	10,213
15798	-8,5097	-4,0465	6,8417	8,6348
15799	-12,033	-4,0203	6,6033	9,8897
15800	-13,35	-4,0498	6,1228	10,569
15801	-11,021	-4,0249	6,2788	9,5792
15802	-12,408	-4,0085	5,8175	10,24
15803	-18,413	-4,0098	6,7896	12,671
15804	-8,9146	-4,024	6,2458	8,8726
15805	-17,495	-4,0241	6,4629	12,392
15806	-9,969	-4,0032	5,6949	9,3319
15807	-11,447	-4,0125	5,4895	9,9259
15808	-16,587	-4,0204	6,1497	12,084
15809	-10,652	-3,9994	4,8962	9,7463
15810	-15,64	-4,0459	5,8682	11,725
15811	-11,124	-3,9967	4,4757	10,012
15812	-14,682	-4,035	5,5808	11,35
15813	-11,812	-4,0022	4,7299	10,243
15814	-13,715	-4,0306	5,3088	10,963
15815	-12,75	-4,0129	5,046	10,583
15816	-18,758	-4,0116	5,8754	13,376
15817	-17,855	-4,0178	5,564	13,01
15818	-19,106	-4,0108	4,9299	14,114
15819	-16,931	-4,0347	5,2813	12,622
15820	-18,212	-4,0036	4,6395	13,64
15821	-15,992	-4,0214	5,001	12,217
15822	-19,455	-4,0051	3,9662	14,81
15823	-17,276	-4,0267	4,3839	13,167
15824	-15,024	-4,0427	4,7435	11,785
15825	-18,563	-4,0052	3,697	14,2
15826	-16,319	-4,0334	4,1361	12,692
15827	-17,585	-4,0215	3,4759	13,661
15828	-19,671	-4,0087	3,0949	15,191
15829	-15,338	-4,0258	3,8845	12,207
15830	-18,846	-3,9983	2,7826	14,615
15831	-14,045	-4,0357	4,4893	11,349
15832	-17,844	-4,013	2,5624	14,026
15833	-14,367	-4,0135	3,6415	11,732
15834	-16,607	-4,0293	3,2464	13,127
15835	-13,058	-4,037	4,2487	10,918
15836	-15,627	-4,024	3,0131	12,599
15837	-16,859	-4,0184	2,3372	13,492
15838	-14,66	-4,0074	2,7833	12,083
15839	-13,363	-4,0313	3,4195	11,251
15840	-15,907	-4,0264	2,1341	12,948
15841	-13,661	-4,0242	2,5652	11,568
15842	-14,94	-4,026	1,9166	12,4
15843	-13,958	-4,0238	1,6913	11,856
15844	-14,279	-4,0138	0,90142	12,118
15845	-15,149	-4,0144	0,96392	12,634
15846	-16,094	-4,023	1,1422	13,205
15847	-17,092	-4,0262	1,4234	13,771
15848	-18,076	-4,0045	1,6701	14,293
15849	-17,388	-4,0313	0,59879	13,998
15850	-19,064	-4,0021	1,8548	14,736
15851	-18,258	-4,0036	0,82853	14,413
15852	-17,673	-4,0149	2,4689e-002	14,161
15853	-19,188	-4,0604	0,93973	14,715
15854	-18,337	-4,0088	3,2619e-002	14,447
15855	-20,302	-3,9443	1,9891	15,537
15856	-19,244	-4,0131	2,0869e-002	14,65
15857	-20,189	-4,0014	0,95818	14,758
15858	-20,167	-4,0134	8,534e-003	14,405
15859	-20,211	-4,0205	-1,0415	14,772
15860	-19,248	-4,0273	-0,88457	14,688
15861	-20,358	-3,907	-2,0677	15,583
15862	-18,301	-4,0048	-0,76422	14,43
15863	-19,177	-4,0188	-1,7903	14,747
15864	-17,435	-4,0305	-0,50633	14,026
15865	-18,174	-4,0515	-1,5917	14,344
15866	-16,339	-4,0361	3,053e-003	13,416
15867	-17,188	-4,0533	-1,3419	13,84
15868	-12,083	-4,0361	4,018	10,513
15869	-16,183	-4,024	-1,1248	13,264
15870	-10,904	-4,0329	3,8271	10,049
15871	-6,8739	-4,0036	31,36	12,479
15872	-15,24	-4,0332	-2,1457e-003	12,726
15873	-6,3197	-3,9966	32,161	12,952
15874	-14,772	-4,0264	-0,95757	12,414
15875	-5,7684	-3,9833	32,98	13,461
15876	-12,342	-4,0263	3,215	10,788
15877	-14,369	-4,0052	-4,2717e-002	12,202
15878	-11,371	-4,0044	2,942	10,394
15879	-6,0221	-4,0075	30,74	12,455
15880	-14,179	-4,0307	-0,83465	12,073
15881	-5,0978	-3,9985	33,623	13,946
15882	-5,4872	-4,0055	31,532	12,89
15883	-12,66	-4,0244	2,3674	11,08
15884	-5,2654	-4,0314	30,148	12,371
15885	-4,2168	-4,0315	34,139	14,378
15886	-4,739	-4,0339	30,903	12,765
15887	-4,9405	-4,0104	32,281	13,328
15888	-11,765	-4,0113	2,0547	10,689
15889	-4,1558	-4,0378	31,614	13,158
15890	-4,4461	-4,0314	29,501	12,237
15891	-12,994	-4,0172	1,4616	11,361
15892	-3,7197	-4,0588	28,873	12,066
15893	-13,292	-4,0274	0,37901	11,587
15894	-2,957	-4,0695	28,253	11,875
15895	-3,934	-4,0291	30,259	12,608
15896	-12,093	-4,0585	1,2877	10,92
15897	-3,416	-4,0596	30,963	12,964
15898	-12,363	-4,077	0,36512	11,107
15899	-4,2503	-4,0193	32,936	13,753
15900	-3,1986	-4,0435	29,611	12,414
15901	-3,5258	-4,0441	32,289	13,54
15902	-2,5224	-4,0909	28,981	12,201
15903	-2,6747	-4,0443	30,341	12,761
15904	-13,252	-4,0486	-0,73352	11,558
15905	-2,0091	-4,0995	29,661	12,514
15906	-12,302	-4,3756	-0,66028	11,083
15907	-2,7975	-4,0304	31,679	13,333
15908	-3,5609	-4,0375	33,584	14,16
15909	-11,716	-4,0175	0,21137	10,79
15910	-2,8647	-4,0369	32,99	13,924
15911	-2,114	-4,0659	30,993	13,078
15912	-2,1859	-4,043	32,359	13,675
15913	-1,4614	-4,0938	30,32	12,818
15914	-1,5187	-4,0762	31,655	13,393
15915	-2,1405	-4,064	27,638	11,669
15916	-0,88093	-4,0851	30,967	13,11
15917	-11,356	-4,0259	0,85907	10,606
15918	-11,449	-4,0529	-0,2087	10,664
15919	-1,8444	-4,1034	28,358	11,976
15920	-10,877	-4,0019	1,6785	10,341
15921	-10,749	-4,0558	0,37004	10,362
15922	-10,411	-3,9997	2,5639	10,056
15923	-1,3536	-4,1113	29,013	12,269
15924	-10,005	-3,983	3,8032	9,717
15925	-1,249	-4,1036	27,912	11,807
15926	-10,158	-4,0022	1,1104	10,095
15927	-3,515	-4,0469	34,934	14,9
15928	-1,1508	-4,0699	27,09	11,473
15929	-0,80967	-4,0791	28,287	11,975
15930	-0,82635	-4,0837	29,612	12,533
15931	-2,8783	-4,0496	34,291	14,568
15932	-9,0854	-3,9671	4,7314	9,2314
15933	-0,26413	-4,057	27,495	11,651
15934	-0,2118	-4,088	28,81	12,203
15935	-2,1714	-4,0505	33,69	14,279
15936	0,39932	-4,0332	28,069	11,889
15937	-1,5226	-4,0518	33,049	13,998
15938	-8,3698	-3,9747	5,5974	8,848
15939	-0,91094	-4,0552	32,372	13,718
15940	-2,5465	-4,187	35,734	15,335
15941	-0,27461	-4,0785	30,247	12,808
15942	-2,1293	-4,0601	35,062	14,945
15943	0,30969	-4,0821	29,461	12,477
15944	-0,30681	-4,0608	31,676	13,427
15945	-1,4882	-4,0543	34,394	14,604
15946	0,92023	-4,0581	28,734	12,16
15947	-0,41077	-4,0634	26,129	11,082
15948	0,28619	-4,0682	30,933	13,104
15949	-0,89175	-4,0576	33,722	14,304
15950	0,84768	-4,0462	30,189	12,771
15951	-7,7318	-4,0184	6,1656	8,5581
15952	-9,5835	-3,9701	1,978	9,8135
15953	-7,1724	-4,0364	6,7922	8,2917
15954	1,3456	-4,0771	29,441	12,451
15955	-8,9645	-3,9544	2,8938	9,4967
15956	1,7942	-4,0624	28,858	12,185
15957	-6,6404	-4,0418	7,4888	8,0377
15958	-4,4621e-002	-4,0029	25,288	10,733
15959	0,26655	-4,0314	26,62	11,287
15960	-0,28379	-4,0679	33,02	14,
15961	0,75821	-4,0154	25,704	10,903
15962	1,0083	-4,0185	27,211	11,525
15963	-3,7348	-4,0478	16,305	7,562
15964	-6,1456	-4,0494	8,2509	7,792
15965	-3,292	-4,043	17,073	7,7255
15966	-5,6722	-4,036	9,0208	7,5721
15967	1,5556	-4,0072	26,335	11,15
15968	0,31946	-4,0741	32,313	13,695
15969	-2,9023	-4,0424	17,874	7,9362
15970	-8,3221	-3,9393	3,8047	9,1656
15971	0,89208	-4,0756	31,582	13,373
15972	-7,6789	-3,9476	4,5982	8,85
15973	1,8479	-4,0559	28,042	11,845
15974	-7,0494	-3,9754	5,3009	8,56
15975	-2,4788	-4,0218	18,711	8,1868
15976	-5,2052	-4,0534	9,7864	7,3816
15977	1,4457	-4,0857	30,852	13,045
15978	-4,7432	-4,0656	10,537	7,2263
15979	-2,0892	-4,0333	19,547	8,4656
15980	-4,2562	-4,0415	11,274	7,1043
15981	-1,6957	-4,0445	20,364	8,7592
15982	2,3456	-4,015	26,938	11,373
15983	-1,2754	-4,0638	21,219	9,0825
15984	1,9655	-4,0668	30,084	12,693
15985	-6,4535	-3,9952	6,041	8,2817
15986	2,3584	-4,0496	29,284	12,335
15987	-0,82874	-4,0448	22,089	9,4244
15988	2,679	-4,032	28,348	11,931
15989	-0,37213	-4,0333	23,011	9,7973
15990	-3,7658	-4,0199	12,045	7,0208
15991	3,0683	-4,0186	27,534	11,578
15992	-5,9506	-3,997	6,7868	8,0295
15993	-0,18624	-4,1123	24,337	10,343
15994	-5,3853	-4,0097	7,6285	7,7592
15995	-2,1986	-4,0688	36,464	15,665
15996	-4,923	-4,0309	8,518	7,5208
15997	-1,5886	-4,0422	35,777	15,223
15998	-3,3003	-4,0089	12,85	6,9881
15999	1,1843	-3,9962	24,84	10,543
16000	-0,92974	-4,0501	35,098	14,878
16001	2,012	-4,0199	25,433	10,773
16002	-0,26816	-4,0488	34,401	14,581
16003	-2,8643	-4,0064	13,706	7,0135
16004	0,33835	-4,0625	33,713	14,298
16005	-2,9911	-4,0308	15,694	7,3555
16006	0,94617	-4,0677	32,967	13,976
16007	-2,4974	-4,0314	16,339	7,474
16008	2,7883	-4,015	26,077	11,009
16009	1,5291	-4,0699	32,244	13,646
16010	2,0923	-4,0734	31,487	13,292
16011	0,28943	-4,0669	22,615	9,6345
16012	2,6226	-4,071	30,7	12,918
16013	3,5633	-4,0181	26,693	11,214
16014	-4,4367	-4,0342	9,2521	7,3294
16015	3,0668	-4,0552	29,855	12,525
16016	0,93054	-4,0416	23,332	9,9284
16017	-4,0853	-4,0919	9,9659	7,1879
16018	3,4759	-4,0336	28,98	12,13
16019	1,6582	-4,014	23,976	10,187
16020	-2,4303	-4,0035	14,765	7,1287
16021	3,8897	-4,0233	28,126	11,752
16022	-1,8114	-4,0221	15,668	7,2722
16023	-3,5089	-4,077	9,6253	7,1528
16024	2,4415	-4,0233	24,617	10,436
16025	-2,127	-4,0204	17,231	7,6988
16026	-1,595	-4,0347	37,182	15,843
16027	-1,7423	-4,036	18,073	7,9457
16028	-0,95474	-4,0375	36,499	15,422
16029	-3,5545	-4,0332	10,691	7,0475
16030	-0,29709	-4,0465	35,802	15,119
16031	-2,9058	-4,0556	9,9884	7,044
16032	0,37343	-4,051	35,084	14,853
16033	-1,3635	-4,054	18,892	8,2138
16034	0,99878	-4,0655	34,341	14,569
16035	-1,4347	-4,0397	16,61	7,493
16036	-0,92488	-4,0435	37,87	15,816
16037	-1,0128	-4,0812	19,714	8,5031
16038	1,6075	-4,0701	33,578	14,24
16039	-0,29854	-4,0361	37,196	15,526
16040	-2,993	-4,041	11,454	6,9431
16041	0,35574	-4,0434	36,491	15,346
16042	2,2045	-4,0601	32,81	13,875
16043	-1,0011	-4,0593	17,443	7,7235
16044	0,99937	-4,0476	35,765	15,153
16045	-0,7209	-4,0624	18,03	7,9052
16046	1,6478	-4,064	34,988	14,877
16047	2,7704	-4,0584	32,047	13,497
16048	-0,34811	-4,0897	19,109	8,276
16049	2,2692	-4,0594	34,194	14,522
16050	-0,22215	-4,1567	38,639	15,641
16051	-0,61832	-4,0875	20,54	8,8126
16052	2,8824	-4,0451	33,413	14,125
16053	0,37851	-4,0352	37,894	15,649
16054	3,4731	-4,0363	32,637	13,706
16055	4,3377	-4,0248	27,295	11,391
16056	3,2074	-4,0348	25,247	10,665
16057	0,5431	-4,1099	39,167	15,741
16058	3,9917	-4,031	25,865	10,87
16059	1,0186	-4,0427	37,157	15,653
16060	4,7891	-4,027	26,467	11,042
16061	3,3131	-4,0514	31,278	13,11
16062	1,084	-4,0784	38,513	16,027
16063	3,7976	-4,0416	30,437	12,697
16064	1,6613	-4,0456	36,401	15,52
16065	1,6806	-4,0471	37,793	16,17
16066	-2,4815	-4,008	12,275	6,8891
16067	4,2525	-4,0291	29,582	12,293
16068	2,3112	-4,0448	35,624	15,241
16069	4,6968	-4,0229	28,731	11,903
16070	2,3163	-4,0505	37,004	16,015
16071	5,15	-4,0223	27,886	11,53
16072	-2,0452	-3,9903	13,181	6,8999
16073	2,9863	-4,0426	36,22	15,667
16074	-2,3107	-4,0171	10,721	6,9211
16075	5,6012	-4,0228	27,048	11,174
16076	-1,7153	-3,9836	11,668	6,8348
16077	-4,8977e-002	-4,0954	19,901	8,5667
16078	4,0322	-4,0325	31,867	13,286
16079	-1,1907	-3,9945	12,618	6,8194
16080	-1,5495	-4,0023	14,135	6,9747
16081	4,5514	-4,0267	31,023	12,844
16082	2,961	-4,0355	34,863	14,862
16083	-0,72884	-4,0119	13,605	6,8797
16084	3,5835	-4,0274	34,034	14,391
16085	-5,9491e-002	-4,0753	21,432	9,1609
16086	0,34744	-4,0637	19,386	8,3771
16087	0,71781	-4,0705	21,871	9,3376
16088	1,1785	-4,0412	40,021	16,436
16089	4,2064	-4,0189	33,282	13,928
16090	1,7299	-4,0465	39,182	16,923
16091	0,43605	-4,0799	20,553	8,8161
16092	2,3185	-4,062	38,387	16,943
16093	0,8131	-4,0748	19,819	8,5403
16094	1,0847	-4,0739	21,159	9,0566
16095	4,7821	-4,0035	32,428	13,423
16096	1,4771	-4,0515	20,365	8,7552
16097	5,3231	-4,0039	31,592	12,949
16098	2,9632	-4,059	37,575	16,646
16099	-1,1413	-4,0288	15,046	7,1121
16100	3,6284	-4,0494	36,779	16,131
16101	3,6765	-4,0248	35,452	15,197
16102	-0,40307	-4,0505	14,438	6,9865
16103	-0,7098	-4,0482	15,96	7,3037
16104	4,376	-4,0232	36,044	15,548
16105	1,3776	-4,034	22,525	9,6007
16106	4,3149	-4,0117	34,636	14,64
16107	1,7521	-4,0727	21,755	9,2977
16108	5,0384	-4,0209	30,171	12,418
16109	5,1345	-3,9858	35,283	14,879
16110	2,1986	-4,0706	20,975	9,0007
16111	5,828	-4,0097	30,738	12,495
16112	-8,0112e-002	-4,0707	15,379	7,1619
16113	5,5072	-4,018	29,316	12,011
16114	0,34082	-4,1099	14,966	7,0765
16115	4,9574	-4,0037	33,863	14,098
16116	5,9624	-4,0179	28,464	11,626
16117	5,558	-3,9941	33,039	13,542
16118	-0,28042	-4,0609	16,808	7,5219
16119	6,4219	-4,0187	27,615	11,262
16120	0,3596	-4,0694	16,114	7,3363
16121	0,18577	-4,1402	18,572	8,085
16122	6,1144	-3,9964	32,179	13,014
16123	6,3168	-4,0107	29,883	12,07
16124	6,6417	-3,9993	31,307	12,522
16125	0,26077	-4,2394	17,634	7,7748
16126	0,63949	-4,0856	15,291	7,1499
16127	1,0831	-4,102	18,969	8,2347
16128	0,96167	-4,0582	16,76	7,5206
16129	1,4125	-4,037	18,206	7,9795
16130	2,0888	-4,0512	23,191	9,8683
16131	1,4596	-4,0657	15,946	7,3215
16132	2,8834	-4,0223	23,813	10,109
16133	1,7994	-4,0275	17,367	7,7248
16134	1,829	-4,0772	19,561	8,4641
16135	2,2074	-4,0462	16,557	7,5141
16136	2,2223	-4,028	18,766	8,1948
16137	0,36063	-4,0703	14,157	6,942
16138	2,6265	-4,011	17,963	7,9489
16139	1,1124	-4,0618	14,598	7,029
16140	7,1447	-4,0028	30,432	12,07
16141	3,0459	-4,011	17,16	7,7322
16142	1,8945	-4,0554	15,123	7,1612
16143	2,527	-4,0564	22,389	9,5521
16144	2,6517	-4,046	15,754	7,3434
16145	5,7812	-3,9879	34,451	14,203
16146	3,4749	-4,0129	16,36	7,5522
16147	6,3808	-3,9724	33,608	13,576
16148	3,0756	-4,0428	14,961	7,2156
16149	3,8964	-4,0248	15,564	7,4117
16150	6,9435	-3,9821	32,729	12,995
16151	2,2783	-4,0401	14,316	7,0448
16152	7,4787	-3,9898	31,851	12,475
16153	1,4542	-4,0409	13,749	6,9216
16154	7,9908	-3,9966	30,976	12,007
16155	0,35803	-4,0195	13,211	6,8351
16156	2,5954	-4,0592	20,167	8,707
16157	-0,39273	-3,9634	12,06	6,7844
16158	3,0066	-4,035	19,365	8,4346
16159	3,645	-4,0379	24,432	10,335
16160	3,3163	-4,0278	23,005	9,7916
16161	4,4422	-4,0326	25,041	10,536
16162	3,398	-4,0426	18,56	8,1829
16163	5,2411	-4,0277	25,634	10,704
16164	3,8207	-4,0404	17,766	7,9643
16165	-0,97538	-3,9631	11,063	6,823
16166	4,2558	-4,0391	16,971	7,7782
16167	6,0581	-4,0231	26,211	10,833
16168	4,0802	-4,0383	23,621	10,017
16169	4,7098	-4,0213	16,159	7,6274
16170	4,8785	-4,0329	24,22	10,216
16171	6,7946	-4,0126	29,018	11,669
16172	5,6907	-4,0276	24,805	10,383
16173	2,9723	-4,031	21,582	9,2448
16174	6,5185	-4,0227	25,373	10,51
16175	3,3782	-4,0492	20,782	8,9553
16176	6,8839	-4,0188	26,779	10,92
16177	7,26	-4,0143	28,171	11,299
16178	7,3486	-4,0183	25,93	10,593
16179	7,7271	-4,0148	27,322	10,952
16180	3,7497	-4,0265	22,195	9,4849
16181	8,1892	-4,0144	26,473	10,627
16182	4,5265	-4,0381	22,804	9,7104
16183	5,327	-4,0325	23,396	9,9093
16184	-0,14814	-3,9964	10,404	6,856
16185	6,1368	-4,0269	23,976	10,078
16186	0,40611	-4,0232	9,5104	6,9621
16187	3,7899	-4,0449	19,973	8,6802
16188	6,969	-4,0218	24,537	10,205
16189	7,6297	-4,0071	29,566	11,658
16190	7,8045	-4,0175	25,084	10,289
16191	8,4825	-4,0028	30,112	11,587
16192	8,6568	-4,0136	25,62	10,323
16193	4,2061	-4,0411	19,17	8,4296
16194	4,1793	-4,0238	21,384	9,1933
16195	8,1072	-4,0103	28,719	11,282
16196	4,9596	-4,0373	21,986	9,419
16197	4,6312	-4,0378	18,372	8,2071
16198	5,7701	-4,0316	22,571	9,6193
16199	8,5651	-4,0111	27,863	10,935
16200	6,5912	-4,026	23,137	9,7868
16201	5,0652	-4,0352	17,564	8,013
16202	7,4282	-4,0208	23,692	9,9169
16203	8,9533	-4,0067	29,256	11,208
16204	8,264	-4,0163	24,238	10,005
16205	9,4208	-4,0077	28,392	10,857
16206	5,5144	-4,0338	16,747	7,8543
16207	4,6072	-4,0201	20,572	8,9198
16208	9,0361	-4,0107	27,004	10,608
16209	5,3944	-4,0355	21,169	9,1467
16210	9,1139	-4,0124	24,773	10,045
16211	9,8886	-4,0074	27,538	10,534
16212	6,2056	-4,0299	21,75	9,3496
16213	-1,6351	-3,9796	10,154	6,9269
16214	7,0426	-4,0244	22,304	9,518
16215	-1,0033	-3,9818	9,4721	6,9821
16216	7,8786	-4,0195	22,851	9,6516
16217	-0,44946	-4,0379	8,7316	7,0819
16218	8,7298	-4,015	23,387	9,7419
16219	5,8257e-002	-4,0135	8,387	7,136
16220	9,5814	-4,0112	23,915	9,7847
16221	0,9917	-4,0008	8,6498	7,1087
16222	0,30184	-3,973	11,649	6,7851
16223	9,5082	-4,0101	26,153	10,306
16224	9,9764	-4,0093	25,291	10,027
16225	10,359	-4,0071	26,668	10,233
16226	1,0259	-4,003	12,272	6,8031
16227	10,438	-4,0086	24,43	9,774
16228	10,84	-4,0071	25,814	9,957
16229	1,8532	-4,0339	12,905	6,868
16230	11,307	-4,0071	24,945	9,7063
16231	2,6879	-4,0241	13,545	6,9815
16232	0,90569	-4,0235	10,884	6,8317
16233	1,169	-4,0447	7,9774	7,2343
16234	1,2133	-4,0378	10,139	6,9079
16235	1,5737	-4,0556	7,1662	7,4107
16236	2,1411	-4,038	6,459	7,5894
16237	3,5001	-4,0425	14,168	7,1321
16238	1,5599	-4,0267	11,475	6,8309
16239	4,308	-4,0419	14,783	7,3148
16240	2,0004	-4,048	10,746	6,8959
16241	2,6038	-4,0706	6,037	7,7085
16242	5,133	-4,0383	15,362	7,5184
16243	1,6329	-4,0401	9,3463	7,0286
16244	5,9631	-4,0336	15,932	7,7367
16245	2,0174	-4,0403	8,5664	7,1743
16246	2,3275	-4,0941	10,228	6,9665
16247	5,0369	-4,0172	19,76	8,6682
16248	2,4138	-4,0526	7,813	7,3398
16249	5,8271	-4,0323	20,352	8,8956
16250	5,4708	-4,0171	18,946	8,442
16251	2,8149	-4,0497	9,2064	7,1364
16252	5,914	-4,0154	18,126	8,2452
16253	3,2296	-4,0495	8,4444	7,3029
16254	6,2771	-4,0289	19,529	8,669
16255	6,342	-4,0293	17,312	8,0827
16256	6,7316	-4,0265	18,697	8,47
16257	2,8644	-4,079	7,0917	7,5192
16258	2,3167	-4,0404	12,142	6,8742
16259	7,184	-4,0254	17,871	8,3061
16260	2,7173	-3,9985	11,411	6,9175
16261	6,6584	-4,0271	20,915	9,0977
16262	3,1019	-4,0187	12,76	6,9629
16263	3,1602	-4,0346	10,615	7,0098
16264	6,798	-4,0291	16,491	7,9599
16265	3,5901	-4,0343	9,8387	7,1386
16266	7,6343	-4,0254	17,047	8,18
16267	3,5255	-4,0122	12,001	6,9922
16268	4,0584	-4,0491	9,0426	7,3067
16269	3,6617	-4,0836	7,652	7,4969
16270	3,478	-2,0266	41,636	23,078
16271	4,492	-4,047	8,2728	7,4952
16272	3,969	-4,0326	11,198	7,068
16273	2,4177	-4,0494	39,707	18,291
16274	7,1163	-4,0245	20,081	8,8722
16275	2,9862	-4,0712	38,943	18,015
16276	7,5754	-4,0203	19,242	8,6747
16277	4,398	-4,0215	10,426	7,1828
16278	8,0269	-4,0221	18,415	8,5124
16279	3,5572	-4,0854	38,155	17,389
16280	4,8717	-4,0449	9,6257	7,3457
16281	2,6502	-4,0274	41,058	20,136
16282	7,4936	-4,0224	21,466	9,2706
16283	5,3224	-4,0354	8,8196	7,5396
16284	3,1155	-4,0885	40,359	20,145
16285	3,9284	-4,044	13,392	7,0976
16286	3,6303	-4,0745	39,478	19,111
16287	4,74	-4,0419	13,984	7,2621
16288	4,1143	-4,1122	38,702	18,13
16289	8,3381	-4,0181	22,007	9,4084
16290	7,956	-4,0207	20,628	9,049
16291	9,1901	-4,0139	22,537	9,5032
16292	4,1832	-4,0928	37,388	16,67
16293	5,565	-4,0382	14,559	7,4532
16294	4,3445	-4,018	12,579	7,1057
16295	6,4033	-4,0337	15,12	7,6622
16296	5,1855	-4,0369	13,175	7,2587
16297	7,2461	-4,0305	15,666	7,8783
16298	5,9997	-4,0379	13,753	7,4347
16299	8,0937	-4,0267	16,205	8,093
16300	8,4894	-4,022	17,575	8,3846
16301	6,8378	-4,0339	14,309	7,6327
16302	8,9444	-4,0233	16,734	8,2961
16303	4,9571	-4,056	36,605	15,872
16304	4,6563	-4,1125	37,947	17,177
16305	8,7976	-4,017	21,16	9,1898
16306	8,4137	-4,0196	19,789	8,8555
16307	9,6534	-4,0133	21,685	9,2897
16308	7,6973	-4,0259	14,842	7,8426
16309	5,2567	-4,1198	37,231	16,312
16310	9,2705	-4,0142	20,308	8,9989
16311	10,051	-4,0104	23,057	9,5497
16312	10,123	-4,0132	20,83	9,1037
16313	10,514	-4,0102	22,197	9,341
16314	8,5484	-4,0226	15,372	8,0517
16315	10,981	-4,0103	21,345	9,161
16316	4,7809	-4,0164	11,781	7,1653
16317	9,4017	-4,0195	15,894	8,2512
16318	5,4392	-4,1276	37,955	16,915
16319	3,2099	-4,0798	6,3455	7,704
16320	5,0236	-4,1589	38,414	17,598
16321	4,0399	-4,0757	6,881	7,6948
16322	5,2302	-4,0216	10,984	7,2731
16323	4,688	-4,1214	39,237	18,745
16324	5,6784	-4,0203	10,174	7,4234
16325	5,6313	-4,0309	12,368	7,3046
16326	4,8936	-4,0672	7,4217	7,7152
16327	4,2475	-4,1017	40,119	20,261
16328	5,7867	-4,0244	8,0271	7,7605
16329	3,8233	-4,0874	40,957	21,867
16330	6,4417	-4,0379	12,946	7,4654
16331	3,3928	-4,0284	41,688	23,018
16332	8,8786	-4,019	18,941	8,6924
16333	7,2899	-4,0352	13,493	7,6537
16334	9,3447	-4,0188	18,103	8,5673
16335	10,918	-4,0083	23,578	9,5441
16336	8,1405	-4,0344	14,027	7,8538
16337	9,8014	-4,02	17,253	8,4781
16338	8,993	-4,0306	14,55	8,0563
16339	9,7374	-4,0139	19,461	8,8408
16340	10,253	-4,0199	16,415	8,4317
16341	10,596	-4,0112	19,975	8,9486
16342	9,8588	-4,0171	15,057	8,2526
16343	6,1498	-4,0356	9,3792	7,6128
16344	10,722	-4,0138	15,563	8,4307
16345	6,6524	-4,0164	8,5482	7,8478
16346	6,0742	-4,0214	11,554	7,3973
16347	10,202	-4,0161	18,618	8,7176
16348	11,78	-4,0072	24,084	9,4805
16349	11,063	-4,0135	19,127	8,8284
16350	6,8856	-4,0388	12,136	7,5443
16351	11,381	-4,009	22,71	9,3399
16352	11,458	-4,0091	20,483	9,0093
16353	12,245	-4,0074	23,215	9,2813
16354	11,926	-4,0094	19,624	8,8915
16355	6,5001	-4,0384	10,761	7,5299
16356	11,851	-4,0079	21,848	9,1633
16357	7,3394	-4,0279	11,321	7,672
16358	7,7268	-4,0379	12,692	7,7201
16359	12,711	-4,0074	22,357	9,1098
16360	8,1664	-4,0421	11,884	7,8334
16361	8,593	-4,0229	13,207	7,9144
16362	6,9399	-4,0324	9,9381	7,7086
16363	9,0272	-4,0431	12,42	8,0181
16364	7,7582	-4,0414	10,538	7,8321
16365	4,0284	-4,0288	42,384	25,621
16366	10,662	-4,017	17,764	8,6301
16367	8,6073	-4,0492	11,117	7,9882
16368	11,521	-4,0136	18,269	8,743
16369	7,4538	-4,0279	9,0959	7,9437
16370	9,4765	-4,0516	11,649	8,168
16371	8,1764	-4,0516	9,784	8,025
16372	12,389	-4,0113	18,766	8,809
16373	8,6823	-4,0396	9,1221	8,2564
16374	9,4427	-4,0352	13,73	8,1092
16375	9,3179	-4,1066	8,78	8,4937
16376	9,9022	-4,0319	12,921	8,2119
16377	12,324	-4,0063	20,986	9,0162
16378	10,363	-4,0297	12,127	8,3609
16379	12,792	-4,0077	20,124	8,9013
16380	9,0527	-4,0648	10,388	8,1781
16381	10,309	-4,0312	14,232	8,3008
16382	9,9404	-4,065	10,918	8,3585
16383	4,5155	-4,0611	41,523	22,837
16384	9,588	-4,0842	9,7115	8,4201
16385	10,775	-4,0154	13,408	8,3999
16386	10,423	-4,0798	10,173	8,5926
16387	10,828	-4,0418	11,357	8,5533
16388	4,9298	-4,0899	40,634	20,785
16389	11,292	-4,0621	10,606	8,7843
16390	11,127	-4,0165	16,917	8,5845
16391	11,237	-4,0277	12,609	8,5452
16392	11,993	-4,0138	17,416	8,698
16393	11,708	-4,024	11,802	8,7397
16394	12,862	-4,0115	17,911	8,7648
16395	5,2982	-4,1174	39,739	19,088
16396	12,176	-4,0576	11,059	8,9705
16397	11,585	-4,018	16,069	8,5813
16398	5,6568	-4,1282	38,908	17,803
16399	13,26	-4,0094	19,264	8,8207
16400	13,192	-4,0058	21,485	8,9637
16401	11,172	-4,0262	14,729	8,4751
16402	13,732	-4,0083	18,4	8,7765
16403	13,664	-4,0047	20,619	8,8503
16404	11,645	-4,0122	13,893	8,5715
16405	14,134	-4,0058	19,754	8,7704
16406	10,048	-4,1126	9,1281	8,6513
16407	14,604	-4,0064	18,89	8,726
16408	10,884	-4,0994	9,4954	8,8446
16409	12,112	-4,0116	13,068	8,7158
16410	11,729	-4,0837	9,8773	9,0414
16411	12,042	-4,0211	15,221	8,624
16412	12,646	-4,0624	10,289	9,2477
16413	12,454	-4,0147	16,561	8,6946
16414	12,507	-4,0254	14,378	8,7157
16415	12,919	-4,0167	15,708	8,7365
16416	5,9333	-4,1129	38,073	16,738
16417	13,383	-4,0198	14,858	8,8255
16418	6,1049	-4,0686	37,056	15,78
16419	13,328	-4,012	17,051	8,7613
16420	6,0357	-3,9935	35,943	15,017
16421	13,792	-4,013	16,193	8,8015
16422	14,2	-4,0098	17,544	8,7722
16423	14,259	-4,0151	15,339	8,8881
16424	15,076	-4,0061	18,026	8,7195
16425	12,977	-4,0298	13,552	8,8566
16426	6,6921	-3,9522	35,013	14,167
16427	13,856	-4,0234	14,026	8,9636
16428	7,2579	-3,96	34,131	13,483
16429	14,732	-4,0178	14,496	9,0227
16430	7,8132	-3,9739	33,256	12,878
16431	12,582	-4,0231	12,261	8,9079
16432	8,3388	-3,9848	32,383	12,347
16433	13,058	-4,0465	11,484	9,1449
16434	8,8492	-3,9931	31,51	11,873
16435	14,666	-4,0102	16,686	8,8099
16436	9,3377	-3,9998	30,638	11,449
16437	13,533	-4,0496	10,691	9,43
16438	9,8063	-4,0036	29,78	11,07
16439	15,547	-4,0057	17,163	8,7542
16440	10,281	-4,0046	28,911	10,718
16441	13,458	-4,017	12,717	9,0505
16442	10,759	-4,0046	28,054	10,395
16443	14,329	-4,0265	13,189	9,1525
16444	15,138	-4,0121	15,825	8,8932
16445	11,227	-4,0048	27,182	10,099
16446	15,207	-4,0192	13,651	9,2087
16447	15,608	-4,0129	14,971	9,0236
16448	11,702	-4,0053	26,32	9,8271
16449	16,081	-4,0148	14,112	9,206
16450	12,168	-4,0056	25,447	9,5805
16451	16,018	-4,0072	16,302	8,8325
16452	12,645	-4,0048	24,58	9,357
16453	16,488	-4,0096	15,449	8,9565
16454	13,118	-4,0048	23,713	9,1599
16455	13,935	-4,0368	11,919	9,2888
16456	13,588	-4,0045	22,845	8,9898
16457	14,424	-4,039	11,102	9,5837
16458	14,815	-4,0289	12,363	9,394
16459	14,06	-4,0054	21,978	8,8473
16460	15,3	-4,0305	11,53	9,6902
16461	14,535	-4,0032	21,109	8,7339
16462	15,684	-4,0223	12,809	9,4476
16463	15,001	-4,0056	20,246	8,6541
16464	16,562	-4,0163	13,265	9,4405
16465	15,48	-4,0045	19,375	8,6064
16466	16,964	-4,0105	14,589	9,1314
16467	15,95	-4,0064	18,513	8,5963
16468	16,171	-4,0234	11,963	9,7446
16469	16,426	-4,0037	17,641	8,6258
16470	17,431	-4,0113	13,722	9,362
16471	16,899	-4,006	16,777	8,6976
16472	17,036	-4,0169	12,401	9,7362
16473	17,372	-4,0078	15,918	8,8141
16474	17,911	-4,0113	12,855	9,6523
16475	17,847	-4,0079	15,054	8,9806
16476	18,388	-4,0116	11,979	10,011
16477	18,315	-4,0079	14,175	9,206
16478	18,856	-4,0107	11,091	10,447
16479	18,789	-4,0073	13,31	9,4857
16480	19,303	-4,0132	10,181	10,977
16481	19,267	-4,0049	12,433	9,8357
16482	19,704	-4,0163	9,2573	11,605
16483	19,73	-4,0044	11,54	10,268
16484	4,6733	-3,9642	43,248	27,203
16485	20,183	-4,0089	10,633	10,799
16486	5,1881	-4,0655	42,059	22,681
16487	20,001	-4,0457	8,2277	12,398
16488	20,653	-4,0209	9,5871	11,546
16489	5,6155	-4,074	41,126	20,585
16490	20,679	-4,0417	8,4476	12,441
16491	20,361	-4,0592	7,2481	13,324
16492	20,668	-4,0649	6,3053	14,368
16493	21,354	-4,0319	8,8018	12,291
16494	5,9927	-4,1119	40,193	18,918
16495	21,013	-4,0613	5,3795	15,659
16496	21,081	-4,0635	7,53	13,415
16497	6,4081	-4,0859	39,302	17,507
16498	21,813	-4,0392	7,9572	13,265
16499	6,6762	-4,068	38,312	16,384
16500	21,512	-4,0691	6,6166	14,691
16501	21,283	-4,0276	4,4224	17,144
16502	22,248	-4,0589	7,0119	14,684
16503	21,644	-4,0114	3,5091	19,228
16504	21,812	-4,0447	5,7708	16,196
16505	6,9576	-4,0231	37,313	15,433
16506	22,156	-4,0626	4,8522	18,527
16507	22,656	-4,0571	6,1634	16,533
16508	7,2243	-3,9752	36,35	14,654
16509	23,005	-4,0571	5,2861	19,369
16510	7,656	-3,9561	35,504	13,936
16511	22,453	-4,0137	4,0323	21,731
16512	8,1813	-3,9627	34,638	13,257
16513	23,313	-4,004	4,4697	23,817
16514	8,7106	-3,9744	33,767	12,655
16515	9,2217	-3,984	32,9	12,13
16516	24,222	-3,9949	4,8032	24,681
16517	9,7185	-3,9916	32,03	11,663
16518	23,85	-4,0342	5,7186	19,261
16519	10,201	-3,9974	31,158	11,244
16520	23,464	-4,0229	6,6171	16,257
16521	10,676	-4,0005	30,295	10,867
16522	23,031	-4,0334	7,5121	14,323
16523	11,145	-4,0015	29,422	10,52
16524	22,545	-4,0316	8,3814	12,981
16525	11,622	-4,0019	28,559	10,201
16526	22,05	-4,0146	9,2959	11,941
16527	12,095	-4,0024	27,688	9,9068
16528	21,563	-4,0051	10,187	11,156
16529	12,568	-4,003	26,82	9,6381
16530	21,066	-3,9935	11,097	10,509
16531	13,031	-4,0031	25,949	9,3962
16532	20,608	-4,0009	12,001	9,986
16533	13,514	-4,0026	25,076	9,1721
16534	20,139	-4,0028	12,896	9,5618
16535	13,99	-4,0028	24,206	8,9756
16536	19,675	-4,0054	13,777	9,2217
16537	14,462	-4,0025	23,336	8,8056
16538	19,199	-4,0064	14,641	8,9558
16539	14,93	-4,0035	22,468	8,6638
16540	18,729	-4,0068	15,518	8,7433
16541	15,41	-4,0037	21,596	8,5475
16542	18,253	-4,0069	16,379	8,5894
16543	15,884	-4,0038	20,725	8,4636
16544	17,78	-4,005	17,249	8,4814
16545	16,357	-4,0044	19,856	8,4124
16546	17,305	-4,0045	18,118	8,4183
16547	16,83	-4,0052	18,991	8,3962
16548	25,338	-3,9066	5,0772	24,166
16549	24,744	-3,9924	6,1441	18,321
16550	24,295	-4,0157	7,0677	15,619
16551	23,855	-4,0181	7,979	13,783
16552	23,376	-4,0128	8,8763	12,485
16553	22,871	-4,0026	9,7606	11,509
16554	22,42	-4,0013	10,669	10,723
16555	21,952	-3,9979	11,574	10,095
16556	21,49	-4,0003	12,468	9,5907
16557	21,027	-4,0032	13,357	9,183
16558	5,1213	-4,082	44,318	26,407
16559	20,552	-4,0033	14,232	8,8624
16560	5,428	-4,0473	43,456	23,594
16561	20,083	-4,0066	15,108	8,6068
16562	5,8642	-4,0582	42,499	21,522
16563	19,609	-4,0068	15,981	8,4124
16564	6,3214	-4,0903	41,566	19,675
16565	19,135	-4,0066	16,852	8,271
16566	6,7349	-4,0975	40,632	18,221
16567	18,66	-4,006	17,723	8,1769
16568	7,0984	-4,0872	39,701	17,002
16569	18,185	-4,0052	18,594	8,1261
16570	7,506	-4,0355	38,731	15,881
16571	17,71	-4,0043	19,465	8,1147
16572	7,8229	-4,0244	37,818	15,038
16573	17,235	-4,0035	20,336	8,1398
16574	8,2071	-3,981	36,869	14,232
16575	16,763	-4,0026	21,205	8,1981
16576	8,6355	-3,9708	35,999	13,541
16577	16,285	-4,0022	22,08	8,2888
16578	9,1188	-3,9731	35,142	12,906
16579	15,814	-4,0019	22,95	8,4073
16580	9,6113	-3,9793	34,279	12,341
16581	15,336	-4,0011	23,824	8,555
16582	10,117	-3,9856	33,411	11,829
16583	14,861	-4,0006	24,697	8,7278
16584	10,603	-3,9914	32,539	11,377
16585	14,387	-4,0002	25,569	8,9253
16586	11,075	-3,9956	31,67	10,974
16587	13,912	-4,	26,442	9,1465
16588	11,553	-3,9978	30,799	10,601
16589	13,438	-3,9999	27,314	9,3909
16590	12,025	-3,9986	29,931	10,261
16591	12,973	-3,9997	28,187	9,6546
16592	12,499	-3,9992	29,059	9,9453
16593	5,4415	-0,98192	33,926	14,015
16594	4,896	-0,97985	34,761	14,611
16595	4,3254	-0,99421	35,575	15,223
16596	3,7044	-1,001	36,364	15,816
16597	3,0645	-1,0075	37,157	16,338
16598	2,4013	-1,0081	37,946	16,662
16599	-0,12869	-1,0373	40,07	15,496
16600	1,7293	-0,99121	38,588	16,576
16601	0,77056	-0,94464	39,203	15,885
16602	17,527	-4,0167	11,535	10,098
16603	16,657	-4,024	11,103	10,107
16604	17,995	-4,0157	10,66	10,529
16605	17,098	-4,0195	10,247	10,521
16606	18,436	-4,0156	9,7674	11,04
16607	17,52	-4,0132	9,3716	11,003
16608	15,76	-4,0244	10,696	10,037
16609	18,833	-4,0216	8,848	11,643
16610	16,226	-4,0334	9,8421	10,449
16611	14,893	-4,0409	10,282	9,9259
16612	16,647	-4,0342	8,9856	10,907
16613	15,286	-4,0223	9,4612	10,294
16614	17,943	-4,0282	8,4738	11,568
16615	13,949	-4,0579	9,8924	9,7443
16616	15,689	-4,0155	8,6283	10,717
16617	13,036	-4,0715	9,5128	9,5405
16618	14,429	-4,0521	9,0779	10,127
16619	17,022	-4,0307	8,1101	11,416
16620	14,779	-4,0299	8,2717	10,505
16621	13,493	-4,062	8,7223	9,8966
16622	16,143	-4,0433	7,7617	11,222
16623	13,834	-4,0324	7,9355	10,245
16624	12,141	-4,0736	9,1419	9,324
16625	15,187	-4,0401	7,4357	10,952
16626	11,212	-4,0663	8,7846	9,0875
16627	12,588	-4,0727	8,3716	9,6591
16628	14,28	-4,0568	7,1178	10,676
16629	11,556	-4,0399	8,0514	9,3642
16630	12,946	-4,0672	7,604	9,9922
16631	10,32	-4,0702	8,458	8,8609
16632	11,898	-4,0263	7,2877	9,669
16633	13,248	-4,0294	6,8153	10,329
16634	10,586	-4,0371	7,7535	9,093
16635	9,4222	-4,0681	8,2766	8,6173
16636	10,935	-4,0442	7,0108	9,3792
16637	9,6041	-4,054	7,5158	8,8241
16638	12,27	-4,0311	6,5154	10,007
16639	9,9378	-4,0418	6,7422	9,0944
16640	8,1529	-4,0389	8,2604	8,2611
16641	11,268	-4,0334	6,2156	9,6855
16642	-2,3833	-3,9743	9,3899	7,0727
16643	10,271	-4,0357	5,9184	9,3854
16644	8,5429	-4,0208	7,286	8,5537
16645	-1,7832	-3,9577	8,7079	7,135
16646	8,9402	-4,0187	6,469	8,8362
16647	7,1541	-4,0037	7,7408	8,1055
16648	9,2818	-4,0222	5,622	9,1159
16649	6,2099	-4,0248	7,1826	8,0029
16650	7,5751	-4,0301	6,8585	8,3803
16651	-0,85158	-3,9248	8,1129	7,1971
16652	7,9434	-4,0023	6,0355	8,6401
16653	6,6191	-3,9974	6,3798	8,2488
16654	0,13925	-3,9346	7,4537	7,3144
16655	5,3201	-4,018	6,6573	7,9362
16656	8,2898	-4,0071	5,2061	8,9012
16657	-3,3862	-3,9774	8,8032	7,2592
16658	4,3838	-4,0493	6,0734	7,9036
16659	-2,5131	-3,9354	7,9183	7,3289
16660	6,9733	-3,9938	5,5397	8,4949
16661	0,79607	-3,9971	6,4378	7,5299
16662	7,3143	-4,0263	4,6664	8,7422
16663	3,4989	-4,0595	5,5444	7,8935
16664	-4,0693	-3,9749	7,8505	7,5115
16665	-1,7412	-3,8998	7,1895	7,4149
16666	5,6715	-3,9968	5,8245	8,1648
16667	-3,2184	-3,9299	7,1031	7,5525
16668	6,0214	-4,0234	4,988	8,3937
16669	-0,54647	-3,967	6,1242	7,5875
16670	1,4535	-4,0543	5,7142	7,699
16671	-1,8382e-002	-3,9587	5,6014	7,6876
16672	6,3511	-3,973	4,1596	8,6091
16673	4,7102	-4,0228	5,2565	8,1113
16674	-2,4045	-3,889	6,3263	7,6338
16675	3,791	-4,0268	4,6673	8,0964
16676	0,68387	-3,999	4,8424	7,8449
16677	-1,587	-3,8665	5,4949	7,7491
16678	5,0782	-4,0006	4,4031	8,3283
16679	2,3666	-4,0607	5,0977	7,8768
16680	5,4126	-4,0031	3,516	8,5292
16681	1,3601	-4,0239	4,0622	8,0057
16682	2,8295	-4,0413	3,9987	8,113
16683	-0,81715	-3,9159	4,6502	7,8829
16684	-4,6131	-3,9628	6,9485	7,7631
16685	4,1126	-3,9298	3,7504	8,2925
16686	-3,8554	-3,9278	6,2095	7,8055
16687	4,4863	-3,9967	2,8357	8,4753
16688	-9,99e-002	-3,9614	3,8911	8,0058
16689	-3,1504	-3,9229	5,6596	7,8357
16690	0,52053	-3,9407	3,1908	8,1169
16691	3,218	-4,0126	3,0336	8,2956
16692	1,9098	-4,0643	3,2412	8,1613
16693	3,6094	-3,977	2,064	8,4476
16694	-2,2829	-3,8497	4,5727	7,9701
16695	-5,2049	-3,9515	6,0496	8,0369
16696	3,637e-002	-3,9538	2,4857	8,1979
16697	-4,3946	-3,9216	5,3287	8,0516
16698	2,269	-4,0719	2,3163	8,3008
16699	-3,6878	-3,9095	4,5122	8,113
16700	2,7369	-4,0279	1,2626	8,4231
16701	-2,9569	-3,8502	3,6144	8,1861
16702	-1,5888	-3,8829	3,6737	8,0799
16703	1,0742	-3,8948	2,477	8,2197
16704	-0,93178	-3,8504	2,6157	8,2022
16705	1,5995	-4,1342	1,4571	8,3384
16706	0,23294	-3,8938	1,6837	8,2789
16707	1,8967	-4,0129	0,45247	8,3954
16708	-2,3432	-3,8624	2,6632	8,2663
16709	-0,50981	-3,8839	1,0871	8,3248
16710	0,67292	-3,9753	0,7064	8,3389
16711	-1,736	-3,812	1,6196	8,3325
16712	1,0789	-3,9554	-0,38417	8,3556
16713	-0,11622	-3,8978	-3,3075e-002	8,3442
16714	-1,292	-3,8659	0,38459	8,3667
16715	0,30615	-3,9111	-1,1149	8,3125
16716	-0,86077	-3,8725	-0,78824	8,3356
16717	-0,40762	-3,8818	-1,8148	8,2581
16718	-3,3907e-002	-3,8974	-2,4359	8,1884
16719	-0,56703	-3,913	-3,0729	8,1156
16720	-1,1176	-3,8898	-2,5409	8,1977
16721	-1,6006	-3,8602	-1,5739	8,3166
16722	-2,0598	-3,8288	-0,44462	8,403
16723	-5,7268	-3,9566	5,2521	8,286
16724	-2,4885	-3,8177	0,66338	8,4294
16725	-5,004	-3,9225	4,4615	8,3064
16726	-3,0377	-3,8302	1,7197	8,4192
16727	-4,3564	-3,9359	3,6172	8,3476
16728	-3,6378	-3,8593	2,7038	8,3822
16729	20,37	-1,0816	-2,0664	15,597
16730	19,165	-0,96593	-1,7899	14,74
16731	18,169	-0,94273	-1,6116	14,345
16732	17,194	-0,93949	-1,3675	13,841
16733	16,222	-0,96368	-1,1556	13,29
16734	15,209	-0,92694	-0,99241	12,676
16735	14,242	-0,9293	-0,91102	12,101
16736	4,6893	-0,96839	33,341	13,878
16737	13,201	-0,91116	-0,77133	11,53
16738	3,9523	-0,95211	32,725	13,692
16739	4,1523	-0,97214	34,15	14,389
16740	12,403	-0,92748	-0,33197	11,128
16741	3,2661	-0,93458	32,114	13,486
16742	3,4196	-0,96043	33,534	14,147
16743	11,62	-0,93188	6,1539e-002	10,756
16744	3,5652	-0,987	34,961	14,903
16745	2,5688	-0,92452	31,506	13,273
16746	2,8494	-0,96075	34,292	14,562
16747	2,973	-0,98332	35,716	15,349
16748	1,9459	-0,8925	30,869	13,032
16749	2,2475	-0,9905	35,087	14,959
16750	2,7191	-0,95471	32,899	13,891
16751	10,91	-0,94398	0,56031	10,423
16752	2,0581	-0,91923	32,25	13,628
16753	2,1574	-0,94456	33,644	14,261
16754	10,198	-0,95484	1,1679	10,105
16755	1,4953	-0,92885	32,983	13,975
16756	2,319	-1,0053	36,494	15,712
16757	1,3158	-0,87183	30,276	12,798
16758	1,662	-0,99017	37,218	15,89
16759	1,5675	-0,95096	34,39	14,603
16760	1,6135	-0,99625	35,821	15,248
16761	0,7253	-0,87326	29,623	12,542
16762	0,9547	-0,95643	35,116	14,889
16763	9,6793	-0,98061	1,9561	9,8503
16764	0,98966	-0,98309	37,896	15,825
16765	0,98246	-0,97282	36,515	15,429
16766	1,4002	-0,92098	31,607	13,372
16767	0,29362	-0,96582	35,807	15,119
16768	0,26493	-0,98262	37,214	15,52
16769	0,10274	-0,90968	38,576	15,63
16770	0,84351	-0,9378	32,326	13,698
16771	-0,41297	-0,98246	36,497	15,356
16772	0,80008	-0,89954	30,917	13,09
16773	0,90214	-0,94469	33,712	14,298
16774	0,21896	-0,90861	30,197	12,789
16775	0,24598	-0,92626	31,599	13,39
16776	9,1379	-1,0084	2,7493	9,5718
16777	-0,31533	-0,93485	30,851	13,068
16778	0,30276	-0,94561	34,427	14,592
16779	8,6422	-1,0284	3,5574	9,2989
16780	-0,46256	-0,95609	37,874	15,671
16781	8,0639	-1,0588	4,4187	8,9827
16782	-1,0403	-0,96811	37,183	15,661
16783	0,26933	-0,94028	33,024	14,003
16784	-0,35433	-0,958	35,097	14,858
16785	-0,35595	-0,94308	33,682	14,284
16786	-1,0358	-0,96559	35,764	15,156
16787	7,556	-1,0447	5,2578	8,6934
16788	-1,6764	-0,96413	36,431	15,538
16789	-0,3072	-0,91806	32,315	13,699
16790	-0,54386	-0,93711	39,12	15,762
16791	-0,88775	-0,95843	31,517	13,348
16792	-0,93211	-0,93263	32,989	13,985
16793	-1,1343	-0,95661	38,548	16,062
16794	-1,512	-0,94935	32,198	13,628
16795	-1,0054	-0,95048	34,327	14,563
16796	6,979	-1,0304	6,1066	8,3852
16797	-1,6067	-0,95294	33,556	14,227
16798	-1,7814	-0,95222	37,773	16,205
16799	-2,1839	-0,9465	32,863	13,9
16800	-1,6557	-0,95712	34,987	14,877
16801	6,3524	-1,0317	6,9478	8,0796
16802	-2,2746	-0,95983	34,191	14,52
16803	-2,3985	-0,96531	37,002	16,04
16804	-2,8774	-0,96192	33,466	14,148
16805	5,718	-1,0331	7,8008	7,7881
16806	-2,3135	-0,96416	35,645	15,253
16807	2,3098	-0,96631	23,208	9,8739
16808	-2,9551	-0,96758	34,851	14,862
16809	-2,9941	-0,96347	36,248	15,69
16810	5,1471	-1,0321	8,6893	7,5302
16811	1,9325	-0,95987	24,07	10,222
16812	1,5233	-0,95318	24,985	10,598
16813	-3,6494	-0,96579	35,428	15,183
16814	1,005	-0,96064	25,863	10,966
16815	1,5307	-0,97253	22,587	9,6267
16816	-3,5956	-0,97517	34,054	14,4
16817	4,5388	-1,0209	9,8007	7,2715
16818	-4,318	-0,97766	34,63	14,638
16819	1,2097	-0,94749	23,402	9,956
16820	3,6352	-1,0294	10,516	7,0721
16821	0,8079	-0,93626	24,42	10,374
16822	0,24032	-0,91542	28,91	12,245
16823	3,0148	-1,0299	11,299	6,9513
16824	-0,3714	-0,92433	29,391	12,446
16825	0,33095	-0,9451	25,314	10,744
16826	-0,88429	-0,9566	30,121	12,747
16827	0,22141	-0,90743	23,952	10,182
16828	2,431	-1,001	12,109	6,8827
16829	-0,21508	-0,9063	24,79	10,527
16830	1,946	-0,99423	12,956	6,8774
16831	-0,20473	-0,90563	23,673	10,069
16832	-1,4186	-0,97847	30,779	13,015
16833	-0,73042	-0,88058	24,023	10,211
16834	0,53863	-0,91422	22,961	9,7779
16835	1,6097	-0,96837	13,728	6,9264
16836	0,55174	-0,95112	21,841	9,3247
16837	0,42599	-0,97852	26,786	11,355
16838	1,1944	-0,968	14,574	7,0282
16839	-1,328	-0,97206	29,682	12,547
16840	0,64564	-0,92733	16,412	7,4184
16841	0,66798	-0,95259	15,355	7,1627
16842	0,49282	-0,89211	17,292	7,6679
16843	-0,24895	-0,97275	27,807	11,783
16844	-1,8409	-0,98893	30,013	12,669
16845	-0,26568	-0,96472	26,166	11,098
16846	0,637	-0,98202	14,221	6,956
16847	-0,99816	-1,0066	27,049	11,457
16848	7,2438e-002	-0,96737	14,606	7,0125
16849	-0,83758	-0,94953	25,514	10,824
16850	-0,27175	-0,92863	23,049	9,8102
16851	-1,3065	-0,92383	24,706	10,487
16852	-0,51159	-0,93795	22,168	9,4567
16853	-0,12553	-0,94599	20,765	8,8967
16854	-1,2146	-0,97363	28,628	12,111
16855	-0,22176	-0,93323	16,966	7,5668
16856	-2,2292	-0,99318	29,205	12,311
16857	0,70107	-0,97321	13,369	6,8541
16858	-1,769	-0,98242	27,696	11,704
16859	-0,28241	-0,97627	13,733	6,8864
16860	-0,99425	-0,89498	23,284	9,9083
16861	-0,29168	-0,95122	16,175	7,3519
16862	-1,339	-0,97331	22,621	9,6393
16863	-0,71488	-0,95787	15,204	7,1318
16864	-2,6181	-0,98712	28,348	11,935
16865	-1,1289	-0,97089	14,375	6,9934
16866	-0,93309	-0,99019	21,277	9,1021
16867	-2,0523	-0,96508	31,412	13,262
16868	-1,7402	-0,98382	21,802	9,3155
16869	-1,5369	-0,9824	26,198	11,095
16870	-2,7543	-0,94925	32,066	13,508
16871	-2,041	-0,97823	25,396	10,757
16872	-3,4711	-0,96662	32,661	13,717
16873	-2,2996	-0,99159	26,847	11,338
16874	-4,2162	-0,98403	33,251	13,912
16875	-3,0645	-0,98636	27,515	11,571
16876	-4,9796	-1,0024	33,85	14,085
16877	-2,5437	-0,97085	30,615	12,887
16878	-2,7698	-0,97057	26,058	11,002
16879	-1,7396	-0,94566	23,956	10,178
16880	-3,2721	-0,95825	31,248	13,101
16881	-2,1437	-0,98087	23,191	9,8678
16882	-4,0157	-0,97326	31,848	13,28
16883	-3,5429	-0,97481	26,688	11,214
16884	-0,56904	-0,97666	19,948	8,5862
16885	-4,7833	-0,98769	32,425	13,422
16886	-2,4719	-0,94805	24,61	10,432
16887	-5,6002	-1,0105	33,026	13,527
16888	-0,20414	-0,89024	17,969	7,8812
16889	-2,8913	-0,95105	23,801	10,104
16890	-3,2273	-0,96114	25,248	10,665
16891	-0,83415	-0,9205	18,804	8,1743
16892	-1,3417	-0,9624	20,379	8,7579
16893	-0,74178	-0,91162	17,405	7,707
16894	-3,6705	-0,95986	24,431	10,334
16895	-1,1296	-0,93556	16,617	7,4852
16896	-2,1343	-0,96407	20,966	8,9962
16897	-1,4506	-0,98649	13,582	6,9022
16898	-1,5019	-0,9529	15,854	7,3015
16899	-0,48364	-1,0074	12,897	6,8145
16900	-2,5411	-0,98284	22,393	9,5534
16901	-2,9957	-0,98012	29,792	12,505
16902	-2,9219	-0,95845	21,576	9,2419
16903	-3,3225	-0,97472	23,001	9,7896
16904	-3,4418	-0,99068	28,958	12,124
16905	-3,7196	-0,95987	22,192	9,4841
16906	-1,4383	-0,94747	18,035	7,9233
16907	0,7919	-1,0236	12,392	6,7988
16908	-4,0944	-0,96132	23,616	10,015
16909	-1,9201	-0,95741	15,055	7,1492
16910	-4,5211	-0,96351	22,803	9,7101
16911	1,5949	-1,0131	11,457	6,8332
16912	-4,0295	-0,98925	25,863	10,867
16913	0,81401	-1,0163	10,768	6,8372
16914	-4,4761	-0,98611	25,041	10,534
16915	-4,8291e-003	-1,0036	11,516	6,7869
16916	-4,9157	-0,98427	24,217	10,214
16917	-3,8787	-0,98053	28,132	11,756
16918	-0,87774	-1,0125	12,164	6,7961
16919	-4,3495	-0,98435	27,297	11,391
16920	-1,8334	-0,98139	12,837	6,8633
16921	-2,3138	-0,96951	14,27	7,0409
16922	-1,8705	-0,94673	17,292	7,7058
16923	-4,8155	-0,98679	26,467	11,04
16924	-2,2897	-0,95326	16,497	7,5025
16925	-5,2704	-0,98696	25,638	10,703
16926	-2,7027	-0,95787	15,697	7,3344
16927	-2,7125	-0,97916	13,487	6,9778
16928	-3,1354	-0,97392	14,906	7,211
16929	-5,3326	-0,96816	23,397	9,9096
16930	-5,7168	-0,98481	24,805	10,381
16931	-2,2605	-0,97483	12,075	6,869
16932	-1,4046	-0,98942	11,442	6,824
16933	-3,7523	-0,97064	30,415	12,693
16934	-6,1483	-0,97427	23,973	10,076
16935	-0,59856	-1,0038	10,804	6,8295
16936	-4,5271	-0,9786	31,003	12,839
16937	2,2445	-1,0373	10,618	6,9236
16938	0,13716	-1,0004	10,031	6,8936
16939	1,513	-1,0458	9,939	6,945
16940	-3,1249	-0,96277	12,704	6,9628
16941	0,78789	-1,0108	9,1812	7,0175
16942	-3,5517	-0,98045	14,118	7,1312
16943	-0,43015	-0,9739	9,3424	6,9863
16944	-5,3266	-0,99102	31,587	12,945
16945	5,6617e-002	-0,97219	8,4567	7,1261
16946	-1,1447	-0,96601	10,055	6,9144
16947	-1,7605	-0,95701	19,494	8,4383
16948	-1,9259	-0,96175	10,708	6,894
16949	-1,0207	-0,9192	8,6419	7,1113
16950	-2,1952	-0,95702	18,713	8,1762
16951	-1,7034	-0,92392	9,3124	7,0365
16952	-0,51054	-0,95009	7,8632	7,2389
16953	-2,4195	-0,93812	9,963	7,0033
16954	-6,1438	-1,0026	32,164	13,001
16955	-0,84154	-0,91612	7,4455	7,3271
16956	-3,9577	-0,96034	13,34	7,0969
16957	-1,4281	-0,90532	7,9267	7,2546
16958	-4,2229	-0,97831	29,573	12,292
16959	-2,1815	-0,91871	8,6057	7,1802
16960	-5,0175	-0,98404	30,174	12,422
16961	-2,6394	-0,9555	17,934	7,9402
16962	-2,7416	-0,95717	11,329	6,9232
16963	-3,0698	-0,956	17,128	7,725
16964	-3,2028	-0,93993	10,601	7,0147
16965	-4,6808	-0,98016	28,741	11,909
16966	-3,5655	-0,95424	11,954	6,9967
16967	-5,8295	-0,99343	30,751	12,5
16968	-5,1399	-0,97924	27,902	11,537
16969	-3,504	-0,9679	16,325	7,5462
16970	-5,6019	-0,97777	27,064	11,179
16971	-4,0158	-0,94072	11,202	7,0745
16972	-6,0589	-0,97715	26,226	10,838
16973	-6,6659	-1,0026	31,313	12,518
16974	-4,3977	-0,95321	12,556	7,1128
16975	-5,4881	-0,98484	29,326	12,018
16976	-2,9161	-0,93501	9,2579	7,1385
16977	-6,3202	-0,99137	29,892	12,073
16978	-3,6592	-0,92289	9,8748	7,1418
16979	-7,1588	-0,997	30,449	12,073
16980	-4,4613	-0,9262	10,467	7,1893
16981	-4,8354	-0,943	11,791	7,1742
16982	-3,9355	-0,97229	15,528	7,4083
16983	-2,5504	-0,96188	20,159	8,7022
16984	-5,9578	-0,98347	28,475	11,631
16985	-4,366	-0,9772	14,733	7,3137
16986	-6,7914	-0,98817	29,038	11,676
16987	-2,9815	-0,96081	19,356	8,4306
16988	-3,3474	-0,96098	20,779	8,9532
16989	-6,5111	-0,97788	25,389	10,515
16990	-3,7849	-0,96164	19,971	8,6792
16991	-6,9702	-0,97953	24,544	10,207
16992	-7,634	-0,99213	29,583	11,663
16993	-5,2771	-0,93137	11,036	7,2778
16994	-4,1473	-0,96242	21,389	9,1949
16995	-4,7817	-0,95939	13,939	7,2631
16996	-4,5901	-0,96426	20,575	8,9204
16997	-3,4284	-0,96524	18,547	8,1807
16998	-4,9537	-0,96584	21,989	9,4201
16999	-6,4263	-0,98197	27,632	11,266
17000	-5,4114	-0,97624	21,158	9,1433
17001	-5,7694	-0,9703	22,574	9,6203
17002	-4,9041	-0,9122	9,749	7,3358
17003	-6,8871	-0,98179	26,793	10,924
17004	-4,1547	-0,95049	9,1748	7,3002
17005	-7,3477	-0,98272	25,944	10,598
17006	-3,846	-0,95907	17,753	7,9625
17007	-3,3788	-0,93922	8,5612	7,2993
17008	-7,2539	-0,98595	28,191	11,307
17009	-5,2128	-0,95485	13,148	7,2614
17010	-8,1001	-0,9893	28,737	11,289
17011	-5,6575	-0,94714	12,366	7,309
17012	-7,7242	-0,98566	27,342	10,958
17013	-4,2181	-0,96186	19,167	8,4293
17014	-8,5664	-0,98885	27,883	10,94
17015	-4,6477	-0,96285	18,362	8,2054
17016	-6,1036	-0,93755	11,605	7,4012
17017	-6,2272	-0,97835	21,736	9,3452
17018	-5,7196	-0,92023	10,307	7,4169
17019	-8,1866	-0,98652	26,493	10,633
17020	-6,5585	-0,94804	10,845	7,5356
17021	-9,0402	-0,98946	27,025	10,612
17022	-5,0252	-0,96542	19,762	8,6685
17023	-5,3397	-0,90107	9,0485	7,5072
17024	-6,1805	-0,95205	9,5829	7,5913
17025	-5,8453	-0,9695	20,343	8,8937
17026	-6,984	-0,92153	10,101	7,6991
17027	-5,4652	-0,96688	18,948	8,4424
17028	-4,5811	-0,91714	8,4841	7,4721
17029	-6,2867	-0,97127	19,52	8,6669
17030	-7,4163	-0,91948	9,3576	7,8955
17031	-7,805	-0,98419	25,101	10,294
17032	-6,6758	-0,97992	20,906	9,0952
17033	-3,7771	-0,88011	7,9123	7,4613
17034	-7,1199	-0,97591	20,077	8,8711
17035	-4,2902	-0,96058	16,948	7,7755
17036	-2,5775	-0,90292	7,8772	7,3421
17037	-4,7271	-0,96157	16,138	7,625
17038	-3,0255	-0,87946	7,2555	7,5023
17039	-8,653	-0,98763	25,634	10,327
17040	-5,0878	-0,9642	17,547	8,0108
17041	-5,156	-0,96212	15,336	7,5167
17042	-5,9047	-0,96861	18,128	8,2449
17043	-5,6208	-0,98355	14,521	7,4565
17044	-6,7414	-0,97315	18,688	8,4683
17045	-6,5904	-0,94313	8,8479	7,7857
17046	-7,5739	-0,97765	19,242	8,6746
17047	-5,777	-0,92285	8,3387	7,7038
17048	-6,0391	-0,95897	13,723	7,4389
17049	-4,9917	-0,91446	7,7971	7,6597
17050	-9,5001	-0,99024	26,165	10,311
17051	-4,2256	-0,8746	7,2467	7,6486
17052	-6,4894	-0,95256	12,935	7,4741
17053	-6,6065	-0,98173	23,136	9,7857
17054	-3,4922	-0,84441	6,6988	7,6645
17055	-7,4226	-0,98113	23,702	9,9203
17056	-6,9343	-0,94252	12,146	7,5544
17057	-5,5353	-0,96511	16,728	7,8524
17058	-7,0435	-0,97736	22,307	9,519
17059	-5,9939	-0,97911	15,905	7,7357
17060	-1,8447	-0,91107	7,1733	7,4245
17061	-6,4466	-0,98641	15,091	7,6645
17062	-2,3464	-0,90238	6,4684	7,599
17063	-6,8924	-0,97894	14,282	7,6396
17064	-2,9529	-0,89234	6,034	7,7421
17065	-7,497	-0,9789	21,47	9,2718
17066	-7,8877	-0,98216	22,855	9,6525
17067	-3,3616	-0,88987	5,7246	7,8443
17068	-8,3419	-0,98317	22,012	9,4094
17069	-7,9512	-0,98055	20,629	9,0489
17070	-3,8618	-0,86538	6,0351	7,8411
17071	-8,4233	-0,98307	19,779	8,8536
17072	-8,8007	-0,9845	21,168	9,1918
17073	-7,3741	-0,93579	11,379	7,6764
17074	-9,2732	-0,98662	20,311	8,9996
17075	-7,8125	-0,93007	10,607	7,8386
17076	-6,355	-0,96976	17,301	8,0816
17077	-4,5814	-0,85963	6,597	7,8281
17078	-8,2581	-0,92963	9,8443	8,0366
17079	-8,2699	-0,98535	24,246	10,007
17080	-5,3346	-0,88482	7,0967	7,853
17081	-8,7317	-0,98583	23,393	9,7433
17082	-7,1849	-0,97454	17,86	8,3039
17083	-6,1444	-0,93167	7,5996	7,9102
17084	-6,8203	-0,98154	16,47	7,9588
17085	-6,9929	-0,9137	8,1296	7,9966
17086	-8,0298	-0,97894	18,406	8,5105
17087	-7,8208	-0,94223	8,5973	8,1156
17088	-7,2625	-0,97075	15,661	7,8799
17089	-0,8301	-0,9462	6,7341	7,4689
17090	-7,7213	-0,96889	14,836	7,8462
17091	-8,8857	-0,98247	18,946	8,694
17092	-1,7269	-0,94302	6,0358	7,6477
17093	-9,7382	-0,98505	19,469	8,8421
17094	-2,4823	-0,94612	5,3785	7,8299
17095	-7,6418	-0,97524	17,029	8,1774
17096	-7,3267	-0,95836	13,484	7,6605
17097	-8,492	-0,97949	17,565	8,3829
17098	-8,1815	-0,96375	14,017	7,8613
17099	-3,334	-0,91807	4,8902	8,0029
17100	-8,1064	-0,97505	16,198	8,0936
17101	-7,7746	-0,95746	12,681	7,7304
17102	-8,5724	-0,97312	15,37	8,0555
17103	-9,3449	-0,98276	18,095	8,5659
17104	-9,0273	-0,97362	14,54	8,0622
17105	-8,6955	-0,95082	9,0641	8,2701
17106	-8,9538	-0,97914	16,726	8,296
17107	-8,2088	-0,94314	11,897	7,8427
17108	-9,1943	-0,98648	22,547	9,5053
17109	-8,6449	-0,93889	11,109	7,9986
17110	-9,6645	-0,98749	21,698	9,2922
17111	-9,0922	-0,94036	10,325	8,1962
17112	-10,129	-0,98919	20,833	9,104
17113	-9,5853	-0,97924	9,5378	8,4453
17114	-9,4176	-0,9773	15,895	8,2538
17115	-9,8136	-0,98213	17,247	8,4785
17116	-9,8871	-0,97321	15,058	8,2578
17117	-10,586	-0,98767	19,979	8,9494
17118	-10,284	-0,98106	16,409	8,4352
17119	-8,6124	-0,95672	13,206	7,9188
17120	-10,199	-0,9851	18,612	8,7164
17121	-9,1174	-0,98842	24,781	10,046
17122	-9,468	-0,96264	13,722	8,1146
17123	-10,665	-0,98513	17,764	8,6302
17124	-10,752	-0,97715	15,571	8,4361
17125	-9,0566	-0,95656	12,404	8,0254
17126	-9,9732	-0,99079	25,305	10,031
17127	-9,9043	-0,95726	12,909	8,2128
17128	-10,332	-0,96784	14,232	8,3055
17129	-9,5844	-0,98869	23,924	9,7865
17130	-10,766	-0,96289	13,412	8,3982
17131	-11,196	-0,97208	14,736	8,4797
17132	-10,051	-0,98906	23,07	9,5522
17133	-11,641	-0,96732	13,904	8,5707
17134	-11,06	-0,98796	19,122	8,8276
17135	-9,504	-0,97015	11,611	8,1776
17136	-4,0903	-0,89738	5,3388	8,008
17137	-10,361	-0,978	12,111	8,3614
17138	-9,9235	-0,94854	10,814	8,3656
17139	-4,9859	-0,75377	5,6633	8,0787
17140	-10,445	-1,0052	10,048	8,6172
17141	-10,813	-0,98252	11,322	8,5529
17142	-11,154	-0,98377	16,915	8,587
17143	-11,299	-0,99721	10,554	8,7929
17144	-5,6309	-0,89296	6,3294	8,0591
17145	-10,445	-0,99095	24,449	9,7764
17146	-6,5106	-0,91794	6,8636	8,1292
17147	-10,521	-0,98991	22,214	9,3434
17148	-10,907	-0,99117	23,58	9,5458
17149	-10,979	-0,99042	21,344	9,1611
17150	-7,3324	-0,9418	7,3587	8,2218
17151	-11,382	-0,99174	22,723	9,3415
17152	-11,527	-0,98755	18,27	8,7433
17153	-11,849	-0,99215	21,855	9,1644
17154	-12,012	-0,98615	17,419	8,6995
17155	-8,2158	-0,94895	7,8266	8,3599
17156	-11,213	-0,95842	12,606	8,54
17157	-11,457	-0,99032	20,492	9,0106
17158	-9,1469	-0,94618	8,313	8,5297
17159	-12,322	-0,99219	20,994	9,0172
17160	-12,083	-0,96295	13,09	8,7082
17161	-10,048	-0,96271	8,7414	8,7213
17162	-11,621	-0,98007	16,071	8,5861
17163	-11,656	-0,95346	11,81	8,7258
17164	-11,917	-0,99024	19,625	8,8917
17165	-12,111	-0,94963	11,041	8,9555
17166	-12,79	-0,99215	20,128	8,9018
17167	-12,536	-0,95823	12,286	8,8942
17168	-12,482	-0,98264	16,571	8,6974
17169	-13,001	-0,96479	11,492	9,1283
17170	-12,064	-0,97544	15,229	8,6275
17171	-12,393	-0,99005	18,771	8,8093
17172	-12,883	-0,98848	17,915	8,7655
17173	-11,075	-1,0042	9,1817	8,9635
17174	-12,514	-0,97117	14,399	8,7162
17175	-11,806	-1,0011	9,9707	9,0473
17176	-13,353	-0,98513	17,063	8,7625
17177	-12,603	-0,98729	10,297	9,2302
17178	-12,958	-0,9671	13,568	8,8517
17179	-12,938	-0,97852	15,718	8,7386
17180	-13,261	-0,99187	19,267	8,8207
17181	-13,811	-0,98143	16,209	8,8023
17182	-13,469	-0,95007	10,692	9,4107
17183	-13,754	-0,99024	18,407	8,776
17184	-13,387	-0,97486	14,881	8,8249
17185	-13,417	-0,96339	12,754	9,0369
17186	-13,839	-0,97128	14,043	8,9594
17187	-12,259	-0,99747	9,199	9,3479
17188	-14,224	-0,98713	17,551	8,7719
17189	-13,04	-0,97843	9,5365	9,5342
17190	-14,289	-0,96819	13,217	9,1414
17191	-13,88	-0,9696	11,941	9,2717
17192	-14,259	-0,97824	15,369	8,8859
17193	-14,686	-0,9838	16,696	8,8097
17194	-14,753	-0,97066	12,398	9,3746
17195	-15,137	-0,98103	15,843	8,8913
17196	-14,716	-0,97517	14,522	9,0181
17197	-14,353	-0,9588	11,132	9,5579
17198	-13,946	-0,9497	9,9037	9,7402
17199	-15,222	-0,96711	11,57	9,6632
17200	-15,598	-0,97843	14,997	9,0195
17201	-15,166	-0,97263	13,695	9,196
17202	-14,83	-0,9588	10,316	9,898
17203	-15,622	-0,97209	12,864	9,4262
17204	-15,701	-0,96846	10,742	10,009
17205	-16,046	-0,9762	14,158	9,1947
17206	-16,092	-0,97358	12,029	9,713
17207	-16,508	-0,97579	13,329	9,4197
17208	-16,571	-0,97586	11,18	10,064
17209	-16,97	-0,97747	12,489	9,7022
17210	-17,44	-0,98025	11,636	10,049
17211	-17,911	-0,98378	10,766	10,469
17212	-18,389	-0,98883	9,8737	10,977
17213	-18,78	-0,99038	8,9712	11,555
17214	-20,773	-1,0221	3,4066	16,652
17215	-19,192	-0,98635	8,0342	12,253
17216	-20,525	-0,97458	4,1316	15,965
17217	-20,165	-0,98257	5,1438	14,898
17218	-19,526	-0,9846	7,0791	13,038
17219	-19,906	-0,96652	6,0945	13,982
17220	-17,037	-0,98015	10,321	10,477
17221	-17,521	-0,98102	9,4426	10,972
17222	-16,16	-0,9747	9,8979	10,41
17223	-17,911	-0,98504	8,5562	11,515
17224	-15,291	-0,96062	9,4963	10,285
17225	-18,297	-0,98568	7,6463	12,14
17226	-14,398	-0,95176	9,1055	10,109
17227	-16,632	-0,97235	9,0415	10,88
17228	-13,489	-0,95192	8,7337	9,892
17229	-17,061	-0,97379	8,1663	11,405
17230	-18,667	-0,98151	6,7175	12,839
17231	-15,733	-0,9636	8,6565	10,725
17232	-17,46	-0,97252	7,2749	11,983
17233	-14,816	-0,95575	8,294	10,513
17234	-19,007	-0,97735	5,7766	13,586
17235	-12,475	-0,96535	8,4543	9,5976
17236	-19,318	-0,97756	4,8306	14,334
17237	-13,843	-0,96489	7,9719	10,238
17238	-19,608	-0,98243	3,8976	14,968
17239	-17,826	-0,96855	6,368	12,605
17240	-16,111	-0,97553	7,8122	11,189
17241	-18,164	-0,96452	5,4494	13,245
17242	-15,198	-0,96112	7,473	10,944
17243	-16,488	-0,9817	6,9506	11,702
17244	-14,264	-0,95556	7,1586	10,657
17245	-16,851	-0,97841	6,0749	12,248
17246	-19,809	-0,96869	3,0301	15,341
17247	-17,214	-0,96024	5,1826	12,819
17248	-18,478	-0,96376	4,5255	13,862
17249	-11,451	-0,97507	8,2368	9,2855
17250	-12,858	-0,97388	7,6791	9,9365
17251	-15,558	-0,97326	6,6382	11,403
17252	-11,913	-0,96776	7,4116	9,6446
17253	-17,545	-0,95686	4,2889	13,363
17254	-14,609	-0,96531	6,3472	11,068
17255	-18,722	-0,96883	3,6371	14,329
17256	-15,943	-0,95636	5,7825	11,908
17257	-17,813	-0,95526	3,4054	13,824
17258	-16,246	-0,96378	4,9346	12,379
17259	-14,998	-0,95344	5,5184	11,527
17260	-16,553	-0,95258	4,0714	12,849
17261	-10,495	-0,96804	7,9423	9,0241
17262	-16,828	-0,94669	3,214	13,269
17263	-15,317	-0,95001	4,6894	11,958
17264	-19,015	-0,96756	2,724	14,727
17265	-15,594	-0,94642	3,8584	12,361
17266	-18,03	-0,94993	2,5354	14,137
17267	-10,881	-0,97542	7,0807	9,3447
17268	-17,008	-0,95814	2,3512	13,579
17269	-17,195	-0,9327	1,5123	13,82
17270	-18,2	-0,93282	1,6769	14,362
17271	-15,805	-0,95966	3,0118	12,705
17272	-13,277	-0,95671	6,8755	10,325
17273	-16,01	-0,96525	2,1569	13,005
17274	-12,249	-0,98478	6,5922	9,9787
17275	-16,203	-0,92775	1,3169	13,25
17276	-18,324	-0,90779	0,82778	14,447
17277	-17,362	-0,92442	0,72135	13,984
17278	-13,64	-0,95792	6,0722	10,712
17279	-16,491	-0,92662	0,53055	13,483
17280	-19,167	-0,97093	1,8173	14,765
17281	-11,281	-0,97021	6,2861	9,674
17282	-19,259	-0,9567	0,90788	14,724
17283	-12,621	-0,9752	5,7959	10,337
17284	-13,975	-0,96195	5,2663	11,1
17285	20,766	-3,	-26,434	5,2225
17286	20,77	-2,	-26,428	5,2212
17287	20,304	-1,9982	-27,292	5,4119
17288	20,302	-3,	-27,296	5,4126
17289	21,23	-3,	-25,572	5,0392
17290	21,237	-2,	-25,56	5,0366
17291	19,842	-2,	-28,151	5,6061
17292	19,835	-3,	-28,163	5,6089
17293	21,697	-3,	-24,705	4,8628
17294	21,704	-2,	-24,692	4,8604
17295	19,375	-2,	-29,019	5,8053
17296	19,368	-3,	-29,031	5,8082
17297	22,165	-3,	-23,837	4,6963
17298	22,172	-2,	-23,824	4,6941
17299	18,907	-2,	-29,886	6,0053
17300	18,9	-3,	-29,899	6,0082
17301	22,632	-3,	-22,969	4,5414
17302	22,639	-2,	-22,956	4,5393
17303	18,44	-2,	-30,754	6,2035
17304	18,433	-3,	-30,767	6,2064
17305	23,099	-3,	-22,101	4,3995
17306	23,106	-2,	-22,088	4,3977
17307	17,973	-2,	-31,622	6,3973
17308	17,966	-3,	-31,635	6,4001
17309	23,567	-3,	-21,233	4,2728
17310	23,574	-2,	-21,221	4,2712
17311	17,505	-2,	-32,49	6,5837
17312	17,499	-3,	-32,503	6,5864
17313	24,034	-3,	-20,365	4,1636
17314	24,041	-2,	-20,353	4,1623
17315	17,038	-2,	-33,358	6,7595
17316	17,031	-3,	-33,371	6,7621
17317	24,501	-3,	-19,498	4,075
17318	24,508	-2,	-19,485	4,074
17319	16,571	-2,	-34,226	6,9217
17320	16,564	-3,	-34,238	6,9241
17321	24,969	-3,	-18,63	4,0112
17322	24,975	-2,	-18,617	4,0107
17323	16,103	-2,	-35,094	7,0675
17324	16,097	-3,	-35,106	7,0696
17325	25,436	-3,	-17,762	3,9784
17326	25,443	-2,	-17,749	3,9784
17327	15,636	-2,	-35,961	7,1948
17328	15,629	-3,	-35,974	7,1966
17329	25,903	-3,	-16,894	3,9849
17330	25,91	-2,	-16,881	3,9855
17331	15,169	-2,	-36,829	7,3027
17332	15,162	-3,	-36,842	7,3043
17333	26,371	-3,	-16,026	4,0427
17334	26,377	-2,	-16,014	4,0442
17335	14,702	-2,	-37,697	7,3928
17336	14,695	-3,	-37,71	7,3942
17337	26,838	-3,	-15,158	4,169
17338	26,845	-2,	-15,146	4,1716
17339	14,234	-2,	-38,565	7,4698
17340	14,227	-3,	-38,578	7,471
17341	27,305	-3,	-14,29	4,3876
17342	27,312	-2,	-14,278	4,3918
17343	13,767	-2,	-39,433	7,5432
17344	13,76	-3,	-39,445	7,5445
17345	27,772	-3,	-13,423	4,7326
17346	27,779	-2,	-13,41	4,7385
17347	13,3	-2,	-40,301	7,6286
17348	13,293	-3,	-40,313	7,6301
17349	28,24	-3,	-12,555	5,2493
17350	28,247	-2,	-12,542	5,2581
17351	12,832	-2,	-41,169	7,7479
17352	12,826	-3,	-41,181	7,75
17353	28,707	-3,	-11,687	5,9988
17354	28,714	-2,	-11,674	6,0099
17355	12,365	-2,	-42,036	7,9277
17356	12,358	-3,	-42,049	7,931
17357	29,174	-3,	-10,82	7,0484
17358	29,181	-2,	-10,806	7,0683
17359	11,898	-2,	-42,904	8,1948
17360	11,891	-3,	-42,917	8,1993
17361	29,64	-3,	-9,9537	8,4865
17362	29,648	-2,	-9,9386	8,5121
17363	11,431	-2,	-43,772	8,5635
17364	11,424	-3,	-43,785	8,5701
17365	30,109	-3,	-9,083	10,38
17366	30,116	-2,	-9,0708	10,409
17367	10,964	-2,	-44,638	9,0208
17368	10,956	-3,	-44,653	9,0301
17369	30,577	-3,0001	-8,2136	12,736
17370	30,583	-2,	-8,2029	12,769
17371	10,495	-2,	-45,509	9,5126
17372	10,489	-3,	-45,52	9,5211
17373	31,046	-3,0002	-7,3439	15,427
17374	31,05	-2,	-7,3351	15,45
17375	10,027	-1,9999	-46,379	9,9235
17376	10,022	-3,	-46,388	9,926
17377	31,51	-3,	-6,4814	18,095
17378	31,518	-2,	-6,4672	18,14
17379	9,5625	-2,	-47,241	10,078
17380	9,5544	-3,	-47,256	10,078
17381	31,982	-3,	-5,6057	20,206
17382	31,985	-2,	-5,5994	20,214
17383	31,987	-1,	-5,5962	20,293
17384	31,524	-1,	-6,4546	18,138
17385	31,057	-1,	-7,3224	15,406
17386	30,59	-1,	-8,1903	12,711
17387	30,123	-1,	-9,0581	10,38
17388	29,655	-1,	-9,926	8,5097
17389	29,188	-1,	-10,794	7,0877
17390	28,721	-1,	-11,662	6,0435
17391	28,253	-1,	-12,53	5,2973
17392	27,786	-1,	-13,397	4,7778
17393	27,319	-1,	-14,265	4,4276
17394	26,851	-1,	-15,133	4,2026
17395	26,384	-1,	-16,001	4,0705
17396	25,917	-1,	-16,869	4,0072
17397	25,45	-1,	-17,737	3,9959
17398	24,982	-1,	-18,604	4,025
17399	24,515	-1,	-19,472	4,0855
17400	24,048	-1,	-20,34	4,1716
17401	23,58	-1,	-21,208	4,2787
17402	23,113	-1,	-22,076	4,4037
17403	22,646	-1,	-22,944	4,5441
17404	22,178	-1,	-23,812	4,6978
17405	21,711	-1,	-24,679	4,8632
17406	21,244	-1,	-25,547	5,0387
17407	20,776	-1,	-26,415	5,2226
17408	20,309	-1,	-27,283	5,4133
17409	19,842	-1,	-28,151	5,6091
17410	19,375	-1,	-29,019	5,8078
17411	18,907	-1,	-29,886	6,0073
17412	18,44	-1,	-30,754	6,2052
17413	17,973	-1,	-31,622	6,3986
17414	17,505	-1,	-32,49	6,5846
17415	17,038	-1,	-33,358	6,7602
17416	16,571	-1,	-34,226	6,9223
17417	16,103	-1,	-35,094	7,068
17418	15,636	-1,	-35,961	7,1954
17419	15,169	-1,	-36,829	7,3034
17420	14,702	-1,	-37,697	7,3934
17421	14,234	-1,	-38,565	7,4698
17422	13,767	-1,	-39,433	7,5416
17423	13,3	-1,	-40,301	7,6236
17424	12,832	-1,	-41,169	7,7366
17425	12,365	-1,	-42,036	7,907
17426	11,898	-1,	-42,904	8,1619
17427	11,43	-1,	-43,772	8,5184
17428	10,963	-1,	-44,64	8,969
17429	10,496	-1,	-45,508	9,4599
17430	10,028	-1,	-46,376	9,8863
17431	9,5604	-1,	-47,245	10,076
17432	9,0922	-1,	-48,114	9,8287
17433	9,0905	-2,	-48,118	9,7916
17434	9,0871	-3,	-48,124	9,7785
17435	9,0854	-4,	-48,127	9,8268
17436	9,5476	-4,	-47,269	10,078
17437	10,015	-4,	-46,401	9,8955
17438	10,482	-4,	-45,533	9,4744
17439	10,95	-4,	-44,665	8,9818
17440	11,417	-4,	-43,797	8,5299
17441	11,884	-4,	-42,929	8,1704
17442	12,351	-4,	-42,062	7,9131
17443	12,819	-4,	-41,194	7,7407
17444	13,286	-4,	-40,326	7,6266
17445	13,753	-4,	-39,458	7,5442
17446	14,221	-4,	-38,59	7,4723
17447	14,688	-4,	-37,722	7,3961
17448	15,155	-4,	-36,855	7,3066
17449	15,623	-4,	-35,987	7,1991
17450	16,09	-4,	-35,119	7,0722
17451	16,557	-4,	-34,251	6,9269
17452	17,024	-4,	-33,383	6,7653
17453	17,492	-4,	-32,515	6,59
17454	17,959	-4,	-31,647	6,4042
17455	18,426	-4,	-30,78	6,2109
17456	18,894	-4,	-29,912	6,0131
17457	19,361	-4,	-29,044	5,8136
17458	19,828	-4,	-28,176	5,6147
17459	20,296	-4,	-27,308	5,4189
17460	20,763	-4,	-26,44	5,2279
17461	21,23	-4,	-25,572	5,0438
17462	21,697	-4,	-24,705	4,868
17463	22,165	-4,	-23,837	4,7023
17464	22,632	-4,	-22,969	4,5482
17465	23,099	-4,	-22,101	4,4074
17466	23,567	-4,	-21,233	4,2819
17467	24,034	-4,	-20,365	4,1742
17468	24,501	-4,	-19,498	4,0874
17469	24,969	-4,	-18,63	4,026
17470	25,436	-4,	-17,762	3,996
17471	25,903	-4,	-16,894	4,0058
17472	26,371	-4,	-16,026	4,0673
17473	26,838	-4,	-15,158	4,1974
17474	27,305	-4,	-14,29	4,4194
17475	27,772	-4,	-13,423	4,766
17476	28,24	-4,	-12,555	5,2806
17477	28,707	-4,	-11,687	6,0219
17478	29,174	-4,	-10,819	7,0556
17479	29,642	-4,	-9,951	8,4692
17480	30,109	-4,	-9,083	10,321
17481	30,577	-4,	-8,2147	12,641
17482	31,044	-4,	-7,3461	15,328
17483	31,513	-4,	-6,4767	18,082
17484	31,982	-4,	-5,6057	20,273
17485	24,041	-5,	-20,353	4,1898
17486	12,826	-5,	-41,181	7,7473
17487	31,05	-5,	-7,3351	15,213
17488	31,518	-5,	-6,4672	17,84
17489	10,956	0,	-44,653	8,9198
17490	10,489	-5,	-45,52	9,3754
17491	10,956	-5,	-44,653	8,9195
17492	29,181	0,	-10,806	7,1931
17493	28,714	0,	-11,674	6,1499
17494	28,714	-5,	-11,674	6,154
17495	29,181	-5,	-10,806	7,1976
17496	27,779	-5,	-13,41	4,8615
17497	28,247	-5,	-12,542	5,3954
17498	28,247	0,	-12,542	5,3952
17499	27,779	0,	-13,41	4,861
17500	25,91	-5,	-16,881	4,0435
17501	26,377	-5,	-16,014	4,1153
17502	26,377	0,	-16,014	4,1155
17503	25,91	0,	-16,881	4,0438
17504	25,443	-5,	-17,749	4,0258
17505	24,508	-5,	-19,485	4,1066
17506	24,975	-5,	-18,617	4,0498
17507	25,443	0,	-17,749	4,0261
17508	24,975	0,	-18,617	4,0501
17509	24,508	0,	-19,485	4,1068
17510	23,106	-5,	-22,088	4,4179
17511	23,574	-5,	-21,221	4,2947
17512	24,041	0,	-20,353	4,19
17513	23,574	0,	-21,221	4,2949
17514	22,172	0,	-23,824	4,7096
17515	21,704	0,	-24,692	4,8739
17516	22,639	-5,	-22,956	4,5569
17517	21,704	-5,	-24,692	4,8738
17518	22,172	-5,	-23,824	4,7094
17519	20,77	-5,	-26,428	5,2312
17520	21,237	-5,	-25,56	5,0482
17521	21,237	0,	-25,56	5,0483
17522	20,77	0,	-26,428	5,2313
17523	20,302	0,	-27,296	5,421
17524	19,835	0,	-28,163	5,6157
17525	19,368	0,	-29,031	5,8133
17526	20,302	-5,	-27,296	5,421
17527	19,368	-5,	-29,031	5,8133
17528	19,835	-5,	-28,163	5,6157
17529	17,499	-5,	-32,503	6,585
17530	17,966	-5,	-31,635	6,4003
17531	17,966	0,	-31,635	6,4002
17532	17,499	0,	-32,503	6,5848
17533	17,031	0,	-33,371	6,7591
17534	16,564	0,	-34,238	6,92
17535	16,097	0,	-35,106	7,0649
17536	17,031	-5,	-33,371	6,7593
17537	16,097	-5,	-35,106	7,0652
17538	16,564	-5,	-34,238	6,9202
17539	15,629	-5,	-35,974	7,1923
17540	14,695	-5,	-37,71	7,3924
17541	15,162	-5,	-36,842	7,3008
17542	15,629	0,	-35,974	7,192
17543	15,162	0,	-36,842	7,3004
17544	14,695	0,	-37,71	7,3919
17545	14,227	-5,	-38,578	7,4714
17546	13,293	-5,	-40,313	7,6322
17547	13,76	-5,	-39,445	7,5467
17548	14,227	0,	-38,578	7,4709
17549	13,76	0,	-39,445	7,5462
17550	13,293	0,	-40,313	7,6318
17551	11,424	-5,	-43,785	8,4986
17552	11,891	-5,	-42,917	8,1612
17553	12,358	-5,	-42,049	7,9158
17554	12,826	0,	-41,181	7,7471
17555	12,358	0,	-42,049	7,9156
17556	31,518	0,	-6,4672	17,851
17557	10,489	0,	-45,52	9,3763
17558	10,022	0,	-46,388	9,7672
17559	9,5544	0,	-47,256	9,9419
17560	29,648	-5,	-9,9386	8,5951
17561	30,116	-5,	-9,0708	10,404
17562	30,583	-5,	-8,2029	12,638
17563	31,05	0,	-7,3351	15,214
17564	29,648	0,	-9,9386	8,5869
17565	30,583	0,	-8,2029	12,635
17566	30,116	0,	-9,0708	10,399
17567	32,452	-2,	-4,7315	20,333
17568	32,452	-3,	-4,7315	20,33
17569	9,5544	-5,	-47,256	9,949
17570	10,022	-5,	-46,388	9,7688
17571	8,6198	-3,	-48,992	8,7074
17572	8,6198	-2,	-48,992	8,681
17573	26,845	-5,	-15,146	4,2583
17574	27,312	-5,	-14,278	4,4963
17575	27,312	0,	-14,278	4,4964
17576	26,845	0,	-15,146	4,2585
17577	23,106	0,	-22,088	4,4181
17578	22,639	0,	-22,956	4,557
17579	18,433	-5,	-30,767	6,2082
17580	18,9	-5,	-29,899	6,0117
17581	18,9	0,	-29,899	6,0116
17582	18,433	0,	-30,767	6,2082
17583	11,891	0,	-42,917	8,1616
17584	11,424	0,	-43,785	8,4991
17585	8,6198	-4,	-48,992	8,7187
17586	8,6198	-5,	-48,992	8,7476
17587	9,0871	-5,	-48,124	9,7496
17588	31,985	-5,	-5,5994	20,017
17589	32,452	-4,	-4,7315	20,391
17590	32,452	-5,	-4,7315	20,335
17591	9,0871	0,	-48,124	9,7295
17592	8,6198	-1,	-48,992	8,7091
17593	8,6198	0,	-48,992	8,7273
17594	32,452	-1,	-4,7315	20,4
17595	32,452	0,	-4,7315	20,358
17596	31,985	0,	-5,5994	20,029
17597	20,631	-3,	26,686	5,7789
17598	20,628	-2,	26,69	5,7801
17599	21,099	-2,	25,816	5,5245
17600	21,101	-3,	25,812	5,5233
17601	20,158	-3,	27,564	6,0518
17602	20,156	-2,	27,568	6,0531
17603	21,572	-2,	24,938	5,2843
17604	21,574	-3,	24,933	5,2832
17605	19,685	-3,	28,442	6,3404
17606	19,683	-2,	28,447	6,3418
17607	22,045	-2,	24,059	5,0613
17608	22,047	-3,	24,055	5,0603
17609	19,212	-3,	29,321	6,6439
17610	19,21	-2,	29,325	6,6454
17611	22,518	-2,	23,181	4,8561
17612	22,52	-3,	23,177	4,8552
17613	18,739	-3,	30,199	6,9617
17614	18,737	-2,	30,203	6,9632
17615	22,991	-2,	22,303	4,6696
17616	22,993	-3,	22,298	4,6688
17617	18,266	-3,	31,077	7,2924
17618	18,264	-2,	31,082	7,294
17619	23,464	-2,	21,424	4,5029
17620	23,466	-3,	21,42	4,5022
17621	17,793	-3,	31,956	7,6348
17622	17,791	-2,	31,96	7,6365
17623	23,937	-2,	20,546	4,3578
17624	23,939	-3,	20,542	4,3572
17625	17,32	-3,	32,834	7,9867
17626	17,318	-2,	32,838	7,9885
17627	24,41	-2,	19,668	4,2367
17628	16,847	-3,	33,712	8,3456
17629	16,845	-2,	33,717	8,3473
17630	24,883	-2,	18,789	4,1433
17631	24,885	-3,	18,785	4,143
17632	16,374	-3,	34,591	8,7074
17633	16,372	-2,	34,595	8,7092
17634	25,356	-2,	17,911	4,0831
17635	25,358	-3,	17,907	4,0829
17636	15,901	-3,	35,469	9,0672
17637	15,899	-2,	35,473	9,069
17638	25,829	-2,	17,033	4,0639
17639	25,831	-3,	17,028	4,0639
17640	15,428	-3,	36,347	9,4177
17641	15,426	-2,	36,352	9,4194
17642	26,302	-2,	16,154	4,0972
17643	26,304	-3,	16,15	4,0976
17644	14,955	-3,	37,226	9,7492
17645	14,953	-2,	37,23	9,7507
17646	26,775	-2,	15,276	4,1996
17647	26,777	-3,	15,272	4,2003
17648	14,482	-3,	38,104	10,048
17649	14,48	-2,	38,108	10,05
17650	27,248	-2,	14,397	4,395
17651	27,25	-3,	14,393	4,3964
17652	14,009	-3,	38,982	10,298
17653	14,007	-2,	38,987	10,299
17654	27,72	-2,	13,519	4,7166
17655	27,723	-3,	13,515	4,7186
17656	13,537	-3,	39,861	10,475
17657	13,534	-2,	39,865	10,476
17658	28,193	-2,	12,641	5,2105
17659	28,196	-3,	12,637	5,2136
17660	13,064	-3,	40,739	10,554
17661	13,061	-2,	40,743	10,554
17662	28,666	-2,	11,762	5,9377
17663	28,669	-3,	11,758	5,9418
17664	12,591	-3,	41,617	10,506
17665	12,588	-2,	41,622	10,506
17666	29,139	-2,	10,884	6,9718
17667	29,142	-3,	10,88	6,9789
17668	12,118	-3,	42,496	10,308
17669	12,115	-2,	42,5	10,307
17670	29,612	-2,	10,006	8,398
17671	29,615	-3,	10,002	8,4078
17672	11,645	-3,	43,374	9,9504
17673	11,642	-2,	43,378	9,9494
17674	30,085	-2,	9,1271	10,284
17675	30,088	-3,	9,1232	10,299
17676	11,172	-3,	44,253	9,4526
17677	11,169	-2,	44,257	9,4504
17678	30,558	-2,	8,2485	12,646
17679	30,56	-3,	8,2449	12,664
17680	10,699	-3,	45,131	8,8806
17681	10,697	-2,	45,135	8,8778
17682	31,032	-2,	7,3697	15,369
17683	31,033	-3,	7,3665	15,379
17684	10,225	-3,	46,01	8,3386
17685	10,224	-2,	46,013	8,3372
17686	31,505	-2,	6,4906	18,108
17687	9,752	-3,	46,889	7,9439
17688	9,7506	-2,	46,892	7,942
17689	31,979	-2,	5,6109	20,237
17690	31,979	-3,	5,6099	20,254
17691	31,98	-4,	5,6077	20,335
17692	31,508	-4,	6,4861	18,087
17693	31,035	-4,	7,3644	15,299
17694	30,562	-4,	8,2427	12,58
17695	30,089	-4,	9,1211	10,247
17696	29,616	-4,	9,9994	8,3907
17697	29,143	-4,	10,878	6,9888
17698	28,67	-4,	11,756	5,967
17699	28,197	-4,	12,634	5,2466
17700	27,724	-4,	13,513	4,7531
17701	27,251	-4,	14,391	4,4288
17702	26,778	-4,	15,269	4,2292
17703	26,305	-4,	16,148	4,1223
17704	25,832	-4,	17,026	4,0849
17705	25,359	-4,	17,904	4,1006
17706	24,886	-4,	18,783	4,1579
17707	24,413	-4,	19,661	4,2489
17708	23,94	-4,	20,539	4,368
17709	23,467	-4,	21,418	4,5116
17710	22,994	-4,	22,296	4,677
17711	22,521	-4,	23,174	4,8625
17712	22,048	-4,	24,053	5,0669
17713	21,576	-4,	24,931	5,2892
17714	21,103	-4,	25,809	5,5288
17715	20,63	-4,	26,688	5,7852
17716	20,157	-4,	27,566	6,0578
17717	19,684	-4,	28,444	6,3461
17718	19,211	-4,	29,323	6,6493
17719	18,738	-4,	30,201	6,9667
17720	18,265	-4,	31,08	7,2971
17721	17,792	-4,	31,958	7,639
17722	17,319	-4,	32,836	7,9905
17723	16,846	-4,	33,715	8,3486
17724	16,373	-4,	34,593	8,7098
17725	15,9	-4,	35,471	9,0687
17726	15,427	-4,	36,35	9,4183
17727	14,954	-4,	37,228	9,7489
17728	14,481	-4,	38,106	10,047
17729	14,008	-4,	38,985	10,297
17730	13,535	-4,	39,863	10,475
17731	13,062	-4,	40,741	10,555
17732	12,589	-4,	41,62	10,51
17733	12,117	-4,	42,498	10,313
17734	11,644	-4,	43,376	9,952
17735	11,171	-4,	44,255	9,4417
17736	10,698	-4,	45,133	8,8452
17737	10,225	-4,	46,011	8,2767
17738	9,7516	-4,	46,89	7,8675
17739	9,2785	-4,	47,768	7,6867
17740	9,2782	-3,	47,769	7,7429
17741	9,2777	-2,	47,77	7,745
17742	9,2765	-1,	47,772	7,6824
17743	9,7495	-1,	46,894	7,8728
17744	10,222	-1,	46,016	8,2729
17745	10,695	-1,	45,137	8,8432
17746	11,168	-1,	44,259	9,4383
17747	11,641	-1,	43,381	9,9497
17748	12,114	-1,	42,502	10,311
17749	12,587	-1,	41,624	10,51
17750	13,06	-1,	40,745	10,556
17751	13,533	-1,	39,867	10,475
17752	14,006	-1,	38,989	10,298
17753	14,479	-1,	38,11	10,049
17754	14,952	-1,	37,232	9,7505
17755	15,425	-1,	36,354	9,42
17756	15,898	-1,	35,475	9,0704
17757	16,371	-1,	34,597	8,7115
17758	16,844	-1,	33,719	8,3503
17759	17,317	-1,	32,84	7,9921
17760	17,79	-1,	31,962	7,6407
17761	18,263	-1,	31,084	7,2987
17762	18,736	-1,	30,205	6,9682
17763	19,208	-1,	29,327	6,6508
17764	19,681	-1,	28,449	6,3474
17765	20,154	-1,	27,57	6,0591
17766	20,627	-1,	26,692	5,7864
17767	21,1	-1,	25,814	5,53
17768	21,573	-1,	24,935	5,2902
17769	22,046	-1,	24,057	5,0679
17770	22,519	-1,	23,179	4,8634
17771	22,992	-1,	22,3	4,6778
17772	23,465	-1,	21,422	4,5123
17773	23,938	-1,	20,544	4,3686
17774	24,411	-1,	19,665	4,2493
17775	24,884	-1,	18,787	4,1581
17776	25,357	-1,	17,909	4,1007
17777	25,83	-1,	17,03	4,0848
17778	26,303	-1,	16,152	4,1219
17779	26,776	-1,	15,274	4,2284
17780	27,249	-1,	14,395	4,4274
17781	27,722	-1,	13,517	4,7509
17782	28,195	-1,	12,639	5,2429
17783	28,668	-1,	11,76	5,9616
17784	29,14	-1,	10,882	6,9787
17785	29,613	-1,	10,004	8,3764
17786	30,086	-1,	9,1253	10,228
17787	30,559	-1,	8,2469	12,56
17788	31,032	-1,	7,3684	15,281
17789	31,505	-1,	6,4898	18,077
17790	31,979	-1,	5,6109	20,305
17791	31,506	-3,	6,4882	18,116
17792	24,412	-3,	19,663	4,2362
17793	28,669	-5,	11,758	6,0843
17794	28,196	-5,	12,637	5,3507
17795	28,196	0,	12,637	5,3496
17796	28,669	0,	11,758	6,0828
17797	26,304	0,	16,15	4,1681
17798	26,777	0,	15,272	4,2863
17799	26,777	-5,	15,272	4,2864
17800	26,304	-5,	16,15	4,1682
17801	25,831	-5,	17,028	4,1219
17802	25,358	-5,	17,907	4,1308
17803	24,885	-5,	18,785	4,1831
17804	25,831	0,	17,028	4,1218
17805	25,358	0,	17,907	4,1308
17806	23,466	0,	21,42	4,5281
17807	24,885	0,	18,785	4,183
17808	23,939	0,	20,542	4,3866
17809	24,412	0,	19,663	4,2702
17810	24,412	-5,	19,663	4,2703
17811	23,939	-5,	20,542	4,3867
17812	22,52	0,	23,177	4,8763
17813	22,993	0,	22,298	4,692
17814	23,466	-5,	21,42	4,5282
17815	22,993	-5,	22,298	4,692
17816	22,52	-5,	23,177	4,8764
17817	21,101	-5,	25,812	5,5405
17818	20,628	-5,	26,69	5,7963
17819	20,628	0,	26,69	5,7963
17820	21,101	0,	25,812	5,5404
17821	20,156	0,	27,568	6,0684
17822	19,21	0,	29,325	6,6588
17823	19,683	0,	28,447	6,3562
17824	20,156	-5,	27,568	6,0685
17825	19,683	-5,	28,447	6,3562
17826	18,737	0,	30,203	6,9755
17827	17,791	0,	31,96	7,646
17828	18,264	0,	31,082	7,3051
17829	19,21	-5,	29,325	6,6589
17830	18,737	-5,	30,203	6,9756
17831	18,264	-5,	31,082	7,3052
17832	17,318	0,	32,838	7,996
17833	16,372	0,	34,595	8,7111
17834	16,845	0,	33,717	8,3523
17835	17,791	-5,	31,96	7,646
17836	17,318	-5,	32,838	7,996
17837	16,845	-5,	33,717	8,3523
17838	15,899	0,	35,473	9,0669
17839	14,953	0,	37,23	9,7381
17840	15,426	0,	36,352	9,4125
17841	15,426	-5,	36,352	9,4124
17842	14,953	-5,	37,23	9,738
17843	14,007	0,	38,987	10,273
17844	14,48	0,	38,108	10,031
17845	14,48	-5,	38,108	10,031
17846	14,007	-5,	38,987	10,273
17847	13,534	0,	39,865	10,444
17848	12,588	0,	41,622	10,47
17849	13,061	0,	40,743	10,519
17850	13,534	-5,	39,865	10,444
17851	13,061	-5,	40,743	10,519
17852	12,588	-5,	41,622	10,469
17853	29,615	-5,	10,002	8,4939
17854	29,142	-5,	10,88	7,1098
17855	29,142	0,	10,88	7,1044
17856	29,615	0,	10,002	8,4841
17857	12,115	-5,	42,5	10,273
17858	11,642	-5,	43,378	9,9151
17859	11,169	-5,	44,257	9,4115
17860	12,115	0,	42,5	10,272
17861	11,169	0,	44,257	9,4109
17862	11,642	0,	43,378	9,915
17863	10,697	0,	45,135	8,8192
17864	9,7506	0,	46,892	7,8358
17865	10,224	0,	46,013	8,2475
17866	30,088	0,	9,1232	10,288
17867	30,56	0,	8,2449	12,532
17868	30,088	-5,	9,1232	10,3
17869	30,56	-5,	8,2449	12,542
17870	31,033	0,	7,3665	15,137
17871	31,506	0,	6,4882	17,82
17872	9,7506	-5,	46,892	7,8265
17873	8,8047	-2,	48,648	7,3865
17874	8,8047	-3,	48,648	7,3898
17875	31,506	-5,	6,4882	17,827
17876	31,033	-5,	7,3665	15,144
17877	32,452	-3,	4,7315	20,34
17878	32,452	-2,	4,7315	20,347
17879	27,25	0,	14,393	4,4999
17880	27,723	0,	13,515	4,84
17881	27,723	-5,	13,515	4,8404
17882	27,25	-5,	14,393	4,4999
17883	21,574	0,	24,933	5,3014
17884	22,047	0,	24,055	5,0798
17885	22,047	-5,	24,055	5,0798
17886	21,574	-5,	24,933	5,3014
17887	16,372	-5,	34,595	8,7111
17888	15,899	-5,	35,473	9,0669
17889	10,697	-5,	45,135	8,8185
17890	10,224	-5,	46,013	8,2463
17891	8,8047	-1,	48,648	7,3349
17892	8,8047	0,	48,648	7,3705
17893	9,2777	0,	47,77	7,657
17894	31,979	0,	5,6099	20,047
17895	32,452	-1,	4,7315	20,417
17896	32,452	0,	4,7315	20,357
17897	9,2777	-5,	47,77	7,657
17898	8,8047	-4,	48,648	7,3371
17899	8,8047	-5,	48,648	7,364
17900	32,452	-4,	4,7315	20,449
17901	32,452	-5,	4,7315	20,408
17902	31,979	-5,	5,6099	20,088
17903	-20,303	-3,	-27,294	5,4123
17904	-20,3	-2,	-27,3	5,4136
17905	-20,765	-1,9981	-26,436	5,223
17906	-20,767	-3,	-26,433	5,2223
17907	-19,84	-3,	-28,155	5,6071
17908	-19,833	-2,	-28,168	5,6099
17909	-21,227	-2,	-25,578	5,0403
17910	-21,234	-3,	-25,565	5,0376
17911	-19,372	-3,	-29,023	5,8062
17912	-19,365	-2,	-29,036	5,8092
17913	-21,695	-2,	-24,71	4,8639
17914	-21,701	-3,	-24,697	4,8614
17915	-18,905	-3,	-29,89	6,0062
17916	-18,898	-2,	-29,903	6,0091
17917	-22,162	-2,	-23,842	4,6974
17918	-22,169	-3,	-23,83	4,6951
17919	-18,438	-3,	-30,758	6,2044
17920	-18,431	-2,	-30,771	6,2073
17921	-22,629	-2,	-22,975	4,5424
17922	-22,636	-3,	-22,962	4,5402
17923	-17,971	-3,	-31,626	6,3981
17924	-17,964	-2,	-31,639	6,4009
17925	-23,096	-2,	-22,107	4,4005
17926	-23,103	-3,	-22,094	4,3986
17927	-17,504	-3,	-32,493	6,5844
17928	-17,497	-2,	-32,506	6,5871
17929	-23,563	-2,	-21,239	4,2737
17930	-23,57	-3,	-21,227	4,2721
17931	-17,036	-3,	-33,361	6,7601
17932	-17,029	-2,	-33,374	6,7627
17933	-24,031	-2,	-20,372	4,1643
17934	-24,038	-3,	-20,359	4,163
17935	-16,569	-3,	-34,229	6,9223
17936	-16,562	-2,	-34,242	6,9246
17937	-24,498	-2,	-19,504	4,0755
17938	-24,505	-3,	-19,491	4,0746
17939	-16,102	-3,	-35,096	7,068
17940	-16,095	-2,	-35,109	7,0701
17941	-24,965	-2,	-18,636	4,0116
17942	-24,972	-3,	-18,624	4,0111
17943	-15,635	-3,	-35,964	7,1952
17944	-15,628	-2,	-35,977	7,197
17945	-25,432	-2,	-17,769	3,9784
17946	-25,439	-3,	-17,756	3,9782
17947	-15,168	-3,	-36,832	7,3031
17948	-15,161	-2,	-36,845	7,3046
17949	-25,899	-2,	-16,901	3,9845
17950	-25,906	-3,	-16,888	3,9853
17951	-14,7	-3,	-37,699	7,3931
17952	-14,693	-2,	-37,712	7,3944
17953	-26,367	-2,	-16,033	4,0419
17954	-26,374	-3,	-16,021	4,043
17955	-14,233	-3,	-38,567	7,4701
17956	-14,226	-2,	-38,58	7,4712
17957	-26,834	-2,	-15,166	4,1673
17958	-26,841	-3,	-15,153	4,1699
17959	-13,766	-3,	-39,435	7,5437
17960	-13,759	-2,	-39,447	7,5448
17961	-27,301	-2,	-14,298	4,3849
17962	-27,308	-3,	-14,285	4,389
17963	-13,299	-3,	-40,302	7,6292
17964	-13,292	-2,	-40,315	7,6306
17965	-27,768	-2,	-13,43	4,7281
17966	-27,775	-3,	-13,418	4,7343
17967	-12,832	-3,	-41,17	7,7487
17968	-12,825	-2,	-41,183	7,7508
17969	-28,235	-2,	-12,563	5,2426
17970	-28,242	-3,	-12,55	5,2516
17971	-12,364	-3,	-42,038	7,9289
17972	-12,357	-2,	-42,05	7,9321
17973	-28,703	-2,	-11,695	5,987
17974	-28,71	-3,	-11,682	6,0007
17975	-11,897	-3,	-42,905	8,1958
17976	-11,89	-2,	-42,918	8,2004
17977	-29,17	-2,	-10,827	7,0387
17978	-29,177	-3,	-10,815	7,0556
17979	-11,43	-3,	-43,773	8,5653
17980	-11,423	-2,	-43,786	8,5706
17981	-29,637	-2,	-9,9602	8,4691
17982	-29,644	-3,	-9,947	8,495
17983	-10,964	-3,	-44,639	9,0233
17984	-10,956	-2,	-44,653	9,0293
17985	-30,103	-2,	-9,0943	10,352
17986	-30,111	-3,	-9,0793	10,386
17987	-10,495	-3,0001	-45,51	9,5149
17988	-10,489	-2,	-45,521	9,5192
17989	-30,572	-2,	-8,2235	12,699
17990	-30,578	-3,	-8,2116	12,736
17991	-10,026	-3,0002	-46,38	9,9242
17992	-10,021	-2,	-46,389	9,9224
17993	-31,04	-1,9999	-7,3537	15,396
17994	-31,046	-3,	-7,344	15,424
17995	-9,562	-3,	-47,242	10,078
17996	-9,5542	-2,	-47,256	10,079
17997	-31,505	-2,	-6,4915	18,071
17998	-31,513	-3,	-6,4763	18,103
17999	-9,0905	-3,	-48,118	9,7932
18000	-9,087	-2,	-48,124	9,789
18001	-9,0853	-1,	-48,127	9,8303
18002	-9,5521	-1,	-47,26	10,076
18003	-10,015	-1,	-46,402	9,8934
18004	-10,482	-1,	-45,534	9,4733
18005	-10,949	-1,	-44,666	8,982
18006	-11,416	-1,	-43,799	8,5301
18007	-11,883	-1,	-42,931	8,1711
18008	-12,351	-1,	-42,063	7,9139
18009	-12,818	-1,	-41,196	7,7415
18010	-13,285	-1,	-40,328	7,6271
18011	-13,752	-1,	-39,46	7,5445
18012	-14,219	-1,	-38,593	7,4725
18013	-14,687	-1,	-37,725	7,3964
18014	-15,154	-1,	-36,857	7,3068
18015	-15,621	-1,	-35,99	7,1994
18016	-16,088	-1,	-35,122	7,0727
18017	-16,555	-1,	-34,254	6,9275
18018	-17,023	-1,	-33,387	6,7659
18019	-17,49	-1,	-32,519	6,5907
18020	-17,957	-1,	-31,651	6,405
18021	-18,424	-1,	-30,784	6,2118
18022	-18,891	-1,	-29,916	6,0141
18023	-19,359	-1,	-29,048	5,8146
18024	-19,826	-1,	-28,181	5,6158
18025	-20,293	-1,	-27,313	5,4199
18026	-20,76	-1,	-26,445	5,229
18027	-21,227	-1,	-25,578	5,0448
18028	-21,695	-1,	-24,71	4,869
18029	-22,162	-1,	-23,842	4,7033
18030	-22,629	-1,	-22,975	4,5492
18031	-23,096	-1,	-22,107	4,4083
18032	-23,563	-1,	-21,239	4,2827
18033	-24,031	-1,	-20,372	4,1748
18034	-24,498	-1,	-19,504	4,088
18035	-24,965	-1,	-18,636	4,0263
18036	-25,432	-1,	-17,769	3,996
18037	-25,899	-1,	-16,901	4,0053
18038	-26,367	-1,	-16,033	4,0663
18039	-26,834	-1,	-15,166	4,1956
18040	-27,301	-1,	-14,298	4,4165
18041	-27,768	-1,	-13,43	4,7611
18042	-28,235	-1,	-12,563	5,2735
18043	-28,703	-1,	-11,695	6,0099
18044	-29,17	-1,	-10,827	7,0433
18045	-29,637	-1,	-9,9597	8,4486
18046	-30,104	-1,	-9,0919	10,301
18047	-30,572	-1,	-8,2241	12,61
18048	-31,039	-1,	-7,356	15,302
18049	-31,507	-1,	-6,4875	18,054
18050	-31,975	-1,	-5,6183	20,257
18051	-31,977	-2,	-5,6151	20,193
18052	-31,98	-3,	-5,6087	20,199
18053	-31,982	-4,	-5,6055	20,262
18054	-31,515	-4,	-6,4723	18,09
18055	-31,052	-4,	-7,3312	15,378
18056	-30,585	-4,	-8,1988	12,682
18057	-30,118	-4,	-9,0665	10,356
18058	-29,651	-4,	-9,9342	8,4927
18059	-29,184	-4,	-10,802	7,0767
18060	-28,716	-4,	-11,669	6,0354
18061	-28,249	-4,	-12,537	5,2914
18062	-27,782	-4,	-13,405	4,7738
18063	-27,315	-4,	-14,272	4,425
18064	-26,848	-4,	-15,14	4,2011
18065	-26,38	-4,	-16,008	4,0694
18066	-25,913	-4,	-16,875	4,0068
18067	-25,446	-4,	-17,743	3,996
18068	-24,979	-4,	-18,611	4,0253
18069	-24,512	-4,	-19,478	4,0861
18070	-24,044	-4,	-20,346	4,1724
18071	-23,577	-4,	-21,214	4,2796
18072	-23,11	-4,	-22,081	4,4046
18073	-22,643	-4,	-22,949	4,545
18074	-22,176	-4,	-23,817	4,6988
18075	-21,708	-4,	-24,684	4,8642
18076	-21,241	-4,	-25,552	5,0397
18077	-20,774	-4,	-26,42	5,2236
18078	-20,307	-4,	-27,287	5,4143
18079	-19,84	-4,	-28,155	5,6101
18080	-19,372	-4,	-29,023	5,8088
18081	-18,905	-4,	-29,89	6,0083
18082	-18,438	-4,	-30,758	6,206
18083	-17,971	-4,	-31,626	6,3994
18084	-17,504	-4,	-32,493	6,5854
18085	-17,036	-4,	-33,361	6,7609
18086	-16,569	-4,	-34,229	6,9228
18087	-16,102	-4,	-35,096	7,0685
18088	-15,635	-4,	-35,964	7,1958
18089	-15,168	-4,	-36,832	7,3037
18090	-14,7	-4,	-37,699	7,3937
18091	-14,233	-4,	-38,567	7,4702
18092	-13,766	-4,	-39,435	7,5421
18093	-13,299	-4,	-40,302	7,6243
18094	-12,832	-4,	-41,17	7,7376
18095	-12,364	-4,	-42,038	7,9084
18096	-11,897	-4,	-42,905	8,1636
18097	-11,43	-4,	-43,773	8,5205
18098	-10,963	-4,	-44,641	8,9716
18099	-10,495	-4,	-45,509	9,4645
18100	-10,027	-4,	-46,378	9,8895
18101	-9,5594	-4,	-47,247	10,08
18102	-9,0905	-4,	-48,118	9,8305
18103	-10,021	-5,	-46,389	9,7723
18104	-9,5542	-5,	-47,256	9,9476
18105	-30,111	0,	-9,0793	10,383
18106	-30,578	-5,	-8,2116	12,608
18107	-30,111	-5,	-9,0793	10,377
18108	-11,89	-5,	-42,918	8,1639
18109	-11,89	0,	-42,918	8,1614
18110	-12,357	0,	-42,05	7,9162
18111	-12,825	0,	-41,183	7,7478
18112	-13,292	0,	-40,315	7,6326
18113	-12,357	-5,	-42,05	7,9175
18114	-13,292	-5,	-40,315	7,6326
18115	-12,825	-5,	-41,183	7,7485
18116	-14,693	-5,	-37,712	7,3923
18117	-15,161	0,	-36,845	7,301
18118	-13,759	0,	-39,447	7,5469
18119	-14,226	0,	-38,58	7,4715
18120	-14,693	0,	-37,712	7,3925
18121	-15,628	0,	-35,977	7,1926
18122	-16,095	0,	-35,109	7,0656
18123	-15,161	-5,	-36,845	7,3008
18124	-16,095	-5,	-35,109	7,0654
18125	-15,628	-5,	-35,977	7,1924
18126	-17,497	0,	-32,506	6,5857
18127	-17,964	0,	-31,639	6,4011
18128	-17,964	-5,	-31,639	6,4011
18129	-17,497	-5,	-32,506	6,5856
18130	-18,431	0,	-30,771	6,2091
18131	-18,898	0,	-29,903	6,0126
18132	-19,365	0,	-29,036	5,8143
18133	-18,431	-5,	-30,771	6,2091
18134	-19,365	-5,	-29,036	5,8143
18135	-18,898	-5,	-29,903	6,0126
18136	-19,833	-5,	-28,168	5,6168
18137	-20,767	-5,	-26,433	5,2324
18138	-20,3	-5,	-27,3	5,4221
18139	-19,833	0,	-28,168	5,6167
18140	-20,3	0,	-27,3	5,422
18141	-20,767	0,	-26,433	5,2322
18142	-21,234	0,	-25,565	5,0493
18143	-21,701	0,	-24,697	4,8748
18144	-22,169	0,	-23,83	4,7104
18145	-21,234	-5,	-25,565	5,0494
18146	-22,169	-5,	-23,83	4,7106
18147	-21,701	-5,	-24,697	4,875
18148	-22,636	0,	-22,962	4,5578
18149	-23,103	0,	-22,094	4,4188
18150	-23,103	-5,	-22,094	4,419
18151	-22,636	-5,	-22,962	4,558
18152	-24,505	0,	-19,491	4,107
18153	-24,972	0,	-18,624	4,05
18154	-24,505	-5,	-19,491	4,1074
18155	-24,972	-5,	-18,624	4,0504
18156	-25,906	-5,	-16,888	4,0434
18157	-25,439	-5,	-17,756	4,0262
18158	-25,439	0,	-17,756	4,0257
18159	-25,906	0,	-16,888	4,043
18160	-26,374	0,	-16,021	4,1141
18161	-26,841	0,	-15,153	4,2564
18162	-27,308	0,	-14,285	4,4933
18163	-27,775	-5,	-13,418	4,8568
18164	-27,308	-5,	-14,285	4,4937
18165	-28,242	-5,	-12,55	5,3886
18166	-29,644	-5,	-9,947	8,572
18167	-29,177	-5,	-10,815	7,1812
18168	-28,71	-5,	-11,682	6,142
18169	-29,644	0,	-9,947	8,5754
18170	-28,71	0,	-11,682	6,1426
18171	-29,177	0,	-10,815	7,1828
18172	-9,5542	0,	-47,256	9,945
18173	-30,578	0,	-8,2116	12,612
18174	-31,046	0,	-7,344	15,189
18175	-31,513	0,	-6,4763	17,827
18176	-11,423	-5,	-43,786	8,5017
18177	-10,956	-5,	-44,653	8,9231
18178	-10,489	-5,	-45,521	9,3789
18179	-11,423	0,	-43,786	8,498
18180	-10,021	0,	-46,389	9,7663
18181	-10,489	0,	-45,521	9,3732
18182	-10,956	0,	-44,653	8,9182
18183	-8,6198	-2,	-48,992	8,6918
18184	-8,6198	-3,	-48,992	8,688
18185	-31,513	-5,	-6,4763	17,813
18186	-31,046	-5,	-7,344	15,181
18187	-32,447	-3,	-4,741	20,303
18188	-32,447	-2,	-4,741	20,295
18189	-14,226	-5,	-38,58	7,4714
18190	-13,759	-5,	-39,447	7,5468
18191	-17,029	-5,	-33,374	6,7598
18192	-16,562	-5,	-34,242	6,9206
18193	-16,562	0,	-34,242	6,9207
18194	-17,029	0,	-33,374	6,7599
18195	-24,038	-5,	-20,359	4,1907
18196	-23,57	-5,	-21,227	4,2957
18197	-23,57	0,	-21,227	4,2954
18198	-24,038	0,	-20,359	4,1904
18199	-26,841	-5,	-15,153	4,2568
18200	-26,374	-5,	-16,021	4,1146
18201	-27,775	0,	-13,418	4,8566
18202	-28,242	0,	-12,55	5,3887
18203	-32,447	-4,	-4,741	20,374
18204	-32,447	-5,	-4,741	20,325
18205	-31,98	-5,	-5,6087	19,993
18206	-9,087	-5,	-48,124	9,7398
18207	-8,6198	-4,	-48,992	8,7127
18208	-8,6198	-5,	-48,992	8,733
18209	-31,98	0,	-5,6087	20,023
18210	-32,447	-1,	-4,741	20,347
18211	-32,447	0,	-4,741	20,268
18212	-8,6198	-1,	-48,992	8,7296
18213	-8,6198	0,	-48,992	8,7586
18214	-9,087	0,	-48,124	9,7487
18215	-3,9022	0,	6,0959	7,8396
18216	-3,3505	0,	5,6731	7,8597
18217	-6,0052	0,	-47,846	9,4676
18218	-5,8381	0,	-48,516	8,8592
18219	-0,71972	0,	52,129	17,756
18220	-0,67571	0,	51,553	17,544
18221	0,80078	0,	-11,343	6,8462
18222	0,31219	0,	-10,799	6,8515
18223	-0,84154	0,	7,4455	7,3283
18224	6,8399	0,	48,642	12,387
18225	6,5651	0,	49,29	12,614
18226	0,37424	0,	-19,08	8,6991
18227	6,4386	0,	-7,7177	7,9823
18228	-0,11976	0,	23,591	10,049
18229	0,75514	0,	28,616	12,135
18230	-5,9509	0,	36,266	15,34
18231	-16,678	0,	2,2502e-002	13,713
18232	21,932	0,	-7,3449	14,109
18233	4,544	0,	49,866	16,577
18234	7,7496	0,	42,298	16,811
18235	5,5398	0,	-49,657	7,9204
18236	17,482	0,	-10,499	10,624
18237	-0,20414	0,	17,969	7,8881
18238	-0,28262	0,	-6,9796	7,3891
18239	30,763	0,	-0,57224	22,39
18240	-28,208	0,	-5,6186	17,704
18241	-1,1766	0,	51,243	17,503
18242	-1,1921	0,	3,8042	8,0477
18243	-0,33391	0,	4,75	7,8622
18244	-0,92221	0,	-3,2557	8,1066
18245	-0,70533	0,	-5,2055e-002	8,3612
18246	2,3506e-002	0,	-4,0311	7,9662
18247	-0,40903	0,	-2,113	8,2404
18248	-0,97488	0,	5,4253	7,7442
18249	-0,9669	0,	2,0176	8,2741
18250	-1,7027	0,	5,8227	7,6936
18251	-0,2614	0,	-5,0725	7,772
18252	-0,27911	0,	-6,0935	7,5683
18253	-1,4855	0,	-4,6198	7,8972
18254	-1,8917	0,	4,5217	7,9556
18255	0,44401	0,	5,7662	7,6643
18256	0,67779	0,	7,5925	7,2958
18257	-0,34645	0,	2,9343	8,1574
18258	1,0541	0,	-4,744	7,8536
18259	-0,15189	0,	0,98806	8,3331
18260	-1,2347	0,	-1,1381	8,3423
18261	0,13078	0,	-1,0347	8,3231
18262	-1,5442	0,	0,99367	8,3697
18263	0,49865	0,	-2,9595	8,1375
18264	0,17711	0,	8,4765	7,1237
18265	-0,38545	0,	7,8926	7,2335
18266	-0,8301	0,	6,7341	7,4716
18267	-0,35386	0,	-8,1611	7,1659
18268	0,30202	0,	-7,6094	7,266
18269	0,8433	0,	-5,8077	7,6374
18270	-1,1824	0,	-6,0793	7,5951
18271	-0,88342	0,	-7,229	7,3503
18272	-2,3464	0,	6,4684	7,6059
18273	-2,4389	0,	5,2651	7,8539
18274	1,2134	0,	6,663	7,5009
18275	0,35038	0,	3,8671	8,0192
18276	2,0392	0,	-5,5153	7,7541
18277	0,44412	0,	1,9737	8,2671
18278	-2,4297	0,	-5,3761	7,8125
18279	-1,7583	0,	-2,2972	8,2677
18280	0,66438	0,	8,3039e-003	8,3602
18281	-2,0453	0,	-9,9569e-002	8,4187
18282	-1,8916	0,	3,0126	8,1996
18283	1,4473	0,	-3,7685	8,0441
18284	-3,4922	0,	6,6988	7,6679
18285	0,8198	0,	9,2276	7,0121
18286	0,83682	0,	10,834	6,833
18287	0,16812	0,	10,064	6,8916
18288	-0,99181	0,	8,6498	7,1101
18289	-1,4281	0,	7,9267	7,2583
18290	-1,8447	0,	7,1733	7,4271
18291	0,31893	0,	-9,9702	6,9132
18292	0,3275	0,	-9,03	7,0255
18293	0,9661	0,	-8,2794	7,1601
18294	1,7206	0,	-6,4617	7,5433
18295	-1,6095	0,	-7,6148	7,3105
18296	-1,1312	0,	-8,5829	7,1151
18297	-0,7315	0,	-9,3718	6,9878
18298	-3,0255	0,	7,2555	7,5069
18299	0,27544	0,	-11,923	6,841
18300	-3,334	0,	4,8902	8,01
18301	-2,9008	0,	6,0018	7,7469
18302	2,0126	0,	7,4137	7,391
18303	1,05	0,	4,905	7,8493
18304	2,9704	0,	-6,2854	7,6803
18305	1,0716	0,	2,9484	8,1724
18306	-3,2735	0,	-6,1108	7,7481
18307	-2,3608	0,	-3,3615	8,1678
18308	1,2149	0,	1,007	8,3533
18309	-2,5424	0,	-1,2117	8,4152
18310	-2,4416	0,	2,13	8,3424
18311	1,4994	0,	-0,92964	8,3631
18312	1,8941	0,	-2,8086	8,2111
18313	2,4199	0,	-4,5898	7,9614
18314	-3,2478	0,	4,0481	8,1503
18315	-4,2143	0,	7,2733	7,6459
18316	1,513	0,	9,939	6,9448
18317	4,9582e-002	0,	11,554	6,7864
18318	-0,59856	0,	10,804	6,829
18319	-1,1447	0,	10,055	6,9145
18320	-1,672	0,	9,3256	7,0344
18321	-2,1235	0,	8,5547	7,1854
18322	-2,5775	0,	7,8772	7,3441
18323	1,073	0,	-10,515	6,8873
18324	1,3384	0,	-9,724	6,9692
18325	1,7422	0,	-8,9465	7,0922
18326	2,5724	0,	-7,1707	7,4657
18327	-2,8187	0,	-7,1028	7,5025
18328	-2,3813	0,	-8,119	7,273
18329	-1,955	0,	-9,0741	7,089
18330	-1,5393	0,	-9,9514	6,9566
18331	-1,2102	0,	-10,777	6,8791
18332	-0,82717	0,	-11,581	6,8458
18333	-0,3593	0,	-12,451	6,8679
18334	0,70107	0,	13,369	6,8561
18335	-3,7771	0,	7,9123	7,4653
18336	-4,5814	0,	6,597	7,8342
18337	-0,54357	0,	-14,53	7,1659
18338	0,24643	0,	-14,451	7,145
18339	1,7329	0,	3,8916	8,0601
18340	-3,0181	0,	-4,2828	8,072
18341	1,8044	0,	1,9916	8,3128
18342	-3,0814	0,	-2,2229	8,3769
18343	2,0178	0,	5,6088e-002	8,4163
18344	2,3581	0,	-1,8391	8,3512
18345	2,8264	0,	-3,6719	8,1552
18346	3,3763	0,	-5,4641	7,8866
18347	-4,0903	0,	5,3388	8,0146
18348	1,5817	0,	11,496	6,8316
18349	0,7919	0,	12,392	6,7986
18350	0,6318	0,	14,177	6,9507
18351	2,8842	0,	9,7668	7,0696
18352	2,2434	0,	10,613	6,9254
18353	-8,7984e-002	0,	14,515	6,9982
18354	-0,28241	0,	13,733	6,8877
18355	-0,48364	0,	12,897	6,8146
18356	-0,87774	0,	12,164	6,796
18357	-1,4046	0,	11,442	6,8242
18358	-1,9259	0,	10,708	6,8949
18359	-2,4195	0,	9,963	7,0036
18360	-3,3278	0,	8,5614	7,2959
18361	0,90108	0,	-12,722	6,9016
18362	1,4088	0,	-11,988	6,8791
18363	1,8009	0,	-11,204	6,8981
18364	2,1506	0,	-10,425	6,9598
18365	2,5481	0,	-9,58	7,0743
18366	3,3974	0,	-7,9048	7,4176
18367	-3,1678	0,	-8,7346	7,2534
18368	-2,3434	0,	-10,514	6,9702
18369	-1,5456	0,	-12,17	6,894
18370	-0,72725	0,	-13,735	7,0212
18371	-4,8616	0,	5,8107	8,0357
18372	-4,5483	0,	8,4929	7,47
18373	-0,15046	0,	-15,283	7,3428
18374	-4,9743	0,	7,8104	7,6599
18375	-5,3489	0,	7,0969	7,8616
18376	3,5898	0,	8,9296	7,2669
18377	2,6118	0,	6,499	7,6213
18378	4,6688	0,	-7,8178	7,6162
18379	2,4602	0,	4,7589	7,9545
18380	-4,8979	0,	-7,5412	7,7054
18381	-3,816	0,	-5,087	8,0144
18382	-3,7125	0,	-3,2277	8,3202
18383	-3,3424	0,	-0,19394	8,5263
18384	2,5572	0,	1,045	8,4301
18385	2,8373	0,	-0,86825	8,4552
18386	3,2484	0,	-2,7102	8,3354
18387	-3,726	0,	1,8379	8,4934
18388	3,7721	0,	-4,4991	8,1178
18389	-4,3429	0,	3,4836	8,3755
18390	4,3302	0,	-6,2069	7,8674
18391	-5,0599	0,	4,9806	8,228
18392	-5,7658	0,	8,3361	7,7079
18393	0,64564	0,	16,412	7,4225
18394	1,2504	0,	14,596	7,0365
18395	2,3913	0,	12,089	6,8803
18396	1,9369	0,	12,897	6,8744
18397	0,49282	0,	17,292	7,6746
18398	-0,18283	0,	16,884	7,5503
18399	-0,27789	0,	16,019	7,3158
18400	-0,80785	0,	15,209	7,138
18401	-1,1289	0,	14,375	6,9952
18402	-1,4506	0,	13,582	6,9039
18403	-2,2605	0,	12,075	6,8699
18404	-3,2028	0,	10,601	7,0167
18405	-3,6592	0,	9,8748	7,1434
18406	-4,1056	0,	9,1734	7,2963
18407	0,42507	0,	-15,762	7,4774
18408	0,95809	0,	-14,953	7,2728
18409	1,252	0,	-14,129	7,1079
18410	1,648	0,	-13,392	7,0098
18411	2,1138	0,	-12,644	6,9622
18412	2,5484	0,	-11,859	6,9597
18413	3,3428	0,	-10,253	7,095
18414	3,7553	0,	-9,4613	7,2289
18415	4,1815	0,	-8,6873	7,3959
18416	-4,4026	0,	-8,448	7,4679
18417	-3,9482	0,	-9,3606	7,2672
18418	-3,1225	0,	-11,106	7,0223
18419	-2,7179	0,	-11,944	6,9784
18420	-2,3095	0,	-12,752	6,9868
18421	-1,9056	0,	-13,525	7,0445
18422	-1,548	0,	-14,273	7,1488
18423	-0,76998	0,	-15,808	7,4965
18424	-5,6643	0,	6,3449	8,0691
18425	4,4799	0,	9,6759	7,2816
18426	3,4083	0,	7,2841	7,5424
18427	4,7121	0,	10,623	7,2184
18428	-3,3537e-003	0,	19,672	8,489
18429	-5,3397	0,	9,0485	7,5121
18430	-6,1587	0,	7,612	7,9182
18431	3,2189	0,	5,5977	7,8615
18432	-0,39196	0,	-18,67	8,526
18433	-5,6681	0,	-8,2589	7,7268
18434	-4,616	0,	-5,8947	7,9743
18435	3,1095	0,	3,8455	8,172
18436	-4,4025	0,	-4,1304	8,27
18437	-3,8454	0,	-1,2449	8,5456
18438	3,1323	0,	2,0116	8,4127
18439	3,331	0,	0,12202	8,5254
18440	-4,1554	0,	0,72027	8,6139
18441	-4,6365	0,	2,4866	8,5493
18442	4,7396	0,	-5,3407	8,1012
18443	-5,2868	0,	4,0846	8,4284
18444	5,302	0,	-6,9633	7,8841
18445	-5,9382	0,	5,5608	8,2778
18446	-6,5817	0,	8,8594	7,7887
18447	0,49713	0,	20,298	8,7296
18448	4,2142	0,	8,0622	7,4969
18449	5,0768	0,	8,6899	7,523
18450	1,0364	0,	17,658	7,798
18451	0,5257	0,	18,325	8,0104
18452	1,6432	0,	15,928	7,3301
18453	1,3684	0,	16,762	7,5377
18454	2,0183	0,	15,123	7,1709
18455	2,8411	0,	13,516	6,9943
18456	4,2075	0,	11,172	7,1047
18457	3,7528	0,	11,924	7,022
18458	-0,74178	0,	17,405	7,7126
18459	-1,1296	0,	16,617	7,4898
18460	-1,5019	0,	15,854	7,3054
18461	-2,3018	0,	14,25	7,0396
18462	-2,6967	0,	13,47	6,977
18463	-3,1273	0,	12,707	6,965
18464	-3,5655	0,	11,954	6,9988
18465	-4,0158	0,	11,202	7,0768
18466	-4,4613	0,	10,467	7,1925
18467	-4,9041	0,	9,749	7,34
18468	0,36262	0,	-18,286	8,3669
18469	0,42054	0,	-17,245	7,9676
18470	1,1055	0,	-16,431	7,6979
18471	1,698	0,	-15,626	7,4782
18472	2,0501	0,	-14,819	7,2939
18473	2,4563	0,	-14,045	7,1685
18474	2,8865	0,	-13,273	7,094
18475	3,3164	0,	-12,493	7,0695
18476	3,7326	0,	-11,702	7,0938
18477	4,1409	0,	-10,913	7,1654
18478	4,5569	0,	-10,133	7,2814
18479	4,983	0,	-9,3567	7,4368
18480	-6,5106	0,	6,8636	8,1386
18481	5,9066	0,	-8,0533	7,8082
18482	-4,7197	0,	-10,022	7,319
18483	-4,3039	0,	-10,877	7,1913
18484	-3,892	0,	-11,726	7,116
18485	-3,4854	0,	-12,553	7,0939
18486	-3,083	0,	-13,357	7,1246
18487	-2,6867	0,	-14,139	7,2046
18488	-2,2977	0,	-14,917	7,3334
18489	-1,8878	0,	-15,687	7,5049
18490	-1,4521	0,	-16,448	7,715
18491	-0,987	0,	-17,168	7,9468
18492	4,011	0,	6,3903	7,7953
18493	5,5268	0,	10,945	7,3331
18494	5,6615	0,	10,053	7,438
18495	-6,1529	0,	9,5846	7,5916
18496	-0,13686	0,	-19,471	8,8703
18497	-6,3979	0,	-8,9943	7,7709
18498	-5,4297	0,	-6,6796	7,9639
18499	3,8345	0,	4,7063	8,1028
18500	-6,9929	0,	8,1296	8,0061
18501	-5,1746	0,	-4,9818	8,2435
18502	3,7738	0,	2,9441	8,3776
18503	3,8574	0,	1,1024	8,5592
18504	4,1249	0,	-0,76724	8,6043
18505	-4,6177	0,	-0,2978	8,6875
18506	4,5546	0,	-2,5487	8,5223
18507	-5,0099	0,	1,5647	8,6945
18508	5,0739	0,	-4,2803	8,3497
18509	-5,561	0,	3,2165	8,6109
18510	5,6377	0,	-5,8965	8,1536
18511	-6,2054	0,	4,7554	8,4851
18512	-6,8261	0,	6,0944	8,3616
18513	7,1726	0,	-8,1111	8,0884
18514	4,8298	0,	7,1229	7,7689
18515	5,6725	0,	7,785	7,7896
18516	0,94232	0,	19,641	8,4855
18517	1,7312	0,	18,165	7,9832
18518	1,3319	0,	18,918	8,2302
18519	2,4488	0,	16,531	7,5263
18520	2,0683	0,	17,33	7,7327
18521	3,2389	0,	14,928	7,2284
18522	2,833	0,	15,733	7,3571
18523	4,0898	0,	13,329	7,1161
18524	3,6593	0,	14,121	7,1469
18525	5,0256	0,	11,781	7,2083
18526	4,5439	0,	12,543	7,1368
18527	6,5279	0,	8,3879	7,8559
18528	6,0075	0,	9,2287	7,6124
18529	-0,64774	0,	19,77	8,5307
18530	-1,4516	0,	18,092	7,9502
18531	-1,8705	0,	17,292	7,7121
18532	-2,2897	0,	16,497	7,5082
18533	-2,7027	0,	15,697	7,3388
18534	-3,1144	0,	14,906	7,2131
18535	-3,5295	0,	14,111	7,1313
18536	-3,9577	0,	13,34	7,1002
18537	-4,8354	0,	11,791	7,1778
18538	-5,7196	0,	10,307	7,422
18539	0,43233	0,	-20,245	9,2212
18540	0,85517	0,	-19,356	8,8246
18541	1,1996	0,	-18,606	8,5095
18542	1,4836	0,	-17,795	8,1946
18543	1,8799	0,	-17,03	7,9289
18544	2,3828	0,	-16,274	7,7063
18545	2,8356	0,	-15,473	7,5123
18546	3,2456	0,	-14,69	7,3651
18547	4,5259	0,	-12,334	7,228
18548	4,9456	0,	-11,553	7,2815
18549	5,7936	0,	-10,038	7,519
18550	6,2445	0,	-9,3482	7,6893
18551	6,7134	0,	-8,7372	7,8803
18552	-5,9346	0,	-9,8124	7,5704
18553	-5,4986	0,	-10,664	7,4123
18554	-5,0874	0,	-11,495	7,307
18555	-4,6721	0,	-12,343	7,2517
18556	-3,8641	0,	-13,962	7,3011
18557	-3,4528	0,	-14,76	7,4013
18558	-3,0483	0,	-15,543	7,5482
18559	-2,6336	0,	-16,322	7,738
18560	-2,2081	0,	-17,088	7,9639
18561	-1,7959	0,	-17,835	8,2195
18562	-1,4229	0,	-18,598	8,5106
18563	-1,0801	0,	-19,393	8,8436
18564	-0,68004	0,	-20,211	9,2059
18565	-0,1221	0,	-20,963	9,5595
18566	-6,9676	0,	-8,1219	8,0383
18567	4,6159	0,	5,5055	8,058
18568	6,3067	0,	11,509	7,4506
18569	-6,984	0,	10,101	7,7069
18570	-7,3717	0,	7,3874	8,2357
18571	-7,4163	0,	9,3576	7,9046
18572	-8,0836	0,	-8,2196	8,3129
18573	-5,9542	0,	-5,868	8,2245
18574	-5,0323	0,	-3,1807	8,5177
18575	4,4649	0,	3,8214	8,3406
18576	4,4593	0,	2,0498	8,5698
18577	4,6143	0,	0,216	8,6881
18578	-5,1205	0,	-1,2872	8,7301
18579	4,9732	0,	-1,5806	8,6818
18580	-5,4199	0,	0,59321	8,816
18581	7,1017	0,	7,5454	8,1401
18582	5,4522	0,	-3,318	8,5716
18583	-5,8919	0,	2,3642	8,7812
18584	6,0199	0,	-4,9568	8,4105
18585	-6,4931	0,	3,9174	8,6923
18586	6,6286	0,	-6,2778	8,2934
18587	-7,1251	0,	5,3075	8,5889
18588	8,0046	0,	-8,5498	8,2358
18589	7,4326	0,	-7,415	8,277
18590	6,3157	0,	6,927	8,0841
18591	0,55174	0,	21,841	9,3384
18592	0,53863	0,	22,961	9,7915
18593	1,6284	0,	20,319	8,7516
18594	1,1377	0,	21,052	9,0277
18595	2,0686	0,	19,549	8,476
18596	2,8451	0,	17,952	7,9651
18597	3,639	0,	16,34	7,5681
18598	4,9023	0,	13,92	7,2832
18599	4,4681	0,	14,725	7,3306
18600	5,8106	0,	12,316	7,3413
18601	5,3525	0,	13,125	7,2877
18602	6,9532	0,	9,7935	7,7371
18603	8,3427	0,	7,6934	8,4339
18604	7,8799	0,	8,1983	8,2122
18605	-0,46075	0,	22,073	9,431
18606	-1,406	0,	20,337	8,7541
18607	-1,7605	0,	19,494	8,4481
18608	-2,1808	0,	18,729	8,1896
18609	-2,6394	0,	17,934	7,9482
18610	-3,0698	0,	17,128	7,7319
18611	-3,92	0,	15,534	7,4135
18612	-4,7817	0,	13,939	7,268
18613	-5,2128	0,	13,148	7,2664
18614	-5,6575	0,	12,366	7,3143
18615	-6,1036	0,	11,605	7,4069
18616	-6,5449	0,	10,848	7,5391
18617	-7,7197	0,	6,6304	8,4751
18618	-7,8462	0,	8,6235	8,1286
18619	-8,2578	0,	7,8611	8,3751
18620	-4,2469e-002	0,	-22,408	10,27
18621	0,5374	0,	-21,608	9,8709
18622	1,0917	0,	-20,845	9,5053
18623	1,5411	0,	-20,044	9,1373
18624	1,9595	0,	-19,237	8,7917
18625	2,3351	0,	-18,433	8,4719
18626	2,7362	0,	-17,661	8,1965
18627	3,1687	0,	-16,885	7,9548
18628	3,6106	0,	-16,102	7,7517
18629	4,0503	0,	-15,304	7,5895
18630	4,4776	0,	-14,515	7,4761
18631	4,9072	0,	-13,727	7,4131
18632	5,3355	0,	-12,939	7,4006
18633	5,7647	0,	-12,155	7,4383
18634	6,2009	0,	-11,388	7,5248
18635	6,6496	0,	-10,645	7,6554
18636	7,1051	0,	-9,9334	7,8218
18637	7,5775	0,	-9,2382	8,0213
18638	-7,5565	0,	-8,9396	8,057
18639	-7,1394	0,	-9,6785	7,858
18640	-6,3076	0,	-11,269	7,5511
18641	-5,4727	0,	-12,931	7,4241
18642	-4,6518	0,	-14,558	7,5077
18643	-3,8107	0,	-16,155	7,7855
18644	-3,3915	0,	-16,942	7,9896
18645	-2,9759	0,	-17,724	8,2321
18646	-2,1696	0,	-19,292	8,8197
18647	-1,3021	0,	-20,913	9,5375
18648	-7,8118	0,	-7,1908	8,4204
18649	-5,749	0,	-4,0729	8,5113
18650	0,32486	0,	23,924	10,186
18651	8,0218	0,	6,7867	8,5227
18652	7,0493	0,	12,051	7,5878
18653	7,4505	0,	11,204	7,7132
18654	-8,2581	0,	9,8443	8,0487
18655	-8,8072	0,	-8,509	8,4724
18656	-0,74732	0,	-24,252	11,22
18657	5,1089	0,	2,9423	8,5696
18658	5,1682	0,	1,1734	8,7468
18659	-5,6817	0,	-2,243	8,7503
18660	5,4178	0,	-0,62696	8,8122
18661	-5,8632	0,	-0,36978	8,9029
18662	5,8379	0,	-2,3708	8,766
18663	6,3733	0,	-3,9931	8,6532
18664	-6,8015	0,	3,0609	8,8909
18665	-7,4197	0,	4,5081	8,8105
18666	8,8994	0,	-8,9545	8,4261
18667	8,3659	0,	-7,7827	8,4669
18668	7,6648	0,	-6,6159	8,4869
18669	9,2828	0,	7,1888	8,8084
18670	-8,6356	0,	7,0945	8,6332
18671	-6,5201	0,	-4,8877	8,5324
18672	-0,73042	0,	24,023	10,226
18673	0,92343	0,	24,503	10,423
18674	-7,8125	0,	10,607	7,8476
18675	6,0162	0,	5,4519	8,3155
18676	6,9475	0,	6,1358	8,3822
18677	1,5055	0,	22,524	9,6161
18678	1,2097	0,	23,402	9,9702
18679	2,3591	0,	20,967	9,0129
18680	1,904	0,	21,738	9,3048
18681	2,7972	0,	20,176	8,7274
18682	4,03	0,	17,748	7,9838
18683	3,6246	0,	18,562	8,2066
18684	4,8532	0,	16,128	7,6446
18685	4,4337	0,	16,944	7,7963
18686	5,2751	0,	15,314	7,5359
18687	6,153	0,	13,688	7,4627
18688	8,2615	0,	9,5884	8,0848
18689	7,8371	0,	10,382	7,8773
18690	9,1511	0,	8,0211	8,6012
18691	8,7066	0,	8,8388	8,3233
18692	-0,99425	0,	23,284	9,9234
18693	-1,3047	0,	22,557	9,6278
18694	-1,6916	0,	21,758	9,3115
18695	-2,12	0,	20,964	9,007
18696	-2,9815	0,	19,356	8,4408
18697	-3,846	0,	17,753	7,9711
18698	-4,2902	0,	16,948	7,7834
18699	-4,7271	0,	16,138	7,6322
18700	-5,156	0,	15,336	7,5237
18701	-5,598	0,	14,531	7,4612
18702	-6,0391	0,	13,723	7,4457
18703	-6,4894	0,	12,935	7,4812
18704	-7,3741	0,	11,379	7,6848
18705	-8,7065	0,	9,0771	8,2823
18706	-9,1469	0,	8,313	8,5439
18707	0,13892	0,	-24,599	11,413
18708	0,42967	0,	-23,769	10,971
18709	0,78991	0,	-23,009	10,571
18710	1,3207	0,	-22,256	10,186
18711	2,2888	0,	-20,674	9,4311
18712	2,7248	0,	-19,873	9,0817
18713	3,14	0,	-19,079	8,7618
18714	3,9844	0,	-17,495	8,2189
18715	4,4186	0,	-16,704	8,0048
18716	4,8526	0,	-15,909	7,8321
18717	5,722	0,	-14,312	7,6275
18718	6,159	0,	-13,517	7,6012
18719	6,6011	0,	-12,73	7,627
18720	7,044	0,	-11,952	7,7016
18721	7,5094	0,	-11,191	7,8265
18722	8,4544	0,	-9,7105	8,1967
18723	-8,4407	0,	-9,4138	8,2306
18724	-8,0072	0,	-10,215	8,02
18725	-7,5663	0,	-11,03	7,8482
18726	-7,1301	0,	-11,853	7,7214
18727	-6,2838	0,	-13,505	7,6232
18728	-5,8649	0,	-14,332	7,6541
18729	-5,4454	0,	-15,145	7,7349
18730	-5,0149	0,	-15,956	7,8634
18731	-4,5891	0,	-16,752	8,0356
18732	-4,1672	0,	-17,549	8,2512
18733	-3,7492	0,	-18,346	8,5056
18734	-3,3325	0,	-19,144	8,7952
18735	-2,9158	0,	-19,943	9,1155
18736	-2,016	0,	-21,568	9,8464
18737	-1,4734	0,	-22,376	10,245
18738	-0,74981	0,	-23,282	10,715
18739	-0,76417	0,	-25,039	11,641
18740	-0,18779	0,	-25,386	11,843
18741	5,8349	0,	3,781	8,5793
18742	7,8501	0,	12,6	7,7565
18743	8,2772	0,	11,772	7,8753
18744	-8,6449	0,	11,109	8,0098
18745	-9,7075	0,	-8,9341	8,6762
18746	5,7682	0,	2,0709	8,7874
18747	-6,3169	0,	-3,1413	8,7715
18748	-8,0512	0,	5,8629	8,7184
18749	5,9057	0,	0,30929	8,9124
18750	-6,3621	0,	-1,3287	8,9674
18751	6,2431	0,	-1,4418	8,9326
18752	-6,6553	0,	0,4881	9,0712
18753	6,7423	0,	-3,0941	8,8729
18754	-7,1341	0,	2,1692	9,0776
18755	7,312	0,	-4,541	8,7858
18756	-7,74	0,	3,7206	9,029
18757	8,4933	0,	5,8972	8,8372
18758	9,8076	0,	-9,3652	8,6395
18759	9,2861	0,	-8,1913	8,6707
18760	8,6662	0,	-7,0196	8,698
18761	7,962	0,	-5,844	8,7192
18762	10,299	0,	7,6627	9,0383
18763	-9,5672	0,	7,5235	8,8286
18764	-0,1331	0,	-27,678	13,177
18765	-10,091	0,	-8,0094	8,9643
18766	-7,37	0,	-5,6397	8,5989
18767	-0,21508	0,	24,79	10,544
18768	0,3503	0,	25,365	10,783
18769	1,5233	0,	24,985	10,615
18770	7,4964	0,	5,3235	8,678
18771	2,3098	0,	23,208	9,8894
18772	1,9325	0,	24,07	10,239
18773	3,1198	0,	21,601	9,268
18774	3,9735	0,	19,982	8,7029
18775	3,5531	0,	20,794	8,977
18776	4,8153	0,	18,345	8,2235
18777	4,3989	0,	19,166	8,4505
18778	5,6572	0,	16,712	7,8722
18779	5,2347	0,	17,529	8,0297
18780	6,5202	0,	15,068	7,6819
18781	7,4153	0,	13,425	7,6843
18782	6,9686	0,	14,25	7,6591
18783	9,1276	0,	10,14	8,2429
18784	9,5617	0,	9,3316	8,4867
18785	-0,83758	0,	25,514	10,841
18786	-1,3065	0,	24,706	10,503
18787	-1,7491	0,	23,952	10,192
18788	-2,1226	0,	23,159	9,8708
18789	-2,9219	0,	21,576	9,2554
18790	-3,3474	0,	20,779	8,9656
18791	-3,7849	0,	19,971	8,6909
18792	-4,2181	0,	19,167	8,4402
18793	-4,6477	0,	18,362	8,2157
18794	-5,0878	0,	17,547	8,0204
18795	-5,5353	0,	16,728	7,8616
18796	-6,4266	0,	15,101	7,6716
18797	-7,3267	0,	13,484	7,6696
18798	-7,7679	0,	12,683	7,7386
18799	-9,0922	0,	10,325	8,2096
18800	-10,048	0,	8,7414	8,7389
18801	-0,42537	0,	-26,855	12,677
18802	0,33624	0,	-26,153	12,272
18803	1,3059	0,	-24,467	11,321
18804	1,7069	0,	-23,656	10,886
18805	2,1383	0,	-22,873	10,478
18806	2,6071	0,	-22,085	10,086
18807	3,0581	0,	-21,294	9,7143
18808	3,936	0,	-19,702	9,0412
18809	4,3616	0,	-18,905	8,7475
18810	4,7946	0,	-18,1	8,4857
18811	5,67	0,	-16,49	8,0806
18812	6,5484	0,	-14,878	7,8562
18813	7,4473	0,	-13,275	7,8352
18814	7,9114	0,	-12,484	7,9039
18815	8,3864	0,	-11,703	8,023
18816	8,8687	0,	-10,928	8,1894
18817	9,3453	0,	-10,148	8,3954
18818	-8,8638	0,	-10,706	8,2055
18819	-8,4091	0,	-11,558	8,0334
18820	-7,9642	0,	-12,401	7,9152
18821	-7,5271	0,	-13,238	7,8499
18822	-7,0985	0,	-14,07	7,8388
18823	-6,6753	0,	-14,899	7,8809
18824	-6,2465	0,	-15,721	7,972
18825	-5,8128	0,	-16,529	8,1077
18826	-5,3803	0,	-17,333	8,2876
18827	-4,9523	0,	-18,139	8,51
18828	-4,5277	0,	-18,947	8,7716
18829	-3,6806	0,	-20,561	9,3928
18830	-2,8	0,	-22,17	10,123
18831	-1,9065	0,	-23,719	10,912
18832	-1,3157	0,	-25,398	11,82
18833	-0,89035	0,	-26,169	12,268
18834	-9,4183	0,	-6,6516	9,0067
18835	1,0146	0,	25,895	10,997
18836	-0,27058	0,	26,239	11,147
18837	6,4515	0,	2,9182	8,8322
18838	8,6733	0,	13,141	7,9432
18839	-10,627	0,	-9,3573	8,8997
18840	-7,0682	0,	-3,965	8,8223
18841	-8,3442	0,	-6,2223	8,7559
18842	-8,3685	0,	5,0666	8,9663
18843	6,4538	0,	1,2087	8,9958
18844	-6,9338	0,	-2,2315	9,0238
18845	6,6822	0,	-0,52606	9,0749
18846	-7,087	0,	-0,44849	9,1748
18847	7,1149	0,	-2,2011	9,0705
18848	-7,4903	0,	1,2896	9,2418
18849	7,6833	0,	-3,7357	9,0172
18850	-8,0469	0,	2,8709	9,2399
18851	8,9676	0,	5,0863	9,1432
18852	9,5592	0,	6,4083	9,0604
18853	10,715	0,	-9,7688	8,8615
18854	10,223	0,	-8,5812	8,9013
18855	8,9725	0,	-6,2588	8,9394
18856	8,2974	0,	-5,0563	8,9641
18857	11,215	0,	8,0967	9,2587
18858	-10,495	0,	7,9423	9,0436
18859	0,79821	0,	-28,96	13,957
18860	-0,968	0,	-28,422	13,605
18861	3,8762e-002	0,	-28,578	13,738
18862	-8,9959	0,	6,3336	8,8972
18863	-10,455	0,	-7,1038	9,2697
18864	-11,092	0,	-8,4271	9,224
18865	0,42599	0,	26,786	11,373
18866	0,13982	0,	28,832	12,232
18867	7,2304	0,	3,7044	8,9
18868	8,0639	0,	4,4187	9,0017
18869	1,2633	0,	27,203	11,536
18870	0,8847	0,	27,921	11,843
18871	1,294	0,	29,052	12,307
18872	2,2374	0,	25,548	10,832
18873	1,7682	0,	26,398	11,191
18874	3,0816	0,	23,851	10,138
18875	2,6702	0,	24,692	10,477
18876	3,9002	0,	22,214	9,5082
18877	3,496	0,	23,038	9,8187
18878	4,7523	0,	20,58	8,9413
18879	4,3252	0,	21,4	9,2161
18880	5,6089	0,	18,933	8,4603
18881	5,1813	0,	19,759	8,6883
18882	6,0284	0,	18,11	8,2631
18883	6,9125	0,	16,451	7,9786
18884	8,2271	0,	13,97	7,879
18885	7,7891	0,	14,796	7,8651
18886	9,1061	0,	12,304	8,0537
18887	9,9979	0,	10,646	8,4223
18888	9,5518	0,	11,481	8,2146
18889	10,843	0,	8,9555	8,9529
18890	10,433	0,	9,8059	8,6709
18891	-0,24895	0,	27,807	11,802
18892	-0,99816	0,	27,049	11,477
18893	-1,5369	0,	26,198	11,114
18894	-2,0139	0,	25,405	10,779
18895	-2,8913	0,	23,801	10,121
18896	-3,7196	0,	22,192	9,4987
18897	-4,1473	0,	21,389	9,2087
18898	-4,5901	0,	20,575	8,9335
18899	-5,4652	0,	18,948	8,4543
18900	-6,355	0,	17,301	8,0927
18901	-6,7998	0,	16,478	7,9686
18902	-7,2625	0,	15,661	7,8908
18903	-8,1815	0,	14,017	7,8728
18904	-8,6124	0,	13,206	7,9307
18905	-9,0479	0,	12,405	8,0364
18906	-9,9235	0,	10,814	8,3809
18907	-10,389	0,	10,017	8,6239
18908	-10,983	0,	9,1635	8,9579
18909	0,90507	0,	-27,033	12,768
18910	1,5863	0,	-26,019	12,148
18911	2,1714	0,	-25,124	11,624
18912	2,5434	0,	-24,3	11,175
18913	2,982	0,	-23,502	10,754
18914	3,4166	0,	-22,708	10,356
18915	3,8655	0,	-21,916	9,9825
18916	4,3009	0,	-21,114	9,6292
18917	4,7411	0,	-20,304	9,3007
18918	5,1751	0,	-19,5	9,005
18919	5,6137	0,	-18,684	8,7389
18920	6,4956	0,	-17,063	8,327
18921	6,9398	0,	-16,248	8,1843
18922	7,3792	0,	-15,434	8,0882
18923	7,8289	0,	-14,619	8,0426
18924	8,298	0,	-13,804	8,0515
18925	9,2551	0,	-12,193	8,2283
18926	-9,7122	0,	-11,184	8,3996
18927	-9,253	0,	-12,066	8,231
18928	-8,8015	0,	-12,929	8,1189
18929	-7,9188	0,	-14,62	8,0595
18930	-7,0686	0,	-16,272	8,2071
18931	-6,6302	0,	-17,087	8,348
18932	-6,1849	0,	-17,901	8,5319
18933	-5,3235	0,	-19,525	9,0194
18934	-4,4567	0,	-21,155	9,6452
18935	-4,0345	0,	-21,973	10,003
18936	-3,5999	0,	-22,779	10,382
18937	-2,7657	0,	-24,352	11,186
18938	-2,4037	0,	-25,172	11,633
18939	-2,0151	0,	-25,997	12,103
18940	-1,2461	0,	-27,582	13,071
18941	-8,7989	0,	-5,3187	9,0701
18942	-8,6779	0,	4,2647	9,2078
18943	7,0844	0,	2,0586	9,076
18944	-11,525	0,	-9,8058	9,1136
18945	-7,6348	0,	-3,0632	9,1047
18946	7,1761	0,	0,36488	9,1974
18947	-7,5932	0,	-1,3502	9,267
18948	7,5082	0,	-1,314	9,2452
18949	-7,8695	0,	0,36862	9,383
18950	8,0334	0,	-2,8871	9,2382
18951	-8,3699	0,	2,0181	9,4318
18952	9,4588	0,	4,2013	9,4737
18953	9,953	0,	5,5532	9,3755
18954	11,62	0,	-10,18	9,0805
18955	11,154	0,	-8,9601	9,1412
18956	10,6	0,	-7,7887	9,1797
18957	10,596	0,	6,8198	9,3254
18958	-9,8113	0,	-5,7971	9,311
18959	9,9736	0,	-6,649	9,1931
18960	9,2981	0,	-5,4982	9,1946
18961	8,635	0,	-4,2624	9,2103
18962	1,766	0,	29,611	12,524
18963	0,7253	0,	29,623	12,56
18964	12,126	0,	8,5224	9,4845
18965	-12,187	0,	9,1654	9,3573
18966	-11,451	0,	8,2368	9,3084
18967	1,2986	0,	-29,293	14,135
18968	-1,6499	0,	-29,131	13,986
18969	-0,60962	0,	-29,268	14,175
18970	-9,953	0,	6,7403	9,1195
18971	-11,472	0,	-7,5131	9,5529
18972	-12,014	0,	-8,8334	9,4642
18973	-9,0025	0,	3,47	9,4441
18974	-9,3348	0,	5,5556	9,1663
18975	8,5993	0,	3,5723	9,3003
18976	2,1833	0,	27,704	11,714
18977	1,7738	0,	28,421	12,027
18978	2,9985	0,	26,122	11,037
18979	2,5688	0,	26,932	11,381
18980	3,8508	0,	24,47	10,361
18981	3,4273	0,	25,295	10,694
18982	4,6985	0,	22,817	9,7298
18983	4,2718	0,	23,646	10,04
18984	5,5449	0,	21,167	9,1642
18985	5,1148	0,	21,996	9,4387
18986	6,4062	0,	19,507	8,6842
18987	5,973	0,	20,342	8,9126
18988	7,2944	0,	17,836	8,3228
18989	6,8503	0,	18,672	8,4866
18990	8,1778	0,	16,172	8,1134
18991	7,735	0,	17,005	8,1975
18992	8,6121	0,	15,336	8,0719
18993	9,5042	0,	13,662	8,1354
18994	10,407	0,	11,986	8,3996
18995	11,306	0,	10,28	8,8606
18996	-1,2146	0,	28,628	12,132
18997	-1,7474	0,	27,72	11,737
18998	-2,2996	0,	26,847	11,357
18999	-2,7698	0,	26,058	11,021
19000	-3,6705	0,	24,431	10,351
19001	-4,5211	0,	22,803	9,7258
19002	-4,9537	0,	21,989	9,4352
19003	-5,3941	0,	21,17	9,1614
19004	-5,8453	0,	20,343	8,9076
19005	-6,2867	0,	19,52	8,6805
19006	-6,7414	0,	18,688	8,4815
19007	-7,1849	0,	17,86	8,3168
19008	-7,6418	0,	17,029	8,1904
19009	-8,1064	0,	16,198	8,1066
19010	-8,5724	0,	15,37	8,0688
19011	-9,0326	0,	14,545	8,0773
19012	-9,9043	0,	12,909	8,2282
19013	-10,342	0,	12,108	8,3737
19014	-10,778	0,	11,311	8,5633
19015	-11,225	0,	10,536	8,7949
19016	-11,682	0,	9,9125	9,0419
19017	1,6223	0,	-28,317	13,481
19018	1,9434	0,	-27,451	12,931
19019	2,3732	0,	-26,615	12,409
19020	3,7926	0,	-24,132	11,001
19021	4,2321	0,	-23,326	10,596
19022	4,6742	0,	-22,517	10,214
19023	5,5556	0,	-20,893	9,5331
19024	5,9908	0,	-20,078	9,2363
19025	6,4277	0,	-19,261	8,9726
19026	6,8766	0,	-18,445	8,7462
19027	7,3248	0,	-17,623	8,558
19028	8,2274	0,	-15,973	8,3131
19029	9,143	0,	-14,325	8,2634
19030	10,125	0,	-12,674	8,4331
19031	11,126	0,	-11,007	8,8171
19032	-11,022	0,	-10,763	8,8171
19033	-10,552	0,	-11,679	8,5919
19034	-10,094	0,	-12,573	8,4278
19035	-9,6444	0,	-13,444	8,323
19036	-9,1948	0,	-14,303	8,2721
19037	-8,7546	0,	-15,148	8,2752
19038	-7,8945	0,	-16,819	8,4313
19039	-7,4456	0,	-17,639	8,5734
19040	-7,0038	0,	-18,452	8,757
19041	-6,5618	0,	-19,273	8,9821
19042	-6,1305	0,	-20,09	9,2427
19043	-5,6979	0,	-20,915	9,5399
19044	-5,2667	0,	-21,736	9,8668
19045	-4,4073	0,	-23,369	10,602
19046	-3,9845	0,	-24,171	11,002
19047	-3,5711	0,	-24,981	11,429
19048	-2,7762	0,	-26,617	12,361
19049	-2,3948	0,	-27,449	12,871
19050	-2,016	0,	-28,279	13,408
19051	-9,2953	0,	-4,4217	9,3976
19052	7,7434	0,	1,2149	9,3145
19053	-8,2259	0,	-2,1938	9,3764
19054	-12,337	0,	-10,323	9,2813
19055	7,9432	0,	-0,44041	9,402
19056	-8,3084	0,	-0,51168	9,5094
19057	8,3852	0,	-2,0398	9,438
19058	-8,7091	0,	1,1473	9,6058
19059	-9,3025	0,	2,6318	9,6626
19060	-1,3015	0,	29,65	12,557
19061	9,9519	0,	3,3925	9,784
19062	10,389	0,	4,7411	9,6999
19063	12,526	0,	-10,577	9,2935
19064	12,084	0,	-9,3386	9,3839
19065	11,563	0,	-8,147	9,4475
19066	10,958	0,	6,0113	9,6414
19067	10,306	0,	-5,8881	9,4686
19068	9,6263	0,	-4,7293	9,4544
19069	-10,833	0,	-6,2346	9,5926
19070	2,4181	0,	30,23	12,755
19071	1,3158	0,	30,276	12,827
19072	13,02	0,	8,915	9,7082
19073	-13,056	0,	9,5318	9,57
19074	-12,475	0,	8,4543	9,625
19075	1,8195	0,	-29,747	14,357
19076	-2,3417	0,	-29,79	14,287
19077	-1,2471	0,	-29,971	14,598
19078	-10,917	0,	7,1034	9,3747
19079	0,28569	0,	-29,468	14,322
19080	10,968	0,	-7,014	9,4738
19081	11,578	0,	7,256	9,5838
19082	-0,3714	0,	29,391	12,467
19083	-12,512	0,	-7,8207	9,8761
19084	-10,313	0,	5,9528	9,4159
19085	8,9712	0,	-3,4588	9,4475
19086	-9,6603	0,	4,7603	9,435
19087	-9,9657	0,	3,953	9,6948
19088	8,3983	0,	2,014	9,4404
19089	9,1379	0,	2,7493	9,5928
19090	2,955	0,	28,356	11,938
19091	2,5411	0,	29,177	12,303
19092	3,7815	0,	26,719	11,231
19093	3,3689	0,	27,537	11,58
19094	4,6375	0,	25,067	10,554
19095	4,2105	0,	25,896	10,888
19096	5,0613	0,	24,241	10,234
19097	5,9211	0,	22,574	9,6351
19098	6,7972	0,	20,9	9,1121
19099	8,1286	0,	18,383	8,5292
19100	7,6774	0,	19,222	8,6914
19101	9,0197	0,	16,706	8,3169
19102	9,9063	0,	15,018	8,2747
19103	9,4688	0,	15,854	8,2729
19104	10,81	0,	13,331	8,4281
19105	10,352	0,	14,169	8,3251
19106	11,736	0,	11,615	8,7918
19107	11,27	0,	12,482	8,5823
19108	12,611	0,	9,8243	9,3585
19109	12,188	0,	10,727	9,0524
19110	-2,6146	0,	28,347	11,956
19111	-3,5429	0,	26,688	11,234
19112	-4,4543	0,	25,043	10,554
19113	-4,8927	0,	24,222	10,234
19114	-5,3326	0,	23,397	9,9265
19115	-5,7694	0,	22,574	9,6366
19116	-6,6648	0,	20,914	9,1128
19117	-7,1199	0,	20,077	8,8863
19118	-8,0298	0,	18,406	8,5254
19119	-8,492	0,	17,565	8,3978
19120	-9,4176	0,	15,895	8,2693
19121	-9,8871	0,	15,058	8,2739
19122	-10,332	0,	14,232	8,3223
19123	-10,766	0,	13,412	8,4161
19124	-11,656	0,	11,81	8,7467
19125	-12,592	0,	10,287	9,2557
19126	2,8172	0,	-28,031	13,136
19127	3,2369	0,	-27,201	12,606
19128	3,6914	0,	-26,376	12,104
19129	4,1566	0,	-25,554	11,632
19130	4,603	0,	-24,744	11,197
19131	5,4864	0,	-23,112	10,407
19132	5,9285	0,	-22,298	10,056
19133	6,3703	0,	-21,47	9,7287
19134	6,8166	0,	-20,641	9,4332
19135	7,2616	0,	-19,821	9,1741
19136	8,1677	0,	-18,166	8,7632
19137	8,6142	0,	-17,338	8,6183
19138	9,0694	0,	-16,507	8,518
19139	9,5363	0,	-15,672	8,4659
19140	10,002	0,	-14,837	8,4636
19141	10,485	0,	-14,001	8,5154
19142	10,98	0,	-13,16	8,6232
19143	11,496	0,	-12,307	8,7907
19144	12,013	0,	-11,448	9,0141
19145	-11,385	0,	-12,205	8,7706
19146	-10,486	0,	-13,961	8,5149
19147	-10,039	0,	-14,817	8,4687
19148	-9,5972	0,	-15,665	8,4744
19149	-8,7322	0,	-17,348	8,632
19150	-7,8317	0,	-18,994	8,9544
19151	-7,3811	0,	-19,817	9,1748
19152	-6,9472	0,	-20,646	9,4334
19153	-6,5088	0,	-21,473	9,7248
19154	-6,0747	0,	-22,307	10,05
19155	-5,6435	0,	-23,13	10,401
19156	-5,2128	0,	-23,955	10,781
19157	-4,7858	0,	-24,777	11,188
19158	-4,3658	0,	-25,59	11,617
19159	-3,9569	0,	-26,411	12,077
19160	-3,5451	0,	-27,241	12,571
19161	-3,145	0,	-28,084	13,101
19162	-2,7498	0,	-28,935	13,672
19163	-8,9324	0,	-2,9391	9,5105
19164	-9,7683	0,	-3,5867	9,7047
19165	-12,966	0,	-9,165	9,7255
19166	8,4398	0,	0,40389	9,5499
19167	-8,8551	0,	-1,3608	9,6445
19168	8,7644	0,	-1,1877	9,6239
19169	-9,0843	0,	0,28058	9,7619
19170	9,312	0,	-2,6672	9,6717
19171	-9,6102	0,	1,7996	9,8625
19172	-1,8675	0,	30,068	12,715
19173	10,839	0,	3,9431	10,032
19174	-10,262	0,	3,1446	9,9391
19175	10,442	0,	2,6315	10,084
19176	13,42	0,	-10,987	9,4784
19177	13,016	0,	-9,7122	9,6176
19178	12,518	0,	-8,4969	9,7181
19179	11,363	0,	5,2065	9,9832
19180	-10,668	0,	-4,131	9,9548
19181	10,635	0,	-5,123	9,7496
19182	9,9517	0,	-3,9519	9,7112
19183	-11,234	0,	-5,3959	9,9296
19184	3,1044	0,	30,704	12,905
19185	1,9459	0,	30,869	13,055
19186	13,886	0,	9,2445	9,9263
19187	-13,946	0,	9,9037	9,7716
19188	-13,489	0,	8,7337	9,9234
19189	2,3623	0,	-30,391	14,673
19190	3,3257	0,	-30,553	14,487
19191	-3,045	0,	-30,435	14,511
19192	-1,8985	0,	-30,642	14,956
19193	-11,913	0,	7,4116	9,6709
19194	-0,22769	0,	-30,15	14,8
19195	0,81445	0,	-30,145	14,764
19196	11,949	0,	-7,3421	9,7717
19197	11,316	0,	-6,2451	9,7751
19198	0,2164	0,	30,214	12,818
19199	-0,80612	0,	30,179	12,796
19200	-11,852	0,	-6,6243	9,902
19201	11,953	0,	6,4311	9,9306
19202	-11,3	0,	6,3006	9,704
19203	-10,658	0,	5,1767	9,7113
19204	-13,421	0,	-8,1349	10,147
19205	-14,049	0,	-9,0931	10,12
19206	9,6793	0,	1,9561	9,8742
19207	3,7381	0,	28,975	12,126
19208	3,3791	0,	29,819	12,506
19209	4,5758	0,	27,316	11,398
19210	4,1545	0,	28,149	11,758
19211	4,9986	0,	26,49	11,052
19212	6,2976	0,	23,977	10,088
19213	5,8616	0,	24,819	10,395
19214	7,1794	0,	22,295	9,5302
19215	6,735	0,	23,142	9,8008
19216	8,0662	0,	20,609	9,0633
19217	7,6232	0,	21,454	9,2844
19218	8,5097	0,	19,766	8,8709
19219	9,8745	0,	17,223	8,4993
19220	9,4221	0,	18,074	8,5861
19221	10,319	0,	16,373	8,4541
19222	11,211	0,	14,672	8,5009
19223	12,137	0,	12,968	8,752
19224	13,501	0,	10,238	9,5513
19225	13,065	0,	11,189	9,2259
19226	-2,9892	0,	29,801	12,532
19227	-3,423	0,	28,963	12,15
19228	-3,8787	0,	28,132	11,778
19229	-4,3325	0,	27,308	11,417
19230	-4,797	0,	26,476	11,064
19231	-5,2445	0,	25,648	10,728
19232	-5,6982	0,	24,813	10,404
19233	-6,1341	0,	23,984	10,098
19234	-6,5919	0,	23,143	9,8059
19235	-7,0435	0,	22,307	9,5361
19236	-7,497	0,	21,47	9,2886
19237	-7,9512	0,	20,629	9,0655
19238	-8,8857	0,	18,946	8,7106
19239	-9,3449	0,	18,095	8,5827
19240	-9,8062	0,	17,251	8,4955
19241	-10,752	0,	15,571	8,4546
19242	-11,196	0,	14,736	8,499
19243	-11,641	0,	13,904	8,5913
19244	-12,083	0,	13,09	8,73
19245	-12,536	0,	12,286	8,9179
19246	-13,003	0,	11,495	9,1541
19247	-13,469	0,	10,692	9,4395
19248	3,1433	0,	-29,576	13,958
19249	3,6335	0,	-28,637	13,295
19250	4,0849	0,	-27,79	12,739
19251	4,9667	0,	-26,149	11,768
19252	5,4157	0,	-25,333	11,332
19253	5,866	0,	-24,511	10,923
19254	6,3118	0,	-23,686	10,545
19255	6,757	0,	-22,864	10,198
19256	7,2053	0,	-22,03	9,877
19257	7,6562	0,	-21,196	9,5881
19258	8,1034	0,	-20,367	9,3346
19259	8,5593	0,	-19,537	9,1159
19260	9,0118	0,	-18,699	8,9335
19261	9,4602	0,	-17,863	8,7914
19262	9,9219	0,	-17,03	8,6939
19263	10,86	0,	-15,346	8,638
19264	11,843	0,	-13,644	8,7925
19265	12,883	0,	-11,891	9,1848
19266	-13,112	0,	-10,96	9,3999
19267	-12,673	0,	-11,848	9,1384
19268	-12,231	0,	-12,729	8,9335
19269	-11,34	0,	-14,465	8,6862
19270	-10,444	0,	-16,173	8,6468
19271	-10,018	0,	-17,022	8,702
19272	-9,5763	0,	-17,869	8,8005
19273	-9,1211	0,	-18,703	8,9386
19274	-8,6631	0,	-19,524	9,114
19275	-8,2221	0,	-20,359	9,3302
19276	-7,7753	0,	-21,193	9,5818
19277	-7,3368	0,	-22,028	9,8667
19278	-6,8971	0,	-22,864	10,184
19279	-6,4586	0,	-23,691	10,528
19280	-6,0198	0,	-24,526	10,906
19281	-4,7409	0,	-27,009	12,206
19282	-4,3196	0,	-27,85	12,711
19283	-3,8929	0,	-28,703	13,26
19284	-3,4764	0,	-29,571	13,859
19285	-9,4787	0,	-2,125	9,7926
19286	9,1889	0,	-0,36289	9,7961
19287	-9,54	0,	-0,57198	9,9161
19288	9,648	0,	-1,8545	9,8787
19289	-2,5382	0,	30,655	12,928
19290	11,298	0,	3,1756	10,358
19291	-10,558	0,	2,3608	10,164
19292	14,285	0,	-11,434	9,6155
19293	13,938	0,	-10,085	9,8275
19294	13,465	0,	-8,848	9,9769
19295	11,776	0,	4,4052	10,332
19296	-11,098	0,	-3,3535	10,265
19297	10,955	0,	-4,3509	10,03
19298	10,267	0,	-3,1628	9,957
19299	-11,638	0,	-4,5859	10,269
19300	3,7794	0,	31,324	13,103
19301	2,5945	0,	31,505	13,291
19302	14,742	0,	9,5254	10,136
19303	15,298	0,	10,415	10,034
19304	-14,83	0,	10,316	9,933
19305	-14,398	0,	9,1055	10,145
19306	2,8361	0,	-31,072	14,991
19307	3,9651	0,	-30,871	14,431
19308	-3,7681	0,	-31,05	14,622
19309	-2,572	0,	-31,296	15,233
19310	-12,913	0,	7,6596	9,9941
19311	-0,79449	0,	-30,793	15,239
19312	1,3672	0,	-30,712	15,104
19313	12,923	0,	-7,6642	10,075
19314	11,65	0,	-5,48	10,082
19315	13,419	0,	8,0185	10,095
19316	0,80665	0,	30,941	13,123
19317	-1,4093	0,	30,885	13,084
19318	12,344	0,	5,6168	10,297
19319	-12,289	0,	6,5982	10,023
19320	-11,657	0,	5,5098	10,032
19321	-12,862	0,	-6,9554	10,234
19322	12,325	0,	-6,5518	10,111
19323	12,914	0,	6,8129	10,226
19324	-0,29174	0,	30,891	13,107
19325	-14,133	0,	-9,8091	9,9589
19326	-15,145	0,	-9,3944	10,404
19327	-14,895	0,	-10,158	10,097
19328	10,904	0,	1,8389	10,369
19329	-10,974	0,	4,387	9,9992
19330	9,6764	0,	0,42351	9,9683
19331	10,198	0,	1,1679	10,133
19332	4,5369	0,	29,584	12,281
19333	4,1248	0,	30,428	12,679
19334	4,9525	0,	28,743	11,898
19335	6,2294	0,	26,231	10,842
19336	5,8052	0,	27,068	11,177
19337	7,0967	0,	24,544	10,216
19338	6,6612	0,	25,391	10,521
19339	7,9958	0,	22,846	9,6631
19340	7,5485	0,	23,7	9,93
19341	8,9052	0,	21,146	9,2038
19342	8,4494	0,	21,998	9,4212
19343	9,8043	0,	19,444	8,8584
19344	9,3551	0,	20,295	9,0155
19345	10,72	0,	17,739	8,6509
19346	11,627	0,	16,03	8,6057
19347	11,178	0,	16,88	8,6065
19348	12,542	0,	14,32	8,7475
19349	12,082	0,	15,174	8,6517
19350	12,998	0,	13,469	8,8933
19351	13,926	0,	11,679	9,362
19352	-3,7523	0,	30,415	12,718
19353	-4,2229	0,	29,573	12,316
19354	-4,6808	0,	28,741	11,932
19355	-5,1399	0,	27,902	11,558
19356	-6,0589	0,	26,226	10,858
19357	-6,9702	0,	24,544	10,226
19358	-7,4226	0,	23,702	9,9389
19359	-7,8877	0,	22,855	9,6707
19360	-8,8007	0,	21,168	9,2098
19361	-9,2702	0,	20,316	9,0187
19362	-9,7382	0,	19,469	8,8603
19363	-10,665	0,	17,764	8,6493
19364	-11,154	0,	16,915	8,6068
19365	-11,621	0,	16,071	8,6068
19366	-12,514	0,	14,399	8,7392
19367	-13,417	0,	12,754	9,0635
19368	-14,353	0,	11,132	9,5898
19369	4,1257	0,	-29,975	13,875
19370	4,4838	0,	-29,2	13,339
19371	5,3426	0,	-27,552	12,299
19372	6,2379	0,	-25,906	11,398
19373	7,1453	0,	-24,248	10,623
19374	8,0465	0,	-22,579	9,9714
19375	8,5012	0,	-21,739	9,6913
19376	8,9518	0,	-20,903	9,4462
19377	9,4039	0,	-20,064	9,2348
19378	9,8678	0,	-19,224	9,0602
19379	10,777	0,	-17,543	8,8299
19380	11,24	0,	-16,701	8,7795
19381	11,719	0,	-15,85	8,7769
19382	12,703	0,	-14,134	8,9278
19383	13,211	0,	-13,26	9,0886
19384	13,74	0,	-12,359	9,3162
19385	-13,971	0,	-11,616	9,5031
19386	-13,088	0,	-13,266	9,065
19387	-12,643	0,	-14,116	8,9191
19388	-12,194	0,	-14,978	8,8238
19389	-11,742	0,	-15,826	8,7787
19390	-11,306	0,	-16,669	8,783
19391	-10,87	0,	-17,53	8,834
19392	-10,422	0,	-18,385	8,9278
19393	-9,9687	0,	-19,218	9,0593
19394	-9,5097	0,	-20,056	9,2305
19395	-8,6166	0,	-21,728	9,6788
19396	-8,1701	0,	-22,571	9,955
19397	-7,7208	0,	-23,411	10,263
19398	-6,8426	0,	-25,086	10,967
19399	-5,9669	0,	-26,755	11,796
19400	-5,1022	0,	-28,44	12,767
19401	-4,2258	0,	-30,174	13,939
19402	-10,715	0,	-2,0392	10,278
19403	10,007	0,	-1,0572	10,07
19404	11,266	0,	1,1777	10,575
19405	-15,749	0,	-10,564	10,21
19406	-10,298	0,	0,14863	10,212
19407	-3,2721	0,	31,248	13,126
19408	11,733	0,	2,3305	10,681
19409	-10,841	0,	1,5603	10,365
19410	15,103	0,	-11,939	9,6849
19411	14,859	0,	-10,458	10,004
19412	14,434	0,	-9,1478	10,238
19413	12,183	0,	3,5969	10,677
19414	-11,515	0,	-2,6215	10,555
19415	-11,261	0,	3,5846	10,27
19416	11,263	0,	-3,5704	10,298
19417	10,587	0,	-2,3729	10,188
19418	-12,041	0,	-3,8103	10,602
19419	4,4536	0,	31,901	13,267
19420	3,2661	0,	32,114	13,511
19421	15,617	0,	9,72	10,351
19422	-15,701	0,	10,742	10,046
19423	-15,291	0,	9,4963	10,325
19424	3,5723	0,	-31,798	15,172
19425	4,6254	0,	-31,459	14,447
19426	-4,511	0,	-31,64	14,606
19427	-3,2727	0,	-31,926	15,395
19428	-13,865	0,	7,9629	10,285
19429	-1,4051	0,	-31,47	15,668
19430	1,9198	0,	-31,346	15,456
19431	13,882	0,	-7,9829	10,369
19432	11,973	0,	-4,6933	10,392
19433	14,314	0,	8,3432	10,344
19434	1,4199	0,	31,595	13,387
19435	-2,06	0,	31,475	13,312
19436	-12,641	0,	-4,9552	10,637
19437	12,736	0,	4,8038	10,672
19438	-13,282	0,	6,8732	10,363
19439	-12,659	0,	5,8039	10,386
19440	-13,888	0,	-7,2454	10,584
19441	-0,26542	0,	-31,571	15,882
19442	0,85907	0,	-31,538	15,808
19443	13,303	0,	-6,8432	10,448
19444	12,667	0,	-5,77	10,451
19445	13,842	0,	7,1546	10,518
19446	0,26453	0,	31,627	13,423
19447	-0,86814	0,	31,598	13,405
19448	-13,257	0,	-6,1057	10,628
19449	13,316	0,	5,9816	10,63
19450	-15,424	0,	-8,6353	10,749
19451	-16,089	0,	-9,7814	10,565
19452	15,828	0,	10,839	10,047
19453	-11,99	0,	4,7292	10,353
19454	10,852	0,	0,45783	10,436
19455	4,8898	0,	31,042	12,823
19456	6,1759	0,	28,484	11,621
19457	5,7445	0,	29,334	12,001
19458	6,6093	0,	27,638	11,262
19459	7,4807	0,	25,944	10,6
19460	8,8374	0,	23,385	9,7522
19461	8,3775	0,	24,244	10,015
19462	9,7425	0,	21,68	9,3042
19463	9,2882	0,	22,532	9,5152
19464	10,661	0,	19,963	8,9666
19465	10,204	0,	20,818	9,1193
19466	11,124	0,	19,105	8,8472
19467	12,493	0,	16,531	8,7201
19468	12,036	0,	17,384	8,7206
19469	12,954	0,	15,67	8,7651
19470	14,331	0,	13,095	9,1974
19471	13,869	0,	13,96	9,0003
19472	15,259	0,	11,494	9,7278
19473	14,777	0,	12,214	9,4507
19474	-5,0175	0,	30,174	12,447
19475	-5,4881	0,	29,326	12,041
19476	-5,9578	0,	28,475	11,653
19477	-6,8871	0,	26,793	10,945
19478	-7,805	0,	25,101	10,314
19479	-8,7317	0,	23,393	9,7624
19480	-9,1943	0,	22,547	9,5244
19481	-9,6645	0,	21,698	9,3114
19482	-10,586	0,	19,979	8,9691
19483	-11,058	0,	19,123	8,8479
19484	-11,527	0,	18,27	8,7642
19485	-12,012	0,	17,419	8,7212
19486	-12,482	0,	16,571	8,7201
19487	-13,387	0,	14,881	8,8502
19488	-13,839	0,	14,043	8,9864
19489	-14,289	0,	13,217	9,1704
19490	-14,752	0,	12,396	9,4066
19491	-15,222	0,	11,57	9,6979
19492	4,9658	0,	-30,6	13,845
19493	5,3352	0,	-29,764	13,286
19494	6,1804	0,	-28,123	12,271
19495	6,6262	0,	-27,296	11,813
19496	7,069	0,	-26,476	11,394
19497	7,5293	0,	-25,636	10,996
19498	7,9809	0,	-24,804	10,637
19499	8,4386	0,	-23,961	10,305
19500	8,8927	0,	-23,115	10,005
19501	9,3436	0,	-22,275	9,7385
19502	9,8053	0,	-21,429	9,5021
19503	10,262	0,	-20,585	9,3009
19504	10,725	0,	-19,74	9,1347
19505	11,188	0,	-18,895	9,0064
19506	11,644	0,	-18,057	8,9188
19507	12,103	0,	-17,203	8,8714
19508	12,579	0,	-16,35	8,8702
19509	13,558	0,	-14,633	9,018
19510	14,573	0,	-12,865	9,3934
19511	-14,858	0,	-12,142	9,5906
19512	-13,958	0,	-13,773	9,1581
19513	-13,064	0,	-15,466	8,919
19514	-12,166	0,	-17,17	8,8724
19515	-11,275	0,	-18,889	9,0047
19516	-10,359	0,	-20,569	9,2913
19517	-9,9059	0,	-21,41	9,4885
19518	-9,4525	0,	-22,257	9,7207
19519	-8,5609	0,	-23,949	10,279
19520	-8,1102	0,	-24,794	10,606
19521	-7,6722	0,	-25,632	10,959
19522	-7,2243	0,	-26,473	11,348
19523	-6,7776	0,	-27,314	11,771
19524	-6,3308	0,	-28,157	12,231
19525	-5,886	0,	-29,009	12,734
19526	-5,4497	0,	-29,875	13,285
19527	-4,9879	0,	-30,751	13,905
19528	-10,705	0,	-0,60799	10,37
19529	-11,217	0,	-1,3198	10,559
19530	-4,0157	0,	31,848	13,307
19531	12,019	0,	1,1719	10,94
19532	-11,136	0,	0,7858	10,544
19533	-16,627	0,	-11,002	10,264
19534	15,662	0,	-10,98	10,06
19535	15,359	0,	-9,5511	10,422
19536	12,558	0,	2,7846	11,007
19537	15,907	0,	-12,5	9,6851
19538	-11,837	0,	-1,9497	10,785
19539	-11,536	0,	2,7906	10,522
19540	11,564	0,	-2,7914	10,554
19541	-12,423	0,	-3,0468	10,919
19542	5,1898	0,	32,497	13,405
19543	16,471	0,	10,05	10,482
19544	16,696	0,	11,208	10,118
19545	-16,571	0,	11,18	10,104
19546	-16,184	0,	9,8964	10,46
19547	4,2703	0,	-32,37	15,154
19548	5,3858	0,	-32,059	14,31
19549	-5,2844	0,	-32,195	14,435
19550	-4,0058	0,	-32,528	15,404
19551	-14,816	0,	8,294	10,553
19552	-12,282	0,	3,9377	10,657
19553	-2,054	0,	-32,134	16,022
19554	2,539	0,	-32,022	15,764
19555	14,836	0,	-8,3092	10,64
19556	12,275	0,	-3,9147	10,69
19557	15,212	0,	8,6234	10,589
19558	2,0581	0,	32,25	13,654
19559	-2,7543	0,	32,066	13,532
19560	-13,026	0,	-4,1507	11,002
19561	13,112	0,	3,9901	11,047
19562	-14,264	0,	7,1586	10,696
19563	-13,002	0,	5,0148	10,745
19564	-14,826	0,	-7,5372	10,887
19565	-0,86866	0,	-32,246	16,392
19566	1,4435	0,	-32,183	16,228
19567	14,272	0,	-7,1386	10,78
19568	12,989	0,	-4,979	10,792
19569	14,752	0,	7,4708	10,801
19570	0,86598	0,	32,319	13,714
19571	-1,5161	0,	32,245	13,671
19572	-13,647	0,	-5,2725	11,033
19573	13,703	0,	5,1556	11,043
19574	-16,399	0,	-8,9814	10,96
19575	-13,659	0,	6,0758	10,759
19576	0,31345	0,	-32,287	16,483
19577	13,659	0,	-6,0363	10,83
19578	14,263	0,	6,311	10,965
19579	-0,3072	0,	32,315	13,718
19580	10,906	0,	-1,6007	10,398
19581	11,224	0,	-0,85161	10,585
19582	11,607	0,	-2,1901e-003	10,783
19583	6,0936	0,	30,773	12,477
19584	5,6511	0,	31,641	12,927
19585	6,9765	0,	29,052	11,665
19586	6,5359	0,	29,91	12,057
19587	7,8616	0,	27,345	10,955
19588	7,4198	0,	28,198	11,298
19589	8,7655	0,	25,631	10,329
19590	8,3162	0,	26,485	10,63
19591	9,6763	0,	23,92	9,7945
19592	10,134	0,	23,057	9,5612
19593	11,517	0,	20,474	9,0269
19594	11,056	0,	21,333	9,1751
19595	12,435	0,	18,747	8,8301
19596	11,978	0,	19,607	8,9103
19597	12,899	0,	17,884	8,788
19598	14,281	0,	15,301	8,9208
19599	13,823	0,	16,161	8,8307
19600	15,201	0,	13,587	9,2515
19601	14,743	0,	14,437	9,0614
19602	16,157	0,	11,981	9,7755
19603	15,659	0,	12,766	9,489
19604	-5,3188	0,	31,606	12,983
19605	-5,8295	0,	30,751	12,527
19606	-7,7242	0,	27,342	10,979
19607	-8,1866	0,	26,493	10,654
19608	-8,653	0,	25,634	10,348
19609	-9,5844	0,	23,924	9,8064
19610	-10,521	0,	22,214	9,3635
19611	-11,457	0,	20,492	9,0316
19612	-12,393	0,	18,771	8,8317
19613	-13,353	0,	17,063	8,787
19614	-13,811	0,	16,209	8,8281
19615	-14,259	0,	15,369	8,9133
19616	-14,716	0,	14,522	9,0474
19617	-15,166	0,	13,695	9,2274
19618	-16,092	0,	12,029	9,75
19619	5,7709	0,	-31,194	13,7
19620	6,1666	0,	-30,348	13,146
19621	6,5821	0,	-29,516	12,635
19622	7,0153	0,	-28,688	12,159
19623	7,9158	0,	-27,019	11,303
19624	8,3647	0,	-26,177	10,925
19625	8,8318	0,	-25,334	10,575
19626	9,2828	0,	-24,489	10,261
19627	9,7483	0,	-23,643	9,9737
19628	10,202	0,	-22,797	9,7207
19629	10,665	0,	-21,947	9,4969
19630	11,123	0,	-21,099	9,3071
19631	11,588	0,	-20,249	9,1507
19632	12,517	0,	-18,549	8,9491
19633	13,446	0,	-16,843	8,9095
19634	14,418	0,	-15,13	9,055
19635	14,906	0,	-14,265	9,2051
19636	15,403	0,	-13,38	9,4152
19637	-16,201	0,	-11,805	9,9255
19638	-15,748	0,	-12,608	9,6351
19639	-15,291	0,	-13,426	9,3931
19640	-14,836	0,	-14,26	9,1997
19641	-13,927	0,	-15,958	8,9594
19642	-13,48	0,	-16,807	8,911
19643	-13,023	0,	-17,651	8,9067
19644	-12,126	0,	-19,384	9,0249
19645	-11,668	0,	-20,233	9,142
19646	-11,214	0,	-21,07	9,2926
19647	-10,754	0,	-21,929	9,481
19648	-10,298	0,	-22,773	9,6994
19649	-9,3991	0,	-24,48	10,231
19650	-8,9528	0,	-25,322	10,54
19651	-8,5081	0,	-26,167	10,879
19652	-8,0527	0,	-27,012	11,254
19653	-7,6066	0,	-27,858	11,66
19654	-6,7038	0,	-29,558	12,593
19655	-6,2436	0,	-30,423	13,135
19656	-5,7745	0,	-31,306	13,744
19657	-4,7886	0,	32,44	13,458
19658	-11,438	0,	4,75e-002	10,702
19659	-17,004	0,	-10,192	10,65
19660	16,334	0,	-9,9994	10,553
19661	-11,745	0,	-0,63309	10,833
19662	12,885	0,	1,9639	11,294
19663	16,422	0,	-11,629	10,019
19664	-12,229	0,	-1,2808	11,034
19665	-11,809	0,	2,0073	10,751
19666	11,852	0,	-2,0158	10,785
19667	12,673	0,	0,50446	11,303
19668	-12,787	0,	-2,2901	11,213
19669	4,6893	0,	33,341	13,913
19670	17,259	0,	10,438	10,523
19671	-17,059	0,	10,316	10,529
19672	4,9891	0,	-32,945	14,999
19673	-4,7631	0,	-33,1	15,239
19674	-15,733	0,	8,6565	10,768
19675	-12,553	0,	3,146	10,94
19676	-2,7448	0,	-32,767	16,243
19677	3,1623	0,	-32,627	15,933
19678	17,459	0,	-9,8473	10,899
19679	15,804	0,	-8,5792	10,906
19680	13,684	0,	0,68489	11,841
19681	16,097	0,	8,9247	10,794
19682	2,7295	0,	32,893	13,912
19683	-3,4711	0,	32,661	13,746
19684	-13,395	0,	-3,358	11,355
19685	13,462	0,	3,1826	11,398
19686	-15,22	0,	7,4669	11,001
19687	-13,305	0,	4,2188	11,088
19688	-15,787	0,	-7,8352	11,176
19689	-1,5031	0,	-32,918	16,843
19690	2,0578	0,	-32,834	16,586
19691	15,225	0,	-7,4365	11,089
19692	13,292	0,	-4,1838	11,128
19693	15,653	0,	7,7756	11,067
19694	1,4953	0,	32,983	13,995
19695	-2,1839	0,	32,863	13,924
19696	-14,022	0,	-4,4471	11,437
19697	14,069	0,	4,3329	11,452
19698	-17,35	0,	-9,3669	11,087
19699	-14,643	0,	6,342	11,131
19700	-14,008	0,	5,2701	11,159
19701	-15,217	0,	-6,6997	11,342
19702	-0,28298	0,	-32,992	17,124
19703	0,90717	0,	-32,961	17,019
19704	14,64	0,	-6,3049	11,206
19705	13,996	0,	-5,2345	11,215
19706	15,186	0,	6,62	11,289
19707	0,28254	0,	33,024	14,021
19708	-0,93211	0,	32,989	14,004
19709	-14,641	0,	-5,5673	11,438
19710	14,663	0,	5,473	11,424
19711	16,975	0,	-10,905	10,368
19712	-12,635	0,	-0,74496	11,27
19713	-12,452	0,	-0,19916	11,19
19714	-17,523	0,	-11,429	10,256
19715	-12,069	0,	1,2567	10,948
19716	-12,299	0,	0,56699	11,101
19717	12,333	0,	-0,43448	11,13
19718	-13,369	0,	-0,75814	11,667
19719	-13,118	0,	-1,551	11,472
19720	13,253	0,	1,2576	11,564
19721	5,9481	0,	33,087	13,496
19722	5,4517	0,	33,942	14,059
19723	6,8806	0,	31,342	12,497
19724	6,4231	0,	32,216	12,974
19725	7,7846	0,	29,609	11,655
19726	7,3288	0,	30,477	12,061
19727	8,6902	0,	27,885	10,933
19728	9,6044	0,	26,163	10,31
19729	9,1452	0,	27,021	10,609
19730	10,531	0,	24,434	9,78
19731	10,071	0,	25,301	10,033
19732	11,445	0,	22,705	9,3519
19733	10,987	0,	23,568	9,5529
19734	12,387	0,	20,979	9,0321
19735	11,911	0,	21,839	9,1772
19736	12,842	0,	20,109	8,9195
19737	14,239	0,	17,509	8,7989
19738	13,769	0,	18,376	8,8
19739	14,694	0,	16,645	8,8406
19740	16,08	0,	14,076	9,2475
19741	15,616	0,	14,926	9,0625
19742	16,552	0,	13,244	9,4818
19743	18,096	0,	10,828	10,517
19744	17,563	0,	11,635	10,108
19745	-4,9796	0,	33,85	14,124
19746	-5,6002	0,	33,026	13,562
19747	-6,1432	0,	32,177	13,036
19748	-6,6659	0,	31,313	12,545
19749	-7,634	0,	29,583	11,686
19750	-8,1001	0,	28,737	11,312
19751	-8,5664	0,	27,883	10,961
19752	-9,5001	0,	26,165	10,331
19753	-9,9732	0,	25,305	10,051
19754	-10,445	0,	24,449	9,7969
19755	-11,382	0,	22,723	9,3625
19756	-11,849	0,	21,855	9,1858
19757	-12,322	0,	20,994	9,0392
19758	-12,79	0,	20,128	8,9245
19759	-13,261	0,	19,267	8,8444
19760	-13,754	0,	18,407	8,8008
19761	-14,224	0,	17,551	8,7979
19762	-15,137	0,	15,843	8,9206
19763	-15,598	0,	14,997	9,0508
19764	-16,046	0,	14,158	9,2281
19765	-16,508	0,	13,329	9,4558
19766	-16,97	0,	12,489	9,7412
19767	-17,44	0,	11,636	10,091
19768	-17,911	0,	10,766	10,515
19769	5,7357	0,	-33,509	14,687
19770	6,1464	0,	-32,636	14,035
19771	6,5759	0,	-31,767	13,434
19772	6,9922	0,	-30,919	12,901
19773	7,8592	0,	-29,236	11,951
19774	8,3079	0,	-28,398	11,528
19775	8,7612	0,	-27,554	11,136
19776	9,2172	0,	-26,709	10,776
19777	9,683	0,	-25,859	10,444
19778	10,603	0,	-24,167	9,8767
19779	11,066	0,	-23,312	9,6357
19780	11,529	0,	-22,458	9,4259
19781	11,988	0,	-21,606	9,2487
19782	12,448	0,	-20,758	9,1041
19783	12,921	0,	-19,898	8,9915
19784	13,386	0,	-19,045	8,9171
19785	14,31	0,	-17,339	8,8861
19786	14,786	0,	-16,492	8,9333
19787	15,277	0,	-15,64	9,0272
19788	15,761	0,	-14,774	9,1728
19789	16,24	0,	-13,913	9,371
19790	16,723	0,	-13,06	9,6229
19791	17,212	0,	-12,254	9,9182
19792	18,135	0,	-10,762	10,621
19793	-17,092	0,	-12,247	9,9083
19794	-16,633	0,	-13,07	9,6132
19795	-15,717	0,	-14,735	9,1789
19796	-15,264	0,	-15,586	9,0345
19797	-14,814	0,	-16,434	8,9384
19798	-14,352	0,	-17,296	8,8868
19799	-13,892	0,	-18,142	8,8794
19800	-12,979	0,	-19,861	8,9832
19801	-12,525	0,	-20,721	9,0906
19802	-12,072	0,	-21,579	9,232
19803	-11,612	0,	-22,435	9,4069
19804	-11,156	0,	-23,282	9,6116
19805	-10,706	0,	-24,136	9,8453
19806	-10,251	0,	-24,99	10,11
19807	-9,3481	0,	-26,699	10,728
19808	-8,895	0,	-27,546	11,082
19809	-8,4322	0,	-28,396	11,473
19810	-7,9777	0,	-29,247	11,897
19811	-7,5268	0,	-30,106	12,36
19812	-7,0668	0,	-30,97	12,873
19813	-6,5907	0,	-31,844	13,449
19814	-5,5755	0,	-33,616	14,86
19815	-16,632	0,	9,0415	10,928
19816	-12,81	0,	2,3594	11,197
19817	-13,374	0,	6,4932e-002	11,685
19818	-3,4534	0,	-33,408	16,327
19819	3,8497	0,	-33,245	15,957
19820	16,705	0,	-8,9232	11,082
19821	12,834	0,	-2,3222	11,233
19822	13,415	0,	1,4281e-002	11,708
19823	16,947	0,	9,2478	10,938
19824	3,4234	0,	33,521	14,169
19825	-4,2162	0,	33,251	13,945
19826	-13,729	0,	-2,5514	11,68
19827	13,792	0,	2,419	11,717
19828	-5,9812	0,	-34,955	14,986
19829	-19,234	0,	10,347	10,925
19830	-16,152	0,	7,8023	11,26
19831	-13,576	0,	3,4187	11,409
19832	-16,742	0,	-8,1727	11,412
19833	-2,1691	0,	-33,575	17,177
19834	2,7079	0,	-33,476	16,821
19835	16,169	0,	-7,7356	11,368
19836	13,574	0,	-3,3805	11,445
19837	16,542	0,	8,0886	11,293
19838	2,1574	0,	33,644	14,286
19839	-2,8774	0,	33,466	14,179
19840	-14,377	0,	-3,62	11,83
19841	14,413	0,	3,5147	11,844
19842	-17,929	0,	-10,603	10,663
19843	-18,288	0,	-9,7592	11,134
19844	5,6911	0,	35,378	14,83
19845	-15,607	0,	6,6268	11,482
19846	-14,318	0,	4,461	11,547
19847	-16,168	0,	-7,0081	11,658
19848	-0,90386	0,	-33,682	17,712
19849	1,5333	0,	-33,624	17,478
19850	15,6	0,	-6,5851	11,56
19851	14,304	0,	-4,4256	11,59
19852	16,096	0,	6,9274	11,59
19853	0,90689	0,	33,716	14,316
19854	-1,5826	0,	33,635	14,285
19855	-15,009	0,	-4,7235	11,883
19856	15,033	0,	4,6349	11,88
19857	-14,998	0,	5,5184	11,578
19858	-15,609	0,	-5,8579	11,826
19859	0,33496	0,	-33,703	17,814
19860	14,985	0,	-5,4844	11,635
19861	15,603	0,	5,7731	11,797
19862	-0,32583	0,	33,718	14,313
19863	6,0781	0,	-34,917	14,871
19864	19,451	0,	10,396	10,923
19865	-17,521	0,	9,4426	11,022
19866	-13,266	0,	0,8082	11,599
19867	-5,04	0,	-34,533	15,742
19868	-4,2043	0,	-34,012	16,192
19869	5,3023	0,	-34,392	15,437
19870	18,735	0,	-9,3488	11,449
19871	17,687	0,	-9,1354	11,286
19872	13,201	0,	-0,77133	11,573
19873	18,62	0,	10,001	11,007
19874	4,9121	0,	34,77	14,66
19875	4,1523	0,	34,15	14,426
19876	-14,261	0,	-0,81756	12,182
19877	-14,026	0,	-1,7063	11,966
19878	14,075	0,	1,6516	11,987
19879	6,238	0,	34,528	14,133
19880	7,2207	0,	32,771	12,947
19881	8,1425	0,	31,021	11,997
19882	9,5292	0,	28,418	10,854
19883	9,0628	0,	29,285	11,205
19884	9,9888	0,	27,546	10,53
19885	11,378	0,	24,947	9,7125
19886	10,913	0,	25,813	9,9606
19887	12,31	0,	23,211	9,2909
19888	11,846	0,	24,077	9,4879
19889	13,248	0,	21,476	8,9779
19890	12,777	0,	22,34	9,1199
19891	14,178	0,	19,736	8,7903
19892	13,707	0,	20,602	8,868
19893	15,109	0,	17,995	8,7464
19894	14,637	0,	18,863	8,7496
19895	16,038	0,	16,257	8,8691
19896	15,571	0,	17,127	8,7855
19897	16,493	0,	15,4	8,9985
19898	17,438	0,	13,715	9,4027
19899	18,424	0,	12,058	10,024
19900	-5,8143	0,	34,431	14,228
19901	-6,4391	0,	33,618	13,6
19902	-7,5094	0,	31,86	12,496
19903	-8,4877	0,	30,125	11,612
19904	-8,9476	0,	29,265	11,234
19905	-9,4245	0,	28,405	10,88
19906	-9,8924	0,	27,546	10,555
19907	-10,366	0,	26,688	10,256
19908	-11,306	0,	24,958	9,7292
19909	-11,775	0,	24,088	9,5032
19910	-12,247	0,	23,225	9,3034
19911	-12,714	0,	22,353	9,131
19912	-13,189	0,	21,491	8,9871
19913	-13,657	0,	20,621	8,8749
19914	-14,132	0,	19,758	8,7954
19915	-14,626	0,	18,895	8,7499
19916	-15,097	0,	18,038	8,745
19917	-15,562	0,	17,177	8,7812
19918	-16,015	0,	16,325	8,8606
19919	-16,933	0,	14,632	9,1572
19920	-17,847	0,	12,961	9,6546
19921	-18,767	0,	11,236	10,417
19922	6,5209	0,	-34,051	14,201
19923	6,9505	0,	-33,184	13,602
19924	7,8131	0,	-31,47	12,554
19925	8,251	0,	-30,626	12,092
19926	8,6922	0,	-29,785	11,666
19927	9,6108	0,	-28,089	10,894
19928	10,54	0,	-26,383	10,242
19929	11,009	0,	-25,53	9,9588
19930	11,475	0,	-24,68	9,706
19931	12,401	0,	-22,966	9,2864
19932	13,787	0,	-20,394	8,8851
19933	14,257	0,	-19,536	8,8166
19934	15,185	0,	-17,825	8,7932
19935	15,66	0,	-16,975	8,8405
19936	16,145	0,	-16,134	8,9298
19937	17,097	0,	-14,421	9,2596
19938	17,562	0,	-13,582	9,4988
19939	18,045	0,	-12,774	9,7827
19940	18,958	0,	-11,203	10,505
19941	19,722	0,	-9,6599	11,463
19942	-18,422	0,	-11,853	10,169
19943	-17,982	0,	-12,683	9,8151
19944	-17,519	0,	-13,522	9,5175
19945	-17,058	0,	-14,353	9,2782
19946	-16,598	0,	-15,208	9,0854
19947	-15,679	0,	-16,921	8,8459
19948	-14,759	0,	-18,638	8,7832
19949	-14,308	0,	-19,492	8,8103
19950	-13,846	0,	-20,345	8,8748
19951	-12,934	0,	-22,072	9,1035
19952	-12,474	0,	-22,934	9,2658
19953	-12,021	0,	-23,785	9,4553
19954	-11,562	0,	-24,642	9,6752
19955	-11,103	0,	-25,501	9,9235
19956	-10,646	0,	-26,361	10,2
19957	-9,7402	0,	-28,075	10,834
19958	-9,2695	0,	-28,92	11,203
19959	-8,3595	0,	-30,634	12,03
19960	-7,4354	0,	-32,364	13,025
19961	-6,9301	0,	-33,235	13,63
19962	-6,4392	0,	-34,1	14,288
19963	-5,6079	0,	-35,852	15,671
19964	-19,705	0,	9,4214	11,555
19965	-17,061	0,	8,1663	11,459
19966	-13,827	0,	2,6125	11,702
19967	-14,351	0,	8,1469e-002	12,254
19968	-19,22	0,	-10,149	11,093
19969	-17,681	0,	-8,5334	11,578
19970	-4,6987	0,	-36,463	17,016
19971	-2,8348	0,	-34,246	17,385
19972	5,605	0,	-35,785	15,649
19973	20,046	0,	-8,8934	12,041
19974	17,111	0,	-8,0295	11,611
19975	13,837	0,	-2,5639	11,737
19976	14,37	0,	-9,2762e-002	12,265
19977	17,418	0,	8,4234	11,466
19978	19,955	0,	9,5517	11,513
19979	2,8494	0,	34,292	14,592
19980	-3,5956	0,	34,054	14,434
19981	-5,6226	0,	35,733	15,089
19982	-14,68	0,	-2,7709	12,183
19983	14,734	0,	2,694	12,208
19984	5,0955	0,	36,204	15,598
19985	-6,6401	0,	36,26	14,981
19986	21,056	0,	-9,1868	12,011
19987	-16,545	0,	6,9365	11,792
19988	-14,592	0,	3,6466	11,911
19989	-17,104	0,	-7,33	11,93
19990	-1,5582	0,	-34,354	18,189
19991	2,1874	0,	-34,271	17,801
19992	14,583	0,	-3,6047	11,948
19993	16,993	0,	7,244	11,854
19994	-2,259	0,	34,255	14,575
19995	-15,352	0,	-3,8738	12,317
19996	15,373	0,	3,7911	12,319
19997	-21,019	0,	8,9654	12,141
19998	-15,966	0,	5,7779	11,981
19999	-15,317	0,	4,6894	12,017
20000	-16,552	0,	-6,1533	12,185
20001	-0,27905	0,	-34,413	18,572
20002	0,97178	0,	-34,388	18,423
20003	15,947	0,	-5,741	12,039
20004	15,3	0,	-4,6561	12,061
20005	16,523	0,	6,0708	12,148
20006	21,277	0,	9,1017	12,064
20007	0,30276	0,	34,427	14,603
20008	-0,96484	0,	34,388	14,6
20009	-15,981	0,	-4,999	12,322
20010	-5,3166	0,	-36,786	16,287
20011	5,9194	0,	-37,154	15,517
20012	-5,5271	0,	36,98	16,077
20013	-18,837	0,	8,9671	11,628
20014	-17,953	0,	8,5552	11,586
20015	-14,06	0,	1,8001	11,958
20016	-14,274	0,	0,97983	12,169
20017	-19,59	0,	-9,2888	11,676
20018	-4,5315	0,	-35,472	16,746
20019	-3,589	0,	-34,888	17,314
20020	4,0945	0,	-34,675	16,704
20021	4,8359	0,	-35,245	16,295
20022	19,032	0,	-8,5868	11,973
20023	14,064	0,	-1,7401	11,983
20024	14,242	0,	-0,91102	12,162
20025	19,125	0,	9,1601	11,585
20026	4,3254	0,	35,575	15,279
20027	3,5733	0,	34,934	14,926
20028	-15,146	0,	-0,97757	12,715
20029	-14,934	0,	-1,8936	12,483
20030	15,177	0,	0,93295	12,731
20031	15,013	0,	1,8304	12,525
20032	5,8905	0,	36,821	15,794
20033	7,5587	0,	34,195	13,414
20034	8,5179	0,	32,427	12,316
20035	8,0425	0,	33,308	12,831
20036	9,4387	0,	30,676	11,444
20037	8,9747	0,	31,551	11,86
20038	10,377	0,	28,93	10,712
20039	9,9025	0,	29,807	11,065
20040	11,301	0,	27,188	10,099
20041	10,841	0,	28,056	10,391
20042	11,767	0,	26,32	9,8299
20043	13,179	0,	23,713	9,1676
20044	12,703	0,	24,578	9,3639
20045	14,112	0,	21,969	8,8599
20046	13,64	0,	22,836	9,0005
20047	15,046	0,	20,224	8,6723
20048	14,573	0,	21,092	8,751
20049	15,509	0,	19,349	8,6299
20050	16,445	0,	17,606	8,658
20051	17,844	0,	15,02	9,0267
20052	17,373	0,	15,875	8,8577
20053	18,803	0,	13,334	9,5179
20054	18,317	0,	14,167	9,2477
20055	19,789	0,	11,656	10,255
20056	19,293	0,	12,495	9,8517
20057	20,789	0,	9,9536	11,34
20058	20,292	0,	10,81	10,744
20059	-7,3168	0,	34,175	13,516
20060	-7,875	0,	33,258	12,884
20061	-8,3719	0,	32,389	12,364
20062	-8,8582	0,	31,521	11,897
20063	-9,3425	0,	30,658	11,474
20064	-10,284	0,	28,93	10,742
20065	-11,227	0,	27,197	10,122
20066	-12,171	0,	25,46	9,6024
20067	-12,638	0,	24,586	9,3805
20068	-14,06	0,	21,983	8,8708
20069	-14,531	0,	21,113	8,7589
20070	-15,005	0,	20,246	8,6788
20071	-15,49	0,	19,382	8,6311
20072	-15,975	0,	18,519	8,6207
20073	-16,435	0,	17,658	8,6527
20074	-17,356	0,	15,955	8,8421
20075	-17,818	0,	15,101	9,0074
20076	-18,275	0,	14,272	9,2174
20077	-18,729	0,	13,427	9,4863
20078	-19,177	0,	12,584	9,8158
20079	-19,623	0,	11,732	10,216
20080	-20,063	0,	10,864	10,704
20081	-20,523	0,	9,968	11,308
20082	6,8705	0,	-35,444	14,162
20083	7,3207	0,	-34,575	13,583
20084	7,7594	0,	-33,716	13,057
20085	8,6472	0,	-32,007	12,109
20086	9,5472	0,	-30,313	11,289
20087	10,48	0,	-28,61	10,571
20088	10,942	0,	-27,75	10,256
20089	11,41	0,	-26,898	9,9667
20090	11,869	0,	-26,035	9,7067
20091	12,339	0,	-25,183	9,47
20092	13,268	0,	-23,464	9,0792
20093	13,732	0,	-22,603	8,9257
20094	14,199	0,	-21,743	8,8002
20095	14,659	0,	-20,883	8,707
20096	15,13	0,	-20,024	8,6437
20097	15,595	0,	-19,165	8,6161
20098	16,06	0,	-18,307	8,6252
20099	17,015	0,	-16,603	8,7584
20100	17,497	0,	-15,752	8,891
20101	17,966	0,	-14,901	9,0734
20102	18,899	0,	-13,243	9,5823
20103	19,371	0,	-12,429	9,9168
20104	19,827	0,	-11,622	10,313
20105	20,262	0,	-10,815	10,785
20106	20,662	0,	-10,005	11,34
20107	-20,567	0,	-9,6742	11,572
20108	-20,159	0,	-10,56	10,94
20109	-19,758	0,	-11,422	10,424
20110	-19,323	0,	-12,282	9,9892
20111	-18,863	0,	-13,123	9,634
20112	-18,399	0,	-13,967	9,3404
20113	-17,939	0,	-14,823	9,0997
20114	-17,479	0,	-15,68	8,9112
20115	-17,02	0,	-16,541	8,7709
20116	-16,557	0,	-17,4	8,6771
20117	-16,101	0,	-18,258	8,6247
20118	-15,645	0,	-19,116	8,6113
20119	-14,711	0,	-20,845	8,6966
20120	-14,255	0,	-21,706	8,7866
20121	-13,799	0,	-22,563	8,9067
20122	-12,878	0,	-24,287	9,235
20123	-11,964	0,	-26,006	9,6681
20124	-11,511	0,	-26,868	9,9223
20125	-11,056	0,	-27,726	10,202
20126	-10,588	0,	-28,59	10,516
20127	-10,113	0,	-29,446	10,86
20128	-9,1983	0,	-31,161	11,62
20129	-8,2786	0,	-32,882	12,511
20130	-7,3248	0,	-34,601	13,583
20131	-6,8798	0,	-35,467	14,157
20132	-6,4724	0,	-36,353	14,729
20133	-6,2675	0,	37,207	15,893
20134	21,47	0,	-8,3372	12,86
20135	-20,132	0,	8,4635	12,326
20136	-17,46	0,	7,2749	12,045
20137	-14,833	0,	2,8264	12,237
20138	-18,019	0,	-7,6781	12,137
20139	-21,009	0,	-8,7681	12,35
20140	-4,2	0,	-37,034	17,969
20141	-2,2471	0,	-35,016	18,483
20142	2,87	0,	-34,899	17,919
20143	5,0975	0,	-36,637	16,549
20144	20,31	0,	-8,111	12,706
20145	17,474	0,	-7,1668	12,166
20146	15,332	0,	-8,275e-002	12,864
20147	17,874	0,	7,5773	12,065
20148	20,447	0,	8,689	12,232
20149	4,4661	0,	37,013	16,406
20150	2,2618	0,	35,057	14,967
20151	-2,9551	0,	34,851	14,889
20152	-4,8892	0,	36,545	15,911
20153	-15,646	0,	-3,0113	12,708
20154	15,683	0,	2,9343	12,725
20155	-21,759	0,	8,7001	12,511
20156	6,7728	0,	-37,615	14,334
20157	-16,91	0,	6,0594	12,351
20158	-15,594	0,	3,8584	12,428
20159	-15,402	0,	5,7776e-002	12,912
20160	-17,478	0,	-6,4649	12,507
20161	-21,993	0,	-8,0009	13,357
20162	-0,92902	0,	-35,099	19,225
20163	1,6267	0,	-35,049	18,88
20164	5,3697	0,	-37,987	16,372
20165	21,306	0,	-7,4828	13,661
20166	16,889	0,	-6,012	12,414
20167	15,58	0,	-3,8151	12,464
20168	17,425	0,	6,3808	12,464
20169	21,755	0,	8,238	12,976
20170	0,9547	0,	35,116	14,896
20171	-1,6302	0,	35,03	14,909
20172	-5,0814	0,	37,824	17,063
20173	-16,323	0,	-4,1322	12,805
20174	16,33	0,	4,0494	12,802
20175	5,2461	0,	37,648	16,831
20176	-6,0506	0,	-37,267	15,341
20177	-4,8556	0,	-37,686	17,179
20178	-0,33535	0,	35,122	14,872
20179	16,916	0,	5,1991	12,72
20180	16,274	0,	-4,8922	12,52
20181	6,2837	0,	-38,387	14,905
20182	0,36554	0,	-35,118	19,368
20183	-16,934	0,	-5,281	12,741
20184	-16,293	0,	4,9244	12,477
20185	-5,8556	0,	38,107	16,968
20186	22,242	0,	-7,6667	13,82
20187	-21,923	0,	7,8736	13,43
20188	-21,195	0,	7,7198	13,318
20189	22,239	0,	-6,6697	15,247
20190	-19,246	0,	8,0262	12,339
20191	-18,354	0,	7,6434	12,228
20192	-15,223	0,	1,0988	12,745
20193	-18,926	0,	-8,0385	12,276
20194	-3,6192	0,	-36,292	18,287
20195	-2,9669	0,	-35,66	18,498
20196	3,5826	0,	-35,504	17,77
20197	4,3261	0,	-36,09	17,314
20198	19,336	0,	-7,7965	12,581
20199	18,401	0,	-7,4684	12,407
20200	15,07	0,	-1,912	12,562
20201	15,259	0,	-1,0158	12,781
20202	18,743	0,	7,931	12,208
20203	19,598	0,	8,3037	12,269
20204	3,7044	0,	36,364	15,88
20205	2,973	0,	35,716	15,387
20206	-4,3045	0,	35,981	15,569
20207	-16,339	0,	-0,53288	13,487
20208	-16,088	0,	-1,2623	13,278
20209	-15,889	0,	-2,1389	13,033
20210	15,941	0,	2,0363	13,071
20211	7,3083	0,	36,525	14,756
20212	6,7095	0,	37,404	15,761
20213	8,3898	0,	34,728	13,215
20214	7,8689	0,	35,637	13,919
20215	9,3617	0,	32,941	12,101
20216	9,8252	0,	32,066	11,647
20217	10,75	0,	30,311	10,861
20218	12,164	0,	27,694	9,9042
20219	11,697	0,	28,563	10,194
20220	13,095	0,	25,949	9,3969
20221	12,632	0,	26,818	9,6373
20222	14,043	0,	24,206	8,9822
20223	13,568	0,	25,076	9,1772
20224	14,979	0,	22,458	8,6745
20225	14,505	0,	23,327	8,816
20226	15,445	0,	21,581	8,5636
20227	16,853	0,	18,962	8,4235
20228	16,375	0,	19,837	8,437
20229	17,79	0,	17,215	8,5191
20230	17,315	0,	18,092	8,4512
20231	18,723	0,	15,483	8,7923
20232	18,254	0,	16,349	8,6322
20233	19,674	0,	13,779	9,2635
20234	19,199	0,	14,629	9,0005
20235	20,157	0,	12,929	9,5886
20236	21,625	0,	10,387	11,043
20237	22,587	0,	8,683	12,662
20238	22,109	0,	9,5284	11,767
20239	-7,0965	0,	37,493	15,531
20240	-7,4089	0,	36,461	14,649
20241	-7,7888	0,	35,546	13,93
20242	-8,2438	0,	34,66	13,27
20243	-8,7438	0,	33,784	12,675
20244	-9,2422	0,	32,909	12,149
20245	-9,7253	0,	32,034	11,683
20246	-10,2	0,	31,172	11,269
20247	-10,673	0,	30,301	10,889
20248	-11,146	0,	29,437	10,542
20249	-11,619	0,	28,565	10,222
20250	-12,092	0,	27,698	9,9288
20251	-12,565	0,	26,825	9,6598
20252	-13,038	0,	25,957	9,4151
20253	-13,985	0,	24,214	8,9989
20254	-14,451	0,	23,343	8,8312
20255	-14,932	0,	22,472	8,6866
20256	-15,879	0,	20,731	8,4899
20257	-16,362	0,	19,864	8,4378
20258	-16,841	0,	19,003	8,4211
20259	-17,31	0,	18,132	8,4458
20260	-17,768	0,	17,277	8,5108
20261	-18,239	0,	16,42	8,6172
20262	-18,702	0,	15,574	8,769
20263	-19,168	0,	14,732	8,9688
20264	-19,617	0,	13,893	9,2247
20265	-20,062	0,	13,06	9,5377
20266	-20,499	0,	12,218	9,9227
20267	-21,31	0,	10,638	10,868
20268	-22,269	0,	9,1475	12,134
20269	7,2475	0,	-36,798	13,808
20270	7,6894	0,	-35,947	13,333
20271	8,1371	0,	-35,091	12,865
20272	8,5924	0,	-34,237	12,411
20273	9,4947	0,	-32,533	11,581
20274	9,9495	0,	-31,683	11,2
20275	10,411	0,	-30,831	10,839
20276	10,87	0,	-29,976	10,503
20277	11,34	0,	-29,12	10,187
20278	11,804	0,	-28,256	9,8979
20279	12,274	0,	-27,401	9,6299
20280	12,737	0,	-26,537	9,3888
20281	13,206	0,	-25,68	9,1691
20282	13,672	0,	-24,817	8,9748
20283	14,139	0,	-23,956	8,8049
20284	14,603	0,	-23,092	8,6615
20285	15,071	0,	-22,232	8,5436
20286	15,537	0,	-21,369	8,4552
20287	16,47	0,	-19,648	8,3699
20288	17,41	0,	-17,926	8,4222
20289	18,832	0,	-15,365	8,8045
20290	19,297	0,	-14,517	9,0291
20291	19,768	0,	-13,691	9,2981
20292	20,238	0,	-12,862	9,6289
20293	20,701	0,	-12,034	10,028
20294	21,148	0,	-11,199	10,513
20295	21,586	0,	-10,374	11,088
20296	22,493	0,	-8,7588	12,613
20297	-22,568	0,	-8,6808	12,708
20298	-22,017	0,	-9,3073	12,017
20299	-21,57	0,	-10,112	11,297
20300	-21,085	0,	-10,976	10,67
20301	-20,658	0,	-11,85	10,143
20302	-20,207	0,	-12,72	9,7064
20303	-19,747	0,	-13,58	9,3516
20304	-19,283	0,	-14,43	9,0655
20305	-18,822	0,	-15,292	8,8313
20306	-18,36	0,	-16,153	8,65
20307	-17,9	0,	-17,016	8,5156
20308	-16,982	0,	-18,733	8,3761
20309	-16,058	0,	-20,461	8,3861
20310	-15,585	0,	-21,331	8,444
20311	-15,127	0,	-22,195	8,5283
20312	-14,66	0,	-23,058	8,6438
20313	-13,736	0,	-24,784	8,9506
20314	-13,28	0,	-25,645	9,139
20315	-12,825	0,	-26,504	9,3506
20316	-12,363	0,	-27,371	9,5884
20317	-11,905	0,	-28,227	9,847
20318	-10,965	0,	-29,95	10,448
20319	-10,054	0,	-31,666	11,13
20320	-9,6023	0,	-32,538	11,505
20321	-9,1337	0,	-33,396	11,915
20322	-8,6656	0,	-34,256	12,35
20323	-8,2016	0,	-35,117	12,806
20324	-7,742	0,	-35,984	13,278
20325	-7,2832	0,	-36,87	13,763
20326	-20,435	0,	7,4519	13,244
20327	-17,826	0,	6,368	12,675
20328	-15,836	0,	3,0224	12,796
20329	-16,389	0,	0,56797	13,513
20330	-18,382	0,	-6,7927	12,78
20331	-21,029	0,	-7,6849	13,345
20332	-3,6265	0,	-37,826	19,185
20333	-1,6104	0,	-35,767	19,678
20334	2,3104	0,	-35,686	19,099
20335	4,5478	0,	-37,481	17,618
20336	20,527	0,	-7,2994	13,476
20337	17,81	0,	-6,2949	12,755
20338	15,827	0,	-2,9626	12,829
20339	16,387	0,	-2,3e-002	13,54
20340	18,313	0,	6,7112	12,733
20341	20,91	0,	7,8218	13,11
20342	3,802	0,	37,816	17,209
20343	1,6359	0,	35,797	15,251
20344	-2,3135	0,	35,645	15,275
20345	-4,345	0,	37,384	16,767
20346	-17,315	0,	-0,77624	14,065
20347	-16,617	0,	-3,2613	13,236
20348	17,312	0,	0,60679	14,073
20349	16,642	0,	3,1722	13,255
20350	6,0705	0,	38,261	16,98
20351	-6,8291	0,	-37,764	14,243
20352	-5,5813	0,	-38,178	16,036
20353	-4,715	0,	39,546	19,482
20354	0,31008	0,	35,825	15,118
20355	-0,99716	0,	35,791	15,163
20356	23,055	0,	7,8652	13,787
20357	17,279	0,	4,311	13,278
20358	17,832	0,	5,4967	13,108
20359	21,499	0,	-6,5118	14,887
20360	17,221	0,	-5,1395	12,957
20361	16,564	0,	-4,0327	12,978
20362	4,8155	0,	-39,575	17,196
20363	5,8572	0,	-39,131	15,408
20364	-0,279	0,	-35,818	20,227
20365	1,0248	0,	-35,8	20,012
20366	-17,284	0,	-4,3892	13,284
20367	-17,855	0,	-5,5725	13,129
20368	-17,243	0,	5,1751	12,915
20369	-16,581	0,	4,0688	12,945
20370	-23,214	0,	-7,1904	14,96
20371	-4,5902	0,	38,75	18,358
20372	-4,305	0,	-38,49	18,225
20373	-5,5701	0,	38,949	18,122
20374	-17,473	0,	-9,3136e-003	14,176
20375	23,068	0,	-8,0146	13,619
20376	-6,7331	0,	38,423	16,559
20377	-22,739	0,	8,3035	13,131
20378	-22,285	0,	7,0664	14,628
20379	-22,279	0,	-7,0956	14,63
20380	4,6586	0,	-38,835	17,588
20381	22,224	0,	7,3619	14,185
20382	22,96	0,	-6,9434	15,257
20383	-21,529	0,	6,7127	14,611
20384	22,603	0,	-5,9231	16,952
20385	17,644	0,	2,6335e-002	14,272
20386	-18,716	0,	6,7075	12,94
20387	-16,038	0,	2,1713	13,105
20388	-16,203	0,	1,3169	13,337
20389	-20,173	0,	-7,5185	13,125
20390	-2,9693	0,	-37,116	19,711
20391	-2,289	0,	-36,436	19,866
20392	3,0232	0,	-36,303	18,991
20393	3,7636	0,	-36,895	18,508
20394	19,627	0,	-6,9144	13,326
20395	18,72	0,	-6,5955	13,06
20396	16,222	0,	-1,1556	13,379
20397	19,188	0,	7,0635	12,946
20398	20,062	0,	7,4381	13,083
20399	3,0645	0,	37,157	16,411
20400	2,3407	0,	36,478	15,737
20401	-2,9941	0,	36,248	15,727
20402	-3,6635	0,	36,82	16,242
20403	-17,089	0,	-1,5616	13,864
20404	-16,865	0,	-2,3941	13,589
20405	17,084	0,	1,3748	13,881
20406	7,5629	0,	37,959	15,436
20407	8,7161	0,	36,151	13,583
20408	10,208	0,	33,446	11,812
20409	9,7298	0,	34,333	12,314
20410	10,68	0,	32,563	11,365
20411	12,083	0,	29,938	10,256
20412	11,609	0,	30,811	10,597
20413	13,031	0,	28,193	9,6516
20414	12,548	0,	29,064	9,9448
20415	13,487	0,	27,316	9,3917
20416	14,428	0,	25,567	8,9312
20417	15,368	0,	23,818	8,5663
20418	16,787	0,	21,192	8,2172
20419	16,31	0,	22,068	8,3059
20420	17,727	0,	19,442	8,1419
20421	17,252	0,	20,318	8,164
20422	18,193	0,	18,569	8,1591
20423	19,134	0,	16,822	8,3149
20424	20,077	0,	15,087	8,6574
20425	21,506	0,	12,525	9,5997
20426	21,027	0,	13,374	9,2192
20427	21,988	0,	11,672	10,067
20428	23,425	0,	9,1479	12,174
20429	22,95	0,	9,982	11,323
20430	6,9282	0,	38,858	16,715
20431	-6,3388	0,	-38,665	14,763
20432	-4,2098	0,	40,012	20,48
20433	-0,35518	0,	36,516	15,326
20434	23,916	0,	8,3491	13,206
20435	23,559	0,	7,1506	15,133
20436	23,488	0,	6,1726	17,274
20437	18,211	0,	4,5842	13,747
20438	21,794	0,	-5,6075	16,448
20439	17,523	0,	-4,2544	13,476
20440	5,4775	0,	-39,794	15,834
20441	4,2909	0,	-40,067	18,35
20442	0,38655	0,	-36,516	21,085
20443	-18,221	0,	-4,6527	13,754
20444	-21,863	0,	5,7892	16,214
20445	-17,545	0,	4,2889	13,449
20446	-23,451	0,	-6,3643	16,805
20447	-3,7417	0,	39,493	19,506
20448	22,963	0,	-5,0962	19,773
20449	23,412	0,	-6,1716	17,256
20450	22,664	0,	6,5078	15,823
20451	3,7752	0,	-39,524	19,366
20452	-22,588	0,	-6,1594	16,445
20453	-22,687	0,	6,1523	16,526
20454	-23,126	0,	7,4119	14,495
20455	-7,5428	0,	38,809	15,994
20456	-7,9242	0,	37,869	15,046
20457	-8,2927	0,	36,937	14,253
20458	-8,7072	0,	36,031	13,545
20459	-9,1637	0,	35,157	12,916
20460	-9,6381	0,	34,29	12,355
20461	-10,124	0,	33,418	11,85
20462	-10,599	0,	32,548	11,402
20463	-11,078	0,	31,678	10,993
20464	-11,551	0,	30,809	10,622
20465	-12,024	0,	29,938	10,28
20466	-12,497	0,	29,068	9,9659
20467	-12,961	0,	28,194	9,679
20468	-13,435	0,	27,321	9,4117
20469	-13,909	0,	26,449	9,1678
20470	-14,383	0,	25,576	8,9472
20471	-14,858	0,	24,703	8,7503
20472	-15,332	0,	23,83	8,5784
20473	-15,806	0,	22,957	8,4325
20474	-16,281	0,	22,085	8,3142
20475	-16,755	0,	21,213	8,2252
20476	-17,23	0,	20,343	8,1676
20477	-17,704	0,	19,473	8,1439
20478	-18,651	0,	17,741	8,2084
20479	-19,591	0,	16,023	8,4415
20480	-20,055	0,	15,175	8,6291
20481	-20,514	0,	14,338	8,868
20482	-20,962	0,	13,516	9,1607
20483	-21,399	0,	12,689	9,5247
20484	-21,826	0,	11,881	9,9531
20485	-22,247	0,	11,086	10,459
20486	-22,675	0,	10,315	11,045
20487	-23,116	0,	9,5286	11,764
20488	-23,587	0,	8,6591	12,769
20489	23,682	0,	-7,2707	14,975
20490	6,7383	0,	-39,675	13,784
20491	7,651	0,	-38,106	13,122
20492	8,537	0,	-36,45	12,435
20493	9,4351	0,	-34,755	11,706
20494	9,8987	0,	-33,906	11,338
20495	10,346	0,	-33,055	10,996
20496	10,807	0,	-32,201	10,658
20497	11,276	0,	-31,341	10,333
20498	11,745	0,	-30,48	10,027
20499	12,216	0,	-29,618	9,7407
20500	12,685	0,	-28,758	9,4752
20501	13,154	0,	-27,895	9,2298
20502	13,621	0,	-27,032	9,0062
20503	14,087	0,	-26,169	8,8032
20504	14,544	0,	-25,309	8,6258
20505	15,011	0,	-24,445	8,4659
20506	15,478	0,	-23,581	8,3293
20507	15,946	0,	-22,718	8,2171
20508	16,413	0,	-21,855	8,131
20509	16,88	0,	-20,992	8,0728
20510	17,348	0,	-20,129	8,0445
20511	17,815	0,	-19,267	8,0485
20512	18,285	0,	-18,388	8,0909
20513	18,763	0,	-17,533	8,1643
20514	19,236	0,	-16,675	8,2815
20515	19,703	0,	-15,817	8,4463
20516	20,17	0,	-14,973	8,6561
20517	20,637	0,	-14,126	8,9212
20518	21,105	0,	-13,286	9,2451
20519	21,572	0,	-12,447	9,6389
20520	22,03	0,	-11,6	10,123
20521	22,489	0,	-10,767	10,696
20522	22,948	0,	-9,9466	11,385
20523	23,434	0,	-9,1347	12,221
20524	23,953	0,	-8,3749	13,2
20525	17,611	0,	3,4167	13,782
20526	-17,592	0,	-3,4964	13,764
20527	-18,394	0,	-6,1335e-002	14,59
20528	-18,259	0,	-0,89924	14,533
20529	-5,2804	0,	39,795	19,451
20530	-3,7849	0,	38,207	17,655
20531	-1,6764	0,	36,431	15,543
20532	0,98246	0,	36,515	15,416
20533	3,9036	0,	39,288	19,216
20534	3,1329	0,	38,634	17,923
20535	5,3652	0,	39,089	18,439
20536	21,357	0,	6,9434	14,229
20537	18,727	0,	5,8173	13,464
20538	17,334	0,	-0,5294	14,088
20539	16,818	0,	-3,1642	13,385
20540	18,143	0,	-5,4056	13,372
20541	3,8953	0,	-38,24	18,893
20542	1,709	0,	-36,453	20,377
20543	-0,95221	0,	-36,501	20,887
20544	-3,7282	0,	-39,333	19,493
20545	-3,0222	0,	-38,654	20,627
20546	-5,0486	0,	-39,058	16,828
20547	-24,185	0,	-7,4093	14,827
20548	-23,869	0,	-8,2222	13,422
20549	-23,422	0,	-9,012	12,361
20550	-22,936	0,	-9,7957	11,538
20551	-22,458	0,	-10,612	10,833
20552	-21,999	0,	-11,453	10,237
20553	-21,55	0,	-12,307	9,7334
20554	-21,089	0,	-13,171	9,3136
20555	-20,628	0,	-14,034	8,9688
20556	-19,705	0,	-15,761	8,467
20557	-19,242	0,	-16,625	8,2962
20558	-18,779	0,	-17,489	8,1718
20559	-18,315	0,	-18,354	8,0899
20560	-17,852	0,	-19,218	8,0465
20561	-17,388	0,	-20,083	8,0388
20562	-16,924	0,	-20,948	8,0635
20563	-16,461	0,	-21,813	8,1186
20564	-15,997	0,	-22,678	8,2014
20565	-15,534	0,	-23,543	8,3103
20566	-15,071	0,	-24,408	8,4435
20567	-14,609	0,	-25,273	8,5998
20568	-14,146	0,	-26,137	8,7778
20569	-13,684	0,	-27,002	8,9768
20570	-13,223	0,	-27,866	9,1962
20571	-12,761	0,	-28,73	9,4354
20572	-11,827	0,	-30,455	9,9788
20573	-11,364	0,	-31,314	10,278
20574	-10,905	0,	-32,177	10,592
20575	-10,446	0,	-33,041	10,923
20576	-9,9827	0,	-33,905	11,273
20577	-9,5135	0,	-34,767	11,64
20578	-9,046	0,	-35,632	12,013
20579	-8,5788	0,	-36,503	12,387
20580	-8,1065	0,	-37,375	12,757
20581	-7,6251	0,	-38,256	13,114
20582	-7,1346	0,	-39,14	13,448
20583	-21,381	0,	-6,8391	14,414
20584	-18,757	0,	-5,883	13,491
20585	-17,386	0,	0,73933	14,107
20586	-16,828	0,	3,214	13,357
20587	-18,164	0,	5,4494	13,324
20588	-20,712	0,	6,4273	14,336
20589	-6,3552	0,	39,316	17,761
20590	18,41	0,	4,7569e-002	14,592
20591	18,277	0,	0,85086	14,547
20592	-7,1542	0,	39,73	17,101
20593	7,4253	0,	41,172	17,421
20594	-19,049	0,	5,7591	13,7
20595	-17,029	0,	2,3636	13,685
20596	-17,207	0,	1,5358	13,933
20597	-20,508	0,	-6,5405	14,136
20598	-6,6283	0,	-40,028	13,785
20599	-5,8116	0,	-39,56	15,324
20600	-2,3897	0,	-37,899	21,074
20601	-1,6534	0,	-37,182	21,22
20602	3,1513	0,	-37,682	19,839
20603	19,889	0,	-5,9967	14,149
20604	19,034	0,	-5,6904	13,769
20605	17,022	0,	-2,2759	13,709
20606	17,185	0,	-1,3761	13,945
20607	20,476	0,	6,5464	14,055
20608	7,2167	0,	40,317	17,395
20609	6,2232	0,	39,705	18,345
20610	1,6825	0,	37,204	15,896
20611	-2,3704	0,	37,049	16,095
20612	-3,0865	0,	37,671	16,863
20613	-6,0036	0,	40,227	19,195
20614	-6,751	0,	40,646	18,397
20615	-17,868	0,	-2,6157	14,156
20616	18,084	0,	1,6636	14,41
20617	17,865	0,	2,5243	14,162
20618	-19,195	0,	-0,94283	14,782
20619	19,216	0,	0,91977	14,808
20620	24,493	0,	-7,5845	14,52
20621	-23,984	0,	7,7919	14,069
20622	-23,039	0,	5,2437	19,416
20623	-19,275	0,	-2,1602e-002	14,744
20624	-22,951	0,	-5,2439	19,259
20625	-3,1622	0,	-40,197	20,447
20626	3,1805	0,	-40,327	20,568
20627	19,291	0,	1,4114e-002	14,741
20628	22,811	0,	5,3478	18,554
20629	23,832	0,	-5,3873	20,375
20630	3,2614	0,	40,166	20,477
20631	-3,1483	0,	40,327	20,641
20632	-24,456	0,	-6,5951	16,733
20633	-7,5213	0,	41,076	17,22
20634	-7,9354	0,	40,155	16,187
20635	-8,3422	0,	39,235	15,255
20636	-8,7508	0,	38,323	14,43
20637	-9,1689	0,	37,423	13,703
20638	-9,5988	0,	36,539	13,062
20639	-10,06	0,	35,672	12,48
20640	-10,534	0,	34,8	11,954
20641	-11,009	0,	33,927	11,483
20642	-11,483	0,	33,054	11,055
20643	-12,431	0,	31,308	10,302
20644	-12,904	0,	30,435	9,9668
20645	-13,378	0,	29,561	9,6559
20646	-13,851	0,	28,687	9,3677
20647	-14,324	0,	27,812	9,1012
20648	-14,798	0,	26,937	8,8563
20649	-15,271	0,	26,062	8,6333
20650	-15,744	0,	25,187	8,433
20651	-16,218	0,	24,312	8,2563
20652	-16,692	0,	23,437	8,1043
20653	-17,165	0,	22,562	7,9785
20654	-17,639	0,	21,688	7,8808
20655	-18,113	0,	20,814	7,8131
20656	-18,586	0,	19,94	7,7776
20657	-19,06	0,	19,068	7,7771
20658	-19,533	0,	18,196	7,8145
20659	-20,006	0,	17,326	7,8935
20660	-20,475	0,	16,472	8,0139
20661	-20,942	0,	15,625	8,1811
20662	-21,408	0,	14,779	8,4027
20663	-21,867	0,	13,942	8,6819
20664	-22,316	0,	13,115	9,0273
20665	-22,753	0,	12,305	9,442
20666	-23,618	0,	10,683	10,557
20667	-24,056	0,	9,8488	11,32
20668	-24,479	0,	9,0092	12,275
20669	-24,878	0,	8,1469	13,497
20670	-18,478	0,	4,5255	13,946
20671	-21,034	0,	5,4459	15,639
20672	-18,324	0,	0,82778	14,567
20673	-17,813	0,	3,4054	13,911
20674	-21,722	0,	-5,9269	15,884
20675	-19,12	0,	-4,9277	14,235
20676	-25,105	0,	-7,7496	14,197
20677	-24,729	0,	-8,5542	12,907
20678	-24,301	0,	-9,3893	11,838
20679	-23,831	0,	-10,245	10,956
20680	-22,899	0,	-11,927	9,678
20681	-22,436	0,	-12,792	9,1875
20682	-21,972	0,	-13,657	8,7864
20683	-21,508	0,	-14,521	8,461
20684	-21,043	0,	-15,385	8,2006
20685	-20,578	0,	-16,249	7,9971
20686	-20,113	0,	-17,114	7,8438
20687	-19,647	0,	-17,979	7,7353
20688	-19,181	0,	-18,843	7,6671
20689	-18,715	0,	-19,708	7,6356
20690	-18,249	0,	-20,574	7,6371
20691	-17,783	0,	-21,439	7,6689
20692	-17,318	0,	-22,305	7,7285
20693	-16,852	0,	-23,17	7,8136
20694	-16,386	0,	-24,036	7,9223
20695	-15,921	0,	-24,901	8,0529
20696	-15,467	0,	-25,765	8,1989
20697	-15,002	0,	-26,631	8,3686
20698	-14,539	0,	-27,496	8,5562
20699	-14,074	0,	-28,362	8,7612
20700	-13,609	0,	-29,226	8,9833
20701	-13,145	0,	-30,09	9,2211
20702	-12,683	0,	-30,955	9,4721
20703	-11,758	0,	-32,683	10,016
20704	-11,293	0,	-33,55	10,307
20705	-10,828	0,	-34,413	10,606
20706	-10,36	0,	-35,278	10,909
20707	-9,8904	0,	-36,142	11,21
20708	-9,4153	0,	-37,007	11,503
20709	-8,935	0,	-37,874	11,777
20710	-8,4573	0,	-38,739	12,012
20711	-7,9805	0,	-39,61	12,197
20712	-7,4815	0,	-40,474	12,363
20713	-4,4836	0,	-39,938	17,879
20714	-6,9898	0,	-41,339	12,556
20715	-0,27777	0,	-37,208	21,945
20716	3,1922	0,	-38,985	20,426
20717	1,0707	0,	-37,19	21,639
20718	5,0567	0,	-40,718	16,507
20719	18,455	0,	-4,4937	13,968
20720	20,992	0,	-5,335	15,735
20721	18,321	0,	-0,79054	14,561
20722	17,795	0,	-3,3666	13,925
20723	21,724	0,	6,0343	15,701
20724	19,116	0,	4,887	14,228
20725	24,122	0,	6,4528	16,942
20726	24,203	0,	-6,4682	16,985
20727	4,6842	0,	39,886	20,073
20728	24,42	0,	7,5564	14,537
20729	25,267	0,	7,9581	13,779
20730	24,769	0,	8,7747	12,562
20731	24,285	0,	9,5969	11,572
20732	23,802	0,	10,424	10,767
20733	23,324	0,	11,264	10,102
20734	22,848	0,	12,112	9,5537
20735	22,375	0,	12,966	9,1035
20736	21,902	0,	13,826	8,7351
20737	21,432	0,	14,687	8,4392
20738	20,957	0,	15,547	8,209
20739	20,486	0,	16,421	8,0286
20740	20,015	0,	17,296	7,8997
20741	19,544	0,	18,17	7,8174
20742	19,073	0,	19,046	7,7772
20743	18,601	0,	19,921	7,7754
20744	18,129	0,	20,797	7,809
20745	17,658	0,	21,673	7,8751
20746	17,186	0,	22,549	7,9714
20747	16,715	0,	23,426	8,0957
20748	16,243	0,	24,302	8,2464
20749	15,772	0,	25,178	8,4218
20750	15,301	0,	26,054	8,6209
20751	14,83	0,	26,93	8,8423
20752	14,359	0,	27,806	9,0859
20753	13,889	0,	28,681	9,3508
20754	13,418	0,	29,557	9,6376
20755	12,948	0,	30,432	9,9467
20756	12,477	0,	31,308	10,28
20757	12,006	0,	32,184	10,639
20758	11,535	0,	33,06	11,029
20759	11,063	0,	33,939	11,454
20760	10,589	0,	34,82	11,924
20761	10,1	0,	35,719	12,463
20762	9,5812	0,	36,635	13,101
20763	9,0278	0,	37,543	13,867
20764	8,4655	0,	38,463	14,785
20765	7,86	0,	39,369	15,923
20766	6,9078	0,	41,669	18,693
20767	0,30451	0,	37,216	15,48
20768	-3,1786	0,	38,992	18,422
20769	-1,0403	0,	37,183	15,641
20770	-4,9243	0,	40,657	21,228
20771	-18,576	0,	-3,7115	14,329
20772	18,582	0,	3,654	14,341
20773	6,2416	0,	-40,444	14,193
20774	7,0957	0,	-41,06	12,555
20775	7,5774	0,	-40,248	12,368
20776	8,0503	0,	-39,437	12,191
20777	8,5151	0,	-38,629	11,988
20778	8,961	0,	-37,797	11,771
20779	9,396	0,	-36,963	11,529
20780	9,8499	0,	-36,118	11,248
20781	10,302	0,	-35,27	10,957
20782	10,767	0,	-34,414	10,652
20783	11,227	0,	-33,56	10,354
20784	11,684	0,	-32,701	10,066
20785	12,153	0,	-31,838	9,78
20786	12,623	0,	-30,974	9,5076
20787	13,093	0,	-30,109	9,2498
20788	14,039	0,	-28,382	8,7788
20789	14,506	0,	-27,517	8,5715
20790	14,972	0,	-26,651	8,3819
20791	15,439	0,	-25,786	8,2107
20792	15,905	0,	-24,92	8,0587
20793	16,371	0,	-24,054	7,9272
20794	16,838	0,	-23,189	7,8176
20795	17,771	0,	-21,458	7,6711
20796	18,237	0,	-20,593	7,6383
20797	18,704	0,	-19,728	7,6358
20798	19,17	0,	-18,863	7,6664
20799	19,636	0,	-17,998	7,7332
20800	20,103	0,	-17,134	7,8402
20801	20,577	0,	-16,278	7,9858
20802	21,043	0,	-15,415	8,1866
20803	21,509	0,	-14,567	8,4361
20804	21,977	0,	-13,717	8,7483
20805	22,445	0,	-12,87	9,1309
20806	22,913	0,	-12,028	9,595
20807	23,379	0,	-11,191	10,158
20808	23,849	0,	-10,362	10,833
20809	24,332	0,	-9,5498	11,64
20810	24,835	0,	-8,7404	12,617
20811	-22,189	0,	4,8654	18,507
20812	22,126	0,	-4,762	18,585
20813	23,467	0,	5,6189	18,838
20814	-3,871	0,	40,771	22,048
20815	3,8862	0,	-40,782	19,165
20816	25,339	0,	-7,9245	13,86
20817	-7,0853	0,	41,997	18,336
20818	-2,3331	0,	-39,534	21,707
20819	2,4929	0,	39,559	18,483
20820	18,882	0,	2,7286	14,702
20821	-19,078	0,	-1,8663	14,864
20822	-18,878	0,	-2,7806	14,695
20823	-5,6126	0,	41,122	20,902
20824	-6,335	0,	41,566	19,901
20825	-1,7362	0,	37,819	16,223
20826	1,7293	0,	38,588	16,583
20827	0,98966	0,	37,896	15,797
20828	6,1976	0,	41,047	19,731
20829	5,3951	0,	40,454	20,327
20830	25,834	0,	-7,0907	15,429
20831	25,009	0,	-6,7687	16,31
20832	24,943	0,	6,7668	16,278
20833	25,78	0,	7,1379	15,311
20834	19,998	0,	5,2294	14,744
20835	20,872	0,	5,6383	15,253
20836	18,007	0,	-2,4782	14,258
20837	18,169	0,	-1,6116	14,445
20838	20,183	0,	-5,0441	15,076
20839	19,346	0,	-4,7585	14,488
20840	5,8242	0,	-41,301	14,629
20841	6,6169	0,	-41,898	12,837
20842	1,77	0,	-37,827	21,711
20843	2,4814	0,	-38,424	21,376
20844	-1,7048	0,	-38,563	22,389
20845	-6,1035	0,	-40,917	14,181
20846	-5,2635	0,	-40,46	16,113
20847	-19,996	0,	-5,2404	14,769
20848	-20,86	0,	-5,5692	15,35
20849	-18,03	0,	2,5354	14,26
20850	-18,2	0,	1,6769	14,461
20851	-20,214	0,	5,1155	15,03
20852	-19,371	0,	4,8018	14,463
20853	-25,231	0,	7,2858	15,065
20854	-24,29	0,	6,9124	15,849
20855	1,4292	0,	39,683	16,755
20856	-1,4199	0,	-39,656	22,707
20857	-5,636	0,	-46,017	12,482
20858	-6,5155	0,	-44,311	11,963
20859	-7,9043	0,	-41,767	11,218
20860	-8,8433	0,	-40,076	11,109
20861	-9,7943	0,	-38,361	10,842
20862	-10,264	0,	-37,501	10,648
20863	-11,212	0,	-35,771	10,175
20864	-12,146	0,	-34,04	9,6701
20865	-13,069	0,	-32,313	9,1789
20866	-13,998	0,	-30,58	8,7127
20867	-14,929	0,	-28,849	8,2875
20868	-15,861	0,	-27,117	7,9137
20869	-16,793	0,	-25,384	7,5999
20870	-17,258	0,	-24,521	7,4691
20871	-18,657	0,	-21,921	7,198
20872	-19,124	0,	-21,055	7,1551
20873	-19,592	0,	-20,186	7,14
20874	-20,057	0,	-19,323	7,1557
20875	-20,989	0,	-17,592	7,2937
20876	-21,922	0,	-15,861	7,6054
20877	-22,387	0,	-14,996	7,842
20878	-23,319	0,	-13,263	8,5241
20879	-24,251	0,	-11,541	9,5631
20880	-25,178	0,	-9,8289	11,114
20881	-25,627	0,	-8,9869	12,132
20882	-26,027	0,	-8,1276	13,391
20883	-26,356	0,	-7,2602	14,926
20884	26,656	0,	-7,4142	14,544
20885	26,19	0,	-8,2788	13,111
20886	25,703	0,	-9,1127	11,93
20887	25,217	0,	-9,9402	10,965
20888	24,737	0,	-10,772	10,161
20889	24,263	0,	-11,61	9,4932
20890	23,792	0,	-12,455	8,9425
20891	23,324	0,	-13,305	8,4912
20892	22,853	0,	-14,151	8,1306
20893	21,917	0,	-15,872	7,6023
20894	21,452	0,	-16,735	7,423
20895	20,985	0,	-17,601	7,2924
20896	20,518	0,	-18,466	7,2048
20897	20,052	0,	-19,332	7,1553
20898	19,585	0,	-20,198	7,1401
20899	19,118	0,	-21,064	7,1556
20900	18,652	0,	-21,931	7,1989
20901	18,185	0,	-22,797	7,2674
20902	17,718	0,	-23,663	7,3588
20903	17,251	0,	-24,53	7,4713
20904	16,785	0,	-25,396	7,6029
20905	16,318	0,	-26,263	7,7522
20906	15,852	0,	-27,129	7,9177
20907	15,385	0,	-27,996	8,0983
20908	14,918	0,	-28,862	8,2931
20909	14,45	0,	-29,729	8,5011
20910	13,981	0,	-30,596	8,7217
20911	13,511	0,	-31,462	8,9535
20912	13,042	0,	-32,329	9,1945
20913	12,574	0,	-33,195	9,4428
20914	12,107	0,	-34,059	9,6964
20915	11,639	0,	-34,923	9,9519
20916	11,179	0,	-35,777	10,199
20917	10,711	0,	-36,634	10,443
20918	10,258	0,	-37,484	10,657
20919	9,8166	0,	-38,325	10,833
20920	9,3572	0,	-39,162	10,986
20921	8,9038	0,	-39,99	11,089
20922	8,4242	0,	-40,811	11,176
20923	7,9393	0,	-41,645	11,246
20924	7,4391	0,	-42,472	11,384
20925	8,1919	0,	41,467	16,006
20926	8,4883	0,	40,607	15,448
20927	8,8769	0,	39,782	14,73
20928	9,3959	0,	38,896	13,895
20929	9,9331	0,	38,003	13,154
20930	10,452	0,	37,101	12,519
20931	10,967	0,	36,195	11,96
20932	11,453	0,	35,305	11,477
20933	11,926	0,	34,427	11,044
20934	12,399	0,	33,55	10,644
20935	12,871	0,	32,673	10,272
20936	13,815	0,	30,919	9,5944
20937	14,286	0,	30,044	9,2872
20938	14,758	0,	29,167	8,9994
20939	15,23	0,	28,291	8,7311
20940	15,701	0,	27,414	8,4826
20941	16,173	0,	26,537	8,2544
20942	16,644	0,	25,661	8,0475
20943	17,107	0,	24,782	7,8669
20944	18,053	0,	23,029	7,5677
20945	19,	0,	21,277	7,3746
20946	19,946	0,	19,525	7,3046
20947	20,42	0,	18,649	7,3228
20948	20,893	0,	17,774	7,3813
20949	21,366	0,	16,9	7,4846
20950	21,839	0,	16,026	7,6383
20951	22,311	0,	15,153	7,849
20952	22,782	0,	14,282	8,1252
20953	23,25	0,	13,414	8,4768
20954	23,722	0,	12,553	8,9124
20955	24,668	0,	10,862	10,09
20956	25,146	0,	10,027	10,875
20957	25,633	0,	9,1969	11,824
20958	26,116	0,	8,3664	12,969
20959	26,606	0,	7,5342	14,317
20960	-5,4782	0,	46,721	18,117
20961	-6,5163	0,	45,012	17,75
20962	-6,9677	0,	44,178	17,551
20963	-7,3926	0,	43,314	17,172
20964	-7,8581	0,	42,422	16,537
20965	-8,2987	0,	41,513	15,819
20966	-8,7251	0,	40,602	15,077
20967	-9,1507	0,	39,696	14,353
20968	-9,585	0,	38,801	13,672
20969	-10,029	0,	37,919	13,05
20970	-10,485	0,	37,044	12,484
20971	-10,956	0,	36,18	11,966
20972	-11,429	0,	35,304	11,492
20973	-11,902	0,	34,429	11,059
20974	-12,375	0,	33,553	10,658
20975	-12,849	0,	32,677	10,284
20976	-13,322	0,	31,802	9,9337
20977	-13,794	0,	30,927	9,6053
20978	-14,267	0,	30,051	9,2971
20979	-14,74	0,	29,175	9,0086
20980	-15,685	0,	27,422	8,4905
20981	-16,157	0,	26,545	8,2616
20982	-16,63	0,	25,669	8,0538
20983	-17,103	0,	24,792	7,8683
20984	-17,576	0,	23,916	7,706
20985	-18,049	0,	23,039	7,5686
20986	-18,522	0,	22,163	7,4576
20987	-18,995	0,	21,287	7,375
20988	-19,468	0,	20,411	7,323
20989	-19,941	0,	19,535	7,3044
20990	-20,887	0,	17,785	7,3801
20991	-21,831	0,	16,064	7,6247
20992	-22,3	0,	15,216	7,821
20993	-22,766	0,	14,369	8,0807
20994	-23,674	0,	12,707	8,8125
20995	-24,121	0,	11,874	9,3192
20996	-24,556	0,	11,033	9,9527
20997	-24,99	0,	10,198	10,717
20998	-25,408	0,	9,348	11,671
20999	-25,816	0,	8,4887	12,833
21000	-26,195	0,	7,6245	14,237
21001	-5,7844	0,	45,786	19,106
21002	-6,6031	0,	42,914	19,581
21003	-2,4969	0,	39,757	18,742
21004	-0,39477	0,	37,915	15,583
21005	4,0352	0,	40,75	22,038
21006	6,4196	0,	42,379	20,058
21007	7,1894	0,	43,065	17,872
21008	6,7105	0,	43,815	18,752
21009	6,2598	0,	44,676	19,161
21010	5,7338	0,	45,365	20,167
21011	24,671	0,	-5,6553	20,01
21012	27,138	0,	-6,5762	16,128
21013	27,092	0,	6,6967	15,889
21014	22,053	0,	5,0808	17,754
21015	19,503	0,	3,9146	14,956
21016	19,268	0,	-0,87129	14,776
21017	18,757	0,	-3,5686	14,484
21018	5,3137	0,	-46,361	12,439
21019	5,6939	0,	-45,853	12,34
21020	6,9425	0,	-43,327	11,676
21021	2,5214	0,	-39,766	21,477
21022	0,41769	0,	-37,912	22,654
21023	-3,9483	0,	-40,868	19,137
21024	-6,5233	0,	-42,19	12,842
21025	-22,066	0,	-4,9418	18,079
21026	-19,503	0,	-3,9445	14,956
21027	-19,27	0,	0,8796	14,798
21028	-18,78	0,	3,5961	14,487
21029	-23,903	0,	5,5852	19,561
21030	-5,1119	0,	-47,832	10,131
21031	-27,534	0,	5,0655	19,92
21032	-27,052	0,	5,9215	17,853
21033	-25,45	0,	6,4438	17,161
21034	-24,694	0,	5,9404	18,708
21035	-20,525	0,	4,1316	16,028
21036	-19,685	0,	3,826	15,142
21037	-19,034	0,	2,6797	14,815
21038	-19,192	0,	1,7823	14,907
21039	-21,213	0,	-4,6082	16,827
21040	-25,668	0,	-6,0217	18,457
21041	-26,564	0,	-6,3562	16,922
21042	-27,472	0,	-5,7335	17,982
21043	-27,739	0,	-5,032	19,712
21044	-5,6368	0,	-43,976	14,69
21045	-6,127	0,	-43,055	13,455
21046	-4,7188	0,	-41,413	17,232
21047	-0,94933	0,	-39,149	23,132
21048	-0,24742	0,	-38,578	23,352
21049	1,1114	0,	-38,591	22,907
21050	1,8134	0,	-39,196	22,271
21051	5,3376	0,	-42,153	15,749
21052	6,1092	0,	-42,753	13,584
21053	6,0421	0,	-45,008	12,544
21054	20,495	0,	-4,0881	16,008
21055	19,663	0,	-3,7973	15,138
21056	19,01	0,	-2,6556	14,793
21057	19,179	0,	-1,767	14,882
21058	20,37	0,	4,2515	15,76
21059	25,451	0,	5,9644	18,788
21060	26,288	0,	6,2844	17,247
21061	27,589	0,	5,8655	17,524
21062	28,071	0,	5,0857	19,082
21063	25,498	0,	-5,9346	18,85
21064	6,1121	0,	46,32	16,487
21065	5,5675	0,	41,922	22,02
21066	4,8196	0,	41,341	22,647
21067	0,98029	0,	39,16	15,986
21068	0,2616	0,	38,59	15,543
21069	-1,8018	0,	39,195	17,072
21070	-5,1835	0,	42,014	23,095
21071	-5,8809	0,	42,484	21,62
21072	-6,1952	0,	43,787	20,448
21073	-5,813	0,	44,622	21,419
21074	-5,101	0,	47,638	17,596
21075	-6,269	0,	-47,114	9,9088
21076	-6,5983	0,	-46,373	10,154
21077	-6,994	0,	-45,57	10,358
21078	-7,4365	0,	-44,752	10,325
21079	-7,8993	0,	-43,924	10,303
21080	-8,3619	0,	-43,074	10,265
21081	-8,8159	0,	-42,233	10,251
21082	-9,2728	0,	-41,398	10,229
21083	-9,7327	0,	-40,555	10,185
21084	-10,203	0,	-39,712	10,098
21085	-10,667	0,	-38,852	9,9808
21086	-11,134	0,	-37,989	9,8287
21087	-11,601	0,	-37,124	9,65
21088	-12,078	0,	-36,258	9,4456
21089	-12,545	0,	-35,393	9,2375
21090	-13,012	0,	-34,526	9,0234
21091	-13,479	0,	-33,66	8,8074
21092	-13,935	0,	-32,794	8,5978
21093	-14,402	0,	-31,928	8,3845
21094	-14,869	0,	-31,061	8,1758
21095	-15,335	0,	-30,195	7,9732
21096	-15,802	0,	-29,328	7,778
21097	-16,269	0,	-28,461	7,5917
21098	-16,735	0,	-27,594	7,4155
21099	-17,202	0,	-26,728	7,251
21100	-17,669	0,	-25,861	7,0995
21101	-18,136	0,	-24,994	6,9628
21102	-18,602	0,	-24,127	6,8423
21103	-19,069	0,	-23,26	6,7402
21104	-19,536	0,	-22,393	6,6581
21105	-20,003	0,	-21,526	6,5985
21106	-20,47	0,	-20,659	6,5639
21107	-20,937	0,	-19,792	6,5575
21108	-21,404	0,	-18,926	6,5826
21109	-21,871	0,	-18,059	6,6437
21110	-22,338	0,	-17,193	6,7459
21111	-22,805	0,	-16,326	6,8957
21112	-23,272	0,	-15,46	7,1012
21113	-23,739	0,	-14,593	7,3727
21114	-24,205	0,	-13,726	7,723
21115	-24,671	0,	-12,859	8,168
21116	-25,138	0,	-11,991	8,7274
21117	-25,603	0,	-11,122	9,425
21118	-26,068	0,	-10,271	10,26
21119	-26,524	0,	-9,4046	11,292
21120	-26,977	0,	-8,525	12,532
21121	-27,339	0,	-7,6683	13,924
21122	-27,557	0,	-6,7727	15,533
21123	-28,587	0,	-6,0989	16,543
21124	-28,42	0,	-4,9906	18,916
21125	-29,113	0,	-5,1982	17,901
21126	-29,387	0,	-4,2641	19,415
21127	-29,742	0,	-3,309	20,911
21128	-30,325	0,	-2,1041	22,152
21129	-30,68	0,	0,60152	22,704
21130	-30,338	0,	1,8011	22,469
21131	-29,933	0,	2,7672	21,692
21132	-29,415	0,	3,6313	20,631
21133	-28,945	0,	4,444	19,406
21134	-28,544	0,	5,3074	18,113
21135	-28,092	0,	6,222	16,464
21136	-27,626	0,	7,0959	14,919
21137	-27,196	0,	7,9568	13,441
21138	-26,777	0,	8,8256	12,1
21139	-26,356	0,	9,6911	10,942
21140	-25,929	0,	10,548	9,9707
21141	-25,041	0,	12,256	8,5425
21142	-24,584	0,	13,103	8,0411
21143	-24,123	0,	13,952	7,6468
21144	-23,656	0,	14,805	7,3411
21145	-23,187	0,	15,66	7,1097
21146	-22,715	0,	16,522	6,9407
21147	-22,243	0,	17,386	6,8253
21148	-21,768	0,	18,251	6,7588
21149	-21,296	0,	19,128	6,7289
21150	-20,823	0,	20,006	6,7374
21151	-20,351	0,	20,883	6,7803
21152	-19,878	0,	21,76	6,8546
21153	-19,406	0,	22,638	6,9575
21154	-18,933	0,	23,515	7,087
21155	-18,461	0,	24,393	7,2411
21156	-17,988	0,	25,27	7,4184
21157	-17,516	0,	26,148	7,6176
21158	-17,043	0,	27,026	7,8373
21159	-16,571	0,	27,903	8,0766
21160	-16,099	0,	28,781	8,3345
21161	-15,627	0,	29,658	8,6102
21162	-15,145	0,	30,532	8,9077
21163	-14,672	0,	31,409	9,2173
21164	-14,199	0,	32,285	9,543
21165	-13,726	0,	33,162	9,8842
21166	-13,255	0,	34,04	10,241
21167	-12,784	0,	34,916	10,614
21168	-12,311	0,	35,793	11,006
21169	-11,838	0,	36,67	11,42
21170	-11,364	0,	37,547	11,86
21171	-10,898	0,	38,416	12,323
21172	-10,436	0,	39,295	12,814
21173	-9,5406	0,	41,066	13,828
21174	-9,0996	0,	41,965	14,296
21175	-8,6559	0,	42,862	14,672
21176	-8,2072	0,	43,751	14,889
21177	-7,7103	0,	44,623	15,006
21178	-7,1982	0,	45,5	14,999
21179	-6,708	0,	46,312	14,92
21180	-6,2844	0,	47,148	14,917
21181	-5,9038	0,	47,932	15,153
21182	-4,8035	0,	49,41	16,524
21183	-3,1581	0,	49,908	18,299
21184	-2,4574	0,	50,39	18,361
21185	-1,8197	0,	50,864	17,819
21186	-0,70437	0,	50,664	17,545
21187	-1,358	0,	50,384	17,999
21188	0,54132	0,	50,987	17,706
21189	1,2107	0,	50,62	17,999
21190	2,0561	0,	50,355	18,413
21191	2,9697	0,	50,008	18,326
21192	3,8518	0,	49,891	17,655
21193	3,9958	0,	48,915	18,141
21194	4,8875	0,	49,21	16,704
21195	5,482	0,	48,438	15,744
21196	5,7672	0,	47,491	15,774
21197	6,9951	0,	45,373	15,727
21198	7,5524	0,	44,477	15,573
21199	8,078	0,	43,624	15,291
21200	8,5878	0,	42,781	14,852
21201	9,0544	0,	41,891	14,397
21202	9,4682	0,	41,054	13,934
21203	9,8824	0,	40,194	13,444
21204	10,341	0,	39,33	12,913
21205	10,84	0,	38,452	12,374
21206	11,351	0,	37,563	11,871
21207	11,84	0,	36,675	11,419
21208	12,32	0,	35,79	11,
21209	12,793	0,	34,913	10,608
21210	13,266	0,	34,035	10,234
21211	13,738	0,	33,158	9,8774
21212	14,211	0,	32,281	9,5362
21213	14,684	0,	31,403	9,2108
21214	15,156	0,	30,526	8,9015
21215	15,629	0,	29,649	8,6087
21216	16,101	0,	28,771	8,3329
21217	16,574	0,	27,894	8,075
21218	17,046	0,	27,016	7,8358
21219	17,519	0,	26,139	7,6162
21220	17,992	0,	25,261	7,4173
21221	18,464	0,	24,383	7,2401
21222	18,937	0,	23,506	7,0861
21223	19,41	0,	22,628	6,9568
21224	19,882	0,	21,751	6,8541
21225	20,355	0,	20,873	6,7801
21226	20,828	0,	19,996	6,7373
21227	21,301	0,	19,118	6,7292
21228	21,773	0,	18,241	6,7593
21229	22,246	0,	17,364	6,8328
21230	22,718	0,	16,487	6,9555
21231	23,19	0,	15,611	7,1355
21232	23,662	0,	14,735	7,3823
21233	24,134	0,	13,86	7,7082
21234	24,603	0,	12,997	8,1202
21235	25,074	0,	12,146	8,6316
21236	25,546	0,	11,294	9,2718
21237	26,013	0,	10,445	10,066
21238	26,497	0,	9,6148	10,999
21239	26,978	0,	8,7777	12,122
21240	27,45	0,	7,9417	13,415
21241	27,934	0,	7,1147	14,805
21242	28,409	0,	6,296	16,216
21243	28,88	0,	5,5187	17,427
21244	28,988	0,	4,4316	19,393
21245	29,514	0,	3,6003	20,574
21246	29,931	0,	2,7174	21,736
21247	30,235	0,	1,7942	22,529
21248	30,451	0,	0,92443	22,795
21249	30,607	0,	0,1329	22,694
21250	29,659	0,	-0,54149	23,483
21251	30,943	0,	-1,7513	21,57
21252	30,504	0,	-2,2555	21,599
21253	30,073	0,	-2,8951	21,239
21254	29,036	0,	-4,3359	19,546
21255	28,446	0,	-6,1722	16,393
21256	27,976	0,	-6,9796	15,043
21257	27,506	0,	-7,7837	13,679
21258	27,045	0,	-8,6591	12,291
21259	26,567	0,	-9,5073	11,127
21260	26,088	0,	-10,349	10,149
21261	25,612	0,	-11,194	9,3386
21262	25,138	0,	-12,045	8,6736
21263	24,669	0,	-12,899	8,1346
21264	24,199	0,	-13,753	7,7059
21265	23,732	0,	-14,62	7,3589
21266	23,262	0,	-15,476	7,0978
21267	22,795	0,	-16,343	6,893
21268	22,328	0,	-17,21	6,7438
21269	21,862	0,	-18,077	6,6422
21270	21,395	0,	-18,944	6,5816
21271	20,928	0,	-19,811	6,5569
21272	20,461	0,	-20,678	6,5638
21273	19,994	0,	-21,545	6,5988
21274	19,527	0,	-22,412	6,6589
21275	19,06	0,	-23,279	6,7414
21276	18,593	0,	-24,147	6,844
21277	18,126	0,	-25,014	6,9648
21278	17,659	0,	-25,881	7,102
21279	17,193	0,	-26,748	7,2538
21280	16,726	0,	-27,616	7,4186
21281	16,259	0,	-28,483	7,5951
21282	15,792	0,	-29,35	7,7819
21283	15,324	0,	-30,218	7,9778
21284	14,855	0,	-31,085	8,1818
21285	14,384	0,	-31,954	8,3933
21286	5,0219	0,	-48,505	9,228
21287	5,7835	0,	-47,478	10,006
21288	6,4591	0,	-46,526	10,276
21289	6,9144	0,	-45,627	10,382
21290	7,3529	0,	-44,746	10,44
21291	7,8184	0,	-43,898	10,37
21292	8,2895	0,	-43,054	10,326
21293	8,787	0,	-42,219	10,276
21294	9,2777	0,	-41,382	10,231
21295	9,7552	0,	-40,546	10,171
21296	10,214	0,	-39,697	10,094
21297	10,675	0,	-38,844	9,9762
21298	11,128	0,	-37,993	9,8319
21299	11,586	0,	-37,141	9,6583
21300	12,051	0,	-36,286	9,4609
21301	12,519	0,	-35,42	9,2522
21302	12,988	0,	-34,553	9,0371
21303	13,453	0,	-33,688	8,8209
21304	13,92	0,	-32,821	8,605
21305	2,6123	0,	-49,418	7,0246
21306	19,931	0,	2,8728	15,537
21307	30,848	0,	-1,2303	21,976
21308	5,6922	0,	43,404	22,446
21309	3,5693	0,	-49,977	7,2638
21310	3,0165	0,	-50,576	6,6241
21311	2,5569	0,	-51,058	6,3785
21312	1,8684	0,	-50,887	5,9864
21313	1,1611	0,	-50,884	5,6979
21314	0,30811	0,	-50,896	5,5136
21315	-0,62026	0,	-50,918	5,6034
21316	-30,531	0,	-0,77674	22,913
21317	-3,2426	0,	-49,634	7,245
21318	-5,2241	0,	-48,742	8,7218
21319	-4,6473	0,	-49,128	8,2273
21320	-4,1525	0,	-49,732	7,6071
21321	-3,6864	0,	-50,288	7,0702
21322	-2,6972	0,	-50,642	6,536
21323	-1,6966	0,	-50,992	6,0003
21324	14,796	0,	-33,301	8,0207
21325	15,262	0,	-32,434	7,8294
21326	15,729	0,	-31,567	7,6369
21327	16,198	0,	-30,7	7,4449
21328	16,655	0,	-29,838	7,2612
21329	17,123	0,	-28,971	7,0768
21330	17,591	0,	-28,104	6,8987
21331	18,058	0,	-27,236	6,7286
21332	18,526	0,	-26,369	6,5682
21333	18,993	0,	-25,502	6,4193
21334	19,461	0,	-24,634	6,2836
21335	19,929	0,	-23,767	6,1629
21336	20,396	0,	-22,9	6,0594
21337	20,864	0,	-22,033	5,9752
21338	21,332	0,	-21,165	5,9127
21339	21,8	0,	-20,298	5,875
21340	22,267	0,	-19,431	5,8655
21341	22,735	0,	-18,564	5,8884
21342	23,203	0,	-17,697	5,9494
21343	23,671	0,	-16,83	6,0551
21344	24,139	0,	-15,963	6,2146
21345	24,606	0,	-15,096	6,4388
21346	25,073	0,	-14,228	6,743
21347	25,541	0,	-13,361	7,1451
21348	26,007	0,	-12,493	7,6682
21349	26,484	0,	-11,636	8,3163
21350	26,957	0,	-10,779	9,1385
21351	27,431	0,	-9,9253	10,146
21352	27,905	0,	-9,0687	11,359
21353	28,372	0,	-8,2153	12,745
21354	28,835	0,	-7,3584	14,229
21355	29,267	0,	-6,4588	15,768
21356	29,623	0,	-5,6161	16,973
21357	30,044	0,	-4,8205	18,035
21358	30,484	0,	-4,0549	19,07
21359	30,909	0,	-3,3114	20,049
21360	31,259	0,	-2,5664	20,768
21361	31,484	0,	-1,8285	21,132
21362	31,69	0,	-1,0299	21,285
21363	31,62	0,	-0,26786	21,453
21364	31,517	0,	0,5356	21,511
21365	31,359	0,	1,3661	21,449
21366	31,137	0,	2,2344	21,116
21367	30,845	0,	3,1231	20,322
21368	30,473	0,	3,9961	19,162
21369	30,072	0,	4,839	18,017
21370	29,707	0,	5,7345	16,855
21371	29,277	0,	6,6293	15,486
21372	28,81	0,	7,4914	14,008
21373	28,321	0,	8,3371	12,543
21374	27,844	0,	9,1799	11,202
21375	27,372	0,	10,023	10,037
21376	26,904	0,	10,878	9,0503
21377	26,432	0,	11,722	8,2706
21378	25,96	0,	12,586	7,635
21379	25,49	0,	13,454	7,1395
21380	25,014	0,	14,319	6,7691
21381	24,543	0,	15,198	6,484
21382	24,071	0,	16,076	6,2803
21383	23,599	0,	16,954	6,1434
21384	23,126	0,	17,833	6,0623
21385	22,654	0,	18,711	6,0285
21386	22,182	0,	19,589	6,0353
21387	21,71	0,	20,468	6,0779
21388	21,238	0,	21,346	6,1522
21389	20,293	0,	23,103	6,3846
21390	19,821	0,	23,981	6,5382
21391	19,348	0,	24,859	6,7146
21392	18,876	0,	25,738	6,9123
21393	18,404	0,	26,616	7,1301
21394	17,931	0,	27,494	7,3669
21395	17,459	0,	28,373	7,6217
21396	16,987	0,	29,251	7,8935
21397	16,515	0,	30,129	8,1812
21398	16,043	0,	31,008	8,4836
21399	15,571	0,	31,886	8,7994
21400	15,099	0,	32,764	9,1271
21401	14,145	0,	34,516	9,8151
21402	13,672	0,	35,394	10,167
21403	13,199	0,	36,272	10,522
21404	12,726	0,	37,15	10,878
21405	12,238	0,	38,034	11,242
21406	11,275	0,	39,789	11,951
21407	10,818	0,	40,659	12,27
21408	10,368	0,	41,531	12,549
21409	9,9179	0,	42,403	12,77
21410	9,4389	0,	43,283	12,933
21411	8,9336	0,	44,161	13,009
21412	8,404	0,	45,048	12,955
21413	7,8211	0,	45,937	12,913
21414	7,2583	0,	46,808	12,968
21415	6,8991	0,	47,744	12,879
21416	5,9569	0,	49,37	14,017
21417	5,4417	0,	49,896	14,695
21418	4,8525	0,	50,426	15,511
21419	4,0376	0,	50,794	16,513
21420	3,2168	0,	51,061	17,199
21421	2,4221	0,	51,331	17,462
21422	1,6005	0,	51,589	17,549
21423	0,84973	0,	51,849	17,571
21424	0,10438	0,	52,043	17,68
21425	-0,13136	0,	51,267	17,487
21426	-1,5032	0,	51,954	17,573
21427	-2,2269	0,	51,639	17,42
21428	-2,9388	0,	51,271	17,2
21429	-3,6538	0,	50,876	16,94
21430	-4,3551	0,	50,584	16,217
21431	-5,0357	0,	50,207	15,31
21432	-5,7561	0,	49,917	13,996
21433	-5,8926	0,	49,101	14,345
21434	-6,5736	0,	48,495	13,128
21435	-7,0947	0,	47,64	12,526
21436	-7,5433	0,	46,808	12,385
21437	-7,9787	0,	45,944	12,582
21438	-8,5261	0,	45,091	12,663
21439	-9,0098	0,	44,208	12,813
21440	-9,4729	0,	43,319	12,845
21441	-9,9243	0,	42,43	12,743
21442	-10,378	0,	41,544	12,532
21443	-10,838	0,	40,664	12,249
21444	-11,301	0,	39,786	11,93
21445	-11,774	0,	38,914	11,586
21446	-12,248	0,	38,036	11,236
21447	-12,721	0,	37,159	10,882
21448	-13,194	0,	36,281	10,526
21449	-13,666	0,	35,403	10,171
21450	-14,139	0,	34,526	9,8194
21451	-14,602	0,	33,646	9,4782
21452	-15,075	0,	32,769	9,1398
21453	-15,549	0,	31,892	8,8116
21454	-16,022	0,	31,014	8,4953
21455	-16,495	0,	30,137	8,1923
21456	-16,968	0,	29,259	7,904
21457	-17,441	0,	28,381	7,6316
21458	-17,914	0,	27,503	7,3761
21459	-18,387	0,	26,626	7,1386
21460	-18,861	0,	25,748	6,9202
21461	-19,334	0,	24,87	6,7218
21462	-19,807	0,	23,993	6,5447
21463	-20,28	0,	23,115	6,3902
21464	-20,754	0,	22,238	6,2599
21465	-21,227	0,	21,36	6,1557
21466	-21,7	0,	20,483	6,08
21467	-22,174	0,	19,605	6,0358
21468	-22,647	0,	18,728	6,027
21469	-23,121	0,	17,851	6,0584
21470	-23,594	0,	16,974	6,1369
21471	-24,07	0,	16,108	6,2625
21472	-24,541	0,	15,247	6,4515
21473	-25,015	0,	14,377	6,7232
21474	-25,944	0,	12,667	7,5623
21475	-26,402	0,	11,801	8,1953
21476	-26,855	0,	10,935	9,0028
21477	-27,302	0,	10,065	10,007
21478	-27,742	0,	9,1936	11,218
21479	-28,183	0,	8,3223	12,604
21480	-28,63	0,	7,4496	14,096
21481	-29,089	0,	6,5689	15,598
21482	-29,533	0,	5,7038	16,89
21483	-29,995	0,	4,8562	18,035
21484	-30,411	0,	4,025	19,138
21485	-30,804	0,	3,2083	20,209
21486	-31,15	0,	2,4939	20,881
21487	-31,43	0,	1,6072	21,378
21488	-31,836	0,	0,95159	21,192
21489	-31,621	0,	0,28211	21,472
21490	-31,49	0,	-0,73593	21,481
21491	-31,444	0,	-1,6361	21,304
21492	-31,538	0,	-2,3228	20,785
21493	-30,934	0,	-2,768	20,665
21494	-30,648	0,	-3,7324	19,532
21495	-30,27	0,	-4,6692	18,233
21496	-29,849	0,	-5,6099	17,002
21497	-29,288	0,	-6,4825	15,719
21498	-28,738	0,	-7,2698	14,399
21499	-28,362	0,	-8,1041	12,952
21500	-27,874	0,	-8,9767	11,529
21501	-27,417	0,	-9,851	10,272
21502	-26,952	0,	-10,72	9,2242
21503	-26,487	0,	-11,588	8,3736
21504	-26,021	0,	-12,444	7,7099
21505	-25,555	0,	-13,312	7,1795
21506	-25,089	0,	-14,18	6,7705
21507	-24,623	0,	-15,047	6,4602
21508	-24,157	0,	-15,915	6,2303
21509	-23,691	0,	-16,782	6,0663
21510	-23,224	0,	-17,65	5,9565
21511	-22,291	0,	-19,385	5,8661
21512	-21,825	0,	-20,253	5,8731
21513	-21,358	0,	-21,121	5,9087
21514	-20,892	0,	-21,988	5,9692
21515	-20,425	0,	-22,856	6,0517
21516	-19,958	0,	-23,724	6,1537
21517	-19,485	0,	-24,598	6,2759
21518	-19,018	0,	-25,466	6,4106
21519	-18,551	0,	-26,333	6,5587
21520	-18,084	0,	-27,2	6,7183
21521	-17,617	0,	-28,068	6,8876
21522	-17,15	0,	-28,935	7,065
21523	-16,683	0,	-29,802	7,2487
21524	-16,217	0,	-30,669	7,4369
21525	-15,75	0,	-31,537	7,6279
21526	-15,283	0,	-32,404	7,8201
21527	-14,816	0,	-33,271	8,0115
21528	-14,349	0,	-34,138	8,2007
21529	-13,882	0,	-35,005	8,3858
21530	-13,416	0,	-35,872	8,5652
21531	-12,949	0,	-36,739	8,737
21532	-12,482	0,	-37,605	8,8992
21533	-12,015	0,	-38,469	9,0494
21534	-11,55	0,	-39,331	9,185
21535	-11,089	0,	-40,188	9,3028
21536	-10,634	0,	-41,037	9,4014
21537	-10,167	0,	-41,881	9,4951
21538	-9,7056	0,	-42,727	9,5686
21539	-9,2453	0,	-43,579	9,622
21540	-8,7903	0,	-44,416	9,6355
21541	-8,3476	0,	-45,24	9,5876
21542	-7,9147	0,	-46,057	9,4367
21543	-7,5135	0,	-46,847	9,26
21544	-7,1363	0,	-47,607	9,0463
21545	-6,757	0,	-48,287	8,8312
21546	-6,2885	0,	-48,952	8,4893
21547	-5,727	0,	-49,575	8,0162
21548	-5,1491	0,	-50,065	7,6277
21549	-4,5575	0,	-50,567	7,218
21550	-3,9262	0,	-51,12	6,8198
21551	-3,2126	0,	-51,495	6,5549
21552	-2,4245	0,	-51,893	6,3228
21553	-1,8802	0,	-52,312	6,2008
21554	-1,3656	0,	-52,097	6,1078
21555	-0,48032	0,	-51,998	6,0109
21556	0,41814	0,	-51,937	5,9967
21557	1,2434	0,	-51,888	6,0798
21558	2,015	0,	-51,864	6,2274
21559	2,7539	0,	-51,726	6,3889
21560	3,5677	0,	-51,274	6,7053
21561	4,2305	0,	-50,702	7,0901
21562	4,8785	0,	-50,105	7,5886
21563	4,146	0,	-49,291	8,1363
21564	6,1998	0,	-49,429	8,1511
21565	6,3391	0,	-48,754	8,6635
21566	7,2614	0,	-47,098	9,2495
21567	7,7709	0,	-46,201	9,446
21568	8,2352	0,	-45,328	9,5933
21569	8,6979	0,	-44,469	9,6615
21570	9,1701	0,	-43,619	9,6456
21571	9,6509	0,	-42,773	9,5873
21572	10,135	0,	-41,921	9,504
21573	10,606	0,	-41,077	9,41
21574	11,071	0,	-40,218	9,3081
21575	11,536	0,	-39,355	9,1892
21576	11,999	0,	-38,491	9,056
21577	12,46	0,	-37,637	8,9082
21578	12,929	0,	-36,767	8,7457
21579	13,389	0,	-35,9	8,5787
21580	14,329	0,	-34,164	8,2102
21581	-5,4656	0,	43,47	23,726
21582	-0,45342	0,	39,367	15,478
21583	4,9162	0,	42,823	24,561
21584	4,2272	0,	48,008	19,708
21585	26,815	0,	-5,3772	19,804
21586	29,977	0,	-1,7012	22,63
21587	26,821	0,	5,3746	19,875
21588	20,8	0,	3,2352	17,005
21589	20,021	0,	-2,7921	15,533
21590	-2,3805	0,	-49,703	6,0926
21591	2,1724	0,	-50,065	6,0161
21592	5,5226	0,	-43,624	15,325
21593	0,46318	0,	-39,361	22,919
21594	-5,1547	0,	-42,683	16,687
21595	-26,697	0,	-5,3383	20,328
21596	-20,802	0,	-3,2529	16,806
21597	-20,038	0,	2,8067	15,573
21598	-25,923	0,	5,5788	20,054
21599	15,207	0,	-34,642	7,6191
21600	15,675	0,	-33,775	7,4533
21601	16,142	0,	-32,907	7,2793
21602	16,61	0,	-32,039	7,0987
21603	17,077	0,	-31,172	6,9136
21604	17,545	0,	-30,304	6,7264
21605	18,012	0,	-29,436	6,5392
21606	18,479	0,	-28,569	6,3542
21607	18,947	0,	-27,701	6,1736
21608	19,414	0,	-26,833	5,9992
21609	19,882	0,	-25,965	5,833
21610	20,349	0,	-25,098	5,6768
21611	20,817	0,	-24,23	5,5326
21612	21,284	0,	-23,362	5,4021
21613	21,751	0,	-22,495	5,2875
21614	22,219	0,	-21,627	5,191
21615	22,686	0,	-20,759	5,1152
21616	23,154	0,	-19,892	5,0635
21617	23,621	0,	-19,024	5,0399
21618	24,089	0,	-18,156	5,0499
21619	24,556	0,	-17,289	5,1004
21620	25,024	0,	-16,421	5,2007
21621	25,491	0,	-15,553	5,3632
21622	25,959	0,	-14,686	5,6042
21623	26,426	0,	-13,818	5,9452
21624	26,893	0,	-12,95	6,4133
21625	27,36	0,	-12,082	7,0406
21626	27,832	0,	-11,223	7,846
21627	28,299	0,	-10,355	8,8994
21628	28,774	0,	-9,5021	10,175
21629	29,239	0,	-8,6364	11,725
21630	29,705	0,	-7,7703	13,46
21631	30,148	0,	-6,9102	15,186
21632	30,591	0,	-6,0614	16,669
21633	31,025	0,	-5,2284	17,743
21634	31,476	0,	-4,4133	18,922
21635	31,822	0,	-3,5727	20,032
21636	32,105	0,	-2,7327	20,469
21637	32,309	0,	-1,878	20,727
21638	32,439	0,	-1,0166	20,897
21639	32,48	0,	-0,11089	20,958
21640	32,435	0,	0,77404	20,925
21641	32,308	0,	1,6746	20,792
21642	32,104	0,	2,5813	20,536
21643	31,827	0,	3,4746	20,097
21644	31,469	0,	4,3563	18,983
21645	31,045	0,	5,2241	17,781
21646	30,608	0,	6,0956	16,67
21647	29,685	0,	7,8585	13,286
21648	29,208	0,	8,7201	11,574
21649	28,735	0,	9,5901	10,04
21650	28,261	0,	10,444	8,7901
21651	27,79	0,	11,309	7,7718
21652	27,318	0,	12,177	6,9811
21653	26,844	0,	13,05	6,3824
21654	26,369	0,	13,917	5,9496
21655	25,896	0,	14,795	5,6301
21656	25,424	0,	15,674	5,4113
21657	24,951	0,	16,552	5,2724
21658	24,478	0,	17,43	5,1972
21659	24,006	0,	18,309	5,1737
21660	23,533	0,	19,187	5,1931
21661	23,06	0,	20,065	5,2488
21662	22,588	0,	20,944	5,3359
21663	22,115	0,	21,822	5,4508
21664	21,642	0,	22,701	5,5909
21665	21,169	0,	23,579	5,7542
21666	20,696	0,	24,457	5,9389
21667	20,224	0,	25,336	6,144
21668	19,751	0,	26,214	6,3682
21669	19,278	0,	27,092	6,6107
21670	18,805	0,	27,971	6,8706
21671	18,333	0,	28,849	7,1469
21672	17,86	0,	29,728	7,4386
21673	17,387	0,	30,606	7,7444
21674	16,915	0,	31,484	8,0629
21675	16,442	0,	32,363	8,3922
21676	15,969	0,	33,241	8,7299
21677	15,496	0,	34,119	9,0729
21678	15,023	0,	34,998	9,4171
21679	14,551	0,	35,876	9,7573
21680	14,078	0,	36,755	10,087
21681	13,605	0,	37,633	10,397
21682	13,133	0,	38,511	10,679
21683	12,649	0,	39,385	10,928
21684	12,186	0,	40,267	11,112
21685	11,712	0,	41,145	11,238
21686	11,237	0,	42,023	11,289
21687	10,775	0,	42,899	11,239
21688	10,298	0,	43,782	11,102
21689	9,8092	0,	44,663	10,89
21690	9,2956	0,	45,544	10,656
21691	8,7911	0,	46,411	10,417
21692	8,32	0,	47,273	10,252
21693	7,9289	0,	48,109	10,248
21694	7,56	0,	48,932	10,387
21695	7,0241	0,	49,811	10,866
21696	6,5058	0,	50,311	11,82
21697	5,8537	0,	50,718	13,11
21698	5,1367	0,	51,134	14,368
21699	4,2931	0,	51,599	15,596
21700	3,4605	0,	51,999	16,552
21701	2,621	0,	52,327	17,33
21702	1,7729	0,	52,582	17,921
21703	0,9329	0,	52,743	18,334
21704	9,7797e-002	0,	52,81	18,516
21705	-0,79584	0,	52,809	18,469
21706	-1,701	0,	52,693	18,122
21707	-2,5463	0,	52,477	17,484
21708	-3,3733	0,	52,169	16,683
21709	-4,1682	0,	51,802	15,702
21710	-4,9164	0,	51,388	14,62
21711	-5,644	0,	50,917	13,424
21712	-6,3199	0,	50,373	12,227
21713	-6,8562	0,	49,698	11,48
21714	-7,3334	0,	48,975	10,934
21715	-7,9318	0,	48,158	10,192
21716	-8,4127	0,	47,289	10,031
21717	-8,8709	0,	46,423	10,256
21718	-9,3578	0,	45,551	10,532
21719	-9,8397	0,	44,67	10,831
21720	-10,308	0,	43,787	11,081
21721	-10,773	0,	42,907	11,234
21722	-11,23	0,	42,027	11,294
21723	-11,703	0,	41,148	11,244
21724	-12,176	0,	40,27	11,118
21725	-12,649	0,	39,392	10,928
21726	-13,122	0,	38,514	10,685
21727	-13,595	0,	37,636	10,403
21728	-14,068	0,	36,758	10,092
21729	-14,541	0,	35,88	9,7626
21730	-15,014	0,	35,002	9,4225
21731	-15,487	0,	34,124	9,0783
21732	-15,96	0,	33,246	8,7353
21733	-16,433	0,	32,368	8,3975
21734	-17,379	0,	30,612	7,7494
21735	-17,852	0,	29,734	7,4434
21736	-18,325	0,	28,856	7,1516
21737	-18,798	0,	27,978	6,8751
21738	-19,271	0,	27,1	6,615
21739	-19,743	0,	26,222	6,3723
21740	-20,216	0,	25,344	6,1477
21741	-20,689	0,	24,466	5,9424
21742	-21,162	0,	23,588	5,7573
21743	-21,635	0,	22,71	5,5936
21744	-22,108	0,	21,832	5,4531
21745	-22,581	0,	20,954	5,3375
21746	-23,054	0,	20,076	5,2497
21747	-23,528	0,	19,198	5,1932
21748	-24,001	0,	18,32	5,1728
21749	-24,474	0,	17,442	5,1949
21750	-24,947	0,	16,565	5,2684
21751	-25,42	0,	15,687	5,4056
21752	-25,896	0,	14,823	5,6076
21753	-26,368	0,	13,957	5,9118
21754	-26,838	0,	13,08	6,3531
21755	-27,308	0,	12,205	6,9534
21756	-27,769	0,	11,339	7,7443
21757	-28,231	0,	10,463	8,7809
21758	-28,69	0,	9,5865	10,076
21759	-29,148	0,	8,7115	11,616
21760	-29,606	0,	7,8377	13,335
21761	-30,065	0,	6,9655	15,066
21762	-30,534	0,	6,0981	16,6
21763	-31,435	0,	4,3985	18,909
21764	-31,809	0,	3,5283	20,061
21765	-32,1	0,	2,6981	20,511
21766	-32,393	0,	1,8121	20,728
21767	-32,543	0,	1,0161	20,911
21768	-32,545	0,	0,11748	20,969
21769	-32,507	0,	-0,85381	20,933
21770	-32,429	0,	-1,7635	20,742
21771	-32,26	0,	-2,6098	20,53
21772	-31,963	0,	-3,39	20,141
21773	-31,533	0,	-4,2281	19,152
21774	-31,122	0,	-5,1335	17,908
21775	-30,662	0,	-6,0271	16,79
21776	-30,169	0,	-6,9	15,208
21777	-29,69	0,	-7,7429	13,516
21778	-29,227	0,	-8,5957	11,815
21779	-28,769	0,	-9,4597	10,265
21780	-28,301	0,	-10,327	8,9474
21781	-27,834	0,	-11,195	7,8875
21782	-27,367	0,	-12,063	7,059
21783	-26,9	0,	-12,93	6,4283
21784	-26,433	0,	-13,798	5,9573
21785	-25,966	0,	-14,666	5,6136
21786	-25,499	0,	-15,534	5,37
21787	-25,032	0,	-16,401	5,2054
21788	-24,565	0,	-17,269	5,1032
21789	-24,098	0,	-18,137	5,0512
21790	-23,631	0,	-19,004	5,04
21791	-23,164	0,	-19,872	5,0625
21792	-22,697	0,	-20,74	5,1133
21793	-22,23	0,	-21,607	5,1883
21794	-21,763	0,	-22,475	5,2842
21795	-21,296	0,	-23,343	5,3983
21796	-20,362	0,	-25,078	5,672
21797	-19,895	0,	-25,946	5,8276
21798	-19,428	0,	-26,814	5,9934
21799	-18,961	0,	-27,681	6,1674
21800	-18,494	0,	-28,549	6,3478
21801	-18,027	0,	-29,417	6,5325
21802	-17,56	0,	-30,284	6,7194
21803	-17,093	0,	-31,152	6,9064
21804	-16,626	0,	-32,02	7,0912
21805	-16,159	0,	-32,888	7,2716
21806	-15,693	0,	-33,755	7,4455
21807	-15,226	0,	-34,623	7,611
21808	-14,759	0,	-35,491	7,7667
21809	-14,292	0,	-36,358	7,9121
21810	-13,825	0,	-37,226	8,0476
21811	-13,357	0,	-38,094	8,1752
21812	-12,89	0,	-38,961	8,2987
21813	-12,422	0,	-39,829	8,4232
21814	-11,967	0,	-40,684	8,5498
21815	-11,508	0,	-41,54	8,6935
21816	-11,043	0,	-42,393	8,862
21817	-10,577	0,	-43,247	9,0469
21818	-10,113	0,	-44,104	9,2275
21819	-9,6584	0,	-44,95	9,3621
21820	-9,2083	0,	-45,792	9,3933
21821	-8,7647	0,	-46,628	9,2782
21822	-8,3338	0,	-47,456	9,0088
21823	-7,907	0,	-48,271	8,7742
21824	-7,3732	0,	-48,954	8,5112
21825	-6,2202	0,	-50,289	7,587
21826	-5,5884	0,	-50,892	7,2014
21827	-4,9309	0,	-51,398	6,9168
21828	-4,2103	0,	-51,885	6,6661
21829	-3,4475	0,	-52,353	6,4552
21830	-2,6395	0,	-52,739	6,3049
21831	-1,9259	0,	-52,958	6,2173
21832	-1,1162	0,	-53,051	6,1559
21833	-0,21915	0,	-53,033	6,1275
21834	0,68372	0,	-52,981	6,1392
21835	1,545	0,	-52,871	6,1908
21836	2,3409	0,	-52,674	6,2755
21837	4,0076	0,	-51,985	6,62
21838	4,7905	0,	-51,535	6,8662
21839	5,5251	0,	-51,042	7,1317
21840	6,2015	0,	-50,52	7,4669
21841	6,7768	0,	-49,929	7,8352
21842	7,2532	0,	-49,247	8,3159
21843	7,7188	0,	-48,461	8,705
21844	8,1641	0,	-47,607	8,9142
21845	8,6499	0,	-46,748	9,234
21846	9,1237	0,	-45,88	9,391
21847	9,5904	0,	-45,016	9,3758
21848	10,06	0,	-44,155	9,2494
21849	10,532	0,	-43,296	9,0684
21850	11,479	0,	-41,57	8,708
21851	11,944	0,	-40,71	8,5596
21852	12,412	0,	-39,842	8,4272
21853	12,87	0,	-38,98	8,3078
21854	13,338	0,	-38,111	8,184
21855	13,807	0,	-37,242	8,0556
21856	14,277	0,	-36,372	7,9186
21857	14,749	0,	-35,499	7,7708
21858	-4,2645	0,	47,269	22,562
21859	-4,5881	0,	46,253	26,14
21860	-5,0598	0,	44,441	26,212
21861	-4,8338	0,	45,303	27,387
21862	-4,723	0,	42,878	25,315
21863	-4,0652	0,	42,363	26,051
21864	-3,3865	0,	41,769	23,994
21865	-2,6612	0,	41,123	20,916
21866	-1,2029	0,	40,051	16,428
21867	-1,8702	0,	40,529	18,126
21868	0,31153	0,	39,871	15,21
21869	1,0665	0,	40,31	16,191
21870	1,7919	0,	40,674	18,022
21871	2,6723	0,	41,1	20,988
21872	4,2456	0,	42,276	25,614
21873	3,5009	0,	41,692	24,14
21874	5,2115	0,	44,401	25,018
21875	4,9123	0,	45,238	26,703
21876	4,5041	0,	47,148	22,111
21877	4,7386	0,	46,134	24,612
21878	3,1805	0,	48,899	18,232
21879	-3,7665	0,	48,388	19,516
21880	-2,7145	0,	49,039	19,191
21881	-1,5364	0,	49,655	17,988
21882	-0,2889	0,	49,987	17,874
21883	0,73063	0,	49,699	17,44
21884	1,6814	0,	49,418	17,697
21885	2,4553	0,	49,069	18,538
21886	27,476	0,	-4,4938	22,03
21887	27,996	0,	-3,8146	23,404
21888	29,22	0,	-2,4094	23,284
21889	28,647	0,	-3,0839	24,139
21890	29,846	0,	-1,1191	22,971
21891	29,584	0,	0,31018	23,517
21892	29,409	0,	1,2395	23,745
21893	29,094	0,	2,174	24,058
21894	28,572	0,	3,0662	24,207
21895	27,397	0,	4,4934	22,563
21896	27,933	0,	3,8112	23,639
21897	25,892	0,	5,1247	22,468
21898	25,049	0,	4,879	24,501
21899	24,175	0,	4,609	25,528
21900	23,304	0,	4,3535	24,042
21901	21,557	0,	3,5947	18,678
21902	22,399	0,	3,9991	21,349
21903	20,098	0,	1,8219	15,153
21904	20,135	0,	0,97661	14,716
21905	20,178	0,	1,8675e-003	14,392
21906	20,228	0,	-0,9785	14,724
21907	20,864	0,	-3,146	16,889
21908	21,61	0,	-3,4844	19,092
21909	22,413	0,	-3,9227	21,727
21910	25,931	0,	-5,0751	22,574
21911	25,168	0,	-4,8279	25,272
21912	24,257	0,	-4,6304	25,684
21913	23,312	0,	-4,3615	24,216
21914	-1,5216	0,	-49,774	5,2508
21915	-0,56352	0,	-49,837	4,0602
21916	1,2728	0,	-49,832	4,8271
21917	0,44364	0,	-49,814	3,8742
21918	3,0841	0,	-48,775	8,3481
21919	3,6811	0,	-47,976	10,943
21920	4,1739	0,	-47,065	14,003
21921	4,4609	0,	-46,187	16,96
21922	5,0995	0,	-44,521	16,882
21923	4,786	0,	-45,289	18,093
21924	4,7797	0,	-42,949	19,463
21925	4,1068	0,	-42,392	22,906
21926	3,3965	0,	-41,757	25,169
21927	2,6733	0,	-41,118	25,45
21928	1,2042	0,	-40,053	24,924
21929	1,8776	0,	-40,528	25,14
21930	-0,30145	0,	-39,868	22,435
21931	-1,0506	0,	-40,298	25,839
21932	-1,7606	0,	-40,653	25,653
21933	-2,6442	0,	-41,118	25,607
21934	-4,2499	0,	-42,623	22,385
21935	-3,415	0,	-41,768	25,297
21936	-5,039	0,	-43,562	17,84
21937	-4,4658	0,	-43,833	23,342
21938	-4,9271	0,	-44,805	18,13
21939	-3,548	0,	-48,921	8,5493
21940	-4,1128	0,	-48,132	10,408
21941	-4,3873	0,	-46,923	14,08
21942	-4,6633	0,	-45,983	16,718
21943	-28,823	0,	-3,026	23,44
21944	-27,327	0,	-4,535	22,536
21945	-28,257	0,	-4,0537	21,31
21946	-25,945	0,	-5,0575	22,584
21947	-25,217	0,	-4,8313	24,971
21948	-24,285	0,	-4,6403	25,746
21949	-23,316	0,	-4,3937	24,009
21950	-21,555	0,	-3,606	18,806
21951	-22,373	0,	-3,9963	21,318
21952	-20,084	0,	-1,8398	15,07
21953	-20,124	0,	-0,98087	14,767
21954	-20,175	0,	-6,0762e-003	14,407
21955	-20,213	0,	1,8051	15,16
21956	-20,239	0,	0,97294	14,741
21957	-20,878	0,	3,1655	16,944
21958	-21,625	0,	3,4967	19,146
21959	-22,453	0,	3,947	21,868
21960	-23,342	0,	4,3978	24,132
21961	-25,425	0,	4,847	24,969
21962	-24,326	0,	4,6503	25,75
21963	-26,632	0,	4,8843	22,553
21964	-29,302	0,	-1,9912	23,723
21965	-29,604	0,	-0,88131	23,641
21966	-29,674	0,	0,24155	23,639
21967	-29,486	0,	1,2632	23,776
21968	-29,116	0,	2,2099	23,941
21969	-28,576	0,	3,0893	24,239
21970	-27,679	0,	4,0217	24,08
21971	-26,526	0,	4,2984	27,78
21972	-10,817	0,	-19,731	9,1297
21973	-6,3979	0,	-25,923	11,368
21974	-5,1683	0,	-26,179	11,74
21975	-6,7914	0,	29,038	11,699
21976	-0,2197	0,	-16,545	7,72
21977	-3,2273	0,	25,248	10,683
21978	-3,2961	0,	23,	9,8053
21979	-9,9762	0,	40,176	13,332
21980	3,9579	0,	32,731	13,724
21981	12,21	0,	-14,994	8,8258
21982	-8,3297	0,	-15,991	8,3313
21983	-14,409	0,	-12,946	9,3516
21984	12,354	0,	-12,778	8,9565
21985	-14,444	0,	-10,893	9,7815
21986	-11,44	0,	-29,096	10,133
21987	-19,638	0,	-6,2108	13,828
21988	3,1339	0,	-52,389	6,4145
21989	-7,7213	0,	14,836	7,8572
21990	9,6302	0,	-13,501	8,3212
21991	2,1742	0,	-8,0696	7,2659
21992	30,155	0,	6,9846	15,078
21993	-10,502	0,	-30,806	10,781
21994	6,9902	0,	-14,076	7,8189
21995	-13,115	0,	23,722	9,1831
21996	8,1974	0,	-32,864	12,57
21997	-10,907	0,	23,58	9,5664
21998	-7,0056	0,	-43,471	11,487
21999	-11,72	0,	-18,03	8,9175
22000	5,4152	0,	-8,633	7,6169
22001	16,077	0,	-2,1051	13,157
22002	-20,829	0,	-24,211	5,5282
22003	-15,212	0,	28,299	8,7397
22004	-9,8503	0,	-23,625	9,9491
22005	-10,12	0,	20,832	9,1235
22006	15,989	0,	4,9191	12,311
22007	-18,191	0,	-22,788	7,2661
22008	8,5978	0,	30,153	11,586
22009	6,7424	0,	33,656	13,507
22010	18,365	0,	-16,214	8,6313
22011	-10,979	0,	21,344	9,1816
22012	16,624	0,	-15,274	9,07
22013	11,931	0,	-23,817	9,4828
22014	-12,111	0,	11,041	8,9783
22015	-10,828	0,	25,816	9,9804
22016	-12,578	0,	-18,516	8,9452
22017	-6,2498	0,	1,4561	8,9356
22018	27,6	0,	-5,8128	17,722
22019	8,157	0,	37,06	14,417
22020	-7,2539	0,	28,191	11,329
22021	-7,3477	0,	25,944	10,618
22022	-9,8027	0,	-25,845	10,403
22023	-5,6019	0,	27,064	11,2
22024	7,0448	0,	26,793	10,922
22025	-0,46989	0,	-10,234	6,8901
22026	-12,064	0,	15,229	8,6491
22027	11,005	0,	-42,438	8,8801
22028	-3,6495	0,	35,426	15,228
22029	-15,322	0,	-11,355	9,879
22030	-10,284	0,	16,409	8,4529
22031	7,7173	0,	-18,994	8,9494
22032	-24,77	0,	-5,7345	19,675
22033	7,187	0,	-38,898	13,467
22034	-16,906	0,	31,49	8,0681
22035	20,201	0,	-1,8025	15,112
22036	-10,175	0,	-10,284	8,6242
22037	-8,2088	0,	11,897	7,8532
22038	-0,12553	0,	20,765	8,9095
22039	11,676	0,	13,823	8,6011
22040	15,847	0,	22,943	8,4198
22041	-21,358	0,	4,4908	17,211
22042	-2,4417	0,	38,42	17,173
22043	9,1475	0,	-28,935	11,265
22044	-8,3419	0,	22,012	9,4275
22045	3,575	0,	10,434	7,0746
22046	-13,392	0,	-21,21	8,9725
22047	-3,1644	0,	-23,563	10,775
22048	-12,883	0,	17,915	8,7889
22049	6,4608	0,	-44,167	12,085
22050	18,936	0,	11,233	10,432
22051	3,872	0,	-7,1074	7,6263
22052	0,29637	0,	-13,456	6,9721
22053	-6,8237	0,	-49,637	8,0267
22054	9,6384	0,	-7,4297	8,9245
22055	0,99131	0,	-1,95	8,2683
22056	-11,838	0,	-11,301	8,9849
22057	-1,2053	0,	-15,048	7,3046
22058	-0,96324	0,	-37,883	22,399
22059	-4,5287	0,	31,017	12,871
22060	12,521	0,	7,6594	9,8432
22061	-30,99	0,	5,2447	17,704
22062	-2,0139	0,	-6,4728	7,5595
22063	14,398	0,	10,684	9,7126
22064	-14,201	0,	-23,921	8,7833
22065	5,7048	0,	14,501	7,4738
22066	-1,7639	0,	-20,099	9,165
22067	-4,3289	0,	34,633	14,682
22068	-7,9048	0,	-31,502	12,502
22069	-15,622	0,	12,864	9,4602
22070	9,7447	0,	-11,389	8,3936
22071	-4,3909	0,	-2,2312	8,534
22072	6,6899	0,	-25,085	10,998
22073	12,856	0,	-22,107	9,1225
22074	-8,3728	0,	-40,926	11,172
22075	24,575	0,	5,6658	19,878
22076	3,2148	0,	19,372	8,4563
22077	-1,0951	0,	38,59	16,02
22078	7,3479	0,	15,626	7,8989
22079	14,72	0,	-18,679	8,7857
22080	-8,3561	0,	-13,778	8,062
22081	-7,1588	0,	30,449	12,098
22082	-10,748	0,	28,056	10,42
22083	0,66798	0,	15,355	7,1661
22084	-9,058	0,	-20,888	9,4368
22085	-13,583	0,	22,849	9,0134
22086	5,4234	0,	25,659	10,719
22087	5,2304	0,	-17,297	8,2625
22088	3,6727	0,	-13,905	7,2687
22089	-9,0402	0,	27,025	10,633
22090	28,533	0,	-5,0653	18,538
22091	9,2346	0,	35,236	12,895
22092	-15,18	0,	-19,985	8,6358
22093	1,4111	0,	8,3669	7,1767
22094	-9,1723	0,	-16,513	8,532
22095	-6,6949	0,	35,127	14,284
22096	9,0901	0,	-31,16	11,687
22097	17,887	0,	-17,062	8,507
22098	7,7927	0,	2,8537	9,1712
22099	-4,9807	0,	48,504	17,013
22100	-8,4251	0,	-3,7933	9,2248
22101	-23,223	0,	13,534	8,4078
22102	-23,497	0,	6,5111	16,408
22103	21,315	0,	-4,4224	17,203
22104	4,9058	0,	-28,38	12,802
22105	5,2328	0,	4,6376	8,3219
22106	-16,174	0,	-13,896	9,3714
22107	1,4041	0,	-7,4421	7,331
22108	-6,9302	0,	12,15	7,561
22109	6,4696	0,	17,28	8,1008
22110	-23,782	0,	-12,4	8,9925
22111	8,0972	0,	-37,285	12,782
22112	-13,876	0,	11,937	9,3005
22113	-18,621	0,	-8,9084	11,669
22114	3,0022	0,	11,269	6,9525
22115	-5,7504	0,	-18,713	8,757
22116	15,916	0,	20,709	8,4825
22117	-21,361	0,	16,922	7,478
22118	18,526	0,	22,153	7,4569
22119	-1,8149	0,	12,811	6,8617
22120	-2,4748	0,	-20,756	9,4694
22121	-5,5296	0,	-27,592	12,261
22122	14,06	0,	-13,759	9,1743
22123	-26,585	0,	6,7537	15,953
22124	-1,6357	0,	-26,807	12,587
22125	0,88795	0,	-25,308	11,788
22126	-4,8902	0,	-20,343	9,3177
22127	-20,167	0,	-14,897	8,6893
22128	-0,85881	0,	21,22	9,0917
22129	-2,2114	0,	29,168	12,319
22130	-8,0069	0,	30,988	12,031
22131	5,1112	0,	-21,71	9,8614
22132	6,1057	0,	-15,688	7,9448
22133	5,2816	0,	-15,112	7,7046
22134	4,5634	0,	-33,827	15,794
22135	-5,0571	0,	-13,758	7,4405
22136	12,798	0,	-24,318	9,2627
22137	-8,4135	0,	19,782	8,8705
22138	-5,5896	0,	-25,355	11,31
22139	3,3643	0,	-24,947	11,434
22140	6,409	0,	-36,298	14,796
22141	-16,476	0,	15,477	8,9847
22142	12,974	0,	-17,697	8,9079
22143	24,187	0,	11,694	9,4545
22144	8,6833	0,	-15,149	8,2629
22145	16,137	0,	1,071	13,327
22146	2,4153	0,	-37,07	20,348
22147	10,002	0,	-29,458	10,92
22148	-6,2548	0,	-7,462	7,9871
22149	16,537	0,	-17,455	8,6711
22150	-12,61	0,	-33,176	9,4202
22151	2,7048	0,	22,398	9,5711
22152	-18,178	0,	18,606	8,1565
22153	19,379	0,	-10,442	10,946
22154	11,351	0,	-14,496	8,6885
22155	3,2392	0,	17,141	7,7477
22156	12,238	0,	25,448	9,5834
22157	-10,199	0,	-27,22	10,501
22158	-6,0957	0,	-32,721	14,102
22159	11,14	0,	31,683	10,965
22160	13,342	0,	31,798	9,9228
22161	10,454	0,	26,678	10,232
22162	-7,2786	0,	-24,251	10,601
22163	-2,5504	0,	20,159	8,7137
22164	-12,213	0,	-31,819	9,743
22165	18,049	0,	-8,3084	11,814
22166	-4,0878	0,	-6,8421	7,7076
22167	-16,142	0,	-16,066	8,9416
22168	2,4013	0,	37,946	16,737
22169	-14,471	0,	-29,714	8,4903
22170	12,571	0,	-3,1342	10,976
22171	13,86	0,	-35,03	8,3969
22172	13,306	0,	19,241	8,8412
22173	-5,2933	0,	-46,88	11,683
22174	11,58	0,	18,243	8,7638
22175	8,9592	0,	18,922	8,7105
22176	2,7841	0,	8,2143	7,3008
22177	-25,403	0,	-6,9002	15,925
22178	-3,4161	0,	18,556	8,1923
22179	-9,9319	0,	0,98091	10,041
22180	-21,456	0,	-16,726	7,425
22181	3,5007	0,	-20,504	9,367
22182	10,77	0,	15,522	8,4546
22183	7,3708	0,	-32,324	13,062
22184	13,457	0,	12,612	9,0923
22185	15,153	0,	15,79	8,9269
22186	20,549	0,	14,224	8,9104
22187	2,8867	0,	-25,78	11,905
22188	-1,6236	0,	-24,552	11,353
22189	-3,2358	0,	-21,373	9,7485
22190	20,641	0,	12,078	9,9861
22191	5,4372	0,	6,2613	8,044
22192	4,575	0,	-41,522	17,822
22193	-2,8638	0,	0,89743	8,4652
22194	-7,1513	0,	-28,706	12,108
22195	-4,2606	0,	-13,165	7,2503
22196	10,394	0,	-0,31363	10,248
22197	1,5675	0,	34,39	14,62
22198	2,9625	0,	-8,7592	7,2262
22199	6,6067	0,	12,878	7,5019
22200	1,6097	0,	13,728	6,9278
22201	-10,938	0,	-13,086	8,6157
22202	-17,723	0,	-23,656	7,3574
22203	-2,7416	0,	11,329	6,9242
22204	-4,348	0,	14,735	7,317
22205	6,3565	0,	21,742	9,3638
22206	-1,9206	0,	15,051	7,1515
22207	2,4207	0,	2,9474	8,2453
22208	-4,0944	0,	23,616	10,032
22209	-5,0252	0,	19,762	8,681
22210	10,866	0,	11,138	8,6082
22211	-3,5242	0,	-10,257	7,1181
22212	5,3643	0,	-10,781	7,3801
22213	-14,41	0,	-8,3473	10,466
22214	-13,578	0,	-10,26	9,6787
22215	10,237	0,	-10,582	8,6073
22216	5,3125	0,	30,185	12,402
22217	-6,2114	0,	21,746	9,3643
22218	-10,199	0,	18,612	8,735
22219	-8,7553	0,	-32,017	12,036
22220	6,0901	0,	15,887	7,7546
22221	-2,5649	0,	-18,504	8,5088
22222	-10,887	0,	-15,327	8,641
22223	8,7007	0,	10,946	8,0387
22224	-19,926	0,	-2,8949	15,472
22225	5,7842	0,	-26,735	11,835
22226	-8,2782	0,	-18,175	8,7734
22227	-5,1677	0,	-9,1435	7,4977
22228	-3,3618	0,	2,8416	8,3441
22229	7,5994	0,	-23,413	10,281
22230	15,98	0,	18,48	8,6234
22231	-15,079	0,	2,0042	12,538
22232	-9,3071	0,	-9,8334	8,4243
22233	14,369	0,	0,78596	12,245
22234	17,304	0,	-22,323	7,7316
22235	-15,4	0,	21,603	8,5742
22236	2,4295	0,	14,316	7,059
22237	18,427	0,	-14,061	9,3049
22238	-12,421	0,	-25,145	9,4387
22239	9,9516	0,	12,822	8,2418
22240	-12,26	0,	-5,7768	10,272
22241	5,7437	0,	-28,946	12,764
22242	-7,4994	0,	-15,459	8,1119
22243	6,7066	0,	-47,957	9,009
22244	8,8826	0,	33,825	12,617
22245	6,9674	0,	-5,4104	8,5381
22246	-23,876	0,	-5,4954	19,979
22247	-23,356	0,	-11,083	10,26
22248	-13,512	0,	-14,619	9,0138
22249	-16,897	0,	16,798	8,7265
22250	18,667	0,	17,693	8,215
22251	-19,906	0,	6,0945	14,046
22252	13,067	0,	-15,492	8,9183
22253	-6,5111	0,	25,389	10,535
22254	-0,43015	0,	9,3424	6,9867
22255	-0,16524	0,	-11,058	6,8406
22256	7,9254	0,	25,095	10,298
22257	-25,487	0,	11,409	9,1749
22258	-5,9757	0,	15,913	7,7436
22259	-3,0645	0,	27,515	11,591
22260	19,604	0,	6,1717	13,787
22261	20,765	0,	22,224	6,2552
22262	-18,842	0,	-11,017	10,589
22263	18,522	0,	-11,988	10,114
22264	16,963	0,	14,55	9,1761
22265	-3,4928	0,	16,334	7,5538
22266	7,3902	0,	8,9967	7,9537
22267	16,89	0,	2,2759	13,618
22268	-0,18179	0,	6,6457	7,4815
22269	-11,957	0,	32,181	10,663
22270	17,789	0,	9,6175	11,01
22271	-8,8143	0,	-29,777	11,599
22272	7,983	0,	-10,446	7,9933
22273	-2,5009	0,	22,37	9,5587
22274	-7,5739	0,	19,242	8,6894
22275	22,464	0,	10,818	10,637
22276	-9,0054	0,	-23,105	9,9849
22277	7,2323	0,	20,063	8,8875
22278	-9,4882	0,	11,61	8,1878
22279	4,0946	0,	-13,126	7,2229
22280	10,14	0,	-25,009	10,145
22281	11,727	0,	9,3985	9,156
22282	-11,213	0,	12,606	8,5593
22283	6,5968	0,	10,629	7,5688
22284	4,582	0,	38,457	17,974
22285	-10,224	0,	-2,7978	9,9922
22286	-6,0117	0,	-45,169	12,316
22287	2,4633	0,	18,753	8,2094
22288	11,227	0,	29,441	10,513
22289	-4,483	0,	41,463	23,301
22290	9,2188	0,	24,771	10,05
22291	-5,2771	0,	11,036	7,2819
22292	-17,436	0,	-17,877	8,4263
22293	-1,9463	0,	-11,363	6,9057
22294	-18,305	0,	12,109	9,9968
22295	16,004	0,	-20,509	8,3961
22296	9,0355	0,	-33,387	11,991
22297	-16,518	0,	-19,596	8,3644
22298	-6,3202	0,	29,892	12,097
22299	2,396	0,	-28,888	13,716
22300	12,051	0,	-19,404	9,0313
22301	-2,3215	0,	-22,964	10,518
22302	10,074	0,	-27,23	10,553
22303	3,5515	0,	-18,286	8,4724
22304	6,4879	0,	35,966	14,883
22305	-9,0838	0,	-7,5472	8,726
22306	29,546	0,	-3,6152	20,444
22307	-25,48	0,	13,524	7,0834
22308	-13,503	0,	25,085	9,1973
22309	13,572	0,	-29,247	9,0031
22310	-22,758	0,	-18,518	5,8921
22311	-21,765	0,	9,8575	11,476
22312	14,907	0,	24,694	8,7332
22313	14,845	0,	-2,7705	12,277
22314	7,7703	0,	-16,804	8,4131
22315	5,3714	0,	27,909	11,532
22316	-5,5522	0,	-41,814	15,167
22317	20,712	0,	-6,2868	14,517
22318	-6,4263	0,	27,632	11,288
22319	-2,4719	0,	24,61	10,448
22320	-13,523	0,	-12,417	9,2612
22321	4,0444	0,	15,536	7,4273
22322	10,289	0,	31,185	11,235
22323	-20,367	0,	-4,2558	15,762
22324	-13,336	0,	-23,434	9,058
22325	8,7661	0,	-12,997	8,1123
22326	-3,9936	0,	49,57	17,782
22327	-12,612	0,	-16,316	8,8723
22328	21,129	0,	11,231	10,465
22329	-9,8039	0,	29,785	11,094
22330	-10,742	0,	-36,637	10,417
22331	7,686	0,	31,893	12,447
22332	-13,434	0,	-19,	8,9121
22333	11,757	0,	38,912	11,599
22334	14,627	0,	33,643	9,4648
22335	-12,958	0,	13,568	8,8763
22336	3,3884	0,	-34,093	16,875
22337	5,0481	0,	-23,925	10,787
22338	6,0515	0,	-17,875	8,5127
22339	-4,2344	0,	-15,361	7,6239
22340	-1,0983	0,	-12,933	6,9282
22341	13,845	0,	-18,189	8,8815
22342	-9,541	0,	9,5301	8,4481
22343	13,411	0,	14,814	8,8576
22344	-18,389	0,	9,8737	11,027
22345	16,937	0,	-18,788	8,378
22346	4,517	0,	-26,964	12,236
22347	10,386	0,	-16,19	8,6412
22348	22,386	0,	-15,016	7,8312
22349	-8,2699	0,	24,246	10,026
22350	0,2917	0,	-30,863	15,325
22351	18,492	0,	-10,075	11,014
22352	-15,402	0,	-27,982	8,0902
22353	-19,883	0,	-8,4041	12,353
22354	-17,387	0,	13,797	9,3783
22355	-7,4577	0,	-42,615	11,298
22356	16,545	0,	-6,8723	11,883
22357	9,0663	0,	14,5	8,0808
22358	7,4065	0,	-30,081	12,416
22359	-4,6659	0,	-29,298	13,323
22360	0,75282	0,	-28,12	13,428
22361	-4,8301	0,	-22,557	10,223
22362	17,924	0,	12,887	9,683
22363	6,4141	0,	-7,0524	8,0966
22364	3,6811	0,	-1,7438	8,4872
22365	12,118	0,	-1,2332	10,983
22366	-5,8786	0,	-12,108	7,4595
22367	-13,54	0,	-31,445	8,9374
22368	-0,83415	0,	18,804	8,1813
22369	-4,1661	0,	4,4638	8,1885
22370	-11,917	0,	19,625	8,9133
22371	1,8221	0,	-21,474	9,8033
22372	-0,62866	0,	-17,845	8,1955
22373	9,9659	0,	8,5038	8,7588
22374	17,58	0,	23,906	7,7049
22375	-24,719	0,	-10,678	10,267
22376	13,364	0,	17,022	8,7875
22377	19,086	0,	1,825	14,863
22378	-20,414	0,	18,66	7,3221
22379	19,473	0,	20,401	7,3229
22380	-16,325	0,	-26,255	7,7495
22381	26,294	0,	-6,2267	17,504
22382	-6,6939	0,	-12,686	7,6443
22383	-6,9935	0,	32,739	13,015
22384	-6,8377	0,	-6,563	8,2883
22385	17,717	0,	-11,528	10,242
22386	-14,686	0,	16,696	8,8372
22387	-7,8011	0,	-33,742	13,026
22388	-11,679	0,	-34,907	9,9241
22389	-2,8744	0,	9,2431	7,1405
22390	-2,7396	0,	-9,6561	7,0838
22391	-9,468	0,	13,722	8,1289
22392	5,4908	0,	23,405	9,9252
22393	10,268	0,	18,595	8,7366
22394	-6,8796	0,	14,29	7,6471
22395	21,219	0,	4,6417	16,78
22396	7,0427	0,	35,087	14,094
22397	1,8278	0,	5,6965	7,7284
22398	-9,6549	0,	-30,296	11,224
22399	-22,852	0,	-14,132	8,1434
22400	-9,3176	0,	-39,225	10,999
22401	-10,238	0,	-4,9554	9,634
22402	-9,1174	0,	24,781	10,066
22403	16,913	0,	16,737	8,735
22404	-20,92	0,	11,396	10,375
22405	-14,387	0,	-15,112	9,055
22406	-3,1725	0,	-25,792	11,879
22407	-4,1101	0,	-19,752	9,0661
22408	-4,3977	0,	12,556	7,1161
22409	-18,089	0,	-1,7441	14,394
22410	6,6389	0,	4,5685	8,6141
22411	2,1611	0,	9,0548	7,107
22412	8,5708	0,	17,55	8,4038
22413	-8,9538	0,	16,726	8,3111
22414	3,2573	0,	12,697	6,9785
22415	-11,692	0,	26,322	9,8506
22416	-14,256	0,	-6,4035	10,997
22417	7,4661	0,	-27,852	11,712
22418	-3,6033	0,	-7,7988	7,4625
22419	-13,061	0,	1,5854	11,426
22420	12,604	0,	12,093	8,96
22421	-23,06	0,	-7,9332	13,727
22422	19,606	0,	15,945	8,4635
22423	0,20821	0,	18,934	8,2205
22424	-20,523	0,	-18,457	7,2055
22425	-10,056	0,	-1,3406	10,074
22426	10,321	0,	-18,389	8,9253
22427	-23,187	0,	11,492	9,9475
22428	13,07	0,	-1,5405	11,449
22429	-4,0016	0,	25,868	10,89
22430	-11,785	0,	-13,609	8,7823
22431	-19,267	0,	-7,1462	12,987
22432	10,62	0,	-11,843	8,598
22433	18,278	0,	8,7857	11,564
22434	2,944	0,	-11,062	7,0033
22435	13,324	0,	-21,251	8,987
22436	13,969	0,	26,444	9,1459
22437	4,1599	0,	-3,5574	8,3272
22438	-12,289	0,	-29,591	9,6998
22439	-6,7311	0,	-10,459	7,6868
22440	-19,122	0,	16,879	8,3023
22441	8,9837	0,	-35,606	12,072
22442	-5,0546	0,	35,205	14,901
22443	-5,9047	0,	18,128	8,2563
22444	10,596	0,	22,192	9,3535
22445	-10,051	0,	23,07	9,5722
22446	-15,225	0,	-17,782	8,793
22447	22,021	0,	-9,5366	11,798
22448	-0,75936	0,	-21,709	9,9201
22449	0,61137	0,	-6,7282	7,4431
22450	-19,588	0,	7,071	13,14
22451	9,0066	0,	1,2031	9,6994
22452	17,041	0,	12,435	9,7657
22453	8,2321	0,	28,749	11,283
22454	13,926	0,	-15,992	8,9571
22455	-12,938	0,	15,718	8,7624
22456	-0,10148	0,	22,933	9,7772
22457	-7,9032	0,	-4,6924	8,919
22458	-16,843	0,	33,72	8,3537
22459	-2,8948	0,	53,479	18,789
22460	-1,9454	0,	53,716	20,042
22461	8,1249	0,	-49,812	7,7492
22462	-33,642	0,	-5,2042e-015	21,359
22463	-1,4184	0,	48,74	16,272
22464	-0,48215	0,	48,971	13,607
22465	0,48215	0,	48,971	13,701
22466	3,7364	0,	-53,399	6,4026
22467	-29,61	0,	10,01	8,4697
22468	-2,2723	0,	48,292	22,561
22469	-19,207	0,	29,329	6,6604
22470	-14,479	0,	38,111	10,031
22471	-14,006	0,	38,989	10,273
22472	6,3288	0,	51,65	11,497
22473	-32,872	0,	3,8495	19,947
22474	-33,206	0,	2,9205	20,417
22475	-33,594	0,	0,98628	21,259
22476	-33,448	0,	1,9629	20,922
22477	-0,48215	0,	-48,971	1,9278
22478	1,4184	0,	48,74	16,376
22479	-1,4184	0,	-48,74	5,1522
22480	-9,7504	0,	46,892	7,8263
22481	-14,952	0,	37,232	9,7389
22482	-33,594	0,	-0,98628	21,218
22483	-33,206	0,	-2,9205	20,402
22484	-33,448	0,	-1,9629	20,896
22485	-17,789	0,	31,964	7,6474
22486	-17,316	0,	32,842	7,9974
22487	-27,272	0,	3,2919	34,095
22488	-26,418	0,	3,7401	36,872
22489	-18,735	0,	30,207	6,9771
22490	-18,262	0,	31,085	7,3066
22491	7,0553	0,	50,994	9,7729
22492	7,7142	0,	50,271	8,3912
22493	-28,542	0,	-1,8589	26,081
22494	32,876	0,	3,8418	19,944
22495	-15,425	0,	36,354	9,4135
22496	-16,37	0,	34,598	8,7123
22497	-15,897	0,	35,476	9,068
22498	-28,542	0,	1,8589	26,277
22499	-27,994	0,	2,6525	30,342
22500	-7,5522	0,	-50,58	7,3128
22501	3,5418	0,	46,859	37,556
22502	2,2723	0,	48,292	22,639
22503	2,994	0,	47,652	29,377
22504	5,4254	0,	-52,5	6,6473
22505	4,6029	0,	-52,991	6,5128
22506	-2,834	0,	-53,721	6,3039
22507	-3,7364	0,	-53,399	6,3959
22508	2,2723	0,	-41,708	34,532
22509	-7,0553	0,	50,994	9,8011
22510	-6,3288	0,	51,65	11,504
22511	2,8948	0,	53,479	18,77
22512	1,9454	0,	53,716	20,034
22513	-31,501	0,	6,4973	17,774
22514	-32,447	0,	4,741	20,345
22515	-31,974	0,	5,6191	19,999
22516	-13,533	0,	39,867	10,444
22517	-13,06	0,	40,745	10,518
22518	33,597	0,	0,9843	21,202
22519	33,645	0,	8,6736e-016	21,319
22520	33,21	0,	-2,9146	20,395
22521	32,876	0,	-3,8418	19,936
22522	-2,2723	0,	-41,708	34,479
22523	23,582	0,	3,7401	30,266
22524	24,518	0,	3,9708	33,794
22525	0,9774	0,	53,86	20,83
22526	-0,9774	0,	53,86	20,834
22527	8,6736e-016	0,	53,907	21,107
22528	-28,192	0,	12,644	5,3431
22529	-27,719	0,	13,522	4,8357
22530	3,8165	0,	53,15	17,169
22531	4,7017	0,	52,733	15,334
22532	5,5418	0,	52,231	13,406
22533	-25,354	0,	17,913	4,131
22534	-22,728	0,	-3,2919	26,03
22535	-5,5418	0,	52,231	13,402
22536	-4,7017	0,	52,733	15,34
22537	-3,8165	0,	53,15	17,179
22538	27,272	0,	-3,2919	34,087
22539	-31,029	0,	7,3754	15,103
22540	27,272	0,	3,2919	34,556
22541	27,994	0,	2,6525	30,206
22542	-1,9046	0,	-53,953	6,2365
22543	-3,4694e-015	0,	-54,14	6,1873
22544	-0,95687	0,	-54,093	6,1993
22545	-2,994	0,	47,652	30,057
22546	-28,884	0,	0,95726	22,93
22547	22,728	0,	-3,2919	26,081
22548	2,2723	0,	-48,292	9,5702
22549	0,95687	0,	-54,093	6,2039
22550	2,834	0,	-53,721	6,3125
22551	1,9046	0,	-53,953	6,2443
22552	3,8838	0,	45,957	41,829
22553	4,	0,	45,	41,109
22554	-4,6029	0,	-52,991	6,5079
22555	0,48215	0,	41,029	16,129
22556	-0,48215	0,	41,029	16,042
22557	3,8838	0,	44,043	36,046
22558	8,2992	0,	49,486	7,4358
22559	-3,5418	0,	-46,859	18,779
22560	-3,8838	0,	-45,957	23,704
22561	-27,272	0,	-3,2919	33,596
22562	-27,994	0,	-2,6525	29,907
22563	-11,169	0,	44,258	9,4087
22564	-9,2776	0,	47,77	7,6569
22565	-5,4254	0,	-52,5	6,6446
22566	-6,1959	0,	-51,93	6,8115
22567	-6,9071	0,	-51,288	7,0175
22568	-29,137	0,	10,888	7,0921
22569	-28,664	0,	11,766	6,0735
22570	-22,517	0,	23,182	4,8776
22571	-21,116	0,	-0,95726	15,056
22572	2,994	0,	-42,348	35,657
22573	-20,626	0,	26,695	5,7978
22574	-20,153	0,	27,573	6,0699
22575	-19,68	0,	28,451	6,3577
22576	-26,3	0,	16,157	4,1672
22577	-25,827	0,	17,035	4,1216
22578	-25,482	0,	3,9708	35,809
22579	-24,518	0,	3,9708	33,915
22580	21,116	0,	-0,95726	15,097
22581	21,	0,	-4,8986e-016	14,092
22582	-8,8047	0,	48,648	7,3671
22583	-8,2992	0,	49,486	7,4597
22584	-7,7142	0,	50,271	8,4012
22585	-21,458	0,	-1,8589	18,009
22586	-22,006	0,	-2,6525	22,002
22587	7,5522	0,	-50,58	7,3193
22588	6,9071	0,	-51,288	7,0196
22589	6,1959	0,	-51,93	6,8155
22590	-1,4184	0,	-41,26	32,832
22591	-0,48215	0,	-41,029	29,012
22592	-23,582	0,	-3,7401	30,195
22593	-24,518	0,	-3,9708	33,839
22594	-11,642	0,	43,38	9,9126
22595	-12,588	0,	41,623	10,469
22596	-12,115	0,	42,501	10,27
22597	3,5418	0,	43,141	29,766
22598	2,994	0,	42,348	23,401
22599	-24,882	0,	18,791	4,1835
22600	-24,409	0,	19,67	4,271
22601	-22,044	0,	24,06	5,0811
22602	-21,572	0,	24,938	5,3028
22603	-21,099	0,	25,817	5,5419
22604	-22,006	0,	2,6525	22,053
22605	-23,936	0,	20,548	4,3875
22606	-23,463	0,	21,426	4,5292
22607	-22,99	0,	22,304	4,6932
22608	-10,696	0,	45,136	8,8159
22609	-10,223	0,	46,014	8,244
22610	-4,	0,	-45,	28,328
22611	-3,8838	0,	-44,043	32,591
22612	-2,994	0,	42,348	23,318
22613	-3,5418	0,	43,141	29,835
22614	-28,884	0,	-0,95726	22,807
22615	-29,	0,	-4,8986e-016	21,599
22616	33,597	0,	-0,9843	21,201
22617	33,451	0,	-1,959	20,863
22618	29,	0,	2,8189e-015	21,531
22619	28,884	0,	-0,95726	22,611
22620	28,542	0,	1,8589	26,247
22621	28,884	0,	0,95726	22,918
22622	33,21	0,	2,9146	20,401
22623	33,451	0,	1,959	20,864
22624	1,4184	0,	-48,74	5,3582
22625	0,48215	0,	-48,971	1,9973
22626	-25,482	0,	-3,9708	36,21
22627	-26,418	0,	-3,7401	35,347
22628	-32,872	0,	-3,8495	19,907
22629	3,5418	0,	-43,141	34,743
22630	3,8838	0,	-44,043	31,123
22631	28,542	0,	-1,8589	25,822
22632	27,994	0,	-2,6525	30,008
22633	-21,458	0,	1,8589	18,088
22634	-21,116	0,	0,95726	15,126
22635	-21,	0,	2,8189e-015	14,098
22636	-27,246	0,	14,401	4,4964
22637	-26,773	0,	15,279	4,2842
22638	-3,5418	0,	-43,141	34,712
22639	-2,994	0,	-42,348	35,576
22640	-2,2723	0,	-48,292	9,3747
22641	-2,994	0,	-47,652	13,559
22642	22,006	0,	-2,6525	21,992
22643	21,458	0,	-1,8589	18,012
22644	0,48215	0,	-41,029	27,699
22645	1,4184	0,	-41,26	32,844
22646	3,5418	0,	-46,859	18,693
22647	2,994	0,	-47,652	13,86
22648	-23,582	0,	3,7401	30,205
22649	-22,728	0,	3,2919	26,153
22650	-3,8838	0,	45,957	41,959
22651	-3,5418	0,	46,859	38,234
22652	-8,1249	0,	-49,812	7,7561
22653	-30,556	0,	8,2536	12,505
22654	-30,083	0,	9,1317	10,268
22655	4,	0,	-45,	28,49
22656	3,8838	0,	-45,957	23,776
22657	21,116	0,	0,95726	15,223
22658	21,458	0,	1,8589	18,045
22659	26,418	0,	-3,7401	35,22
22660	25,482	0,	-3,9708	36,336
22661	24,518	0,	-3,9708	33,925
22662	23,582	0,	-3,7401	30,18
22663	22,006	0,	2,6525	22,107
22664	22,728	0,	3,2919	26,117
22665	-1,4184	0,	41,26	16,624
22666	-2,2723	0,	41,708	18,358
22667	2,2723	0,	41,708	18,399
22668	1,4184	0,	41,26	16,367
22669	-3,8838	0,	44,043	37,077
22670	-4,	0,	45,	41,34
22671	25,482	0,	3,9708	36,212
22672	26,418	0,	3,7401	35,039
22673	13,647	-5,	0,30045	11,83
22674	13,874	-5,	-0,10734	11,972
22675	14,587	-5,	0,53378	12,383
22676	14,691	-5,	-0,10586	12,456
22677	15,48	-5,	0,64434	12,934
22678	15,579	-5,	-9,6248e-002	13,018
22679	11,183	-5,	-4,2986	10,129
22680	10,721	-5,	-4,2454	9,9549
22681	11,007	-5,	-5,0848	9,9056
22682	10,275	-5,	-4,8297	9,673
22683	-5,8362	-5,	47,91	15,283
22684	30,071	-5,	1,168	22,997
22685	30,322	-5,	1,6833	22,285
22686	-1,4303	-5,	-14,346	7,1579
22687	-0,99557	-5,	-13,975	7,0677
22688	-7,4867	-5,	47,672	11,649
22689	-7,2922	-5,	48,425	11,47
22690	-6,6404	-5,	7,4888	8,0442
22691	-7,4211	-5,	8,1427	8,1068
22692	-8,2246	-5,	8,7173	8,2117
22693	-29,03	-5,	5,1315	18,119
22694	-30,611	-5,	0,29391	22,689
22695	2,2692	-5,	-51,978	6,2837
22696	1,7727	-5,	-52,392	6,1948
22697	0,34082	-5,	14,966	7,081
22698	0,32246	-5,	19,475	8,4156
22699	9,3179	-5,	8,78	8,5095
22700	-11,236	-5,	1,0037	10,576
22701	5,2567	-5,	37,231	16,412
22702	16,444	-5,	-8,4519e-002	13,565
22703	4,6281	-5,	-48,509	9,1232
22704	23,199	-5,	-8,0807	13,556
22705	4,015	-5,	-48,189	9,9576
22706	-1,0959	-5,	-4,4246	7,9128
22707	-0,14374	-5,	-2,5963	8,1783
22708	-0,21374	-5,	-6,6802	7,4488
22709	-0,42211	-5,	8,8282	7,0663
22710	-6,9915e-002	-5,	7,3525	7,3348
22711	-1,1035	-5,	7,9925	7,2312
22712	0,13844	-5,	-5,5161	7,6843
22713	0,64094	-5,	4,8431	7,8484
22714	0,50803	-5,	3,2646	8,1131
22715	-8,5441e-002	-5,	2,4834	8,2079
22716	-0,20485	-5,	3,9333	8,0066
22717	-0,16215	-5,	5,6204	7,6906
22718	9,6231e-002	-5,	-3,8926	7,989
22719	-0,1117	-5,	-3,5822e-002	8,353
22720	-0,44302	-5,	-1,8798	8,2622
22721	0,23294	-5,	1,6837	8,2879
22722	-0,69168	-5,	-3,3815	8,0796
22723	-0,81751	-5,	-6,2542	7,5456
22724	-0,80721	-5,	-5,35	7,7258
22725	-0,88979	-5,	-7,4218	7,3128
22726	0,12912	-5,	8,308	7,1549
22727	-1,5057	-5,	-6,6654	7,4889
22728	0,61117	-5,	6,4359	7,5286
22729	1,3366	-5,	5,6453	7,7121
22730	0,5222	-5,	-7,4595	7,297
22731	-0,27275	-5,	-8,0694	7,1813
22732	0,72629	-5,	-9,6075	6,9586
22733	1,0037	-5,	-10,281	6,9008
22734	-9,4788e-002	-5,	-10,142	6,8938
22735	-0,99146	-5,	9,4829	6,98
22736	-1,9428	-5,	8,6471	7,1576
22737	0,94464	-5,	-6,3952	7,521
22738	-0,8676	-5,	-0,76362	8,3483
22739	0,65118	-5,	0,73555	8,3481
22740	-1,1673	-5,	-2,717	8,1877
22741	1,0742	-5,	2,477	8,2282
22742	1,3617	-5,	4,1487	7,9967
22743	2,5877	-5,	5,9781	7,7259
22744	0,3861	-5,	9,5361	6,9587
22745	1,0926	-5,	7,8688	7,2545
22746	2,0218	-5,	6,4483	7,5854
22747	-1,0684	-5,	-8,6737	7,0979
22748	0,34088	-5,	-8,8178	7,0567
22749	0,37044	-5,	-10,885	6,8497
22750	-0,20939	-5,	10,418	6,8553
22751	-2,4169	-5,	9,3458	7,0833
22752	1,7326	-5,	-7,233	7,3902
22753	-0,93178	-5,	2,6157	8,2116
22754	-1,6119	-5,	5,5241	7,751
22755	-1,7412	-5,	7,1895	7,4185
22756	1,4385	-5,	-5,4349	7,7363
22757	0,66438	-5,	-2,5402	8,1973
22758	-1,2933	-5,	0,43243	8,3769
22759	1,0914	-5,	-0,40659	8,3664
22760	1,4918	-5,	1,4749	8,3379
22761	-1,9333	-5,	-3,4579	8,1196
22762	1,8967	-5,	3,3126	8,1588
22763	-2,2671	-5,	-4,9668	7,8765
22764	2,4975	-5,	5,0866	7,8931
22765	-0,21827	-5,	-11,49	6,834
22766	3,2984	-5,	6,3358	7,7202
22767	-2,3025	-5,	-7,2127	7,4338
22768	-0,39273	-5,	12,06	6,7843
22769	0,30184	-5,	11,649	6,7856
22770	1,2293	-5,	10,127	6,9102
22771	1,6487	-5,	9,3478	7,0299
22772	2,0064	-5,	8,5644	7,1758
22773	2,8306	-5,	7,1212	7,5144
22774	-0,82609	-5,	-10,806	6,8628
22775	-1,3072	-5,	-10,024	6,9368
22776	-1,8329	-5,	-9,2518	7,0564
22777	1,8749	-5,	-9,0557	7,0858
22778	1,7407	-5,	-10,098	6,9556
22779	1,0051	-5,	-11,512	6,8519
22780	0,47272	-5,	-12,166	6,8533
22781	3,0012e-002	-5,	-12,845	6,8979
22782	-1,6153	-5,	10,154	6,9265
22783	-0,97538	-5,	11,063	6,823
22784	-2,4516	-5,	-8,4888	7,2165
22785	-2,9058	-5,	9,9884	7,0451
22786	-1,162	-5,	12,619	6,8189
22787	2,499	-5,	-7,989	7,3073
22788	-1,5703	-5,	3,6899	8,0852
22789	-2,4099	-5,	6,3272	7,6394
22790	-2,653	-5,	7,9582	7,3353
22791	2,2517	-5,	-6,2763	7,6172
22792	1,3517	-5,	-3,5506	8,0767
22793	-1,736	-5,	1,6196	8,3416
22794	1,5164	-5,	-1,5231	8,3281
22795	-2,0598	-5,	-0,44462	8,4128
22796	1,8986	-5,	0,44041	8,4052
22797	-2,4103	-5,	-2,4017	8,2971
22798	2,3295	-5,	2,2968	8,3163
22799	-3,5089	-5,	9,6253	7,1578
22800	-3,1199	-5,	-9,141	7,1893
22801	-2,763	-5,	-4,1336	8,0717
22802	2,7964	-5,	4,063	8,1062
22803	-3,3032	-5,	-5,6252	7,8459
22804	3,5275	-5,	5,5865	7,8964
22805	4,0675	-5,	6,9476	7,6902
22806	-0,15488	-5,	15,407	7,1713
22807	0,36063	-5,	14,157	6,9439
22808	0,37439	-5,	13,064	6,8246
22809	1,0259	-5,	12,272	6,803
22810	1,5599	-5,	11,475	6,831
22811	2,0004	-5,	10,746	6,8971
22812	2,8149	-5,	9,2064	7,14
22813	3,2296	-5,	8,4444	7,3049
22814	3,6551	-5,	7,6973	7,4907
22815	-0,23459	-5,	-13,602	6,9922
22816	-0,99133	-5,	-13,222	6,9569
22817	-0,97202	-5,	-12,208	6,8687
22818	-1,5551	-5,	-11,432	6,8794
22819	-2,5208	-5,	-9,8797	7,0385
22820	-3,7754	-5,	-7,106	7,6118
22821	2,7324	-5,	-9,601	7,0897
22822	2,4221	-5,	-10,538	6,9754
22823	2,0965	-5,	-11,396	6,917
22824	1,6837	-5,	-12,169	6,9024
22825	1,2279	-5,	-12,85	6,9262
22826	0,80754	-5,	-13,547	6,9944
22827	0,4301	-5,	-14,326	7,1218
22828	-8,9599e-003	-5,	-15,07	7,2867
22829	-1,7153	-5,	11,668	6,8351
22830	-0,72215	-5,	13,515	6,8706
22831	-0,40307	-5,	14,438	6,9876
22832	3,2153	-5,	-8,7462	7,2573
22833	-2,0452	-5,	13,181	6,9012
22834	-5,4977e-002	-5,	-16,543	7,7188
22835	-2,2829	-5,	4,5727	7,9754
22836	-3,2833	-5,	7,1797	7,5491
22837	-3,5057	-5,	8,7495	7,2845
22838	3,0808	-5,	-7,0906	7,5327
22839	2,0395	-5,	-4,4709	7,9551
22840	-2,2932	-5,	2,6796	8,2706
22841	2,0606	-5,	-2,5488	8,255
22842	-2,4885	-5,	0,66338	8,4403
22843	2,3088	-5,	-0,56935	8,4248
22844	-2,8504	-5,	-1,2826	8,435
22845	2,7413	-5,	1,2822	8,4325
22846	-3,2412	-5,	-3,0856	8,2846
22847	3,1854	-5,	3,15	8,2845
22848	-3,7054	-5,	-4,7005	8,0719
22849	3,8038	-5,	4,7355	8,0931
22850	-4,235	-5,	-6,2147	7,8521
22851	4,4233	-5,	6,166	7,8969
22852	4,9228	-5,	7,4849	7,7131
22853	-3,5429	-5,	10,728	7,0456
22854	-3,6615	-5,	-9,957	7,1616
22855	-4,1804	-5,	-9,4522	7,2915
22856	0,31582	-5,	16,163	7,3528
22857	0,79952	-5,	15,325	7,1622
22858	1,1542	-5,	14,477	7,0123
22859	1,8478	-5,	12,9	6,8685
22860	2,3167	-5,	12,142	6,8749
22861	2,7752	-5,	11,376	6,9256
22862	3,2022	-5,	10,601	7,0168
22863	3,6233	-5,	9,8242	7,1447
22864	4,492	-5,	8,2728	7,4996
22865	-0,57417	-5,	-15,816	7,4954
22866	-1,0628	-5,	-15,159	7,3269
22867	-1,7426	-5,	-13,553	7,0376
22868	-1,9831	-5,	-12,768	6,9627
22869	-2,3633	-5,	-12,028	6,9478
22870	-2,814	-5,	-11,276	6,9844
22871	-3,2415	-5,	-10,505	7,0648
22872	-4,6842	-5,	-7,6739	7,6446
22873	4,3108	-5,	-8,9702	7,3757
22874	3,7566	-5,	-9,6098	7,2118
22875	3,4668	-5,	-10,361	7,1024
22876	3,1194	-5,	-11,12	7,0216
22877	2,7998	-5,	-11,965	6,9872
22878	2,4017	-5,	-12,761	6,9954
22879	1,9691	-5,	-13,521	7,0481
22880	1,528	-5,	-14,274	7,1482
22881	0,58119	-5,	-15,827	7,4987
22882	-2,993	-5,	11,454	6,9443
22883	-2,4815	-5,	12,275	6,8902
22884	-1,1413	-5,	15,046	7,1153
22885	-0,75662	-5,	15,99	7,3147
22886	-0,28042	-5,	16,808	7,5292
22887	-4,0853	-5,	9,9659	7,1892
22888	-4,5012	-5,	-10,522	7,2426
22889	-4,8967	-5,	-9,7673	7,373
22890	0,47166	-5,	-17,264	7,9734
22891	-3,0367	-5,	5,4197	7,8785
22892	-4,0693	-5,	7,8505	7,516
22893	2,8278	-5,	-5,3025	7,8619
22894	-2,9569	-5,	3,6144	8,1943
22895	2,8431	-5,	-1,61	8,4113
22896	3,1573	-5,	0,25991	8,5063
22897	-3,6835	-5,	-2,0867	8,4551
22898	3,5896	-5,	2,0811	8,4546
22899	-4,1283	-5,	-3,7793	8,2873
22900	4,1126	-5,	3,7504	8,3019
22901	-4,6669	-5,	-5,3484	8,0864
22902	-5,2071	-5,	-6,8304	7,8922
22903	5,3201	-5,	6,6573	7,9437
22904	5,7867	-5,	8,0271	7,7669
22905	-4,5361	-5,	9,2513	7,348
22906	0,3267	-5,	17,637	7,7817
22907	1,4596	-5,	15,946	7,3261
22908	1,8945	-5,	15,123	7,1645
22909	2,2783	-5,	14,316	7,0474
22910	2,68	-5,	13,542	6,9827
22911	3,1163	-5,	12,776	6,967
22912	3,5623	-5,	11,995	6,9983
22913	3,9938	-5,	11,213	7,0729
22914	4,8717	-5,	9,6257	7,3504
22915	5,3277	-5,	8,8287	7,5442
22916	-0,23582	-5,	-18,018	8,26
22917	-0,7536	-5,	-17,25	7,9727
22918	-1,2441	-5,	-16,513	7,7292
22919	-1,7209	-5,	-15,762	7,5179
22920	-2,1038	-5,	-14,973	7,3324
22921	-2,4864	-5,	-14,181	7,1953
22922	-2,8193	-5,	-13,39	7,1017
22923	-3,201	-5,	-12,63	7,0656
22924	-3,6102	-5,	-11,891	7,0805
22925	-4,0407	-5,	-11,193	7,1406
22926	-5,1729	-5,	-8,9591	7,5239
22927	-5,6168	-5,	-8,1357	7,7354
22928	5,1253	-5,	-9,403	7,4568
22929	4,2808	-5,	-10,974	7,1843
22930	3,5372	-5,	-12,568	7,1015
22931	3,1324	-5,	-13,366	7,1309
22932	2,7001	-5,	-14,153	7,2084
22933	2,2551	-5,	-14,944	7,3364
22934	1,7957	-5,	-15,753	7,5192
22935	1,2046	-5,	-16,495	7,7218
22936	0,99516	-5,	-17,944	8,2399
22937	0,33089	-5,	-18,736	8,5542
22938	-4,923	-5,	8,518	7,5258
22939	-5,6962	-5,	9,0121	7,5833
22940	-5,2054	-5,	9,7884	7,3864
22941	-4,728	-5,	10,517	7,2294
22942	-4,2635	-5,	11,301	7,1068
22943	-3,7635	-5,	12,062	7,023
22944	-2,8349	-5,	13,726	7,0155
22945	-2,3288	-5,	14,735	7,1194
22946	-1,8114	-5,	15,668	7,276
22947	-1,4347	-5,	16,61	7,4981
22948	-0,62163	-5,	18,233	7,9805
22949	-0,3761	-5,	19,052	8,263
22950	-0,16459	-5,	19,857	8,5606
22951	3,4351	-5,	-4,3694	8,1009
22952	0,47892	-5,	-20,876	9,5168
22953	-3,6378	-5,	2,7038	8,3919
22954	3,4273	-5,	-2,5575	8,3743
22955	-3,7981	-5,	0,81198	8,5649
22956	-4,5427	-5,	-2,835	8,4842
22957	-5,0667	-5,	-4,4591	8,317
22958	5,0647	-5,	4,3794	8,3387
22959	5,6715	-5,	5,8245	8,1743
22960	-6,1724	-5,	-7,3415	7,9895
22961	6,2006	-5,	7,2234	8,002
22962	6,6524	-5,	8,5482	7,8557
22963	-4,6045	-5,	6,9772	7,7625
22964	-5,3626	-5,	7,6124	7,7652
22965	4,4691	-5,	-6,8991	7,7543
22966	5,4211	-5,	-7,5274	7,8026
22967	0,37902	-5,	20,617	8,8522
22968	0,74544	-5,	19,774	8,533
22969	1,0831	-5,	18,969	8,2426
22970	1,3385	-5,	18,143	7,9639
22971	1,7289	-5,	17,357	7,7262
22972	2,2074	-5,	16,557	7,5193
22973	2,6517	-5,	15,754	7,3481
22974	3,0756	-5,	14,961	7,2196
22975	3,5001	-5,	14,168	7,1358
22976	3,9284	-5,	13,392	7,1008
22977	4,3587	-5,	12,604	7,112
22978	4,7992	-5,	11,8	7,1723
22979	5,2449	-5,	10,997	7,2785
22980	5,6816	-5,	10,193	7,4266
22981	6,1483	-5,	9,3735	7,62
22982	-0,32519	-5,	-20,528	9,3525
22983	-0,33621	-5,	-19,58	8,9209
22984	-1,4951	-5,	-17,894	8,2322
22985	-2,4248	-5,	-16,371	7,7394
22986	-2,851	-5,	-15,581	7,5417
22987	-3,2484	-5,	-14,795	7,3876
22988	-3,6351	-5,	-14,009	7,2808
22989	-4,0276	-5,	-13,244	7,2262
22990	-4,4325	-5,	-12,494	7,2218
22991	-4,8692	-5,	-11,762	7,2687
22992	-5,3116	-5,	-11,016	7,3582
22993	-5,7176	-5,	-10,233	7,4873
22994	-6,595	-5,	-8,5954	7,8734
22995	6,4973	-5,	-8,1051	7,9303
22996	6,1994	-5,	-8,9905	7,7274
22997	5,8756	-5,	-9,9114	7,5482
22998	5,498	-5,	-10,75	7,4075
22999	5,0968	-5,	-11,563	7,3081
23000	4,7073	-5,	-12,368	7,2585
23001	4,3116	-5,	-13,171	7,2582
23002	3,8855	-5,	-13,972	7,3053
23003	3,4607	-5,	-14,766	7,4036
23004	3,0051	-5,	-15,556	7,5477
23005	2,5226	-5,	-16,386	7,7507
23006	1,8755	-5,	-17,291	8,0211
23007	1,975	-5,	-18,23	8,3785
23008	1,425	-5,	-18,783	8,5872
23009	1,0496	-5,	-19,411	8,8512
23010	0,74353	-5,	-20,059	9,1377
23011	-6,4375	-5,	9,5872	7,6509
23012	-5,9608	-5,	10,345	7,4646
23013	-5,4913	-5,	11,101	7,3158
23014	-5,0263	-5,	11,859	7,2074
23015	-4,5639	-5,	12,625	7,1422
23016	-4,1085	-5,	13,386	7,1231
23017	-3,7062	-5,	14,177	7,1595
23018	-3,4117	-5,	14,935	7,2467
23019	-2,9911	-5,	15,694	7,3605
23020	-2,4974	-5,	16,339	7,4796
23021	-1,7633	-5,	18,077	7,9556
23022	-1,0365	-5,	19,744	8,5254
23023	-0,65732	-5,	20,527	8,8186
23024	-0,1344	-5,	21,42	9,1682
23025	-4,3946	-5,	5,3287	8,0598
23026	6,463	-5,	-7,0643	8,1058
23027	0,1607	-5,	-21,542	9,8396
23028	-6,918	-5,	8,8557	7,8643
23029	-4,3033	-5,	3,6033	8,3527
23030	4,0781	-5,	-3,4545	8,3321
23031	7,5539	-5,	-7,2891	8,3319
23032	0,25901	-5,	22,502	9,6043
23033	-4,3446	-5,	1,7974	8,5764
23034	4,1523	-5,	-1,6722	8,5519
23035	-4,5735	-5,	-6,3872e-002	8,6832
23036	4,4203	-5,	0,14281	8,6603
23037	-4,959	-5,	-1,8948	8,6536
23038	4,8595	-5,	1,8715	8,6457
23039	-5,4486	-5,	-3,5508	8,5352
23040	5,4061	-5,	3,4972	8,5425
23041	-6,0022	-5,	-5,0499	8,3878
23042	6,0205	-5,	4,9987	8,4019
23043	-6,5883	-5,	-6,4772	8,245
23044	6,6191	-5,	6,3798	8,2584
23045	7,1541	-5,	7,7408	8,1154
23046	7,4538	-5,	9,0959	7,953
23047	8,1648	-5,	-7,9329	8,384
23048	-7,1564	-5,	-7,8154	8,1351
23049	-5,8874	-5,	6,8008	8,0218
23050	4,9571	-5,	-6,0064	8,0085
23051	5,8077	-5,	-6,671	8,0383
23052	0,71781	-5,	21,871	9,35
23053	1,4469	-5,	20,366	8,7658
23054	1,829	-5,	19,561	8,474
23055	2,1755	-5,	18,738	8,1926
23056	2,5753	-5,	17,948	7,9496
23057	3,0019	-5,	17,164	7,7374
23058	3,4447	-5,	16,37	7,5586
23059	3,8764	-5,	15,577	7,4179
23060	4,308	-5,	14,783	7,3199
23061	4,74	-5,	13,984	7,2671
23062	5,18	-5,	13,182	7,2632
23063	5,6195	-5,	12,377	7,3074
23064	6,0512	-5,	11,574	7,3981
23065	6,9399	-5,	9,9381	7,7163
23066	-0,37719	-5,	-22,466	10,297
23067	-0,85309	-5,	-21,714	9,9215
23068	-1,1143	-5,	-20,849	9,5065
23069	-1,3852	-5,	-20,059	9,1439
23070	-1,7751	-5,	-19,306	8,8173
23071	-2,2631	-5,	-18,536	8,5106
23072	-3,185	-5,	-16,975	7,9854
23073	-4,0365	-5,	-15,397	7,6098
23074	-4,8452	-5,	-13,834	7,418
23075	-5,2663	-5,	-13,069	7,3993
23076	-5,6905	-5,	-12,303	7,4287
23077	-6,5513	-5,	-10,742	7,6269
23078	-7,4263	-5,	-9,1218	7,9964
23079	7,5631	-5,	-8,7207	8,0915
23080	7,0901	-5,	-9,5902	7,8562
23081	6,7024	-5,	-10,445	7,6817
23082	6,315	-5,	-11,294	7,5512
23083	5,9154	-5,	-12,122	7,4669
23084	5,5078	-5,	-12,949	7,4316
23085	5,093	-5,	-13,769	7,4478
23086	4,6721	-5,	-14,566	7,5119
23087	4,2418	-5,	-15,351	7,6224
23088	3,7857	-5,	-16,153	7,7827
23089	3,3106	-5,	-16,943	7,9836
23090	2,9129	-5,	-17,728	8,2309
23091	2,2277	-5,	-19,394	8,8654
23092	1,8357	-5,	-20,104	9,1687
23093	1,4625	-5,	-20,843	9,5049
23094	1,1065	-5,	-21,629	9,8791
23095	0,6717	-5,	-22,439	10,283
23096	-7,9302	-5,	7,5111	8,3548
23097	-7,6913	-5,	9,419	7,9627
23098	-7,1925	-5,	10,15	7,7488
23099	-6,7275	-5,	10,89	7,5746
23100	-6,2661	-5,	11,646	7,4372
23101	-5,8122	-5,	12,407	7,3423
23102	-5,3697	-5,	13,175	7,2933
23103	-4,9385	-5,	13,947	7,2914
23104	-4,5511	-5,	14,725	7,3411
23105	-4,1252	-5,	15,494	7,4274
23106	-3,292	-5,	17,073	7,7326
23107	-2,9023	-5,	17,874	7,9442
23108	-2,5122	-5,	18,716	8,1989
23109	-1,7255	-5,	20,395	8,7822
23110	-0,82874	-5,	22,089	9,438
23111	-5,004	-5,	4,4615	8,3148
23112	-7,1724	-5,	6,7922	8,3059
23113	4,778	-5,	-4,2939	8,2981
23114	7,2024	-5,	-6,4374	8,4018
23115	-0,34698	-5,	23,018	9,8137
23116	0,14084	-5,	-23,189	10,668
23117	-8,7013	-5,	-9,1308	8,3426
23118	-8,7679	-5,	8,0893	8,4747
23119	-4,9664	-5,	2,7288	8,5735
23120	-8,461	-5,	6,9093	8,6212
23121	4,7468	-5,	-2,5677	8,5486
23122	8,2746	-5,	-6,4395	8,6958
23123	-5,0695	-5,	0,91197	8,7433
23124	4,8931	-5,	-0,80154	8,7156
23125	-5,3728	-5,	-0,92674	8,7924
23126	5,252	-5,	0,95772	8,7711
23127	5,7611	-5,	2,6025	8,728
23128	-6,3935	-5,	-4,1996	8,6235
23129	-6,9752	-5,	-5,6226	8,5017
23130	6,9733	-5,	5,5397	8,5071
23131	8,1529	-5,	8,2604	8,2724
23132	-8,138	-5,	-8,2936	8,3141
23133	-7,5982	-5,	-7,0031	8,397
23134	8,8377	-5,	-7,0911	8,7375
23135	-5,7268	-5,	5,2521	8,2972
23136	-6,4535	-5,	6,041	8,2898
23137	5,5328	-5,	-5,0691	8,293
23138	6,3274	-5,	-5,7698	8,323
23139	0,26353	-5,	24,06	10,245
23140	0,93054	-5,	23,332	9,9428
23141	1,3592	-5,	22,542	9,6221
23142	1,7521	-5,	21,755	9,3104
23143	2,1986	-5,	20,975	9,0128
23144	2,5954	-5,	20,167	8,7183
23145	2,9856	-5,	19,36	8,4424
23146	3,398	-5,	18,56	8,1924
23147	3,8207	-5,	17,766	7,9729
23148	4,2558	-5,	16,971	7,7862
23149	4,6884	-5,	16,169	7,6349
23150	5,133	-5,	15,362	7,5253
23151	5,565	-5,	14,559	7,4599
23152	5,9997	-5,	13,753	7,4415
23153	6,8856	-5,	12,136	7,5519
23154	7,3165	-5,	11,333	7,6746
23155	7,7582	-5,	10,538	7,8417
23156	8,1764	-5,	9,784	8,0355
23157	8,7219	-5,	9,1333	8,2774
23158	0,44036	-5,	-25,505	11,912
23159	-0,52861	-5,	-23,877	11,025
23160	-1,0522	-5,	-23,11	10,62
23161	-1,4675	-5,	-22,261	10,186
23162	-1,881	-5,	-21,483	9,8073
23163	-2,2333	-5,	-20,688	9,437
23164	-2,6407	-5,	-19,919	9,1006
23165	-3,5138	-5,	-18,359	8,4977
23166	-3,9566	-5,	-17,573	8,2433
23167	-4,3976	-5,	-16,78	8,0254
23168	-4,8265	-5,	-15,988	7,849
23169	-5,2494	-5,	-15,195	7,7173
23170	-5,6727	-5,	-14,407	7,6343
23171	-6,0917	-5,	-13,621	7,5999
23172	-6,522	-5,	-12,838	7,617
23173	-6,9559	-5,	-12,053	7,6827
23174	-7,3785	-5,	-11,265	7,7921
23175	-7,7952	-5,	-10,488	7,9407
23176	8,9525	-5,	-8,4799	8,5193
23177	8,4155	-5,	-9,3352	8,2347
23178	7,5469	-5,	-10,995	7,8457
23179	6,7255	-5,	-12,681	7,6502
23180	6,3108	-5,	-13,514	7,6292
23181	5,0311	-5,	-15,941	7,8619
23182	4,1495	-5,	-17,529	8,2435
23183	3,3502	-5,	-19,145	8,7958
23184	2,9851	-5,	-19,963	9,1262
23185	2,5922	-5,	-20,752	9,4683
23186	2,1886	-5,	-21,539	9,8318
23187	1,7688	-5,	-22,344	10,224
23188	1,3127	-5,	-23,158	10,64
23189	0,77801	-5,	-23,974	11,071
23190	1,3028e-002	-5,	-24,643	11,438
23191	-9,0134	-5,	9,1972	8,3487
23192	-8,4764	-5,	9,9239	8,0948
23193	-7,979	-5,	10,66	7,883
23194	-7,5191	-5,	11,411	7,7159
23195	-7,0594	-5,	12,172	7,5877
23196	-6,6141	-5,	12,943	7,5054
23197	-6,1809	-5,	13,724	7,4704
23198	-5,3502	-5,	15,316	7,5463
23199	-4,9251	-5,	16,107	7,6484
23200	-4,5023	-5,	16,907	7,7932
23201	-4,0819	-5,	17,71	7,9766
23202	-3,6633	-5,	18,524	8,1968
23203	-3,2708	-5,	19,35	8,4514
23204	-2,8579	-5,	20,189	8,7344
23205	-2,4377	-5,	21,029	9,0379
23206	-1,996	-5,	21,859	9,3536
23207	-1,5423	-5,	22,677	9,6772
23208	-1,0903	-5,	23,509	10,015
23209	9,841	-5,	-5,436	9,3936
23210	9,3808	-5,	-6,2288	9,079
23211	-9,2778	-5,	7,4677	8,7489
23212	-0,52253	-5,	24,975	10,619
23213	0,10095	-5,	25,166	10,7
23214	-7,7318	-5,	6,1656	8,5721
23215	5,4007	-5,	-3,4119	8,5483
23216	0,53136	-5,	-26,544	12,494
23217	-1,0261	-5,	25,599	10,874
23218	-5,63	-5,	1,8589	8,7814
23219	-8,9146	-5,	6,2458	8,888
23220	5,4485	-5,	-1,7129	8,7545
23221	8,7561	-5,	-5,5595	9,0107
23222	-5,8209	-5,	4,9037e-002	8,8984
23223	5,6777	-5,	2,8354e-002	8,8698
23224	-9,6792	-5,	8,5159	8,6655
23225	-9,2779	-5,	-8,7845	8,5679
23226	-6,2148	-5,	-1,7258	8,9058
23227	6,1287	-5,	1,6969	8,8916
23228	-6,7447	-5,	-3,3202	8,8411
23229	6,6971	-5,	3,2765	8,8362
23230	-7,3315	-5,	-4,7657	8,7496
23231	7,3102	-5,	4,6904	8,7498
23232	9,5517	-5,	-7,629	8,8591
23233	7,9434	-5,	6,0355	8,6543
23234	-9,3016	-5,	-8,2445	8,6646
23235	-8,5549	-5,	-7,3624	8,5987
23236	-9,7513	-5,	6,8153	9,0381
23237	9,347	-5,	8,198	8,6244
23238	-0,41077	-5,	26,129	11,099
23239	-0,24286	-5,	27,393	11,629
23240	-7,9614	-5,	-6,1184	8,6658
23241	10,048	-5,	9,1281	8,6675
23242	-1,249	-5,	27,912	11,83
23243	-9,9992	-5,	-9,1562	8,7307
23244	-10,361	-5,	8,8519	8,8155
23245	-6,3405	-5,	4,457	8,5682
23246	-7,0494	-5,	5,3009	8,5731
23247	6,8787	-5,	-4,9404	8,6073
23248	0,85707	-5,	25,559	10,86
23249	1,628	-5,	23,982	10,205
23250	2,0888	-5,	23,191	9,8835
23251	2,527	-5,	22,389	9,5664
23252	2,9476	-5,	21,589	9,2608
23253	3,3782	-5,	20,782	8,9677
23254	3,7899	-5,	19,973	8,6919
23255	4,2061	-5,	19,17	8,4405
23256	5,0652	-5,	17,564	8,0227
23257	5,9631	-5,	15,932	7,7456
23258	6,8378	-5,	14,309	7,6415
23259	7,2899	-5,	13,493	7,6627
23260	7,7268	-5,	12,692	7,7298
23261	8,6073	-5,	11,117	7,9996
23262	9,0527	-5,	10,388	8,191
23263	9,5355	-5,	9,7477	8,4131
23264	-0,17513	-5,	-26,974	12,749
23265	-0,47195	-5,	-26,1	12,242
23266	-1,2989	-5,	-24,511	11,344
23267	-1,7686	-5,	-23,717	10,913
23268	-2,2184	-5,	-22,919	10,499
23269	-3,0486	-5,	-21,324	9,7279
23270	-3,879	-5,	-19,755	9,0609
23271	-4,7602	-5,	-18,165	8,5052
23272	-5,6308	-5,	-16,564	8,0954
23273	-6,0631	-5,	-15,765	7,9554
23274	-6,4875	-5,	-14,96	7,8603
23275	-7,3633	-5,	-13,37	7,8246
23276	-8,2295	-5,	-11,809	7,9812
23277	-8,6511	-5,	-11,05	8,1225
23278	-9,0796	-5,	-10,357	8,2979
23279	10,242	-5,	-8,1578	8,9876
23280	9,2565	-5,	-9,8865	8,402
23281	8,8097	-5,	-10,721	8,1905
23282	7,9614	-5,	-12,395	7,9142
23283	7,1203	-5,	-14,074	7,8432
23284	6,2741	-5,	-15,722	7,9762
23285	5,8398	-5,	-16,52	8,1086
23286	5,3928	-5,	-17,324	8,2864
23287	4,5498	-5,	-18,923	8,7638
23288	3,7532	-5,	-20,55	9,3891
23289	3,3392	-5,	-21,361	9,7426
23290	2,9154	-5,	-22,173	10,121
23291	2,01	-5,	-23,818	10,955
23292	1,4731	-5,	-24,654	11,415
23293	-9,7849	-5,	9,6236	8,5054
23294	-9,2891	-5,	10,394	8,2545
23295	-8,3292	-5,	11,917	7,8809
23296	-7,4285	-5,	13,475	7,6894
23297	-6,9869	-5,	14,272	7,6645
23298	-6,5698	-5,	15,086	7,6924
23299	-6,1408	-5,	15,888	7,7617
23300	-5,7136	-5,	16,698	7,8758
23301	-5,2922	-5,	17,508	8,03
23302	-4,4499	-5,	19,138	8,4448
23303	-4,0321	-5,	19,97	8,7013
23304	-3,6131	-5,	20,809	8,9843
23305	-3,1806	-5,	21,645	9,2858
23306	-2,3121	-5,	23,284	9,92
23307	-1,4987	-5,	24,85	10,56
23308	0,80401	-5,	-27,446	13,012
23309	0,23058	-5,	-27,921	13,322
23310	-6,2825	-5,	2,7718	8,8143
23311	-8,3698	-5,	5,5974	8,8631
23312	6,0534	-5,	-2,5614	8,7883
23313	8,1034	-5,	-4,8135	8,9548
23314	-10,433	-5,	-10,202	8,712
23315	1,3296	-5,	-26,692	12,547
23316	-1,1531	-5,	27,002	11,454
23317	-1,6737	-5,	26,231	11,124
23318	-6,3278	-5,	0,99917	8,9793
23319	6,1891	-5,	-0,88936	8,9528
23320	-6,6148	-5,	-0,78229	9,0513
23321	6,5249	-5,	0,79302	9,0302
23322	-7,0993	-5,	-2,4272	9,042
23323	7,0355	-5,	2,4094	9,0275
23324	-7,6967	-5,	-3,9469	8,988
23325	7,636	-5,	3,854	8,9796
23326	10,091	-5,	-6,7362	9,2169
23327	-10,241	-5,	7,848	8,9785
23328	8,2898	-5,	5,2061	8,9156
23329	8,9402	-5,	6,469	8,8513
23330	-10,839	-5,	-9,5339	8,9372
23331	-10,367	-5,	-8,4878	8,9648
23332	-9,6006	-5,	-7,589	8,8809
23333	-9,7148	-5,	5,8977	9,2236
23334	10,884	-5,	9,4954	8,8633
23335	10,378	-5,	8,4397	8,902
23336	9,5775	-5,	7,5139	8,8321
23337	-0,32896	-5,	-28,538	13,708
23338	-1,8444	-5,	28,358	11,997
23339	-0,74299	-5,	28,248	11,98
23340	0,38653	-5,	27,972	11,869
23341	-8,9759	-5,	-6,5618	8,8816
23342	-8,3176	-5,	-5,2769	8,9298
23343	11,386	-5,	-7,9626	9,4244
23344	-2,1606	-5,	27,595	11,67
23345	-11,422	-5,	8,9197	9,1535
23346	-11,036	-5,	9,1938	8,9685
23347	1,8077	-5,	-27,307	12,857
23348	-6,975	-5,	3,669	8,8443
23349	-7,6874	-5,	4,5998	8,8669
23350	6,7335	-5,	-3,3421	8,836
23351	7,4186	-5,	-4,0964	8,8903
23352	1,0177	-5,	27,116	11,504
23353	1,5984	-5,	26,23	11,126
23354	2,0047	-5,	25,415	10,783
23355	2,4225	-5,	24,618	10,453
23356	3,2947	-5,	23,011	9,8094
23357	4,1617	-5,	21,389	9,2087
23358	5,0173	-5,	19,765	8,6815
23359	5,4501	-5,	18,961	8,4572
23360	5,8968	-5,	18,137	8,2579
23361	6,798	-5,	16,491	7,9708
23362	7,7012	-5,	14,852	7,8555
23363	8,5844	-5,	13,218	7,9247
23364	9,0272	-5,	12,42	8,0309
23365	9,4765	-5,	11,649	8,1819
23366	9,9404	-5,	10,918	8,3736
23367	10,416	-5,	10,207	8,6031
23368	-0,8257	-5,	-27,645	13,134
23369	-1,2579	-5,	-26,787	12,603
23370	-1,6601	-5,	-25,95	12,106
23371	-2,0877	-5,	-25,14	11,639
23372	-2,5363	-5,	-24,336	11,193
23373	-2,9814	-5,	-23,54	10,772
23374	-3,4173	-5,	-22,744	10,373
23375	-3,8454	-5,	-21,949	9,9973
23376	-4,2669	-5,	-21,155	9,6466
23377	-4,6926	-5,	-20,357	9,3207
23378	-5,1256	-5,	-19,556	9,0237
23379	-5,5661	-5,	-18,748	8,7578
23380	-6,449	-5,	-17,133	8,3403
23381	-6,8895	-5,	-16,317	8,1929
23382	-7,3258	-5,	-15,508	8,0929
23383	-8,2165	-5,	-13,894	8,0422
23384	-8,657	-5,	-13,109	8,0911
23385	-9,0908	-5,	-12,33	8,1851
23386	-9,5305	-5,	-11,593	8,3228
23387	-9,9744	-5,	-10,879	8,4997
23388	10,524	-5,	-9,6215	8,8242
23389	10,09	-5,	-10,449	8,5799
23390	9,6554	-5,	-11,271	8,3782
23391	9,2196	-5,	-12,105	8,2218
23392	8,7906	-5,	-12,94	8,1166
23393	7,9419	-5,	-14,618	8,0634
23394	7,5229	-5,	-15,457	8,1152
23395	7,0973	-5,	-16,279	8,2125
23396	6,6466	-5,	-17,088	8,35
23397	6,2072	-5,	-17,892	8,5311
23398	5,7742	-5,	-18,696	8,7529
23399	5,3476	-5,	-19,511	9,0153
23400	4,5244	-5,	-21,138	9,6374
23401	4,0967	-5,	-21,957	9,9942
23402	3,6769	-5,	-22,776	10,377
23403	2,7723	-5,	-24,436	11,228
23404	2,2236	-5,	-25,244	11,685
23405	1,7581	-5,	-25,944	12,098
23406	-10,092	-5,	10,862	8,4223
23407	-9,157	-5,	12,419	8,0622
23408	-8,7016	-5,	13,203	7,9503
23409	-8,2533	-5,	14,002	7,8862
23410	-7,8147	-5,	14,816	7,8719
23411	-7,3912	-5,	15,631	7,9066
23412	-6,5231	-5,	17,265	8,1035
23413	-5,6635	-5,	18,908	8,4572
23414	-5,2325	-5,	19,736	8,684
23415	-4,806	-5,	20,571	8,9401
23416	-4,3804	-5,	21,409	9,2207
23417	-3,948	-5,	22,248	9,5208
23418	-3,5207	-5,	23,075	9,8328
23419	-3,0932	-5,	23,891	10,153
23420	-2,6627	-5,	24,7	10,481
23421	-2,2056	-5,	25,497	10,812
23422	1,2702	-5,	-28,057	13,354
23423	-6,9257	-5,	1,9382	9,0507
23424	-9,0437	-5,	4,7544	9,2376
23425	6,7443	-5,	-1,7376	9,0226
23426	9,2359	-5,	-4,7635	9,3173
23427	8,6628	-5,	-4,0467	9,2569
23428	-2,5042	-5,	26,869	11,359
23429	-11,331	-5,	-10,618	8,9274
23430	-7,0635	-5,	0,16373	9,1729
23431	6,9626	-5,	-9,3338e-002	9,147
23432	-7,4613	-5,	-1,5505	9,216
23433	7,3891	-5,	1,5275	9,198
23434	-8,0273	-5,	-3,0879	9,2097
23435	7,9811	-5,	3,0415	9,1967
23436	10,563	-5,	-5,8787	9,5632
23437	10,889	-5,	-7,0933	9,4291
23438	-10,636	-5,	7,0826	9,2792
23439	-11,3	-5,	8,1773	9,2663
23440	-12,082	-5,	9,2063	9,3145
23441	8,6169	-5,	4,3771	9,1689
23442	9,2818	-5,	5,622	9,1354
23443	-11,289	-5,	-8,8145	9,2149
23444	-10,658	-5,	-7,7853	9,1994
23445	-10,356	-5,	5,0331	9,6326
23446	11,762	-5,	9,8949	9,0694
23447	11,29	-5,	8,7765	9,1364
23448	10,645	-5,	7,7356	9,1376
23449	-0,89014	-5,	-29,21	14,118
23450	-1,3536	-5,	29,013	12,288
23451	-0,2118	-5,	28,81	12,222
23452	0,88922	-5,	28,654	12,15
23453	1,8093	-5,	28,87	12,21
23454	-2,957	-5,	28,253	11,897
23455	-9,9646	-5,	-6,8046	9,1581
23456	-9,3063	-5,	-5,6842	9,1616
23457	11,954	-5,	-7,4341	9,7532
23458	12,228	-5,	-8,5462	9,6027
23459	0,74009	-5,	-28,741	13,823
23460	-11,781	-5,	9,909	9,0731
23461	2,7202	-5,	-27,612	12,912
23462	-7,5907	-5,	2,8727	9,1165
23463	-8,3236	-5,	3,7903	9,1852
23464	7,3801	-5,	-2,5335	9,1024
23465	8,0304	-5,	-3,2858	9,1833
23466	2,3566	-5,	26,882	11,369
23467	3,2074	-5,	25,247	10,683
23468	3,645	-5,	24,432	10,352
23469	4,0802	-5,	23,621	10,034
23470	4,5265	-5,	22,804	9,7261
23471	4,9596	-5,	21,986	9,4341
23472	5,3944	-5,	21,169	9,1612
23473	5,8271	-5,	20,352	8,9096
23474	6,2771	-5,	19,529	8,6826
23475	6,7316	-5,	18,697	8,4832
23476	7,184	-5,	17,871	8,3191
23477	7,6343	-5,	17,047	8,1929
23478	8,5502	-5,	15,381	8,0662
23479	8,993	-5,	14,55	8,0699
23480	9,4427	-5,	13,73	8,1236
23481	10,353	-5,	12,146	8,3737
23482	10,826	-5,	11,393	8,567
23483	11,299	-5,	10,637	8,8014
23484	-1,4817	-5,	-28,353	13,517
23485	-2,0018	-5,	-27,469	12,932
23486	-2,4537	-5,	-26,603	12,394
23487	-2,8906	-5,	-25,759	11,895
23488	-3,3258	-5,	-24,954	11,441
23489	-3,7648	-5,	-24,153	11,013
23490	-4,2132	-5,	-23,354	10,609
23491	-4,6437	-5,	-22,555	10,232
23492	-5,5114	-5,	-20,945	9,5529
23493	-5,9492	-5,	-20,132	9,2549
23494	-6,3941	-5,	-19,315	8,9887
23495	-6,8361	-5,	-18,502	8,7602
23496	-7,2853	-5,	-17,681	8,5694
23497	-7,7325	-5,	-16,86	8,4208
23498	-8,1742	-5,	-16,043	8,3177
23499	-9,0714	-5,	-14,423	8,2576
23500	-9,5186	-5,	-13,62	8,3008
23501	-9,9649	-5,	-12,845	8,3919
23502	-10,873	-5,	-11,35	8,708
23503	11,792	-5,	-9,3151	9,2907
23504	11,368	-5,	-10,146	9,0081
23505	10,942	-5,	-10,973	8,7685
23506	10,501	-5,	-11,808	8,5693
23507	9,6261	-5,	-13,472	8,3197
23508	8,7725	-5,	-15,151	8,2785
23509	8,3647	-5,	-15,992	8,3364
23510	7,9255	-5,	-16,825	8,4364
23511	7,0197	-5,	-18,449	8,7571
23512	6,1526	-5,	-20,079	9,2392
23513	5,7336	-5,	-20,898	9,5334
23514	5,3066	-5,	-21,72	9,859
23515	4,8746	-5,	-22,543	10,215
23516	4,4533	-5,	-23,368	10,598
23517	4,0228	-5,	-24,191	11,008
23518	3,5678	-5,	-25,012	11,444
23519	2,6344	-5,	-26,689	12,42
23520	-10,902	-5,	11,342	8,594
23521	-9,9945	-5,	12,916	8,2492
23522	-9,0834	-5,	14,517	8,0852
23523	-8,6466	-5,	15,345	8,0788
23524	-8,215	-5,	16,174	8,1192
23525	-7,7798	-5,	16,993	8,2009
23526	-7,3463	-5,	17,817	8,3239
23527	-6,8996	-5,	18,647	8,484
23528	-6,0288	-5,	20,314	8,9065
23529	-5,5946	-5,	21,158	9,1621
23530	-5,1582	-5,	22,002	9,4412
23531	-4,7393	-5,	22,837	9,7367
23532	-3,8735	-5,	24,498	10,371
23533	-3,4385	-5,	25,304	10,697
23534	-2,9747	-5,	26,105	11,032
23535	2,2305	-5,	-28,043	13,235
23536	1,7934	-5,	-28,75	13,725
23537	-11,781	-5,	-9,883	9,1818
23538	-7,6022	-5,	1,0966	9,2839
23539	7,4647	-5,	-0,94523	9,2531
23540	9,3301	-5,	-3,2689	9,5974
23541	-3,3598	-5,	27,474	11,557
23542	-8,6514	-5,	-4,4463	9,1827
23543	-7,8498	-5,	-0,63597	9,3712
23544	-9,7986	-5,	3,8733	9,6518
23545	7,7788	-5,	0,65807	9,3487
23546	-8,3563	-5,	-2,2177	9,4122
23547	8,3014	-5,	2,1971	9,3921
23548	9,8088	-5,	-4,0621	9,6408
23549	11,399	-5,	-6,026	9,8568
23550	-12,624	-5,	10,32	9,2603
23551	-11,634	-5,	7,3914	9,5709
23552	-12,383	-5,	8,4385	9,5969
23553	8,9313	-5,	3,5644	9,4045
23554	9,6187	-5,	4,8238	9,4077
23555	-11,667	-5,	-8,0848	9,499
23556	-10,98	-5,	4,5653	9,9634
23557	12,646	-5,	10,289	9,2727
23558	12,2	-5,	9,1354	9,37
23559	11,636	-5,	8,0451	9,4182
23560	-10,92	-5,	6,3261	9,5537
23561	-1,3846	-5,	-29,934	14,554
23562	-2,3368	-5,	-30,112	14,495
23563	-0,81735	-5,	29,599	12,549
23564	0,30969	-5,	29,461	12,496
23565	1,3456	-5,	29,441	12,466
23566	2,4259	-5,	29,321	12,369
23567	-2,5224	-5,	28,981	12,222
23568	-10,992	-5,	-7,0635	9,4712
23569	10,964	-5,	7,0055	9,4139
23570	1,3208	-5,	-29,46	14,244
23571	0,21914	-5,	-29,376	14,263
23572	-10,324	-5,	-6,033	9,445
23573	10,294	-5,	5,9687	9,4054
23574	12,077	-5,	-6,6466	9,9844
23575	12,577	-5,	-7,7277	9,9239
23576	13,108	-5,	-8,9504	9,8249
23577	-12,21	-5,	-9,1434	9,4667
23578	3,3447	-5,	-28,005	13,017
23579	-8,9023	-5,	2,9369	9,4941
23580	8,7042	-5,	-2,5431	9,4857
23581	2,679	-5,	28,348	11,953
23582	3,0683	-5,	27,534	11,598
23583	3,9917	-5,	25,865	10,889
23584	4,8785	-5,	24,22	10,234
23585	5,7701	-5,	22,571	9,6356
23586	6,2056	-5,	21,75	9,3654
23587	6,6584	-5,	20,915	9,1131
23588	7,5739	-5,	19,246	8,6904
23589	8,4894	-5,	17,575	8,3994
23590	8,9399	-5,	16,737	8,3109
23591	9,402	-5,	15,9	8,2673
23592	9,8493	-5,	15,061	8,2672
23593	10,309	-5,	14,232	8,3177
23594	10,765	-5,	13,42	8,4156
23595	11,233	-5,	12,629	8,5624
23596	12,176	-5,	11,059	8,9934
23597	-2,7638	-5,	-28,099	13,182
23598	-3,7036	-5,	-26,379	12,103
23599	-4,5747	-5,	-24,759	11,207
23600	-5,0101	-5,	-23,955	10,803
23601	-5,4537	-5,	-23,14	10,422
23602	-6,3395	-5,	-21,515	9,7461
23603	-6,7852	-5,	-20,69	9,4499
23604	-7,2251	-5,	-19,87	9,1883
23605	-7,6809	-5,	-19,044	8,9617
23606	-8,1295	-5,	-18,219	8,7735
23607	-8,5742	-5,	-17,391	8,6253
23608	-9,0286	-5,	-16,571	8,5236
23609	-9,4785	-5,	-15,753	8,4672
23610	-9,9304	-5,	-14,934	8,4582
23611	-10,383	-5,	-14,122	8,4984
23612	-10,837	-5,	-13,335	8,5873
23613	-11,759	-5,	-11,791	8,9053
23614	-12,227	-5,	-11,027	9,1331
23615	-12,683	-5,	-10,256	9,4006
23616	12,678	-5,	-9,791	9,491
23617	12,246	-5,	-10,63	9,2007
23618	11,803	-5,	-11,476	8,9537
23619	11,365	-5,	-12,308	8,7582
23620	10,484	-5,	-13,981	8,5149
23621	10,042	-5,	-14,821	8,4697
23622	9,6279	-5,	-15,666	8,4793
23623	8,7689	-5,	-17,354	8,6368
23624	8,3008	-5,	-18,177	8,7752
23625	7,8467	-5,	-18,991	8,9544
23626	6,9655	-5,	-20,638	9,4307
23627	6,097	-5,	-22,292	10,043
23628	5,6678	-5,	-23,12	10,395
23629	5,2382	-5,	-23,945	10,774
23630	4,8205	-5,	-24,773	11,181
23631	4,3936	-5,	-25,597	11,617
23632	3,6203	-5,	-27,196	12,535
23633	-12,196	-5,	11,076	8,9969
23634	-11,749	-5,	11,826	8,7696
23635	-11,302	-5,	12,615	8,5802
23636	-10,845	-5,	13,407	8,4338
23637	-9,9301	-5,	15,031	8,2799
23638	-9,4907	-5,	15,867	8,2778
23639	-9,0543	-5,	16,7	8,3208
23640	-8,6177	-5,	17,523	8,4042
23641	-8,1709	-5,	18,358	8,5275
23642	-7,7251	-5,	19,19	8,6866
23643	-7,2786	-5,	20,031	8,8809
23644	-6,3951	-5,	21,729	9,3601
23645	-5,9656	-5,	22,577	9,6355
23646	-5,0954	-5,	24,264	10,241
23647	-4,6668	-5,	25,087	10,56
23648	-3,7871	-5,	26,697	11,222
23649	-8,322	-5,	0,31115	9,5172
23650	-10,268	-5,	2,693	10,011
23651	-4,1661	-5,	28,098	11,738
23652	-3,7197	-5,	28,873	12,087
23653	-8,7033	-5,	-1,3309	9,5956
23654	8,6452	-5,	1,3466	9,5717
23655	11,831	-5,	-5,1474	10,231
23656	-9,6515	-5,	-4,8774	9,4361
23657	-12,99	-5,	9,5528	9,5434
23658	-12,65	-5,	7,6859	9,8855
23659	-13,487	-5,	10,728	9,4369
23660	9,2573	-5,	2,7761	9,6278
23661	-13,131	-5,	-9,4967	9,7038
23662	9,9314	-5,	4,026	9,6685
23663	-10,95	-5,	3,9294	10,077
23664	13,533	-5,	10,691	9,4584
23665	13,097	-5,	9,5075	9,5899
23666	12,588	-5,	8,3716	9,6875
23667	-11,331	-5,	5,5803	9,8843
23668	-1,8911	-5,	-30,713	15,007
23669	-2,9792	-5,	-30,521	14,584
23670	-0,26833	-5,	30,235	12,827
23671	1,9532	-5,	30,12	12,734
23672	-2,0091	-5,	29,661	12,536
23673	-1,4614	-5,	30,32	12,84
23674	3,0668	-5,	29,855	12,548
23675	0,84988	-5,	30,166	12,791
23676	-12,015	-5,	-7,3384	9,7979
23677	11,989	-5,	7,2986	9,728
23678	2,8943	-5,	-28,763	13,539
23679	1,9442	-5,	-30,15	14,608
23680	0,80637	-5,	-30,15	14,771
23681	-0,3077	-5,	-30,043	14,723
23682	-11,994	-5,	6,6197	9,8984
23683	-11,349	-5,	-6,3154	9,7722
23684	11,318	-5,	6,2604	9,7197
23685	12,465	-5,	-5,8891	10,332
23686	13,528	-5,	-8,1119	10,195
23687	14,004	-5,	-9,3686	10,031
23688	-9,2941	-5,	-2,8183	9,6464
23689	-10,769	-5,	1,767	10,317
23690	-8,8491	-5,	1,2144	9,6476
23691	-9,4799	-5,	2,0463	9,7939
23692	10,258	-5,	-2,6061	10,026
23693	9,3622	-5,	-1,8312	9,7783
23694	3,4759	-5,	28,98	12,152
23695	3,8897	-5,	28,126	11,774
23696	4,3377	-5,	27,295	11,411
23697	4,7891	-5,	26,467	11,062
23698	5,2411	-5,	25,634	10,723
23699	5,6907	-5,	24,805	10,401
23700	6,5912	-5,	23,137	9,8043
23701	7,0426	-5,	22,304	9,5351
23702	7,4936	-5,	21,466	9,2874
23703	7,956	-5,	20,628	9,0656
23704	8,4137	-5,	19,789	8,872
23705	8,8786	-5,	18,941	8,709
23706	9,3447	-5,	18,103	8,5841
23707	10,253	-5,	16,415	8,4493
23708	11,172	-5,	14,729	8,4944
23709	11,638	-5,	13,908	8,5904
23710	12,107	-5,	13,092	8,7352
23711	13,058	-5,	11,484	9,1709
23712	-3,5808	-5,	-28,649	13,315
23713	-4,0665	-5,	-27,81	12,753
23714	-4,5022	-5,	-26,983	12,248
23715	-4,9479	-5,	-26,167	11,78
23716	-5,3831	-5,	-25,355	11,347
23717	-6,2753	-5,	-23,715	10,56
23718	-6,7216	-5,	-22,898	10,213
23719	-7,1709	-5,	-22,069	9,8922
23720	-8,065	-5,	-20,416	9,3488
23721	-8,9743	-5,	-18,754	8,9438
23722	-9,8853	-5,	-17,089	8,699
23723	-10,794	-5,	-15,432	8,6336
23724	-11,254	-5,	-14,619	8,6734
23725	-11,707	-5,	-13,804	8,7604
23726	-12,638	-5,	-12,226	9,0806
23727	-13,108	-5,	-11,438	9,3132
23728	-13,577	-5,	-10,645	9,5914
23729	13,568	-5,	-10,232	9,68
23730	13,123	-5,	-11,1	9,3754
23731	12,23	-5,	-12,804	8,9266
23732	10,909	-5,	-15,324	8,6443
23733	10,482	-5,	-16,172	8,6514
23734	10,057	-5,	-17,025	8,7064
23735	9,6105	-5,	-17,872	8,8034
23736	9,1429	-5,	-18,701	8,9391
23737	8,685	-5,	-19,524	9,1142
23738	8,2348	-5,	-20,351	9,328
23739	7,7879	-5,	-21,184	9,5786
23740	7,3466	-5,	-22,021	9,8638
23741	6,9156	-5,	-22,851	10,177
23742	6,4775	-5,	-23,685	10,524
23743	6,054	-5,	-24,512	10,895
23744	5,6276	-5,	-25,343	11,298
23745	5,2065	-5,	-26,168	11,728
23746	4,4021	-5,	-27,803	12,667
23747	3,5986	-5,	-29,364	13,706
23748	-13,067	-5,	11,509	9,1689
23749	-12,619	-5,	12,299	8,9366
23750	-11,704	-5,	13,891	8,6045
23751	-11,241	-5,	14,703	8,5065
23752	-10,784	-5,	15,535	8,4575
23753	-9,9066	-5,	17,217	8,5022
23754	-9,4663	-5,	18,049	8,5857
23755	-9,0143	-5,	18,888	8,7073
23756	-8,1064	-5,	20,57	9,054
23757	-7,6521	-5,	21,426	9,2767
23758	-7,21	-5,	22,285	9,5268
23759	-6,7758	-5,	23,142	9,7993
23760	-6,3408	-5,	23,993	10,091
23761	-5,4625	-5,	25,679	10,723
23762	-5,0331	-5,	26,499	11,053
23763	-4,5972	-5,	27,31	11,394
23764	-2,6945	-5,	30,315	12,773
23765	-9,0831	-5,	-0,45727	9,7594
23766	9,0353	-5,	0,5174	9,7387
23767	-4,9551	-5,	28,736	11,895
23768	-9,5993	-5,	-1,9865	9,8485
23769	12,163	-5,	-4,3344	10,552
23770	-9,9631	-5,	-4,0793	9,6927
23771	10,521	-5,	-3,6287	9,9819
23772	10,638	-5,	5,1857	9,6997
23773	11,47	-5,	-3,4253	10,416
23774	-13,306	-5,	8,7833	9,844
23775	-13,627	-5,	7,997	10,182
23776	-13,873	-5,	9,9338	9,7408
23777	3,1165	-5,	-30,103	14,284
23778	-14,226	-5,	9,1334	10,076
23779	9,5623	-5,	1,9665	9,8282
23780	-14,035	-5,	-9,861	9,9134
23781	-10,266	-5,	-3,2748	9,9385
23782	10,229	-5,	3,2369	9,9112
23783	-13,565	-5,	-8,7227	10,046
23784	-2,127	-5,	30,99	13,099
23785	-11,234	-5,	3,0249	10,352
23786	14,424	-5,	11,102	9,6155
23787	13,993	-5,	9,893	9,7896
23788	10,95	-5,	4,4132	9,9847
23789	-11,769	-5,	4,8291	10,235
23790	-2,5128	-5,	-31,377	15,309
23791	-3,6335	-5,	-31,029	14,664
23792	-0,88093	-5,	30,967	13,133
23793	2,6226	-5,	30,7	12,941
23794	3,7976	-5,	30,437	12,722
23795	1,4457	-5,	30,852	13,068
23796	-12,995	-5,	-7,632	10,112
23797	12,957	-5,	7,6007	10,028
23798	12,408	-5,	-3,5616	10,82
23799	2,6088	-5,	-30,82	14,898
23800	1,4247	-5,	-30,857	15,204
23801	-0,83012	-5,	-30,77	15,217
23802	-12,352	-5,	5,8534	10,239
23803	0,30743	-5,	30,906	13,114
23804	-12,37	-5,	-6,5874	10,121
23805	12,332	-5,	6,5366	10,056
23806	12,796	-5,	-5,2376	10,638
23807	14,435	-5,	-8,5196	10,424
23808	14,898	-5,	-9,7891	10,205
23809	13,055	-5,	-6,9487	10,316
23810	-14,557	-5,	8,3293	10,442
23811	-12,986	-5,	6,9086	10,229
23812	0,27848	-5,	-30,835	15,305
23813	11,66	-5,	5,5021	10,036
23814	11,535	-5,	-2,6926	10,552
23815	-10,668	-5,	-5,2634	9,7341
23816	10,794	-5,	-1,7938	10,334
23817	3,8343	-5,	-30,725	14,405
23818	-15,126	-5,	9,4999	10,27
23819	-9,5171	-5,	0,39291	9,911
23820	-10,066	-5,	1,1743	10,084
23821	10,024	-5,	-1,1049	10,076
23822	4,2525	-5,	29,582	12,316
23823	4,6968	-5,	28,731	11,926
23824	5,15	-5,	27,886	11,551
23825	5,6012	-5,	27,048	11,194
23826	6,5185	-5,	25,373	10,529
23827	6,969	-5,	24,537	10,224
23828	7,8786	-5,	22,851	9,6697
23829	8,3381	-5,	22,007	9,4264
23830	8,7976	-5,	21,16	9,2078
23831	9,2692	-5,	20,312	9,0177
23832	10,202	-5,	18,618	8,7362
23833	10,66	-5,	17,765	8,649
23834	11,127	-5,	16,917	8,6042
23835	11,585	-5,	16,069	8,602
23836	12,042	-5,	15,221	8,6457
23837	12,507	-5,	14,378	8,7387
23838	12,977	-5,	13,552	8,8813
23839	13,453	-5,	12,73	9,0745
23840	13,935	-5,	11,919	9,3181
23841	-4,0248	-5,	-30,115	13,985
23842	-4,4276	-5,	-29,245	13,381
23843	-4,8584	-5,	-28,405	12,828
23844	-5,3128	-5,	-27,576	12,317
23845	-6,2091	-5,	-25,932	11,415
23846	-6,6568	-5,	-25,109	11,013
23847	-7,1066	-5,	-24,277	10,639
23848	-8,0041	-5,	-22,618	9,9876
23849	-8,4649	-5,	-21,784	9,7067
23850	-8,9182	-5,	-20,953	9,4602
23851	-9,3787	-5,	-20,111	9,2458
23852	-9,8341	-5,	-19,277	9,0701
23853	-10,295	-5,	-18,433	8,9313
23854	-10,751	-5,	-17,599	8,8353
23855	-11,672	-5,	-15,927	8,7748
23856	-12,123	-5,	-15,101	8,8134
23857	-12,583	-5,	-14,286	8,9007
23858	-13,044	-5,	-13,471	9,0364
23859	-13,512	-5,	-12,663	9,2224
23860	-14,456	-5,	-11,051	9,7452
23861	14,458	-5,	-10,673	9,8371
23862	14,006	-5,	-11,551	9,5232
23863	13,554	-5,	-12,424	9,2661
23864	13,099	-5,	-13,285	9,065
23865	12,204	-5,	-14,978	8,8254
23866	11,768	-5,	-15,821	8,7815
23867	11,34	-5,	-16,669	8,786
23868	10,914	-5,	-17,534	8,8371
23869	10,458	-5,	-18,378	8,928
23870	9,9924	-5,	-19,217	9,0594
23871	9,5288	-5,	-20,046	9,228
23872	9,0758	-5,	-20,882	9,4345
23873	8,6167	-5,	-21,721	9,677
23874	8,1702	-5,	-22,563	9,9528
23875	7,7315	-5,	-23,405	10,26
23876	6,8633	-5,	-25,077	10,96
23877	6,0205	-5,	-26,738	11,775
23878	5,6057	-5,	-27,566	12,229
23879	5,1943	-5,	-28,385	12,713
23880	4,7675	-5,	-29,194	13,237
23881	4,3216	-5,	-29,972	13,795
23882	-14,756	-5,	10,325	9,9089
23883	-14,362	-5,	11,138	9,5911
23884	-13,939	-5,	11,946	9,3141
23885	-13,495	-5,	12,747	9,0812
23886	-12,568	-5,	14,37	8,7496
23887	-11,642	-5,	16,029	8,6076
23888	-10,761	-5,	17,728	8,653
23889	-10,312	-5,	18,572	8,7358
23890	-9,8613	-5,	19,407	8,8537
23891	-9,4034	-5,	20,252	9,0071
23892	-8,9392	-5,	21,101	9,1931
23893	-8,4801	-5,	21,963	9,4113
23894	-8,0348	-5,	22,832	9,6574
23895	-7,1527	-5,	24,557	10,215
23896	-6,7133	-5,	25,409	10,522
23897	-6,2775	-5,	26,251	10,843
23898	-5,8385	-5,	27,09	11,181
23899	-5,3998	-5,	27,919	11,532
23900	-4,486	-5,	29,51	12,258
23901	-3,416	-5,	30,963	12,988
23902	-11,696	-5,	-5,5598	10,082
23903	-9,9119	-5,	-1,1648	10,028
23904	9,886	-5,	1,1656	10,013
23905	-10,984	-5,	-4,4622	10,018
23906	-14,932	-5,	-10,251	10,082
23907	-10,555	-5,	-2,4841	10,161
23908	10,521	-5,	2,4583	10,136
23909	-14,488	-5,	-9,0711	10,279
23910	-2,8132	-5,	31,645	13,341
23911	-11,678	-5,	2,1418	10,674
23912	15,3	-5,	11,53	9,7255
23913	14,893	-5,	10,282	9,9609
23914	14,429	-5,	9,0779	10,163
23915	11,243	-5,	3,6376	10,253
23916	11,835	-5,	-1,9321	10,782
23917	-12,083	-5,	4,018	10,547
23918	-3,2078	-5,	-31,918	15,417
23919	-4,3814	-5,	-31,589	14,646
23920	-1,5187	-5,	31,655	13,414
23921	3,3131	-5,	31,278	13,134
23922	4,5514	-5,	31,023	12,87
23923	2,0923	-5,	31,487	13,314
23924	-13,956	-5,	-7,9418	10,409
23925	13,911	-5,	7,9182	10,316
23926	12,654	-5,	-2,7565	11,075
23927	4,5682	-5,	-31,339	14,414
23928	3,3107	-5,	-31,464	15,074
23929	2,0782	-5,	-31,532	15,557
23930	-1,3897	-5,	-31,485	15,682
23931	-12,751	-5,	5,0753	10,612
23932	-0,28733	-5,	31,633	13,425
23933	0,89406	-5,	31,589	13,399
23934	-13,358	-5,	-6,8599	10,467
23935	13,119	-5,	-4,4748	10,975
23936	12,679	-5,	5,7712	10,402
23937	15,333	-5,	-8,9001	10,627
23938	15,785	-5,	-10,196	10,338
23939	13,945	-5,	-7,3159	10,587
23940	-15,483	-5,	8,6772	10,671
23941	-13,961	-5,	7,2104	10,551
23942	0,88283	-5,	-31,566	15,829
23943	-0,26867	-5,	-31,539	15,857
23944	-13,349	-5,	6,1224	10,605
23945	13,411	-5,	-6,2027	10,67
23946	11,977	-5,	4,7253	10,349
23947	-16,024	-5,	9,8795	10,421
23948	-12,716	-5,	-5,8218	10,459
23949	11,207	-5,	-1,1355	10,564
23950	-10,258	-5,	-0,36845	10,193
23951	-10,624	-5,	0,35977	10,34
23952	10,256	-5,	0,38362	10,191
23953	10,645	-5,	-0,35103	10,352
23954	5,0384	-5,	30,171	12,442
23955	5,5072	-5,	29,316	12,034
23956	5,9624	-5,	28,464	11,649
23957	6,4219	-5,	27,615	11,283
23958	6,8839	-5,	26,779	10,941
23959	7,3486	-5,	25,93	10,613
23960	7,8045	-5,	25,084	10,309
23961	8,264	-5,	24,238	10,025
23962	8,7298	-5,	23,387	9,7611
23963	9,1901	-5,	22,537	9,5223
23964	9,6534	-5,	21,685	9,3089
23965	10,592	-5,	19,979	8,969
23966	11,063	-5,	19,127	8,8486
23967	11,521	-5,	18,269	8,7638
23968	11,993	-5,	17,416	8,7196
23969	12,454	-5,	16,561	8,7173
23970	12,919	-5,	15,708	8,7604
23971	13,383	-5,	14,858	8,8509
23972	13,856	-5,	14,026	8,9909
23973	14,329	-5,	13,189	9,1818
23974	14,815	-5,	12,363	9,4257
23975	-4,8074	-5,	-30,701	13,967
23976	-5,238	-5,	-29,831	13,357
23977	-5,6843	-5,	-28,986	12,804
23978	-6,1283	-5,	-28,148	12,299
23979	-6,5846	-5,	-27,326	11,837
23980	-7,0391	-5,	-26,491	11,407
23981	-7,9403	-5,	-24,828	10,653
23982	-8,4033	-5,	-23,992	10,321
23983	-8,8603	-5,	-23,15	10,019
23984	-9,3094	-5,	-22,313	9,7517
23985	-10,226	-5,	-20,633	9,3119
23986	-10,696	-5,	-19,786	9,143
23987	-11,154	-5,	-18,942	9,0127
23988	-11,619	-5,	-18,101	8,9223
23989	-12,077	-5,	-17,26	8,8735
23990	-12,536	-5,	-16,427	8,8686
23991	-13,455	-5,	-14,755	8,9968
23992	-13,912	-5,	-13,921	9,1335
23993	-14,383	-5,	-13,112	9,3189
23994	-14,856	-5,	-12,294	9,557
23995	-15,332	-5,	-11,472	9,8496
23996	14,882	-5,	-12,017	9,6231
23997	14,432	-5,	-12,896	9,3639
23998	13,978	-5,	-13,759	9,1626
23999	13,526	-5,	-14,611	9,016
24000	13,073	-5,	-15,46	8,92
24001	12,196	-5,	-17,178	8,8744
24002	11,315	-5,	-18,889	9,0044
24003	10,376	-5,	-20,563	9,2892
24004	9,9136	-5,	-21,402	9,4861
24005	9,4586	-5,	-22,249	9,7182
24006	9,0113	-5,	-23,096	9,9818
24007	8,5712	-5,	-23,938	10,274
24008	7,6869	-5,	-25,627	10,954
24009	7,2561	-5,	-26,469	11,338
24010	6,8282	-5,	-27,307	11,753
24011	6,4122	-5,	-28,136	12,194
24012	5,9812	-5,	-28,967	12,68
24013	5,066	-5,	-30,571	13,782
24014	-15,644	-5,	10,71	10,042
24015	-15,241	-5,	11,546	9,7082
24016	-14,369	-5,	13,197	9,1876
24017	-13,429	-5,	14,842	8,8581
24018	-12,965	-5,	15,679	8,7661
24019	-12,51	-5,	16,521	8,7214
24020	-12,067	-5,	17,371	8,7219
24021	-11,622	-5,	18,225	8,7641
24022	-11,172	-5,	19,078	8,8449
24023	-10,25	-5,	20,767	9,109
24024	-9,7846	-5,	21,622	9,2905
24025	-8,8716	-5,	23,367	9,7447
24026	-8,4282	-5,	24,236	10,008
24027	-7,9766	-5,	25,107	10,295
24028	-7,532	-5,	25,964	10,6
24029	-7,0923	-5,	26,817	10,923
24030	-6,6457	-5,	27,671	11,267
24031	-6,1981	-5,	28,524	11,631
24032	-5,2654	-5,	30,148	12,396
24033	-12,005	-5,	-4,7647	10,391
24034	-15,813	-5,	-10,655	10,198
24035	-10,843	-5,	-1,7324	10,36
24036	-11,65	-5,	0,37145	10,793
24037	10,815	-5,	1,7235	10,339
24038	11,664	-5,	-0,35993	10,799
24039	-4,739	-5,	30,903	12,791
24040	-15,398	-5,	-9,4345	10,472
24041	-11,28	-5,	-3,6831	10,287
24042	-4,1558	-5,	31,614	13,185
24043	-3,5258	-5,	32,289	13,567
24044	16,171	-5,	11,963	9,7823
24045	15,777	-5,	10,691	10,082
24046	15,332	-5,	9,4528	10,353
24047	11,523	-5,	2,8706	10,503
24048	12,235	-5,	-1,1376	11,045
24049	-12,315	-5,	3,2056	10,813
24050	-3,9201	-5,	-32,471	15,418
24051	-5,1427	-5,	-32,15	14,503
24052	-2,1809	-5,	32,318	13,679
24053	4,0322	-5,	31,867	13,313
24054	5,3195	-5,	31,607	12,984
24055	2,7681	-5,	32,094	13,543
24056	-14,897	-5,	-8,2682	10,677
24057	14,832	-5,	8,2618	10,569
24058	12,271	-5,	3,9553	10,646
24059	12,892	-5,	-2,0202	11,3
24060	5,3266	-5,	-31,949	14,296
24061	4,0351	-5,	-32,087	15,122
24062	2,7518	-5,	-32,184	15,805
24063	-13,066	-5,	4,2507	10,963
24064	-0,90352	-5,	32,331	13,72
24065	1,5291	-5,	32,244	13,669
24066	-14,333	-5,	-7,146	10,803
24067	14,28	-5,	7,1178	10,716
24068	13,404	-5,	-3,6854	11,292
24069	12,991	-5,	4,9953	10,742
24070	16,225	-5,	-9,2845	10,786
24071	16,692	-5,	-10,64	10,408
24072	14,854	-5,	-7,6572	10,86
24073	-16,393	-5,	9,0425	10,849
24074	-14,902	-5,	7,5215	10,848
24075	1,5216	-5,	-32,248	16,267
24076	-0,85007	-5,	-32,232	16,383
24077	-13,71	-5,	5,3161	11,001
24078	13,774	-5,	-5,4174	11,056
24079	0,31946	-5,	32,313	13,717
24080	-13,703	-5,	-6,0725	10,839
24081	-13,028	-5,	-5,029	10,799
24082	13,666	-5,	6,0356	10,773
24083	14,347	-5,	-6,4908	11,013
24084	-14,323	-5,	6,4043	10,963
24085	0,31926	-5,	-32,268	16,467
24086	-16,696	-5,	-11,074	10,252
24087	-16,922	-5,	10,274	10,514
24088	-11,095	-5,	-1,038	10,519
24089	-11,375	-5,	-0,26995	10,67
24090	11,394	-5,	0,25319	10,676
24091	5,8285	-5,	30,748	12,526
24092	6,3168	-5,	29,883	12,095
24093	7,26	-5,	28,171	11,321
24094	7,7271	-5,	27,322	10,973
24095	8,1892	-5,	26,473	10,648
24096	9,1139	-5,	24,773	10,065
24097	9,5814	-5,	23,915	9,8046
24098	10,051	-5,	23,057	9,5697
24099	10,981	-5,	21,345	9,1816
24100	11,927	-5,	19,629	8,9136
24101	12,862	-5,	17,911	8,7882
24102	13,328	-5,	17,051	8,7859
24103	13,792	-5,	16,193	8,8274
24104	14,732	-5,	14,496	9,0523
24105	15,684	-5,	12,809	9,482
24106	-5,6057	-5,	-31,272	13,826
24107	-6,0582	-5,	-30,404	13,223
24108	-6,5086	-5,	-29,552	12,681
24109	-6,9619	-5,	-28,712	12,188
24110	-7,4227	-5,	-27,876	11,735
24111	-7,8794	-5,	-27,042	11,322
24112	-8,3362	-5,	-26,205	10,942
24113	-8,7957	-5,	-25,362	10,592
24114	-9,2483	-5,	-24,519	10,276
24115	-9,7161	-5,	-23,676	9,9872
24116	-10,626	-5,	-21,988	9,5093
24117	-11,089	-5,	-21,14	9,317
24118	-11,553	-5,	-20,301	9,1598
24119	-12,022	-5,	-19,443	9,0365
24120	-12,486	-5,	-18,599	8,9529
24121	-13,871	-5,	-16,068	8,9506
24122	-14,327	-5,	-15,222	9,0397
24123	-15,257	-5,	-13,567	9,3615
24124	-16,199	-5,	-11,906	9,8945
24125	15,76	-5,	-12,489	9,6668
24126	15,308	-5,	-13,38	9,4042
24127	14,851	-5,	-14,241	9,2039
24128	14,398	-5,	-15,094	9,0576
24129	13,94	-5,	-15,944	8,9607
24130	13,061	-5,	-17,672	8,9069
24131	12,177	-5,	-19,398	9,0232
24132	11,696	-5,	-20,243	9,1405
24133	11,228	-5,	-21,074	9,2917
24134	10,306	-5,	-22,772	9,6978
24135	9,8554	-5,	-23,62	9,9472
24136	9,4075	-5,	-24,469	10,227
24137	8,965	-5,	-25,316	10,535
24138	8,5162	-5,	-26,165	10,877
24139	8,077	-5,	-27,016	11,247
24140	7,6489	-5,	-27,862	11,646
24141	6,7755	-5,	-29,543	12,555
24142	6,3134	-5,	-30,371	13,08
24143	5,8311	-5,	-31,173	13,657
24144	-16,531	-5,	11,118	10,117
24145	-16,122	-5,	11,962	9,7746
24146	-15,697	-5,	12,803	9,4853
24147	-15,248	-5,	13,644	9,247
24148	-14,777	-5,	14,481	9,059
24149	-14,299	-5,	15,322	8,9206
24150	-13,837	-5,	16,17	8,8314
24151	-13,384	-5,	17,01	8,7884
24152	-12,93	-5,	17,866	8,7881
24153	-12,48	-5,	18,722	8,8285
24154	-12,035	-5,	19,582	8,9067
24155	-11,57	-5,	20,424	9,0181
24156	-10,638	-5,	22,14	9,3407
24157	-10,178	-5,	23,01	9,5474
24158	-9,2651	-5,	24,766	10,042
24159	-8,8102	-5,	25,643	10,325
24160	-7,907	-5,	27,378	10,956
24161	-7,4596	-5,	28,239	11,303
24162	-7,0146	-5,	29,092	11,67
24163	-6,5524	-5,	29,941	12,065
24164	-6,0621	-5,	30,769	12,483
24165	-5,5264	-5,	31,56	12,922
24166	-4,9405	-5,	32,281	13,359
24167	-16,288	-5,	-9,8227	10,605
24168	-11,556	-5,	-2,8948	10,534
24169	-4,2503	-5,	32,936	13,786
24170	-12,363	-5,	0,36512	11,14
24171	16,657	-5,	11,103	10,148
24172	16,226	-5,	9,8421	10,492
24173	11,803	-5,	2,1282	10,733
24174	12,621	-5,	-0,23479	11,278
24175	-12,66	-5,	2,3674	11,12
24176	-4,668	-5,	-33,029	15,27
24177	3,4726	-5,	32,69	13,76
24178	-15,82	-5,	-8,6101	10,901
24179	15,745	-5,	8,6162	10,787
24180	12,546	-5,	3,1885	10,928
24181	13,206	-5,	-1,2452	11,545
24182	3,4739	-5,	-32,82	15,906
24183	-2,6958	-5,	-32,746	16,248
24184	-13,365	-5,	3,4167	11,298
24185	-12,309	-5,	-3,9907	10,69
24186	2,1906	-5,	32,875	13,93
24187	-15,286	-5,	-7,449	11,11
24188	15,221	-5,	7,4312	11,014
24189	13,662	-5,	-2,913	11,579
24190	17,113	-5,	-9,6683	10,889
24191	-17,299	-5,	9,4258	10,967
24192	-17,825	-5,	10,684	10,536
24193	-15,836	-5,	7,8497	11,113
24194	2,1793	-5,	-32,907	16,604
24195	-1,4768	-5,	-32,9	16,835
24196	-14,046	-5,	4,4889	11,397
24197	14,09	-5,	-4,6466	11,421
24198	-0,28379	-5,	33,02	14,02
24199	0,94317	-5,	32,986	14,003
24200	-14,688	-5,	-6,3392	11,217
24201	14,642	-5,	6,3061	11,143
24202	13,997	-5,	5,2443	11,161
24203	0,94203	-5,	-32,963	17,018
24204	-0,27208	-5,	-32,964	17,098
24205	-14,682	-5,	5,5848	11,398
24206	14,712	-5,	-5,67	11,44
24207	-17,554	-5,	-11,515	10,226
24208	-17,18	-5,	-10,218	10,678
24209	-12,093	-5,	-1,3294	10,962
24210	17,995	-5,	10,66	10,576
24211	17,12	-5,	10,242	10,573
24212	12,082	-5,	1,3971	10,943
24213	12,358	-5,	0,62724	11,13
24214	-12,991	-5,	1,4607	11,405
24215	6,6417	-5,	31,307	12,549
24216	8,1072	-5,	28,719	11,305
24217	8,5651	-5,	27,863	10,956
24218	9,0361	-5,	27,004	10,629
24219	9,5082	-5,	26,153	10,327
24220	9,9764	-5,	25,291	10,048
24221	10,918	-5,	23,578	9,5647
24222	11,382	-5,	22,712	9,361
24223	11,856	-5,	21,853	9,1849
24224	12,321	-5,	20,988	9,0388
24225	12,794	-5,	20,127	8,9241
24226	13,26	-5,	19,264	8,8443
24227	13,734	-5,	18,402	8,8013
24228	14,2	-5,	17,544	8,7983
24229	14,666	-5,	16,686	8,8376
24230	15,138	-5,	15,824	8,9228
24231	15,608	-5,	14,971	9,0551
24232	16,081	-5,	14,112	9,2399
24233	16,562	-5,	13,265	9,477
24234	17,036	-5,	12,401	9,7758
24235	17,527	-5,	11,535	10,141
24236	-5,9348	-5,	-32,698	14,211
24237	-6,8818	-5,	-30,958	12,977
24238	-7,7981	-5,	-29,267	11,988
24239	-8,7177	-5,	-27,584	11,16
24240	-9,1804	-5,	-26,735	10,795
24241	-9,6487	-5,	-25,888	10,461
24242	-10,57	-5,	-24,196	9,8895
24243	-11,036	-5,	-23,346	9,6473
24244	-11,497	-5,	-22,501	9,4376
24245	-11,961	-5,	-21,644	9,257
24246	-12,422	-5,	-20,8	9,111
24247	-13,361	-5,	-19,087	8,9201
24248	-13,821	-5,	-18,247	8,8823
24249	-14,282	-5,	-17,403	8,8841
24250	-14,745	-5,	-16,55	8,929
24251	-15,204	-5,	-15,705	9,0184
24252	-15,671	-5,	-14,869	9,1537
24253	-16,129	-5,	-14,029	9,3389
24254	-16,596	-5,	-13,189	9,5772
24255	-17,07	-5,	-12,358	9,8692
24256	17,093	-5,	-12,07	9,9676
24257	16,628	-5,	-12,987	9,6362
24258	15,727	-5,	-14,723	9,1813
24259	15,27	-5,	-15,58	9,0353
24260	14,814	-5,	-16,428	8,939
24261	14,368	-5,	-17,291	8,8865
24262	13,923	-5,	-18,156	8,8772
24263	13,49	-5,	-19,03	8,9078
24264	13,036	-5,	-19,894	8,9783
24265	12,557	-5,	-20,74	9,0878
24266	11,614	-5,	-22,422	9,4053
24267	11,162	-5,	-23,278	9,6096
24268	10,709	-5,	-24,133	9,8442
24269	10,254	-5,	-24,988	10,109
24270	9,8018	-5,	-25,84	10,402
24271	9,3498	-5,	-26,697	10,727
24272	8,9048	-5,	-27,55	11,079
24273	8,4711	-5,	-28,405	11,459
24274	8,0287	-5,	-29,261	11,877
24275	7,5803	-5,	-30,111	12,333
24276	7,117	-5,	-30,946	12,836
24277	6,632	-5,	-31,762	13,396
24278	-17,009	-5,	12,4	9,7735
24279	-16,12	-5,	14,104	9,2443
24280	-15,171	-5,	15,798	8,9265
24281	-14,245	-5,	17,511	8,7988
24282	-13,342	-5,	19,22	8,8385
24283	-12,425	-5,	20,929	9,0237
24284	-11,489	-5,	22,641	9,3368
24285	-11,031	-5,	23,517	9,5378
24286	-10,567	-5,	24,403	9,7682
24287	-10,109	-5,	25,29	10,024
24288	-9,6506	-5,	26,169	10,302
24289	-8,737	-5,	27,915	10,93
24290	-8,2889	-5,	28,779	11,277
24291	-7,832	-5,	29,645	11,654
24292	-7,368	-5,	30,506	12,061
24293	-6,8739	-5,	31,36	12,506
24294	-5,7684	-5,	32,98	13,498
24295	-3,5609	-5,	33,584	14,191
24296	5,558	-5,	33,039	13,578
24297	4,2064	-5,	33,282	13,962
24298	-13,303	-5,	0,36168	11,645
24299	16,647	-5,	8,9856	10,956
24300	12,81	-5,	2,4261	11,187
24301	13,539	-5,	-0,59519	11,763
24302	5,5744	-5,	-33,322	14,739
24303	4,2167	-5,	-33,441	15,833
24304	-13,668	-5,	2,5758	11,621
24305	18,814	-5,	-11,151	10,517
24306	-13,328	-5,	-4,2377	11,133
24307	-12,584	-5,	-3,2008	10,971
24308	-12,835	-5,	-2,4052	11,221
24309	18,433	-5,	-11,956	10,127
24310	-2,2149	-5,	33,659	14,293
24311	-16,22	-5,	-7,7659	11,377
24312	16,143	-5,	7,7617	11,273
24313	13,917	-5,	-2,1527	11,841
24314	18,027	-5,	-10,05	10,936
24315	16,652	-5,	-8,3736	11,293
24316	-16,75	-5,	8,1975	11,328
24317	2,8839	-5,	-33,547	16,785
24318	-2,1449	-5,	-33,536	17,154
24319	14,386	-5,	-3,8541	11,779
24320	-0,92162	-5,	33,705	14,311
24321	1,5937	-5,	33,634	14,284
24322	-15,647	-5,	-6,6176	11,57
24323	-14,341	-5,	-4,4654	11,599
24324	15,594	-5,	6,5928	11,489
24325	14,298	-5,	4,4505	11,539
24326	16,165	-5,	-7,1178	11,613
24327	1,5874	-5,	-33,631	17,47
24328	-0,89628	-5,	-33,645	17,677
24329	-15,024	-5,	4,7435	11,842
24330	0,33835	-5,	33,713	14,312
24331	-15,02	-5,	-5,522	11,641
24332	-15,64	-5,	5,8682	11,782
24333	0,34185	-5,	-33,674	17,786
24334	-18,045	-5,	-10,643	10,663
24335	-5,1558	-5,	35,468	15,046
24336	20,679	-5,	8,4476	12,487
24337	-4,8288	-5,	34,823	14,713
24338	-4,2168	-5,	34,139	14,417
24339	4,9622	-5,	33,874	14,138
24340	5,7254	-5,	34,474	14,279
24341	-18,535	-5,	-9,7501	11,19
24342	-17,63	-5,	-9,3536	11,169
24343	-13,092	-5,	-1,6282	11,454
24344	-13,252	-5,	-0,73352	11,611
24345	18,436	-5,	9,7674	11,092
24346	17,546	-5,	9,3651	11,065
24347	13,066	-5,	1,6709	11,419
24348	13,31	-5,	0,92373	11,617
24349	5,7836	-5,	-34,69	15,095
24350	4,9841	-5,	-34,065	15,571
24351	-4,1531	-5,	-33,895	16,159
24352	-4,9228	-5,	-34,457	15,818
24353	-14,238	-5,	0,8843	12,158
24354	-13,958	-5,	1,6913	11,914
24355	6,3808	-5,	33,608	13,613
24356	6,9435	-5,	32,729	13,027
24357	7,4787	-5,	31,851	12,503
24358	7,9908	-5,	30,976	12,032
24359	8,4825	-5,	30,112	11,61
24360	8,9533	-5,	29,256	11,23
24361	9,4208	-5,	28,392	10,878
24362	9,8886	-5,	27,538	10,555
24363	10,84	-5,	25,814	9,9776
24364	11,307	-5,	24,945	9,727
24365	12,245	-5,	23,215	9,3027
24366	13,186	-5,	21,487	8,9873
24367	14,124	-5,	19,761	8,7963
24368	15,071	-5,	18,034	8,7469
24369	15,545	-5,	17,172	8,7826
24370	16,018	-5,	16,31	8,8624
24371	16,964	-5,	14,589	9,1669
24372	17,431	-5,	13,722	9,4002
24373	17,911	-5,	12,855	9,6933
24374	18,389	-5,	11,982	10,054
24375	18,868	-5,	11,096	10,493
24376	-6,2591	-5,	-34,115	14,453
24377	-6,759	-5,	-33,234	13,767
24378	-7,2473	-5,	-32,359	13,158
24379	-7,7249	-5,	-31,498	12,617
24380	-8,1916	-5,	-30,65	12,132
24381	-8,6524	-5,	-29,808	11,692
24382	-9,1167	-5,	-28,959	11,284
24383	-9,5763	-5,	-28,115	10,914
24384	-10,037	-5,	-27,259	10,572
24385	-10,507	-5,	-26,408	10,258
24386	-10,972	-5,	-25,557	9,9746
24387	-11,442	-5,	-24,706	9,7189
24388	-11,897	-5,	-23,852	9,4956
24389	-12,829	-5,	-22,145	9,1307
24390	-13,294	-5,	-21,292	8,9943
24391	-13,765	-5,	-20,433	8,8892
24392	-14,229	-5,	-19,586	8,8197
24393	-14,695	-5,	-18,728	8,7863
24394	-15,157	-5,	-17,885	8,791
24395	-15,626	-5,	-17,028	8,8368
24396	-16,087	-5,	-16,19	8,9243
24397	-16,557	-5,	-15,337	9,0596
24398	-17,016	-5,	-14,497	9,2416
24399	-17,479	-5,	-13,656	9,4756
24400	-17,943	-5,	-12,819	9,7638
24401	-18,417	-5,	-11,964	10,12
24402	-18,894	-5,	-11,095	10,553
24403	-19,385	-5,	-10,2	11,085
24404	17,508	-5,	-13,486	9,5295
24405	17,061	-5,	-14,345	9,2805
24406	16,609	-5,	-15,196	9,0875
24407	16,148	-5,	-16,057	8,9428
24408	15,687	-5,	-16,916	8,846
24409	14,79	-5,	-18,644	8,779
24410	13,891	-5,	-20,378	8,8673
24411	12,943	-5,	-22,07	9,1013
24412	12,476	-5,	-22,928	9,2649
24413	12,021	-5,	-23,782	9,4551
24414	11,565	-5,	-24,639	9,6739
24415	11,107	-5,	-25,499	9,922
24416	10,654	-5,	-26,355	10,196
24417	10,196	-5,	-27,214	10,501
24418	9,3037	-5,	-28,934	11,189
24419	8,8573	-5,	-29,801	11,581
24420	8,4055	-5,	-30,652	12,008
24421	7,4533	-5,	-32,332	13,006
24422	6,9411	-5,	-33,153	13,6
24423	6,3888	-5,	-33,944	14,287
24424	-18,318	-5,	11,969	10,055
24425	-17,895	-5,	12,837	9,6996
24426	-16,994	-5,	14,567	9,172
24427	-16,52	-5,	15,422	8,994
24428	-16,045	-5,	16,275	8,8664
24429	-15,582	-5,	17,132	8,7845
24430	-15,12	-5,	17,995	8,7457
24431	-14,666	-5,	18,852	8,7475
24432	-14,204	-5,	19,711	8,7872
24433	-13,756	-5,	20,575	8,861
24434	-13,293	-5,	21,425	8,9681
24435	-12,823	-5,	22,279	9,1069
24436	-12,353	-5,	23,138	9,2746
24437	-11,882	-5,	24,02	9,473
24438	-11,422	-5,	24,909	9,697
24439	-10,501	-5,	26,681	10,221
24440	-9,1256	-5,	29,311	11,193
24441	-8,6664	-5,	30,179	11,572
24442	-8,2014	-5,	31,057	11,989
24443	-7,7063	-5,	31,924	12,452
24444	-6,616	-5,	33,634	13,545
24445	-5,7617	-5,	35,476	14,861
24446	-4,7592	-5,	36,083	15,575
24447	-2,8748	-5,	34,29	14,593
24448	3,5993	-5,	34,082	14,446
24449	-19,927	-5,	-9,2257	11,782
24450	-17,138	-5,	-8,1092	11,586
24451	-13,854	-5,	-2,6136	11,739
24452	-14,348	-5,	-7,2731e-002	12,253
24453	19,704	-5,	9,2573	11,662
24454	17,048	-5,	8,1104	11,479
24455	14,189	-5,	-1,4289	12,087
24456	13,821	-5,	2,6714	11,687
24457	18,99	-5,	-10,394	10,927
24458	17,549	-5,	-8,7319	11,438
24459	-19,142	-5,	10,237	10,973
24460	-17,662	-5,	8,5685	11,482
24461	3,6071	-5,	-34,169	16,771
24462	-2,8534	-5,	-34,142	17,286
24463	-5,1863	-5,	-35,882	16,175
24464	-14,655	-5,	2,7894	12,141
24465	14,664	-5,	-3,0633	12,111
24466	20,65	-5,	9,6414	11,554
24467	-1,5683	-5,	34,375	14,613
24468	2,2677	-5,	34,257	14,576
24469	-14,614	-5,	-3,6402	11,957
24470	16,521	-5,	6,8983	11,797
24471	14,576	-5,	3,6611	11,898
24472	17,064	-5,	-7,4537	11,857
24473	-17,112	-5,	7,3436	11,861
24474	0,97613	-5,	34,376	14,596
24475	-15,987	-5,	-5,7765	12,046
24476	15,294	-5,	4,6791	12,008
24477	16,557	-5,	-6,2229	12,159
24478	-16,566	-5,	6,1662	12,13
24479	0,98073	-5,	-34,36	18,394
24480	-15,992	-5,	5,0121	12,279
24481	15,999	-5,	-5,0777	12,303
24482	-5,4878	-5,	-37,303	16,14
24483	-20,809	-5,	-8,447	12,57
24484	-4,1271	-5,	35,507	15,253
24485	-3,5248	-5,	34,909	14,915
24486	4,3162	-5,	34,695	14,72
24487	5,1345	-5,	35,283	14,937
24488	-18,949	-5,	-8,8461	11,795
24489	-18,051	-5,	-8,4665	11,734
24490	-14,076	-5,	-1,7838	11,985
24491	18,833	-5,	8,848	11,695
24492	17,943	-5,	8,4738	11,624
24493	14,511	-5,	-0,69855	12,332
24494	14,069	-5,	1,9149	11,948
24495	18,462	-5,	-9,0953	11,521
24496	19,423	-5,	-9,4438	11,543
24497	-18,579	-5,	8,9569	11,563
24498	5,1677	-5,	-35,426	16,029
24499	4,3453	-5,	-34,78	16,54
24500	-3,597	-5,	-34,732	17,187
24501	-4,3693	-5,	-35,319	16,831
24502	-15,149	-5,	0,96392	12,709
24503	-14,94	-5,	1,9166	12,469
24504	15,182	-5,	-1,548	12,675
24505	14,932	-5,	-2,2836	12,418
24506	6,0357	-5,	35,943	15,086
24507	7,2579	-5,	34,131	13,522
24508	7,8132	-5,	33,256	12,911
24509	8,3388	-5,	32,383	12,375
24510	8,8492	-5,	31,51	11,897
24511	9,3377	-5,	30,638	11,471
24512	9,8063	-5,	29,78	11,092
24513	10,281	-5,	28,911	10,739
24514	10,759	-5,	28,054	10,416
24515	11,227	-5,	27,182	10,119
24516	11,702	-5,	26,32	9,8475
24517	12,168	-5,	25,447	9,6012
24518	12,646	-5,	24,584	9,3783
24519	13,114	-5,	23,712	9,1824
24520	13,591	-5,	22,847	9,0117
24521	14,052	-5,	21,981	8,8722
24522	14,536	-5,	21,11	8,758
24523	15,001	-5,	20,246	8,6795
24524	15,482	-5,	19,374	8,6329
24525	15,95	-5,	18,513	8,6246
24526	16,899	-5,	16,783	8,7287
24527	17,847	-5,	15,054	9,0174
24528	18,315	-5,	14,175	9,2454
24529	18,789	-5,	13,31	9,5279
24530	19,267	-5,	12,433	9,8806
24531	19,737	-5,	11,543	10,315
24532	20,194	-5,	10,625	10,855
24533	-6,0574	-5,	-36,403	15,243
24534	-6,5928	-5,	-35,517	14,47
24535	-7,1104	-5,	-34,631	13,789
24536	-7,6111	-5,	-33,752	13,187
24537	-8,0989	-5,	-32,887	12,648
24538	-8,581	-5,	-32,03	12,158
24539	-9,039	-5,	-31,181	11,722
24540	-9,5118	-5,	-30,33	11,311
24541	-9,9704	-5,	-29,479	10,94
24542	-10,441	-5,	-28,626	10,592
24543	-10,901	-5,	-27,774	10,277
24544	-11,833	-5,	-26,065	9,7232
24545	-12,297	-5,	-25,213	9,4866
24546	-12,768	-5,	-24,351	9,2742
24547	-13,23	-5,	-23,498	9,0919
24548	-13,701	-5,	-22,635	8,9347
24549	-14,173	-5,	-21,778	8,8065
24550	-14,638	-5,	-20,921	8,7108
24551	-15,101	-5,	-20,072	8,6469
24552	-15,573	-5,	-19,209	8,6166
24553	-16,035	-5,	-18,363	8,6228
24554	-16,506	-5,	-17,503	8,6682
24555	-17,436	-5,	-15,816	8,8825
24556	-17,897	-5,	-14,971	9,0598
24557	-18,363	-5,	-14,122	9,2893
24558	-19,277	-5,	-12,435	9,918
24559	-19,732	-5,	-11,575	10,341
24560	-20,213	-5,	-10,697	10,855
24561	20,451	-5,	-9,7566	11,499
24562	20,108	-5,	-10,621	10,9
24563	19,317	-5,	-12,328	9,9653
24564	18,855	-5,	-13,146	9,6263
24565	18,394	-5,	-13,969	9,3405
24566	17,943	-5,	-14,815	9,1018
24567	17,025	-5,	-16,533	8,7719
24568	16,56	-5,	-17,395	8,6774
24569	16,102	-5,	-18,256	8,6248
24570	15,655	-5,	-19,119	8,6091
24571	15,218	-5,	-20,001	8,6267
24572	14,751	-5,	-20,864	8,6864
24573	14,281	-5,	-21,717	8,7799
24574	13,805	-5,	-22,564	8,9052
24575	13,337	-5,	-23,427	9,0577
24576	12,881	-5,	-24,282	9,2341
24577	12,418	-5,	-25,15	9,44
24578	11,505	-5,	-26,868	9,9246
24579	10,594	-5,	-28,585	10,512
24580	10,142	-5,	-29,451	10,846
24581	9,6944	-5,	-30,321	11,205
24582	9,2387	-5,	-31,177	11,597
24583	8,7723	-5,	-32,038	12,028
24584	8,2858	-5,	-32,881	12,506
24585	7,7731	-5,	-33,718	13,045
24586	7,2346	-5,	-34,543	13,658
24587	6,6775	-5,	-35,371	14,355
24588	-20,486	-5,	9,7731	11,443
24589	-20,071	-5,	10,654	10,831
24590	-19,659	-5,	11,535	10,319
24591	-19,217	-5,	12,402	9,8959
24592	-18,781	-5,	13,284	9,5384
24593	-18,331	-5,	14,162	9,2487
24594	-17,867	-5,	15,032	9,0218
24595	-16,919	-5,	16,747	8,7327
24596	-15,999	-5,	18,472	8,6215
24597	-15,081	-5,	20,197	8,6673
24598	-14,164	-5,	21,916	8,8479
24599	-13,213	-5,	23,636	9,1532
24600	-12,273	-5,	25,413	9,5697
24601	-11,809	-5,	26,306	9,8158
24602	-11,349	-5,	27,194	10,086
24603	-10,891	-5,	28,075	10,379
24604	-10,434	-5,	28,952	10,698
24605	-9,5071	-5,	30,701	11,425
24606	-9,0409	-5,	31,579	11,843
24607	-8,5561	-5,	32,459	12,311
24608	-8,0344	-5,	33,337	12,846
24609	-7,5114	-5,	34,215	13,447
24610	-7,0254	-5,	35,089	14,108
24611	-6,6001	-5,	36,033	14,869
24612	-21,405	-5,	-8,8141	12,378
24613	21,354	-5,	8,8018	12,336
24614	-4,2298	-5,	36,939	16,351
24615	-2,2223	-5,	35,029	14,95
24616	2,961	-5,	34,863	14,896
24617	5,4547	-5,	37,909	16,99
24618	4,9571	-5,	36,605	15,952
24619	-20,104	-5,	-8,1176	12,631
24620	-17,502	-5,	-7,2358	12,146
24621	-14,86	-5,	-2,7912	12,285
24622	-15,283	-5,	-1,5739e-002	12,835
24623	20,004	-5,	8,2629	12,429
24624	17,427	-5,	7,2216	12,056
24625	14,834	-5,	2,8793	12,226
24626	17,963	-5,	-7,7998	12,051
24627	20,778	-5,	-8,8719	12,231
24628	-18,018	-5,	7,696	12,062
24629	-20,827	-5,	8,8577	12,195
24630	5,1684	-5,	-36,704	16,46
24631	2,9734	-5,	-34,901	17,842
24632	-2,2606	-5,	-34,923	18,384
24633	-4,6015	-5,	-36,744	17,271
24634	-15,63	-5,	3,0155	12,674
24635	15,656	-5,	-3,2244	12,662
24636	-0,92974	-5,	35,098	14,888
24637	1,6363	-5,	35,019	14,904
24638	4,613	-5,	37,956	17,332
24639	-21,279	-5,	-7,5424	13,584
24640	-15,611	-5,	-3,8433	12,474
24641	16,876	-5,	6,0271	12,348
24642	15,581	-5,	3,8657	12,417
24643	15,418	-5,	-0,82353	12,889
24644	17,461	-5,	-6,5278	12,469
24645	21,792	-5,	-8,156	13,117
24646	-17,478	-5,	6,4681	12,448
24647	1,6536	-5,	-35,005	18,823
24648	-0,9411	-5,	-35,034	19,148
24649	-16,319	-5,	4,1361	12,768
24650	16,332	-5,	-4,2268	12,779
24651	-6,1796	-5,	37,029	15,802
24652	-4,9298	-5,	37,506	16,783
24653	6,0172	-5,	-37,353	15,39
24654	4,8682	-5,	-37,927	17,195
24655	0,35469	-5,	-35,062	19,306
24656	-4,8375	-5,	-38,212	17,279
24657	-6,4177	-5,	-37,793	14,805
24658	-21,961	-5,	8,1209	13,166
24659	-16,931	-5,	5,2813	12,695
24660	16,93	-5,	-5,3249	12,721
24661	16,266	-5,	4,9103	12,468
24662	-16,301	-5,	-4,9193	12,526
24663	0,34586	-5,	35,097	14,863
24664	5,0236	-5,	38,414	17,758
24665	5,9879	-5,	38,028	16,785
24666	-21,936	-5,	-7,885	13,462
24667	6,9576	-5,	37,313	15,514
24668	21,826	-5,	7,9361	13,321
24669	21,081	-5,	7,53	13,457
24670	-4,0067	-5,	-39,216	18,826
24671	-3,5531	-5,	36,318	15,835
24672	-2,8796	-5,	35,668	15,351
24673	3,6765	-5,	35,452	15,243
24674	4,376	-5,	36,044	15,612
24675	-19,283	-5,	-7,8991	12,493
24676	-18,426	-5,	-7,5552	12,368
24677	-15,067	-5,	-1,9107	12,56
24678	-15,237	-5,	-0,99479	12,768
24679	19,198	-5,	7,8944	12,404
24680	18,314	-5,	7,5618	12,257
24681	15,072	-5,	2,1141	12,514
24682	15,294	-5,	1,3694	12,755
24683	18,868	-5,	-8,1524	12,184
24684	19,788	-5,	-8,5076	12,245
24685	-18,929	-5,	8,0706	12,195
24686	-19,85	-5,	8,4619	12,242
24687	4,4512	-5,	-36,106	17,169
24688	3,7041	-5,	-35,508	17,651
24689	-2,9993	-5,	-35,532	18,362
24690	-3,7694	-5,	-36,137	18,015
24691	-15,907	-5,	2,1341	13,032
24692	16,359	-5,	-0,8675	13,483
24693	15,927	-5,	-2,4242	13,003
24694	7,2243	-5,	36,35	14,72
24695	7,656	-5,	35,504	13,985
24696	8,1813	-5,	34,638	13,296
24697	8,7106	-5,	33,767	12,686
24698	9,7185	-5,	32,03	11,686
24699	10,201	-5,	31,158	11,265
24700	10,676	-5,	30,295	10,887
24701	11,145	-5,	29,422	10,54
24702	11,622	-5,	28,559	10,22
24703	12,095	-5,	27,688	9,9265
24704	12,568	-5,	26,82	9,6581
24705	13,031	-5,	25,949	9,4166
24706	13,515	-5,	25,079	9,1931
24707	13,981	-5,	24,208	8,9999
24708	14,462	-5,	23,337	8,8279
24709	14,93	-5,	22,468	8,6872
24710	15,41	-5,	21,596	8,5719
24711	15,88	-5,	20,729	8,49
24712	16,358	-5,	19,856	8,4394
24713	16,83	-5,	18,991	8,425
24714	17,306	-5,	18,117	8,4491
24715	17,78	-5,	17,254	8,5131
24716	18,253	-5,	16,379	8,6245
24717	19,199	-5,	14,641	8,9961
24718	19,675	-5,	13,777	9,2647
24719	20,139	-5,	12,896	9,6073
24720	21,066	-5,	11,097	10,558
24721	21,517	-5,	10,214	11,179
24722	22,05	-5,	9,2959	11,977
24723	-7,4783	-5,	-36,028	13,557
24724	-8,4859	-5,	-34,273	12,505
24725	-8,9672	-5,	-33,41	12,045
24726	-9,4349	-5,	-32,562	11,626
24727	-9,9026	-5,	-31,703	11,232
24728	-10,37	-5,	-30,853	10,865
24729	-10,836	-5,	-29,993	10,524
24730	-11,305	-5,	-29,14	10,207
24731	-11,768	-5,	-28,279	9,9168
24732	-12,24	-5,	-27,424	9,6469
24733	-12,701	-5,	-26,563	9,405
24734	-13,175	-5,	-25,705	9,1823
24735	-13,641	-5,	-24,843	8,9868
24736	-14,11	-5,	-23,986	8,8147
24737	-15,046	-5,	-22,266	8,5498
24738	-15,514	-5,	-21,405	8,4594
24739	-15,982	-5,	-20,547	8,3985
24740	-16,919	-5,	-18,83	8,3758
24741	-17,383	-5,	-17,984	8,4171
24742	-17,851	-5,	-17,13	8,4986
24743	-18,32	-5,	-16,278	8,6223
24744	-18,782	-5,	-15,43	8,7927
24745	-19,249	-5,	-14,586	9,0109
24746	-19,704	-5,	-13,741	9,2863
24747	-20,153	-5,	-12,902	9,6209
24748	-20,594	-5,	-12,064	10,023
24749	-21,013	-5,	-11,247	10,495
24750	-21,508	-5,	-10,582	10,932
24751	-21,965	-5,	-9,7889	11,567
24752	-22,18	-5,	-9,0079	12,313
24753	22,011	-5,	-9,2547	12,066
24754	21,475	-5,	-10,128	11,284
24755	21,081	-5,	-10,997	10,656
24756	20,665	-5,	-11,876	10,125
24757	20,22	-5,	-12,734	9,6977
24758	19,753	-5,	-13,592	9,345
24759	19,286	-5,	-14,438	9,0621
24760	18,363	-5,	-16,147	8,6509
24761	17,902	-5,	-17,01	8,5164
24762	17,439	-5,	-17,872	8,4267
24763	16,979	-5,	-18,736	8,3765
24764	16,524	-5,	-19,602	8,362
24765	15,605	-5,	-21,34	8,4372
24766	15,139	-5,	-22,208	8,5238
24767	14,669	-5,	-23,062	8,6406
24768	13,735	-5,	-24,782	8,9509
24769	12,825	-5,	-26,507	9,3506
24770	11,906	-5,	-28,232	9,8471
24771	11,442	-5,	-29,098	10,132
24772	10,987	-5,	-29,955	10,436
24773	10,079	-5,	-31,689	11,115
24774	9,6113	-5,	-32,55	11,499
24775	9,1312	-5,	-33,407	11,917
24776	8,6234	-5,	-34,255	12,385
24777	8,1136	-5,	-35,102	12,888
24778	7,6414	-5,	-35,965	13,387
24779	7,1555	-5,	-36,805	13,919
24780	-21,911	-5,	9,2985	11,966
24781	-21,444	-5,	10,201	11,19
24782	-21,018	-5,	11,106	10,555
24783	-20,562	-5,	11,981	10,049
24784	-19,659	-5,	13,737	9,2834
24785	-18,744	-5,	15,495	8,7855
24786	-18,271	-5,	16,36	8,6263
24787	-17,799	-5,	17,215	8,5178
24788	-17,344	-5,	18,082	8,447
24789	-16,874	-5,	18,956	8,4198
24790	-16,41	-5,	19,82	8,4309
24791	-15,955	-5,	20,689	8,4745
24792	-15,499	-5,	21,548	8,5511
24793	-15,037	-5,	22,404	8,6593
24794	-14,56	-5,	23,261	8,7993
24795	-14,079	-5,	24,123	8,9674
24796	-13,133	-5,	25,902	9,3802
24797	-12,209	-5,	27,684	9,8872
24798	-11,746	-5,	28,571	10,178
24799	-11,282	-5,	29,453	10,494
24800	-10,817	-5,	30,335	10,839
24801	-10,355	-5,	31,208	11,212
24802	-9,886	-5,	32,089	11,626
24803	-9,3993	-5,	32,968	12,091
24804	-8,3974	-5,	34,738	13,216
24805	-7,4356	-5,	36,565	14,693
24806	22,44	-5,	-8,1976	13,261
24807	-3,6725	-5,	37,771	17,134
24808	-1,5886	-5,	35,777	15,236
24809	2,3116	-5,	35,632	15,269
24810	4,1837	-5,	37,377	16,768
24811	-20,448	-5,	-7,2382	13,485
24812	-17,84	-5,	-6,3368	12,75
24813	-15,852	-5,	-2,9742	12,84
24814	-16,339	-5,	3,053e-003	13,509
24815	20,361	-5,	7,2481	13,379
24816	17,786	-5,	6,3209	12,677
24817	15,84	-5,	3,0593	12,788
24818	16,414	-5,	0,69879	13,525
24819	18,356	-5,	-6,8543	12,732
24820	21,063	-5,	-7,9117	13,135
24821	-18,377	-5,	6,8031	12,715
24822	-21,08	-5,	7,9116	13,093
24823	4,2965	-5,	-37,38	17,953
24824	2,3388	-5,	-35,637	19,029
24825	-1,6302	-5,	-35,674	19,565
24826	-3,924	-5,	-37,485	18,598
24827	-17,248	-5,	0,63523	14,034
24828	-16,607	-5,	3,2464	13,214
24829	17,303	-5,	-0,90675	14,05
24830	16,637	-5,	-3,3841	13,214
24831	-6,9651	-5,	37,518	15,65
24832	-5,6819	-5,	38,007	16,97
24833	6,7859	-5,	-37,748	14,305
24834	5,6071	-5,	-38,333	15,982
24835	1,0151	-5,	-35,734	19,938
24836	-0,2948	-5,	-35,75	20,142
24837	-4,7386	-5,	-39,27	17,411
24838	-5,9511	-5,	-38,676	15,368
24839	-22,677	-5,	8,4739	12,908
24840	-17,276	-5,	4,3839	13,25
24841	-17,851	-5,	5,573	13,081
24842	17,287	-5,	-4,4344	13,269
24843	17,845	-5,	-5,5993	13,11
24844	17,212	-5,	5,1527	12,906
24845	16,567	-5,	4,0653	12,936
24846	-17,251	-5,	-5,1648	12,964
24847	-16,587	-5,	-4,0493	12,986
24848	-0,29709	-5,	35,802	15,11
24849	0,99937	-5,	35,765	15,153
24850	-4,3728	-5,	38,384	17,895
24851	5,6749	-5,	38,937	17,993
24852	4,6087	-5,	39,218	19,005
24853	-21,631	-5,	-6,6821	14,78
24854	21,512	-5,	6,6166	14,717
24855	-22,637	-5,	-8,1736	13,315
24856	6,6762	-5,	38,312	16,513
24857	22,545	-5,	8,3814	12,998
24858	22,874	-5,	-7,5768	14,183
24859	22,176	-5,	-7,2112	14,413
24860	-22,219	-5,	7,1985	14,407
24861	4,3463	-5,	-38,688	18,169
24862	-3,7411	-5,	-38,673	19,247
24863	-3,6565	-5,	-39,803	19,682
24864	22,248	-5,	7,0119	14,686
24865	-22,348	-5,	-6,9844	14,837
24866	4,0511	-5,	38,739	18,361
24867	-17,597	-5,	6,923e-002	14,245
24868	17,369	-5,	-7,6335e-002	14,122
24869	-2,9626	-5,	37,116	16,343
24870	-2,2787	-5,	36,447	15,704
24871	2,9863	-5,	36,22	15,711
24872	3,6224	-5,	36,792	16,215
24873	-19,632	-5,	-6,9407	13,306
24874	-18,74	-5,	-6,6432	13,043
24875	-16,068	-5,	-2,0863	13,155
24876	-16,209	-5,	-1,1121	13,373
24877	18,664	-5,	6,6324	12,957
24878	16,274	-5,	1,472	13,362
24879	19,251	-5,	-7,1914	12,949
24880	20,147	-5,	-7,5528	13,092
24881	-20,171	-5,	7,5348	13,059
24882	3,7124	-5,	-36,818	18,521
24883	3,0339	-5,	-36,243	18,928
24884	-2,3564	-5,	-36,285	19,657
24885	-3,0925	-5,	-36,913	19,405
24886	-17,052	-5,	1,4283	13,856
24887	-16,868	-5,	2,3436	13,591
24888	17,139	-5,	-1,7239	13,874
24889	16,91	-5,	-2,5531	13,583
24890	-6,459	-5,	38,483	16,854
24891	6,3697	-5,	-38,722	14,701
24892	0,36698	-5,	-36,446	21,001
24893	-5,5377	-5,	-39,613	15,796
24894	-23,051	-5,	7,5651	14,223
24895	-18,21	-5,	4,6434	13,721
24896	18,218	-5,	-4,6685	13,746
24897	17,525	-5,	4,2738	13,441
24898	-17,544	-5,	-4,2671	13,485
24899	0,35574	-5,	36,491	15,323
24900	-3,1726	-5,	-40,524	20,842
24901	-2,9989	-5,	-39,337	20,907
24902	3,822	-5,	-39,499	19,297
24903	-22,57	-5,	6,2723	16,159
24904	23,045	-5,	7,5126	14,305
24905	7,506	-5,	38,731	15,989
24906	7,8319	-5,	37,779	15,087
24907	8,2071	-5,	36,869	14,29
24908	8,6355	-5,	35,999	13,584
24909	9,1188	-5,	35,142	12,939
24910	9,6113	-5,	34,279	12,367
24911	10,117	-5,	33,411	11,852
24912	10,603	-5,	32,539	11,398
24913	11,075	-5,	31,67	10,993
24914	11,553	-5,	30,799	10,62
24915	12,025	-5,	29,931	10,279
24916	12,499	-5,	29,059	9,9637
24917	12,973	-5,	28,187	9,6734
24918	13,438	-5,	27,314	9,4102
24919	13,912	-5,	26,442	9,1664
24920	14,387	-5,	25,569	8,9457
24921	14,861	-5,	24,697	8,7491
24922	15,336	-5,	23,824	8,5771
24923	15,811	-5,	22,952	8,4313
24924	16,285	-5,	22,08	8,3131
24925	16,76	-5,	21,208	8,2243
24926	17,235	-5,	20,336	8,167
24927	17,71	-5,	19,465	8,1436
24928	18,185	-5,	18,594	8,1569
24929	18,66	-5,	17,723	8,2099
24930	19,135	-5,	16,852	8,3065
24931	19,609	-5,	15,981	8,4505
24932	20,083	-5,	15,108	8,6477
24933	20,556	-5,	14,234	8,9039
24934	21,027	-5,	13,357	9,2288
24935	21,494	-5,	12,473	9,6337
24936	21,956	-5,	11,581	10,137
24937	22,41	-5,	10,675	10,763
24938	22,871	-5,	9,7606	11,542
24939	-23,102	-5,	-7,3525	14,631
24940	-6,8901	-5,	-39,184	13,772
24941	-7,3757	-5,	-38,289	13,414
24942	-7,8689	-5,	-37,406	13,016
24943	-8,3808	-5,	-36,526	12,584
24944	-8,8748	-5,	-35,658	12,169
24945	-9,3727	-5,	-34,789	11,758
24946	-9,839	-5,	-33,931	11,385
24947	-10,306	-5,	-33,076	11,025
24948	-10,776	-5,	-32,216	10,679
24949	-11,243	-5,	-31,36	10,354
24950	-11,712	-5,	-30,499	10,047
24951	-12,185	-5,	-29,637	9,7584
24952	-12,65	-5,	-28,78	9,4937
24953	-13,119	-5,	-27,917	9,2473
24954	-13,586	-5,	-27,055	9,0221
24955	-14,045	-5,	-26,197	8,8214
24956	-14,514	-5,	-25,336	8,6376
24957	-14,983	-5,	-24,474	8,4759
24958	-15,452	-5,	-23,612	8,3375
24959	-15,921	-5,	-22,751	8,2235
24960	-16,39	-5,	-21,889	8,1355
24961	-16,859	-5,	-21,028	8,0752
24962	-17,328	-5,	-20,168	8,0447
24963	-17,797	-5,	-19,308	8,0464
24964	-18,266	-5,	-18,448	8,0828
24965	-18,735	-5,	-17,59	8,157
24966	-19,203	-5,	-16,734	8,2723
24967	-19,67	-5,	-15,88	8,4324
24968	-20,135	-5,	-15,03	8,6413
24969	-20,596	-5,	-14,185	8,9036
24970	-21,489	-5,	-12,526	9,6084
24971	-22,356	-5,	-10,933	10,579
24972	-22,792	-5,	-10,139	11,216
24973	-23,187	-5,	-9,3297	12,008
24974	-23,549	-5,	-8,5446	12,962
24975	-4,3902	-5,	-40,212	18,091
24976	22,656	-5,	6,1634	16,466
24977	21,834	-5,	5,7363	16,27
24978	-22,687	-5,	-6,1024	16,681
24979	-21,883	-5,	-5,7451	16,364
24980	17,611	-5,	-3,5517	13,759
24981	-17,585	-5,	3,4759	13,75
24982	-18,386	-5,	7,2459e-002	14,581
24983	-18,252	-5,	0,88456	14,534
24984	-3,1429	-5,	-38,159	20,104
24985	-0,97058	-5,	-36,403	20,762
24986	1,6878	-5,	-36,382	20,314
24987	3,6757	-5,	-38,165	19,237
24988	5,0991	-5,	-39,178	16,731
24989	23,812	-5,	-8,104	13,584
24990	23,455	-5,	-9,0398	12,326
24991	22,938	-5,	-9,8103	11,523
24992	22,456	-5,	-10,593	10,851
24993	21,992	-5,	-11,451	10,239
24994	21,555	-5,	-12,313	9,7285
24995	21,098	-5,	-13,186	9,3027
24996	20,634	-5,	-14,04	8,9645
24997	20,168	-5,	-14,903	8,6866
24998	19,707	-5,	-15,755	8,4685
24999	19,245	-5,	-16,619	8,2972
25000	18,782	-5,	-17,484	8,1726
25001	18,318	-5,	-18,348	8,0903
25002	17,855	-5,	-19,213	8,0467
25003	17,391	-5,	-20,078	8,0386
25004	16,927	-5,	-20,943	8,0633
25005	16,463	-5,	-21,809	8,1182
25006	15,999	-5,	-22,674	8,2011
25007	15,535	-5,	-23,54	8,3102
25008	15,071	-5,	-24,405	8,4436
25009	14,608	-5,	-25,271	8,6002
25010	14,145	-5,	-26,136	8,7784
25011	13,683	-5,	-27,001	8,9776
25012	13,221	-5,	-27,866	9,1969
25013	12,76	-5,	-28,73	9,436
25014	12,299	-5,	-29,594	9,6946
25015	11,839	-5,	-30,458	9,9723
25016	11,378	-5,	-31,321	10,269
25017	10,917	-5,	-32,185	10,584
25018	9,9807	-5,	-33,915	11,274
25019	9,4886	-5,	-34,774	11,66
25020	8,997	-5,	-35,627	12,059
25021	8,5239	-5,	-36,493	12,443
25022	8,0598	-5,	-37,363	12,812
25023	7,6131	-5,	-38,255	13,129
25024	7,1621	-5,	-39,175	13,403
25025	-21,354	-5,	6,9011	14,272
25026	-18,743	-5,	5,8868	13,435
25027	21,343	-5,	-6,9085	14,302
25028	18,741	-5,	-5,9035	13,47
25029	17,347	-5,	0,75404	14,086
25030	16,833	-5,	3,2291	13,354
25031	18,129	-5,	5,412	13,321
25032	20,668	-5,	6,3053	14,414
25033	5,3036	-5,	39,766	19,41
25034	-17,332	-5,	-0,47628	14,089
25035	-16,832	-5,	-3,164	13,393
25036	-20,809	-5,	-6,3431	14,54
25037	3,5183	-5,	38,166	17,526
25038	1,6613	-5,	36,401	15,528
25039	-0,95474	-5,	36,499	15,404
25040	-3,7799	-5,	39,262	19,132
25041	-3,058	-5,	38,611	17,847
25042	-5,1255	-5,	38,933	18,374
25043	-23,37	-5,	8,9316	12,424
25044	-22,859	-5,	9,8072	11,5
25045	-22,386	-5,	10,69	10,754
25046	-21,924	-5,	11,566	10,152
25047	-21,462	-5,	12,441	9,6603
25048	-21,	-5,	13,315	9,2566
25049	-20,537	-5,	14,19	8,929
25050	-20,081	-5,	15,073	8,662
25051	-19,615	-5,	15,952	8,4587
25052	-19,143	-5,	16,815	8,3146
25053	-18,679	-5,	17,689	8,2127
25054	-18,215	-5,	18,563	8,1543
25055	-17,752	-5,	19,435	8,1358
25056	-17,291	-5,	20,305	8,1539
25057	-16,832	-5,	21,171	8,2054
25058	-16,373	-5,	22,033	8,2881
25059	-15,901	-5,	22,896	8,4037
25060	-15,429	-5,	23,75	8,5461
25061	-14,945	-5,	24,62	8,7186
25062	-14,468	-5,	25,493	8,9135
25063	-13,996	-5,	26,38	9,1317
25064	-13,529	-5,	27,286	9,3735
25065	-13,065	-5,	28,183	9,6374
25066	-12,6	-5,	29,067	9,9245
25067	-12,133	-5,	29,95	10,237
25068	-11,668	-5,	30,829	10,574
25069	-11,2	-5,	31,707	10,942
25070	-10,731	-5,	32,586	11,345
25071	-10,243	-5,	33,467	11,798
25072	-9,7549	-5,	34,353	12,305
25073	-9,2649	-5,	35,243	12,879
25074	-8,7788	-5,	36,147	13,538
25075	-8,2754	-5,	37,071	14,326
25076	-7,7811	-5,	38,001	15,254
25077	-7,2686	-5,	38,95	16,399
25078	3,5839	-5,	39,563	19,539
25079	6,4081	-5,	39,302	17,681
25080	18,309	-5,	-6,6478e-002	14,562
25081	18,24	-5,	-0,94485	14,525
25082	7,1471	-5,	39,691	17,081
25083	4,2475	-5,	40,119	20,651
25084	-6,7345	-5,	39,902	17,821
25085	-5,9213	-5,	39,425	18,351
25086	-2,3923	-5,	37,9	16,692
25087	-1,6462	-5,	37,188	15,869
25088	2,3163	-5,	37,004	16,049
25089	2,951	-5,	37,592	16,739
25090	-19,057	-5,	-5,7128	13,772
25091	-17,178	-5,	-1,3451	13,943
25092	6,7618	-5,	40,641	18,37
25093	19,849	-5,	5,9994	14,074
25094	19,011	-5,	5,698	13,708
25095	17,058	-5,	2,3992	13,696
25096	17,235	-5,	1,5745	13,944
25097	19,623	-5,	-6,235	13,802
25098	20,493	-5,	-6,5825	14,091
25099	-19,628	-5,	6,2229	13,767
25100	-20,495	-5,	6,5801	14,043
25101	6,6713	-5,	-40,093	13,675
25102	5,8769	-5,	-39,637	15,18
25103	2,3618	-5,	-37,007	20,344
25104	-2,4085	-5,	-37,587	20,798
25105	-17,85	-5,	2,575	14,148
25106	18,101	-5,	-1,8153	14,393
25107	17,89	-5,	-2,6795	14,155
25108	-22,177	-5,	-4,8413	18,57
25109	22,156	-5,	4,8522	18,459
25110	-3,9407	-5,	-41,02	19,319
25111	-19,188	-5,	0,93973	14,789
25112	19,184	-5,	-0,95588	14,78
25113	-23,894	-5,	-7,7198	14,225
25114	23,855	-5,	7,979	13,752
25115	-3,1836	-5,	40,144	20,336
25116	3,1155	-5,	40,359	20,636
25117	-19,269	-5,	3,0708e-002	14,742
25118	23,005	-5,	5,2861	19,219
25119	19,252	-5,	-3,7871e-002	14,746
25120	22,945	-5,	-5,5161	18,411
25121	-23,017	-5,	-5,229	19,473
25122	-22,935	-5,	5,3609	18,828
25123	3,2659	-5,	-40,29	20,406
25124	23,604	-5,	-6,9199	15,639
25125	-4,5523	-5,	39,839	20,052
25126	-24,225	-5,	9,3746	11,844
25127	-23,751	-5,	10,284	10,919
25128	-23,286	-5,	11,161	10,2
25129	-22,82	-5,	12,038	9,6186
25130	-22,353	-5,	12,914	9,1444
25131	-21,887	-5,	13,79	8,7609
25132	-21,419	-5,	14,666	8,4539
25133	-20,952	-5,	15,542	8,213
25134	-20,484	-5,	16,417	8,0306
25135	-20,016	-5,	17,293	7,9003
25136	-19,548	-5,	18,169	7,8164
25137	-19,08	-5,	19,045	7,7747
25138	-18,613	-5,	19,92	7,7711
25139	-18,148	-5,	20,794	7,8024
25140	-17,686	-5,	21,665	7,8653
25141	-17,227	-5,	22,533	7,9571
25142	-16,772	-5,	23,394	8,0755
25143	-16,295	-5,	24,248	8,2277
25144	-15,811	-5,	25,108	8,4067
25145	-15,332	-5,	25,986	8,6069
25146	-14,858	-5,	26,868	8,8282
25147	-14,389	-5,	27,762	9,0705
25148	-13,921	-5,	28,666	9,3353
25149	-13,455	-5,	29,556	9,6211
25150	-12,987	-5,	30,441	9,9295
25151	-12,52	-5,	31,321	10,261
25152	-12,05	-5,	32,199	10,619
25153	-11,572	-5,	33,074	11,012
25154	-11,102	-5,	33,952	11,434
25155	-10,62	-5,	34,84	11,91
25156	-10,134	-5,	35,729	12,442
25157	-9,6432	-5,	36,631	13,052
25158	-9,1377	-5,	37,536	13,766
25159	-8,6288	-5,	38,454	14,607
25160	-8,1211	-5,	39,391	15,599
25161	-7,5839	-5,	40,332	16,803
25162	-7,0418	-5,	41,279	18,231
25163	-0,29854	-5,	37,196	15,477
25164	2,9589	-5,	38,984	18,225
25165	1,0186	-5,	37,157	15,628
25166	-18,477	-5,	-4,5064	13,978
25167	-21,065	-5,	-5,407	15,762
25168	-18,319	-5,	-0,77268	14,56
25169	-17,805	-5,	-3,3668	13,931
25170	4,9298	-5,	40,634	21,175
25171	23,468	-5,	6,6134	16,182
25172	7,5135	-5,	41,064	17,23
25173	7,9199	-5,	40,129	16,201
25174	8,3203	-5,	39,197	15,268
25175	8,7077	-5,	38,28	14,46
25176	9,1154	-5,	37,394	13,742
25177	9,5709	-5,	36,519	13,077
25178	10,036	-5,	35,653	12,491
25179	11,01	-5,	33,919	11,48
25180	11,485	-5,	33,047	11,053
25181	11,959	-5,	32,175	10,661
25182	12,433	-5,	31,302	10,3
25183	12,906	-5,	30,429	9,9652
25184	13,38	-5,	29,555	9,6544
25185	13,853	-5,	28,681	9,3661
25186	14,327	-5,	27,806	9,0997
25187	14,8	-5,	26,931	8,8549
25188	15,274	-5,	26,056	8,632
25189	15,748	-5,	25,181	8,4318
25190	16,221	-5,	24,306	8,2551
25191	16,695	-5,	23,432	8,1032
25192	17,169	-5,	22,557	7,9775
25193	17,643	-5,	21,683	7,8799
25194	18,117	-5,	20,808	7,8123
25195	18,59	-5,	19,934	7,7771
25196	19,064	-5,	19,06	7,777
25197	19,538	-5,	18,187	7,8151
25198	20,012	-5,	17,313	7,8951
25199	20,486	-5,	16,44	8,0215
25200	20,96	-5,	15,566	8,1995
25201	21,433	-5,	14,692	8,436
25202	21,905	-5,	13,816	8,7395
25203	22,376	-5,	12,937	9,1221
25204	22,841	-5,	12,041	9,6094
25205	23,299	-5,	11,142	10,214
25206	23,759	-5,	10,242	10,959
25207	24,224	-5,	9,3392	11,887
25208	24,697	-5,	8,4451	13,042
25209	18,454	-5,	4,4975	13,94
25210	21,013	-5,	5,3795	15,675
25211	18,302	-5,	0,80423	14,56
25212	17,81	-5,	3,3963	13,911
25213	21,722	-5,	-5,9788	15,815
25214	19,118	-5,	-4,9463	14,226
25215	-7,8077	-5,	-39,676	12,365
25216	-8,7902	-5,	-37,902	11,915
25217	-9,2781	-5,	-37,03	11,627
25218	-9,7735	-5,	-36,162	11,309
25219	-10,258	-5,	-35,3	10,99
25220	-10,727	-5,	-34,439	10,681
25221	-11,195	-5,	-33,578	10,376
25222	-11,664	-5,	-32,716	10,079
25223	-12,132	-5,	-31,855	9,7934
25224	-12,6	-5,	-30,993	9,5214
25225	-13,068	-5,	-30,13	9,2641
25226	-13,536	-5,	-29,267	9,0223
25227	-14,003	-5,	-28,403	8,7968
25228	-14,471	-5,	-27,539	8,588
25229	-14,939	-5,	-26,675	8,3968
25230	-15,407	-5,	-25,811	8,2238
25231	-15,875	-5,	-24,947	8,0701
25232	-16,343	-5,	-24,083	7,9369
25233	-16,811	-5,	-23,219	7,8256
25234	-17,279	-5,	-22,355	7,7378
25235	-17,747	-5,	-21,491	7,6754
25236	-18,215	-5,	-20,628	7,6405
25237	-18,683	-5,	-19,764	7,6355
25238	-19,152	-5,	-18,902	7,6633
25239	-19,62	-5,	-18,039	7,7271
25240	-20,556	-5,	-16,316	7,9784
25241	-21,022	-5,	-15,468	8,1703
25242	-21,485	-5,	-14,627	8,4139
25243	-21,945	-5,	-13,783	8,7207
25244	-22,401	-5,	-12,96	9,0864
25245	-22,85	-5,	-12,133	9,5344
25246	-23,29	-5,	-11,309	10,079
25247	-23,714	-5,	-10,487	10,736
25248	-24,146	-5,	-9,6714	11,529
25249	-24,516	-5,	-8,8725	12,481
25250	-24,811	-5,	-8,0358	13,72
25251	-21,702	-5,	5,9373	15,795
25252	-19,106	-5,	4,9299	14,198
25253	-23,431	-5,	6,6469	16,082
25254	-23,842	-5,	7,9909	13,73
25255	-24,695	-5,	8,4593	13,021
25256	-5,1789	-5,	-40,597	16,243
25257	-6,4349	-5,	-40,105	14,049
25258	-7,3151	-5,	-40,59	12,516
25259	4,5754	-5,	-40,013	17,694
25260	24,554	-5,	-8,2902	13,303
25261	24,277	-5,	-9,3314	11,906
25262	23,827	-5,	-10,23	10,971
25263	23,353	-5,	-11,072	10,27
25264	22,896	-5,	-11,918	9,6867
25265	22,437	-5,	-12,785	9,1924
25266	21,975	-5,	-13,65	8,7896
25267	21,511	-5,	-14,515	8,4634
25268	21,046	-5,	-15,379	8,2024
25269	20,581	-5,	-16,243	7,9984
25270	20,116	-5,	-17,108	7,8447
25271	19,65	-5,	-17,973	7,7359
25272	19,184	-5,	-18,838	7,6675
25273	18,718	-5,	-19,703	7,6356
25274	18,252	-5,	-20,569	7,637
25275	17,786	-5,	-21,434	7,6686
25276	17,32	-5,	-22,3	7,7281
25277	16,854	-5,	-23,166	7,8132
25278	16,388	-5,	-24,031	7,922
25279	15,922	-5,	-24,897	8,0527
25280	15,467	-5,	-25,762	8,1991
25281	15,002	-5,	-26,629	8,369
25282	14,074	-5,	-28,36	8,7612
25283	13,611	-5,	-29,225	8,9825
25284	13,148	-5,	-30,09	9,2194
25285	12,684	-5,	-30,955	9,4714
25286	12,221	-5,	-31,82	9,7376
25287	11,755	-5,	-32,685	10,018
25288	11,29	-5,	-33,547	10,309
25289	10,827	-5,	-34,413	10,606
25290	10,349	-5,	-35,276	10,918
25291	9,8787	-5,	-36,142	11,22
25292	9,3943	-5,	-37,003	11,524
25293	8,9224	-5,	-37,877	11,789
25294	8,4588	-5,	-38,758	12,005
25295	7,9749	-5,	-39,651	12,186
25296	7,4891	-5,	-40,552	12,32
25297	6,9715	-5,	-41,462	12,506
25298	1,0358	-5,	-37,123	21,582
25299	-2,3605	-5,	-38,814	21,746
25300	-0,29302	-5,	-37,123	21,835
25301	-18,563	-5,	3,697	14,313
25302	18,581	-5,	-3,7197	14,329
25303	3,8233	-5,	40,957	22,46
25304	7,0802	-5,	41,996	18,348
25305	-2,3429	-5,	39,519	18,207
25306	19,075	-5,	-1,8879	14,867
25307	18,886	-5,	-2,7992	14,707
25308	-19,056	-5,	1,8571	14,87
25309	-18,862	-5,	2,7617	14,7
25310	-0,9789	-5,	-37,735	22,255
25311	-1,683	-5,	-38,294	22,195
25312	2,3892	-5,	-38,386	21,476
25313	1,7091	-5,	-37,769	21,719
25314	6,1444	-5,	-40,998	14,123
25315	5,3492	-5,	-40,513	15,898
25316	-6,8292	-5,	-41,521	12,689
25317	-24,299	-5,	7,0702	15,479
25318	-25,156	-5,	7,5344	14,565
25319	-19,979	-5,	5,2595	14,708
25320	-20,838	-5,	5,5954	15,263
25321	-24,217	-5,	-6,8712	15,939
25322	19,995	-5,	-5,2578	14,76
25323	20,86	-5,	-5,6041	15,316
25324	18,04	-5,	2,5283	14,263
25325	18,209	-5,	1,6629	14,474
25326	19,34	-5,	4,7549	14,463
25327	25,149	-5,	7,5401	14,555
25328	24,295	-5,	7,0677	15,48
25329	6,3311	-5,	41,571	19,918
25330	-18,007	-5,	-2,4681	14,26
25331	-18,174	-5,	-1,5917	14,449
25332	-20,232	-5,	-5,0771	15,104
25333	-19,375	-5,	-4,7744	14,504
25334	2,3185	-5,	38,387	17,043
25335	-1,688	-5,	38,55	16,53
25336	-0,97175	-5,	37,877	15,782
25337	-5,3611	-5,	40,357	20,233
25338	2,5091	-5,	-39,749	21,503
25339	-4,7058	-5,	-41,501	17,361
25340	-23,827	-5,	5,7271	18,976
25341	23,699	-5,	-5,7142	18,816
25342	21,332	-5,	4,4555	17,187
25343	4,498	-5,	41,505	23,375
25344	-21,363	-5,	-4,47	17,272
25345	-1,4294	-5,	39,652	16,749
25346	5,6266	-5,	-46,27	12,006
25347	6,0027	-5,	-45,43	12,142
25348	6,3741	-5,	-44,547	12,086
25349	6,7914	-5,	-43,664	11,68
25350	7,2978	-5,	-42,79	11,415
25351	7,8411	-5,	-41,891	11,219
25352	8,3492	-5,	-41,011	11,156
25353	8,8362	-5,	-40,122	11,097
25354	9,3187	-5,	-39,249	10,991
25355	9,7908	-5,	-38,371	10,843
25356	10,264	-5,	-37,504	10,648
25357	10,733	-5,	-36,638	10,425
25358	11,212	-5,	-35,773	10,175
25359	11,679	-5,	-34,906	9,9242
25360	12,145	-5,	-34,04	9,671
25361	12,611	-5,	-33,175	9,4197
25362	13,067	-5,	-32,312	9,1801
25363	13,532	-5,	-31,446	8,9416
25364	13,998	-5,	-30,581	8,7126
25365	14,464	-5,	-29,715	8,4942
25366	14,929	-5,	-28,848	8,2876
25367	15,395	-5,	-27,982	8,0938
25368	15,861	-5,	-27,115	7,9138
25369	16,328	-5,	-26,249	7,7487
25370	16,794	-5,	-25,382	7,5999
25371	17,26	-5,	-24,515	7,4687
25372	17,727	-5,	-23,649	7,3567
25373	18,194	-5,	-22,782	7,2657
25374	18,66	-5,	-21,916	7,1977
25375	19,127	-5,	-21,05	7,1549
25376	19,593	-5,	-20,183	7,14
25377	20,06	-5,	-19,317	7,1559
25378	20,526	-5,	-18,451	7,2061
25379	20,993	-5,	-17,586	7,2946
25380	21,459	-5,	-16,72	7,4263
25381	21,925	-5,	-15,854	7,6071
25382	22,391	-5,	-14,989	7,8445
25383	22,856	-5,	-14,123	8,1477
25384	23,321	-5,	-13,256	8,5284
25385	23,782	-5,	-12,388	9,0028
25386	24,247	-5,	-11,526	9,5782
25387	24,698	-5,	-10,647	10,307
25388	25,126	-5,	-9,7269	11,252
25389	25,474	-5,	-8,773	12,478
25390	24,659	-5,	-7,2283	15,211
25391	25,785	-5,	-7,7996	13,986
25392	26,427	-5,	-7,4155	14,594
25393	-25,68	-5,	-7,3574	14,875
25394	0,38805	-5,	-37,849	22,603
25395	-1,6841	-5,	-39,537	22,426
25396	-26,019	-5,	8,0204	13,556
25397	-25,561	-5,	8,9279	12,222
25398	-25,108	-5,	9,8405	11,109
25399	-24,645	-5,	10,739	10,226
25400	-24,182	-5,	11,633	9,5119
25401	-23,713	-5,	12,511	8,9499
25402	-23,243	-5,	13,388	8,4986
25403	-22,773	-5,	14,265	8,1396
25404	-22,303	-5,	15,141	7,8587
25405	-21,833	-5,	16,018	7,6446
25406	-21,362	-5,	16,894	7,4884
25407	-20,891	-5,	17,771	7,383
25408	-20,421	-5,	18,648	7,3228
25409	-19,95	-5,	19,524	7,303
25410	-19,48	-5,	20,401	7,3198
25411	-19,01	-5,	21,277	7,3696
25412	-18,088	-5,	23,023	7,5526
25413	-16,674	-5,	25,61	8,0352
25414	-16,196	-5,	26,474	8,2439
25415	-15,721	-5,	27,35	8,4719
25416	-14,774	-5,	29,136	8,9896
25417	-14,304	-5,	30,034	9,2778
25418	-13,836	-5,	30,921	9,5845
25419	-13,366	-5,	31,803	9,9115
25420	-12,896	-5,	32,682	10,26
25421	-11,955	-5,	34,438	11,029
25422	-11,482	-5,	35,316	11,46
25423	-10,516	-5,	37,092	12,467
25424	-10,015	-5,	37,992	13,076
25425	-8,997	-5,	39,81	14,569
25426	-8,4824	-5,	40,738	15,469
25427	-7,9464	-5,	41,671	16,47
25428	-7,3974	-5,	42,597	17,532
25429	-6,4773	-5,	44,424	18,795
25430	-6,059	-5,	45,436	18,638
25431	-5,6001	-5,	46,739	17,718
25432	-3,5007	-5,	48,066	21,326
25433	-3,9812	-5,	48,618	19,189
25434	29,348	-5,	-2,1346	23,397
25435	29,578	-5,	2,8163	22,066
25436	6,4036	-5,	-42,368	13,04
25437	-0,90566	-5,	-50,959	5,6736
25438	-26,468	-5,	7,1155	15,18
25439	-22,056	-5,	4,9906	17,92
25440	-19,485	-5,	3,9471	14,909
25441	-23,834	-5,	-5,5982	19,513
25442	-26,101	-5,	-6,7958	16,036
25443	-4,4733	-5,	-48,154	9,9888
25444	-5,052	-5,	-47,257	11,332
25445	-5,4896	-5,	-46,413	12,114
25446	-5,8951	-5,	-45,552	12,274
25447	-6,6876	-5,	-43,771	11,797
25448	-7,1875	-5,	-42,884	11,514
25449	-7,7069	-5,	-41,975	11,318
25450	-8,2158	-5,	-41,065	11,257
25451	-8,7084	-5,	-40,168	11,196
25452	-9,2027	-5,	-39,277	11,086
25453	-9,7021	-5,	-38,397	10,913
25454	-10,184	-5,	-37,527	10,71
25455	-10,672	-5,	-36,659	10,471
25456	-11,16	-5,	-35,798	10,211
25457	-11,628	-5,	-34,934	9,9591
25458	-12,095	-5,	-34,07	9,7036
25459	-12,563	-5,	-33,206	9,4499
25460	-13,03	-5,	-32,341	9,2017
25461	-13,497	-5,	-31,477	8,9615
25462	-13,964	-5,	-30,612	8,7308
25463	-14,431	-5,	-29,746	8,5109
25464	-14,898	-5,	-28,881	8,3029
25465	-15,365	-5,	-28,015	8,1077
25466	-15,832	-5,	-27,149	7,9264
25467	-16,299	-5,	-26,283	7,7601
25468	-16,766	-5,	-25,417	7,6099
25469	-17,234	-5,	-24,552	7,4774
25470	-17,701	-5,	-23,686	7,3641
25471	-18,168	-5,	-22,82	7,2717
25472	-18,635	-5,	-21,955	7,2022
25473	-19,103	-5,	-21,089	7,1577
25474	-19,57	-5,	-20,224	7,1409
25475	-20,038	-5,	-19,358	7,1545
25476	-20,505	-5,	-18,493	7,2022
25477	-20,972	-5,	-17,628	7,2879
25478	-21,441	-5,	-16,774	7,4114
25479	-21,91	-5,	-15,912	7,5859
25480	-22,373	-5,	-15,065	7,81
25481	-22,839	-5,	-14,215	8,0969
25482	-23,3	-5,	-13,371	8,4545
25483	-23,758	-5,	-12,526	8,8994
25484	-24,211	-5,	-11,685	9,4441
25485	-24,66	-5,	-10,838	10,117
25486	-25,104	-5,	-9,9818	10,946
25487	-25,973	-5,	-8,1383	13,383
25488	-27,241	-5,	-6,53	16,202
25489	-27,566	-5,	-5,647	18,058
25490	26,402	-5,	-6,9458	15,611
25491	22,093	-5,	-5,0184	18,025
25492	19,498	-5,	-3,9519	14,948
25493	19,257	-5,	0,86197	14,802
25494	18,766	-5,	3,5721	14,486
25495	23,85	-5,	5,7186	19,055
25496	-18,771	-5,	-3,5746	14,493
25497	2,4251	-5,	39,771	18,621
25498	0,37851	-5,	37,894	15,582
25499	-3,99	-5,	40,742	22,009
25500	-6,4635	-5,	42,237	19,88
25501	5,6553	-5,	46,662	17,682
25502	6,0043	-5,	45,853	17,909
25503	6,4763	-5,	45,028	17,954
25504	6,9689	-5,	44,185	17,515
25505	7,4232	-5,	43,307	17,106
25506	7,869	-5,	42,417	16,514
25507	8,3072	-5,	41,507	15,804
25508	8,7306	-5,	40,589	15,069
25509	9,1453	-5,	39,679	14,357
25510	9,5598	-5,	38,785	13,697
25511	10,007	-5,	37,908	13,068
25512	10,473	-5,	37,04	12,493
25513	10,948	-5,	36,166	11,968
25514	11,419	-5,	35,289	11,496
25515	11,905	-5,	34,422	11,056
25516	12,378	-5,	33,547	10,656
25517	12,851	-5,	32,672	10,282
25518	13,324	-5,	31,797	9,932
25519	13,797	-5,	30,922	9,6037
25520	14,269	-5,	30,046	9,2956
25521	14,742	-5,	29,169	9,0071
25522	15,215	-5,	28,293	8,7382
25523	15,687	-5,	27,416	8,4891
25524	16,16	-5,	26,54	8,2603
25525	16,633	-5,	25,663	8,0526
25526	17,106	-5,	24,787	7,8671
25527	17,579	-5,	23,91	7,705
25528	18,053	-5,	23,034	7,5676
25529	18,526	-5,	22,158	7,4568
25530	18,999	-5,	21,281	7,3743
25531	19,472	-5,	20,405	7,3226
25532	20,418	-5,	18,653	7,3223
25533	20,891	-5,	17,778	7,3808
25534	21,364	-5,	16,902	7,4843
25535	21,837	-5,	16,027	7,6384
25536	22,31	-5,	15,151	7,8504
25537	22,782	-5,	14,275	8,1292
25538	23,254	-5,	13,398	8,4865
25539	23,722	-5,	12,506	8,9498
25540	24,186	-5,	11,614	9,5282
25541	25,099	-5,	9,8104	11,15
25542	26,012	-5,	8,0266	13,548
25543	26,454	-5,	7,1415	15,129
25544	27,979	-5,	4,8601	19,759
25545	28,54	-5,	4,1808	20,783
25546	29,097	-5,	3,496	21,509
25547	-5,5993	-5,	41,802	21,817
25548	-4,7955	-5,	41,281	22,571
25549	-0,25523	-5,	38,581	15,546
25550	1,0529	-5,	38,571	15,984
25551	1,7299	-5,	39,182	16,96
25552	-20,534	-5,	-4,1182	16,057
25553	-19,685	-5,	-3,8123	15,153
25554	-19,016	-5,	-2,6553	14,795
25555	-19,174	-5,	-1,7619	14,878
25556	5,1837	-5,	42,03	23,102
25557	5,8642	-5,	42,499	21,666
25558	6,2141	-5,	43,759	20,435
25559	5,8592	-5,	44,587	20,959
25560	5,3675	-5,	47,508	17,081
25561	26,911	-5,	6,3188	16,838
25562	25,574	-5,	6,6131	16,578
25563	24,713	-5,	6,1515	18,062
25564	20,509	-5,	4,0981	16,016
25565	19,669	-5,	3,7949	15,14
25566	19,186	-5,	1,7676	14,89
25567	21,225	-5,	-4,6276	16,833
25568	25,509	-5,	-6,4705	17,065
25569	27,526	-5,	-5,1221	19,778
25570	-26,884	-5,	-5,54	19,265
25571	-26,467	-5,	-6,0722	17,743
25572	-25,353	-5,	-6,3102	17,551
25573	-24,635	-5,	-5,9564	18,781
25574	-20,347	-5,	4,2618	15,73
25575	-21,201	-5,	4,615	16,763
25576	-24,725	-5,	6,1326	18,135
25577	-25,59	-5,	6,5838	16,658
25578	-5,4725	-5,	-41,994	15,363
25579	-6,268	-5,	-44,651	12,276
25580	-1,8299	-5,	-51,006	6,0404
25581	4,8956	-5,	-49,387	8,1206
25582	5,0245	-5,	-47,775	10,314
25583	4,8059	-5,	-41,373	16,968
25584	1,7666	-5,	-39,168	22,317
25585	1,0686	-5,	-38,549	22,912
25586	-0,96506	-5,	-39,03	23,11
25587	28,326	-5,	6,0784	16,629
25588	27,827	-5,	6,8534	15,314
25589	27,358	-5,	7,667	13,918
25590	26,901	-5,	8,5174	12,564
25591	26,449	-5,	9,404	11,319
25592	25,99	-5,	10,297	10,264
25593	25,534	-5,	11,192	9,3915
25594	25,073	-5,	12,091	8,6853
25595	24,603	-5,	12,98	8,1345
25596	24,132	-5,	13,858	7,7108
25597	23,66	-5,	14,735	7,3834
25598	23,188	-5,	15,613	7,136
25599	22,716	-5,	16,49	6,9557
25600	22,244	-5,	17,367	6,8327
25601	21,771	-5,	18,245	6,7592
25602	21,299	-5,	19,122	6,7289
25603	20,826	-5,	20,	6,7372
25604	20,354	-5,	20,877	6,7799
25605	19,881	-5,	21,755	6,8539
25606	19,409	-5,	22,632	6,9567
25607	18,936	-5,	23,51	7,086
25608	18,464	-5,	24,388	7,24
25609	17,991	-5,	25,265	7,4172
25610	17,519	-5,	26,143	7,6163
25611	17,046	-5,	27,021	7,8359
25612	16,574	-5,	27,898	8,0751
25613	16,102	-5,	28,776	8,3331
25614	15,62	-5,	29,65	8,6133
25615	15,147	-5,	30,527	8,9063
25616	14,674	-5,	31,404	9,2159
25617	14,202	-5,	32,281	9,5411
25618	13,731	-5,	33,159	9,8814
25619	13,259	-5,	34,035	10,238
25620	12,786	-5,	34,911	10,612
25621	12,313	-5,	35,788	11,005
25622	11,838	-5,	36,664	11,42
25623	10,893	-5,	38,41	12,327
25624	10,435	-5,	39,286	12,815
25625	9,9856	-5,	40,169	13,32
25626	9,5458	-5,	41,062	13,821
25627	9,1094	-5,	41,96	14,282
25628	8,6707	-5,	42,858	14,647
25629	8,2234	-5,	43,751	14,855
25630	7,751	-5,	44,631	14,908
25631	6,8158	-5,	46,307	14,713
25632	6,4097	-5,	47,126	14,635
25633	6,0519	-5,	47,941	14,743
25634	5,4691	-5,	48,461	15,741
25635	4,2059	-5,	49,722	17,237
25636	3,4243	-5,	49,951	17,956
25637	2,6666	-5,	50,262	18,326
25638	1,6531	-5,	50,473	18,342
25639	0,42699	-5,	50,825	17,974
25640	-2,0002	-5,	50,456	18,263
25641	-4,3281	-5,	49,282	17,534
25642	-5,0943	-5,	48,533	16,591
25643	-4,7161	-5,	47,706	18,891
25644	-6,6155	-5,	47,583	13,696
25645	-6,7243	-5,	46,537	14,57
25646	-7,0293	-5,	45,634	15,162
25647	-7,4528	-5,	44,749	15,437
25648	-7,8928	-5,	43,853	15,478
25649	-8,3725	-5,	42,956	15,166
25650	-8,8795	-5,	42,057	14,638
25651	-9,3911	-5,	41,15	14,029
25652	-9,8949	-5,	40,249	13,426
25653	-10,396	-5,	39,35	12,855
25654	-11,866	-5,	36,674	11,401
25655	-12,338	-5,	35,797	10,99
25656	-13,282	-5,	34,041	10,226
25657	-14,225	-5,	32,283	9,5293
25658	-15,164	-5,	30,512	8,8966
25659	-15,631	-5,	29,614	8,6053
25660	-16,107	-5,	28,727	8,3285
25661	-16,581	-5,	27,841	8,0708
25662	-17,539	-5,	26,108	7,607
25663	-18,017	-5,	25,25	7,4049
25664	-18,482	-5,	24,386	7,2305
25665	-18,948	-5,	23,511	7,0794
25666	-19,407	-5,	22,634	6,9574
25667	-19,879	-5,	21,756	6,8545
25668	-20,352	-5,	20,879	6,7803
25669	-21,297	-5,	19,125	6,7289
25670	-22,715	-5,	16,494	6,9543
25671	-23,187	-5,	15,617	7,1339
25672	-24,131	-5,	13,863	7,7073
25673	-24,603	-5,	12,985	8,13
25674	-25,538	-5,	11,214	9,3658
25675	-25,993	-5,	10,312	10,242
25676	-26,452	-5,	9,4174	11,301
25677	-26,895	-5,	8,5204	12,559
25678	-27,837	-5,	6,8059	15,399
25679	-28,345	-5,	5,9817	16,829
25680	-30,707	-5,	-0,54399	22,519
25681	-30,642	-5,	-1,291	22,262
25682	-30,408	-5,	-2,1256	21,905
25683	-29,955	-5,	-2,8389	21,543
25684	-28,998	-5,	-4,3114	19,627
25685	-28,619	-5,	-5,0884	18,385
25686	-28,384	-5,	-5,9584	16,833
25687	-28,011	-5,	-6,9081	15,166
25688	-27,488	-5,	-7,7844	13,684
25689	-26,951	-5,	-8,6059	12,407
25690	-26,477	-5,	-9,46	11,227
25691	-26,027	-5,	-10,355	10,167
25692	-25,571	-5,	-11,231	9,3161
25693	-25,116	-5,	-12,09	8,641
25694	-24,654	-5,	-12,948	8,1007
25695	-24,19	-5,	-13,793	7,6802
25696	-23,725	-5,	-14,65	7,3423
25697	-23,259	-5,	-15,507	7,0806
25698	-22,791	-5,	-16,375	6,879
25699	-22,323	-5,	-17,229	6,7383
25700	-21,855	-5,	-18,095	6,6386
25701	-21,387	-5,	-18,961	6,5797
25702	-20,92	-5,	-19,827	6,5565
25703	-20,458	-5,	-20,684	6,5641
25704	-19,991	-5,	-21,551	6,5992
25705	-19,524	-5,	-22,418	6,6594
25706	-19,057	-5,	-23,285	6,742
25707	-18,591	-5,	-24,152	6,8447
25708	-18,124	-5,	-25,019	6,9656
25709	-17,657	-5,	-25,886	7,1028
25710	-17,19	-5,	-26,753	7,2547
25711	-16,724	-5,	-27,62	7,4195
25712	-16,257	-5,	-28,487	7,5958
25713	-15,791	-5,	-29,354	7,7823
25714	-15,324	-5,	-30,221	7,9774
25715	-14,858	-5,	-31,088	8,1798
25716	-14,382	-5,	-31,955	8,3945
25717	-13,915	-5,	-32,821	8,6083
25718	-13,447	-5,	-33,687	8,8249
25719	-12,98	-5,	-34,553	9,0422
25720	-12,513	-5,	-35,418	9,2571
25721	-12,045	-5,	-36,284	9,4658
25722	-11,567	-5,	-37,152	9,6705
25723	-11,085	-5,	-38,016	9,8603
25724	-10,606	-5,	-38,888	10,019
25725	-10,115	-5,	-39,76	10,151
25726	-9,6213	-5,	-40,638	10,241
25727	-9,1368	-5,	-41,522	10,282
25728	-8,6423	-5,	-42,409	10,31
25729	-8,1537	-5,	-43,292	10,33
25730	-7,6846	-5,	-44,166	10,385
25731	-7,2546	-5,	-45,031	10,369
25732	-6,8341	-5,	-45,897	10,307
25733	-6,4033	-5,	-46,758	10,091
25734	-5,9337	-5,	-47,578	9,7446
25735	-5,4524	-5,	-48,316	9,2484
25736	-4,4621	-5,	-50,095	7,4798
25737	-3,5907	-5,	-50,274	6,9779
25738	-2,6612	-5,	-50,677	6,4375
25739	-2,7284e-002	-5,	-50,895	5,5038
25740	0,82855	-5,	-51,031	5,6509
25741	1,5772	-5,	-51,37	6,0042
25742	2,092	-5,	-50,72	6,1851
25743	2,8971	-5,	-50,357	6,5755
25744	3,703	-5,	-50,217	7,1362
25745	4,4275	-5,	-49,894	7,6299
25746	5,4006	-5,	-48,765	8,7342
25747	5,8265	-5,	-48,099	9,2833
25748	6,2094	-5,	-47,366	9,7144
25749	6,5785	-5,	-46,584	10,052
25750	6,9578	-5,	-45,763	10,252
25751	7,3539	-5,	-44,916	10,328
25752	7,781	-5,	-44,059	10,343
25753	8,2542	-5,	-43,197	10,29
25754	8,7431	-5,	-42,334	10,267
25755	9,2356	-5,	-41,464	10,232
25756	9,7182	-5,	-40,597	10,183
25757	10,195	-5,	-39,722	10,101
25758	10,664	-5,	-38,856	9,982
25759	11,133	-5,	-37,99	9,8291
25760	11,601	-5,	-37,124	9,6501
25761	12,069	-5,	-36,258	9,453
25762	12,536	-5,	-35,391	9,2444
25763	13,003	-5,	-34,525	9,03
25764	13,47	-5,	-33,659	8,8132
25765	13,937	-5,	-32,792	8,5971
25766	14,403	-5,	-31,926	8,3838
25767	14,87	-5,	-31,059	8,1752
25768	15,337	-5,	-30,192	7,9727
25769	15,803	-5,	-29,325	7,7775
25770	16,27	-5,	-28,458	7,5912
25771	16,737	-5,	-27,591	7,4151
25772	17,204	-5,	-26,723	7,2505
25773	17,671	-5,	-25,856	7,099
25774	18,138	-5,	-24,989	6,9623
25775	18,605	-5,	-24,122	6,8419
25776	19,072	-5,	-23,255	6,7396
25777	19,539	-5,	-22,388	6,6576
25778	20,006	-5,	-21,521	6,5982
25779	20,473	-5,	-20,653	6,5638
25780	20,94	-5,	-19,787	6,5576
25781	21,408	-5,	-18,92	6,583
25782	21,875	-5,	-18,053	6,6444
25783	22,342	-5,	-17,186	6,747
25784	22,809	-5,	-16,32	6,8972
25785	23,276	-5,	-15,453	7,1032
25786	24,209	-5,	-13,72	7,7261
25787	24,675	-5,	-12,852	8,1722
25788	25,132	-5,	-11,977	8,7455
25789	25,586	-5,	-11,1	9,4589
25790	26,016	-5,	-10,202	10,372
25791	26,43	-5,	-9,3153	11,46
25792	26,857	-5,	-8,5229	12,573
25793	27,336	-5,	-7,7926	13,704
25794	27,74	-5,	-6,9657	15,147
25795	28,105	-5,	-6,1869	16,537
25796	28,57	-5,	-5,2533	18,217
25797	28,978	-5,	-4,3508	19,591
25798	29,496	-5,	-3,5295	20,679
25799	30,135	-5,	-2,8083	21,308
25800	30,502	-5,	-2,005	21,855
25801	30,503	-5,	-1,2561	22,401
25802	30,77	-5,	0,2797	22,397
25803	30,638	-5,	-0,47182	22,633
25804	28,841	-5,	5,3257	17,829
25805	29,981	-5,	2,1912	22,33
25806	30,892	-5,	0,9896	22,013
25807	29,359	-5,	4,599	18,809
25808	29,847	-5,	3,8854	19,71
25809	30,282	-5,	3,1751	20,565
25810	-26,94	-5,	6,2628	16,984
25811	-27,544	-5,	5,4784	18,585
25812	-28,291	-5,	4,713	19,716
25813	-28,985	-5,	3,9777	20,401
25814	-29,571	-5,	3,1957	21,248
25815	-30,059	-5,	2,3132	22,122
25816	-4,8469	-5,	-49,184	8,3754
25817	-30,476	-5,	1,2782	22,57
25818	5,7361	-5,	-43,328	14,445
25819	3,68	-5,	-49,52	7,5805
25820	-3,7217	-5,	-49,17	8,0701
25821	-19,916	-5,	2,8974	15,479
25822	19,917	-5,	-2,8961	15,461
25823	-5,788	-5,	43,236	22,151
25824	3,8988	-5,	48,733	17,805
25825	31,053	-5,	3,4287	19,922
25826	31,366	-5,	2,6221	20,689
25827	31,58	-5,	1,7999	21,091
25828	31,68	-5,	0,95744	21,306
25829	31,657	-5,	0,14239	21,418
25830	31,57	-5,	-0,64862	21,415
25831	31,48	-5,	-1,4293	21,288
25832	31,31	-5,	-2,2027	21,027
25833	30,987	-5,	-3,1182	20,298
25834	30,541	-5,	-3,9372	19,219
25835	30,027	-5,	-4,7626	18,148
25836	29,563	-5,	-5,6264	16,994
25837	29,136	-5,	-6,4912	15,718
25838	28,718	-5,	-7,346	14,265
25839	28,299	-5,	-8,1586	12,863
25840	27,836	-5,	-8,986	11,531
25841	27,364	-5,	-9,833	10,33
25842	26,921	-5,	-10,69	9,2881
25843	26,481	-5,	-11,568	8,4042
25844	26,025	-5,	-12,437	7,7158
25845	25,559	-5,	-13,305	7,1836
25846	25,093	-5,	-14,173	6,7737
25847	24,627	-5,	-15,04	6,4626
25848	24,16	-5,	-15,908	6,2321
25849	23,694	-5,	-16,776	6,0675
25850	23,228	-5,	-17,644	5,9572
25851	22,761	-5,	-18,512	5,8925
25852	22,294	-5,	-19,38	5,8663
25853	21,828	-5,	-20,247	5,8731
25854	21,361	-5,	-21,115	5,9084
25855	20,894	-5,	-21,983	5,9688
25856	20,428	-5,	-22,851	6,0512
25857	19,961	-5,	-23,719	6,1531
25858	19,494	-5,	-24,587	6,2723
25859	19,027	-5,	-25,455	6,4067
25860	18,553	-5,	-26,329	6,5581
25861	18,086	-5,	-27,196	6,7177
25862	17,619	-5,	-28,064	6,8871
25863	17,152	-5,	-28,931	7,0645
25864	16,685	-5,	-29,799	7,2481
25865	16,218	-5,	-30,666	7,4364
25866	15,751	-5,	-31,534	7,6274
25867	15,284	-5,	-32,401	7,8195
25868	14,818	-5,	-33,269	8,011
25869	14,351	-5,	-34,136	8,2001
25870	13,884	-5,	-35,003	8,3853
25871	13,417	-5,	-35,87	8,5648
25872	12,949	-5,	-36,737	8,7367
25873	12,482	-5,	-37,604	8,8992
25874	12,014	-5,	-38,471	9,05
25875	11,546	-5,	-39,338	9,1866
25876	11,077	-5,	-40,205	9,3071
25877	10,609	-5,	-41,07	9,4102
25878	10,132	-5,	-41,936	9,5033
25879	9,6543	-5,	-42,798	9,5793
25880	9,1774	-5,	-43,659	9,6376
25881	8,7263	-5,	-44,509	9,6376
25882	8,2932	-5,	-45,355	9,5666
25883	7,877	-5,	-46,195	9,4065
25884	7,471	-5,	-47,019	9,2024
25885	7,0522	-5,	-47,806	8,9977
25886	6,594	-5,	-48,545	8,7142
25887	6,086	-5,	-49,237	8,289
25888	5,5642	-5,	-49,869	7,8237
25889	4,9327	-5,	-50,465	7,3559
25890	4,2576	-5,	-50,906	7,0016
25891	3,5188	-5,	-51,254	6,7237
25892	2,8245	-5,	-51,599	6,4407
25893	1,2005	-5,	-52,185	6,0858
25894	0,45663	-5,	-52,039	6,0171
25895	-0,33499	-5,	-51,952	5,9854
25896	-1,1683	-5,	-51,922	6,0808
25897	-2,0583	-5,	-51,807	6,2333
25898	-2,8952	-5,	-51,542	6,4539
25899	-3,5551	-5,	-51,325	6,6725
25900	-4,2722	-5,	-51,004	6,9474
25901	-5,0182	-5,	-50,812	7,1841
25902	-5,2695	-5,	-50,206	7,5761
25903	-5,7772	-5,	-49,497	8,125
25904	-6,2997	-5,	-48,769	8,6122
25905	-6,8366	-5,	-47,984	8,9804
25906	-7,3097	-5,	-47,169	9,1946
25907	-7,7583	-5,	-46,325	9,3918
25908	-8,2037	-5,	-45,462	9,5664
25909	-8,6519	-5,	-44,598	9,6449
25910	-9,1027	-5,	-43,73	9,6559
25911	-9,5763	-5,	-42,857	9,6088
25912	-10,058	-5,	-41,983	9,5381
25913	-10,542	-5,	-41,109	9,4458
25914	-11,026	-5,	-40,239	9,3352
25915	-11,5	-5,	-39,37	9,2125
25916	-11,981	-5,	-38,502	9,067
25917	-12,461	-5,	-37,64	8,907
25918	-12,928	-5,	-36,773	8,7449
25919	-13,396	-5,	-35,906	8,5732
25920	-13,863	-5,	-35,039	8,3939
25921	-14,33	-5,	-34,172	8,2089
25922	-14,797	-5,	-33,305	8,0197
25923	-15,264	-5,	-32,438	7,8282
25924	-15,73	-5,	-31,571	7,636
25925	-16,197	-5,	-30,704	7,445
25926	-16,664	-5,	-29,837	7,2567
25927	-17,13	-5,	-28,971	7,0731
25928	-17,598	-5,	-28,102	6,895
25929	-18,065	-5,	-27,234	6,7252
25930	-18,532	-5,	-26,367	6,565
25931	-18,999	-5,	-25,499	6,4164
25932	-19,458	-5,	-24,64	6,2843
25933	-19,926	-5,	-23,773	6,1635
25934	-20,394	-5,	-22,906	6,0598
25935	-20,861	-5,	-22,039	5,9755
25936	-21,329	-5,	-21,172	5,9128
25937	-21,797	-5,	-20,305	5,8748
25938	-22,264	-5,	-19,438	5,865
25939	-22,732	-5,	-18,571	5,8876
25940	-23,2	-5,	-17,704	5,948
25941	-23,668	-5,	-16,838	6,0531
25942	-24,135	-5,	-15,971	6,2119
25943	-24,603	-5,	-15,104	6,4355
25944	-25,07	-5,	-14,237	6,7389
25945	-25,541	-5,	-13,379	7,1276
25946	-26,469	-5,	-11,646	8,3137
25947	-26,929	-5,	-10,773	9,1627
25948	-27,39	-5,	-9,9052	10,2
25949	-27,868	-5,	-9,0408	11,423
25950	-28,828	-5,	-7,3251	14,292
25951	-29,249	-5,	-6,442	15,775
25952	-29,638	-5,	-5,592	17,009
25953	-30,027	-5,	-4,7808	18,114
25954	-30,453	-5,	-4,0041	19,164
25955	-30,868	-5,	-3,2213	20,177
25956	-31,219	-5,	-2,4013	20,939
25957	-31,463	-5,	-1,5657	21,281
25958	-31,571	-5,	-0,70046	21,418
25959	-31,553	-5,	0,12244	21,492
25960	-31,62	-5,	0,87664	21,391
25961	-31,4	-5,	1,6629	21,254
25962	-31,018	-5,	2,5228	20,964
25963	-30,627	-5,	3,4003	20,046
25964	-30,173	-5,	4,3137	18,803
25965	-30,335	-5,	4,949	17,848
25966	-29,543	-5,	5,6831	16,927
25967	-29,183	-5,	6,4248	15,829
25968	-28,731	-5,	7,2938	14,368
25969	-28,267	-5,	8,1555	12,887
25970	-27,808	-5,	9,0239	11,484
25971	-27,35	-5,	9,91	10,225
25972	-26,889	-5,	10,801	9,1668
25973	-26,425	-5,	11,692	8,3109
25974	-25,953	-5,	12,57	7,6567
25975	-25,482	-5,	13,448	7,1503
25976	-25,01	-5,	14,326	6,7669
25977	-24,538	-5,	15,204	6,4827
25978	-24,066	-5,	16,083	6,2795
25979	-23,595	-5,	16,961	6,1431
25980	-23,123	-5,	17,839	6,0623
25981	-22,651	-5,	18,717	6,0288
25982	-22,179	-5,	19,595	6,0358
25983	-21,707	-5,	20,473	6,0786
25984	-21,234	-5,	21,351	6,153
25985	-20,762	-5,	22,229	6,2562
25986	-20,29	-5,	23,108	6,3856
25987	-19,818	-5,	23,986	6,5393
25988	-19,345	-5,	24,864	6,7157
25989	-18,883	-5,	25,739	6,9079
25990	-18,406	-5,	26,611	7,1289
25991	-17,924	-5,	27,476	7,3715
25992	-17,446	-5,	28,344	7,6286
25993	-16,97	-5,	29,22	7,9016
25994	-16,498	-5,	30,107	8,1892
25995	-16,031	-5,	30,997	8,4889
25996	-15,568	-5,	31,889	8,801
25997	-15,097	-5,	32,767	9,1285
25998	-14,625	-5,	33,646	9,466
25999	-14,153	-5,	34,524	9,8115
26000	-13,681	-5,	35,402	10,163
26001	-13,209	-5,	36,28	10,517
26002	-12,736	-5,	37,158	10,872
26003	-12,263	-5,	38,036	11,225
26004	-11,774	-5,	38,922	11,585
26005	-11,29	-5,	39,805	11,936
26006	-10,8	-5,	40,691	12,281
26007	-10,309	-5,	41,579	12,605
26008	-9,3302	-5,	43,354	13,056
26009	-8,8615	-5,	44,231	13,058
26010	-8,4161	-5,	45,103	12,855
26011	-8,0124	-5,	45,96	12,492
26012	-7,6659	-5,	46,807	12,124
26013	-6,7249	-5,	48,59	12,705
26014	-6,1014	-5,	48,992	13,911
26015	-5,4318	-5,	49,533	15,08
26016	-4,7235	-5,	50,121	16,084
26017	-3,9978	-5,	50,755	16,623
26018	-3,2127	-5,	51,127	17,172
26019	-2,4705	-5,	51,427	17,319
26020	-1,8834	-5,	51,779	17,529
26021	-1,17	-5,	51,843	17,52
26022	-0,16764	-5,	51,817	17,632
26023	0,58191	-5,	52,085	17,655
26024	1,1814	-5,	51,721	17,588
26025	2,0016	-5,	51,432	17,505
26026	2,8998	-5,	51,191	17,364
26027	3,7314	-5,	50,93	16,783
26028	4,4513	-5,	50,646	15,972
26029	5,0725	-5,	50,451	15,013
26030	5,2508	-5,	49,667	15,341
26031	6,0583	-5,	49,205	13,876
26032	6,6754	-5,	48,412	12,926
26033	7,1608	-5,	47,607	12,418
26034	7,644	-5,	46,783	12,199
26035	8,0895	-5,	45,936	12,378
26036	8,5621	-5,	45,08	12,607
26037	9,0306	-5,	44,203	12,782
26038	9,4849	-5,	43,315	12,828
26039	9,9345	-5,	42,427	12,731
26040	10,384	-5,	41,543	12,525
26041	11,3	-5,	39,788	11,93
26042	11,773	-5,	38,909	11,588
26043	12,235	-5,	38,029	11,244
26044	12,719	-5,	37,154	10,882
26045	13,195	-5,	36,277	10,524
26046	13,668	-5,	35,399	10,169
26047	14,141	-5,	34,521	9,8176
26048	14,613	-5,	33,644	9,4718
26049	15,077	-5,	32,765	9,1385
26050	15,55	-5,	31,887	8,8103
26051	16,024	-5,	31,01	8,494
26052	16,497	-5,	30,132	8,1911
26053	16,97	-5,	29,254	7,9027
26054	17,443	-5,	28,376	7,6303
26055	17,917	-5,	27,498	7,3749
26056	18,39	-5,	26,62	7,1375
26057	18,863	-5,	25,743	6,919
26058	19,337	-5,	24,865	6,7206
26059	19,81	-5,	23,987	6,5436
26060	20,283	-5,	23,11	6,3892
26061	20,757	-5,	22,232	6,259
26062	21,23	-5,	21,354	6,1549
26063	21,704	-5,	20,477	6,0794
26064	22,177	-5,	19,599	6,0355
26065	22,651	-5,	18,722	6,0271
26066	23,124	-5,	17,844	6,059
26067	23,598	-5,	16,967	6,138
26068	24,071	-5,	16,089	6,2724
26069	24,544	-5,	15,211	6,4735
26070	25,017	-5,	14,333	6,7559
26071	25,49	-5,	13,455	7,1382
26072	25,957	-5,	12,567	7,6578
26073	26,425	-5,	11,682	8,3236
26074	27,348	-5,	9,9029	10,238
26075	27,806	-5,	9,0216	11,491
26076	28,27	-5,	8,1707	12,86
26077	28,742	-5,	7,3315	14,3
26078	29,23	-5,	6,5357	15,64
26079	29,729	-5,	5,748	16,813
26080	30,221	-5,	4,9706	17,833
26081	30,673	-5,	4,2028	18,848
26082	0,43357	-5,	-39,325	22,909
26083	4,9013	-5,	-42,794	18,358
26084	4,0976	-5,	-49,026	8,3962
26085	-2,544	-5,	-49,844	6,4808
26086	-5,6381	-5,	-43,418	14,662
26087	-26,019	-5,	5,6303	19,565
26088	-20,797	-5,	3,2434	16,704
26089	-25,882	-5,	-5,5255	20,595
26090	-30,034	-5,	-1,1862	23,003
26091	26,047	-5,	-5,6171	19,794
26092	20,797	-5,	-3,2489	16,765
26093	20,027	-5,	2,7879	15,611
26094	25,98	-5,	5,6726	19,438
26095	30,889	-5,	1,7241	21,689
26096	4,6135	-5,	48,628	17,312
26097	5,4265	-5,	43,469	23,894
26098	-20,031	-5,	-2,7995	15,549
26099	0,44412	-5,	39,364	15,475
26100	31,562	-5,	4,4637	19,
26101	31,849	-5,	3,607	20,036
26102	32,115	-5,	2,7437	20,47
26103	32,323	-5,	1,8586	20,736
26104	32,466	-5,	0,95748	20,903
26105	32,525	-5,	6,0872e-002	20,968
26106	32,492	-5,	-0,81564	20,903
26107	32,357	-5,	-1,6719	20,771
26108	32,13	-5,	-2,5255	20,542
26109	31,833	-5,	-3,4513	20,119
26110	31,484	-5,	-4,3462	18,99
26111	31,011	-5,	-5,1914	17,748
26112	30,554	-5,	-6,0362	16,676
26113	30,108	-5,	-6,8952	15,197
26114	29,666	-5,	-7,7533	13,496
26115	29,212	-5,	-8,6124	11,791
26116	28,75	-5,	-9,4603	10,278
26117	28,286	-5,	-10,317	8,9834
26118	27,825	-5,	-11,182	7,9196
26119	27,371	-5,	-12,055	7,0673
26120	26,903	-5,	-12,923	6,4338
26121	26,437	-5,	-13,791	5,9612
26122	25,97	-5,	-14,659	5,6163
26123	25,503	-5,	-15,527	5,372
26124	25,036	-5,	-16,395	5,2066
26125	24,569	-5,	-17,262	5,104
26126	24,102	-5,	-18,13	5,0516
26127	23,167	-5,	-19,866	5,0623
26128	22,7	-5,	-20,734	5,1129
26129	22,233	-5,	-21,602	5,1878
26130	21,766	-5,	-22,47	5,2836
26131	21,299	-5,	-23,338	5,3975
26132	20,832	-5,	-24,206	5,5274
26133	20,364	-5,	-25,073	5,6712
26134	19,897	-5,	-25,941	5,8268
26135	19,43	-5,	-26,809	5,9927
26136	18,963	-5,	-27,677	6,1667
26137	18,496	-5,	-28,545	6,3471
26138	18,029	-5,	-29,413	6,5318
26139	17,562	-5,	-30,281	6,7188
26140	17,095	-5,	-31,149	6,9059
26141	16,628	-5,	-32,017	7,0907
26142	16,161	-5,	-32,884	7,2711
26143	15,694	-5,	-33,752	7,445
26144	15,227	-5,	-34,62	7,6105
26145	14,76	-5,	-35,488	7,7662
26146	14,293	-5,	-36,356	7,9116
26147	13,826	-5,	-37,224	8,0472
26148	13,359	-5,	-38,092	8,1748
26149	12,891	-5,	-38,959	8,2981
26150	12,423	-5,	-39,827	8,4226
26151	11,955	-5,	-40,695	8,5554
26152	11,487	-5,	-41,562	8,7039
26153	11,018	-5,	-42,429	8,8731
26154	10,544	-5,	-43,286	9,0631
26155	9,6322	-5,	-44,998	9,3691
26156	9,1779	-5,	-45,854	9,3952
26157	8,7387	-5,	-46,704	9,2673
26158	8,3005	-5,	-47,548	8,9799
26159	7,8509	-5,	-48,374	8,737
26160	7,2921	-5,	-49,099	8,42
26161	6,7171	-5,	-49,793	7,93
26162	6,1164	-5,	-50,449	7,4896
26163	5,4659	-5,	-51,086	7,1113
26164	4,786	-5,	-51,634	6,8235
26165	4,0733	-5,	-52,112	6,5916
26166	3,3457	-5,	-52,533	6,4286
26167	2,6095	-5,	-52,856	6,3012
26168	1,877	-5,	-53,058	6,2125
26169	1,044	-5,	-53,1	6,156
26170	0,20401	-5,	-53,057	6,1215
26171	-0,64786	-5,	-52,967	6,1345
26172	-1,503	-5,	-52,833	6,1849
26173	-2,3879	-5,	-52,627	6,2899
26174	-3,2766	-5,	-52,402	6,4323
26175	-4,0369	-5,	-52,096	6,5968
26176	-4,7992	-5,	-51,722	6,7961
26177	-5,446	-5,	-51,278	7,0242
26178	-6,0334	-5,	-50,664	7,3718
26179	-6,5951	-5,	-49,971	7,8174
26180	-7,1476	-5,	-49,245	8,3348
26181	-7,7247	-5,	-48,488	8,6858
26182	-8,2028	-5,	-47,644	8,9228
26183	-8,6629	-5,	-46,79	9,2369
26184	-9,1241	-5,	-45,922	9,3918
26185	-10,039	-5,	-44,187	9,2576
26186	-10,508	-5,	-43,318	9,0812
26187	-10,981	-5,	-42,45	8,8949
26188	-11,455	-5,	-41,581	8,7233
26189	-11,923	-5,	-40,714	8,5751
26190	-12,401	-5,	-39,85	8,4333
26191	-12,869	-5,	-38,983	8,3086
26192	-13,336	-5,	-38,115	8,1851
26193	-13,803	-5,	-37,248	8,0571
26194	-14,271	-5,	-36,38	7,9213
26195	-14,738	-5,	-35,513	7,7756
26196	-15,206	-5,	-34,645	7,6197
26197	-15,673	-5,	-33,778	7,454
26198	-16,141	-5,	-32,911	7,2799
26199	-17,075	-5,	-31,176	6,9145
26200	-17,542	-5,	-30,308	6,7274
26201	-18,01	-5,	-29,441	6,5402
26202	-18,477	-5,	-28,573	6,3552
26203	-18,944	-5,	-27,706	6,1745
26204	-19,412	-5,	-26,838	6,0001
26205	-19,879	-5,	-25,971	5,8339
26206	-20,346	-5,	-25,103	5,6778
26207	-20,814	-5,	-24,235	5,5335
26208	-21,281	-5,	-23,368	5,4029
26209	-21,748	-5,	-22,5	5,2882
26210	-22,216	-5,	-21,633	5,1915
26211	-22,683	-5,	-20,765	5,1156
26212	-23,151	-5,	-19,898	5,0637
26213	-23,618	-5,	-19,031	5,0399
26214	-24,085	-5,	-18,163	5,0495
26215	-24,553	-5,	-17,296	5,0995
26216	-25,02	-5,	-16,428	5,1993
26217	-25,488	-5,	-15,561	5,3611
26218	-25,955	-5,	-14,693	5,6012
26219	-26,422	-5,	-13,826	5,9407
26220	-26,889	-5,	-12,958	6,4072
26221	-27,356	-5,	-12,09	7,0334
26222	-27,822	-5,	-11,222	7,8565
26223	-28,288	-5,	-10,354	8,9112
26224	-28,759	-5,	-9,4965	10,195
26225	-29,228	-5,	-8,6297	11,742
26226	-29,693	-5,	-7,7661	13,461
26227	-30,145	-5,	-6,9003	15,203
26228	-30,582	-5,	-6,0491	16,674
26229	-31,022	-5,	-5,2108	17,744
26230	-31,464	-5,	-4,3824	18,935
26231	-31,79	-5,	-3,517	20,053
26232	-32,092	-5,	-2,6386	20,523
26233	-32,309	-5,	-1,7506	20,789
26234	-32,429	-5,	-0,83967	20,927
26235	-32,473	-5,	3,479e-002	20,972
26236	-32,41	-5,	0,91734	20,934
26237	-32,228	-5,	1,8011	20,785
26238	-31,971	-5,	2,6993	20,517
26239	-31,675	-5,	3,5948	19,957
26240	-31,446	-5,	4,3965	18,913
26241	-31,091	-5,	5,2057	17,867
26242	-30,593	-5,	6,0879	16,657
26243	-30,103	-5,	6,9268	15,152
26244	-29,643	-5,	7,7763	13,462
26245	-29,177	-5,	8,646	11,746
26246	-28,711	-5,	9,5179	10,2
26247	-28,249	-5,	10,403	8,8724
26248	-27,783	-5,	11,289	7,8078
26249	-27,31	-5,	12,168	7,0009
26250	-26,837	-5,	13,046	6,3931
26251	-26,365	-5,	13,924	5,9466
26252	-25,892	-5,	14,802	5,6279
26253	-25,42	-5,	15,68	5,41
26254	-24,947	-5,	16,559	5,2718
26255	-24,475	-5,	17,437	5,197
26256	-24,002	-5,	18,315	5,1739
26257	-23,53	-5,	19,193	5,1935
26258	-23,057	-5,	20,071	5,2494
26259	-22,584	-5,	20,95	5,3367
26260	-22,112	-5,	21,828	5,4517
26261	-21,639	-5,	22,706	5,592
26262	-21,166	-5,	23,584	5,7552
26263	-20,694	-5,	24,462	5,9401
26264	-20,221	-5,	25,34	6,1452
26265	-19,748	-5,	26,219	6,3695
26266	-19,276	-5,	27,097	6,6121
26267	-18,803	-5,	27,975	6,8721
26268	-18,32	-5,	28,839	7,1537
26269	-17,846	-5,	29,715	7,4459
26270	-17,377	-5,	30,596	7,7494
26271	-16,912	-5,	31,488	8,0644
26272	-16,44	-5,	32,366	8,3936
26273	-15,967	-5,	33,244	8,7312
26274	-15,495	-5,	34,122	9,0741
26275	-15,022	-5,	35,	9,4181
26276	-14,077	-5,	36,757	10,087
26277	-13,604	-5,	37,635	10,398
26278	-13,131	-5,	38,513	10,68
26279	-12,658	-5,	39,391	10,922
26280	-12,185	-5,	40,269	11,111
26281	-11,698	-5,	41,15	11,246
26282	-11,223	-5,	42,028	11,298
26283	-10,736	-5,	42,912	11,273
26284	-10,263	-5,	43,79	11,142
26285	-9,7957	-5,	44,664	10,91
26286	-9,343	-5,	45,531	10,586
26287	-8,9141	-5,	46,39	10,221
26288	-8,5309	-5,	47,237	9,8625
26289	-8,1812	-5,	48,086	9,6714
26290	-7,7418	-5,	48,876	9,9604
26291	-7,1739	-5,	49,468	10,854
26292	-6,5254	-5,	49,986	12,088
26293	-5,8185	-5,	50,503	13,385
26294	-5,0714	-5,	51,003	14,589
26295	-4,289	-5,	51,518	15,639
26296	-3,4708	-5,	52,014	16,536
26297	-2,6823	-5,	52,388	17,324
26298	-1,9423	-5,	52,551	17,859
26299	-1,0624	-5,	52,704	18,28
26300	-0,1009	-5,	52,818	18,509
26301	0,69453	-5,	52,8	18,482
26302	1,5836	-5,	52,647	18,069
26303	2,4471	-5,	52,4	17,502
26304	3,3294	-5,	52,114	16,703
26305	4,9535	-5,	51,42	14,536
26306	5,6243	-5,	50,963	13,425
26307	6,2214	-5,	50,372	12,498
26308	6,7138	-5,	49,71	11,822
26309	7,3783	-5,	48,896	10,9
26310	7,9791	-5,	48,127	10,111
26311	8,4506	-5,	47,275	9,9745
26312	8,9268	-5,	46,412	10,168
26313	9,3899	-5,	45,542	10,489
26314	9,8541	-5,	44,665	10,815
26315	10,318	-5,	43,783	11,073
26316	10,78	-5,	42,901	11,231
26317	11,243	-5,	42,023	11,283
26318	11,703	-5,	41,146	11,245
26319	12,176	-5,	40,268	11,119
26320	12,649	-5,	39,39	10,928
26321	13,123	-5,	38,511	10,685
26322	14,069	-5,	36,755	10,091
26323	14,542	-5,	35,877	9,7616
26324	15,015	-5,	34,999	9,4214
26325	15,488	-5,	34,121	9,0771
26326	15,961	-5,	33,243	8,734
26327	16,435	-5,	32,365	8,3961
26328	17,381	-5,	30,608	7,7481
26329	17,854	-5,	29,73	7,4422
26330	18,327	-5,	28,852	7,1503
26331	18,8	-5,	27,974	6,8738
26332	19,273	-5,	27,095	6,6137
26333	19,746	-5,	26,217	6,371
26334	20,219	-5,	25,339	6,1465
26335	20,692	-5,	24,461	5,9412
26336	21,165	-5,	23,583	5,7562
26337	21,639	-5,	22,704	5,5926
26338	22,112	-5,	21,826	5,4522
26339	22,585	-5,	20,948	5,3368
26340	23,058	-5,	20,07	5,2492
26341	23,531	-5,	19,192	5,1929
26342	24,004	-5,	18,314	5,1728
26343	24,477	-5,	17,436	5,1954
26344	24,951	-5,	16,557	5,2696
26345	25,424	-5,	15,679	5,4074
26346	25,897	-5,	14,801	5,6249
26347	26,37	-5,	13,923	5,9433
26348	26,842	-5,	13,044	6,3907
26349	27,315	-5,	12,166	6,9999
26350	27,787	-5,	11,287	7,8103
26351	28,25	-5,	10,398	8,8825
26352	28,718	-5,	9,5198	10,195
26353	29,186	-5,	8,6475	11,743
26354	29,654	-5,	7,7964	13,421
26355	30,135	-5,	6,9536	15,118
26356	30,621	-5,	6,1228	16,643
26357	31,105	-5,	5,2943	17,822
26358	1,1936	-5,	-40,034	24,895
26359	1,8732	-5,	-40,518	25,139
26360	2,7216	-5,	-41,058	25,089
26361	4,2387	-5,	-42,269	21,355
26362	3,5274	-5,	-41,688	24,02
26363	5,3181	-5,	-44,338	15,631
26364	4,6471	-5,	-46,077	16,307
26365	4,046	-5,	-47,625	12,219
26366	4,2554	-5,	-46,976	14,323
26367	3,4958	-5,	-48,517	8,9811
26368	2,8812	-5,	-49,235	6,9768
26369	1,4222	-5,	-49,969	5,1526
26370	0,31049	-5,	-49,898	3,9524
26371	-1,7669	-5,	-50,314	5,7464
26372	-1,0173	-5,	-49,929	4,6399
26373	-1,994	-5,	-49,303	5,8444
26374	-2,8613	-5,	-48,681	8,3707
26375	-3,5973	-5,	-47,887	11,505
26376	-4,1575	-5,	-47,04	14,4
26377	-4,5973	-5,	-46,147	16,381
26378	-5,2226	-5,	-44,408	16,186
26379	-4,9473	-5,	-45,238	16,986
26380	-4,8202	-5,	-42,88	18,381
26381	-4,1703	-5,	-42,385	22,344
26382	-3,4762	-5,	-41,788	25,079
26383	-2,6685	-5,	-41,164	26,088
26384	-0,3154	-5,	-39,812	22,287
26385	-0,98907	-5,	-40,251	25,715
26386	-1,8131	-5,	-40,693	26,123
26387	-25,058	-5,	5,1077	23,13
26388	-24,259	-5,	4,8033	24,176
26389	-23,296	-5,	4,4788	23,478
26390	-21,547	-5,	3,6049	18,706
26391	-22,376	-5,	4,0224	21,258
26392	-20,077	-5,	1,8336	15,109
26393	-20,121	-5,	0,97695	14,789
26394	-20,172	-5,	6,2316e-003	14,406
26395	-20,206	-5,	-1,8009	15,119
26396	-20,231	-5,	-0,96962	14,712
26397	-20,874	-5,	-3,1589	16,906
26398	-21,624	-5,	-3,4909	19,155
26399	-22,455	-5,	-3,9412	21,904
26400	-23,33	-5,	-4,4073	24,069
26401	-25,023	-5,	-5,0161	23,356
26402	-24,261	-5,	-4,7478	24,729
26403	-26,587	-5,	-4,9745	21,958
26404	-27,357	-5,	-4,5525	22,313
26405	-27,937	-5,	-3,7978	23,871
26406	-28,568	-5,	-3,0611	24,106
26407	-29,607	-5,	-1,695	23,504
26408	-29,162	-5,	-2,2884	23,81
26409	-29,829	-5,	-0,58796	23,271
26410	-26,711	-5,	4,958	21,97
26411	-27,241	-5,	4,306	24,073
26412	-27,872	-5,	3,6211	25,268
26413	-28,553	-5,	2,892	24,634
26414	-29,117	-5,	2,0665	23,923
26415	-29,525	-5,	1,1096	23,66
26416	-29,702	-5,	0,10853	23,558
26417	25,443	-5,	-4,8649	24,87
26418	24,238	-5,	-4,6679	25,376
26419	21,555	-5,	-3,6082	18,815
26420	22,404	-5,	-4,0266	21,38
26421	20,073	-5,	-1,8434	15,066
26422	20,115	-5,	-0,98092	14,772
26423	20,176	-5,	-1,2287e-002	14,401
26424	20,202	-5,	1,795	15,19
26425	20,231	-5,	0,967	14,684
26426	20,865	-5,	3,1429	17,129
26427	21,609	-5,	3,4834	18,97
26428	22,44	-5,	3,9601	21,74
26429	23,326	-5,	4,4322	23,883
26430	25,032	-5,	5,1666	22,439
26431	24,236	-5,	4,8345	23,936
26432	26,56	-5,	4,9724	22,104
26433	27,091	-5,	4,362	24,333
26434	27,776	-5,	3,7163	25,36
26435	28,487	-5,	3,0488	24,592
26436	29,519	-5,	1,6624	23,689
26437	29,064	-5,	2,2687	24,01
26438	29,852	-5,	0,55742	23,44
26439	29,703	-5,	-0,14582	23,474
26440	26,711	-5,	-4,9671	21,853
26441	26,569	-5,	-4,3392	27,168
26442	27,742	-5,	-4,0285	23,825
26443	28,644	-5,	-3,0461	23,998
26444	29,59	-5,	-1,1094	23,71
26445	4,6897	-5,	47,333	20,22
26446	4,8606	-5,	46,336	22,471
26447	5,1228	-5,	44,32	25,781
26448	5,1212	-5,	45,273	24,649
26449	4,7108	-5,	42,912	25,45
26450	4,075	-5,	42,426	26,263
26451	3,3886	-5,	41,769	23,986
26452	2,6569	-5,	41,112	20,891
26453	1,1949	-5,	40,036	16,408
26454	1,8794	-5,	40,52	18,104
26455	-0,30832	-5,	39,861	15,202
26456	-1,0636	-5,	40,29	16,177
26457	-1,768	-5,	40,639	17,949
26458	-2,669	-5,	41,071	20,951
26459	-4,2244	-5,	42,216	25,463
26460	-3,4961	-5,	41,667	24,071
26461	-5,426	-5,	44,287	23,716
26462	-5,122	-5,	45,212	24,643
26463	-4,6886	-5,	46,268	24,949
26464	-4,1128	-5,	47,204	24,832
26465	3,1749	-5,	48,863	18,381
26466	2,4704	-5,	49,066	18,434
26467	1,5407	-5,	49,441	17,523
26468	0,47563	-5,	49,694	17,131
26469	-0,6332	-5,	49,68	17,206
26470	-1,691	-5,	49,5	18,229
26471	-2,9195	-5,	49,025	19,181
26472	23,634	-5,	-18,998	5,04
26473	11,782	-5,	-13,642	8,7807
26474	8,7216	-5,	-1,0053	9,6205
26475	8,3664	-5,	-13,779	8,064
26476	10,06	-5,	-12,641	8,4184
26477	8,3799	-5,	-11,56	8,0265
26478	7,9621	-5,	-10,152	8,0156
26479	-14,696	-5,	31,402	9,2045
26480	-2,3107	-5,	10,721	6,9221
26481	-6,1456	-5,	8,2509	7,799
26482	6,5363	-5,	-21,464	9,7205
26483	-16,578	-5,	13,245	9,4836
26484	-3,1546	-5,	-7,8319	7,4009
26485	-10,895	-5,	38,455	12,327
26486	16,183	-5,	-13,859	9,3802
26487	3,738	-5,	-18,334	8,5008
26488	4,957	-5,	-18,126	8,5061
26489	7,1447	-5,	30,432	12,095
26490	4,9348	-5,	-20,322	9,3105
26491	-27,36	-5,	7,6516	13,946
26492	-3,4584	-5,	-20,541	9,3823
26493	-2,7267	-5,	-17,754	8,2293
26494	17,372	-5,	15,918	8,8484
26495	3,7298	-5,	22,203	9,5026
26496	6,6049	-5,	42,916	19,569
26497	6,0177	-5,	40,222	19,167
26498	3,5922	-5,	-6,1646	7,7746
26499	-26,75	-5,	-7,3175	14,69
26500	6,7946	-5,	29,018	11,692
26501	16,208	-5,	-11,596	9,9902
26502	-8,6216	-5,	-15,231	8,2631
26503	5,5796	-5,	-41,9	14,938
26504	-14,55	-5,	35,879	9,7581
26505	-13,034	-5,	13,545	8,893
26506	-10,388	-5,	14,213	8,3332
26507	-10,45	-5,	12,124	8,4002
26508	-7,8678	-5,	12,684	7,7604
26509	-8,7972	-5,	11,15	8,045
26510	-10,562	-5,	10,05	8,6702
26511	-3,2077	-5,	-29,509	13,904
26512	-3,2709	-5,	-27,184	12,59
26513	-11,103	-5,	21,278	9,1636
26514	-5,1892	-5,	-17,365	8,2795
26515	20,364	-5,	-4,2586	15,76
26516	-0,28407	-5,	-34,374	18,531
26517	4,8011	-5,	-26,985	12,183
26518	2,4323	-5,	-29,443	14,05
26519	5,3832	-5,	-37,243	16,287
26520	-9,5397	-5,	-9,7384	8,5061
26521	-8,1972	-5,	-9,7171	8,1264
26522	8,1664	-5,	11,884	7,8438
26523	-6,1785	-5,	40,85	19,572
26524	11,044	-5,	-27,722	10,208
26525	-18,055	-5,	1,7003	14,384
26526	-1,896	-5,	24,074	10,241
26527	3,5439	-5,	26,696	11,237
26528	5,327	-5,	23,396	9,9262
26529	-9,1936	-5,	27,045	10,605
26530	-5,4514	-5,	36,619	15,799
26531	11,764	-5,	-18,037	8,919
26532	-1,6719	-5,	-37,022	21,036
26533	11,78	-5,	24,084	9,5015
26534	3,0949	-5,	-38,955	20,592
26535	23,33	-5,	-4,4272	23,834
26536	-0,96521	-5,	-18,704	8,5469
26537	-0,27519	-5,	-38,493	23,298
26538	-29,479	-5,	-3,5642	20,649
26539	-5,0781	-5,	-21,751	9,8789
26540	11,359	-5,	37,539	11,863
26541	-2,8485	-5,	50,287	18,165
26542	13,655	-5,	20,627	8,8754
26543	14,6	-5,	18,898	8,7522
26544	8,0269	-5,	18,415	8,5272
26545	4,5868	-5,	-16,737	8,0309
26546	-9,4305	-5,	-17,923	8,8005
26547	-9,9699	-5,	29,824	11,045
26548	7,2942	-5,	-24,241	10,595
26549	-2,6361	-5,	-22,121	10,103
26550	2,721	-5,	-3,4899	8,1746
26551	-6,9325	-5,	-14,166	7,819
26552	-9,5748	-5,	-45,054	9,3823
26553	-12,946	-5,	-17,751	8,9094
26554	15,952	-5,	5,7464	11,986
26555	-16,608	-5,	-32,043	7,0994
26556	16,908	-5,	31,487	8,0667
26557	7,9404	-5,	-31,503	12,48
26558	10,088	-5,	-44,141	9,2372
26559	6,0877	-5,	-36,237	15,186
26560	8,5429	-5,	7,286	8,5688
26561	-1,3757	-5,	18,91	8,2279
26562	-15,269	-5,	6,7062	11,296
26563	-1,5547	-5,	-34,307	18,143
26564	7,2262	-5,	45,482	14,923
26565	16,172	-5,	-1,6311	13,285
26566	-2,402	-5,	-40,025	21,769
26567	-14,577	-5,	-23,124	8,6693
26568	5,6155	-5,	41,126	20,902
26569	-12,999	-5,	-15,586	8,9094
26570	23,742	-5,	-14,586	7,3752
26571	4,6312	-5,	18,372	8,2173
26572	-16,934	-5,	-6,0468	12,422
26573	-25,539	-5,	-9,096	11,994
26574	-17,034	-5,	-2,2611	13,719
26575	16,069	-5,	-20,478	8,3813
26576	5,0159	-5,	-45,192	16,749
26577	9,7998	-5,	17,257	8,4957
26578	-6,9577	-5,	-36,912	14,15
26579	13,423	-5,	-21,234	8,9672
26580	15,228	-5,	-17,777	8,7931
26581	19,028	-5,	2,6576	14,801
26582	-10,171	-5,	-22,827	9,7318
26583	-11,21	-5,	-16,764	8,7822
26584	-6,0118	-5,	-17,938	8,5286
26585	-13,753	-5,	33,164	9,8704
26586	-28,354	-5,	-8,1962	12,777
26587	5,8963	-5,	-14,344	7,6612
26588	-16,094	-5,	1,1422	13,294
26589	-5,5271	-5,	23,428	9,9324
26590	10,523	-5,	34,788	11,958
26591	-17,058	-5,	26,969	7,8305
26592	-7,209	-5,	32,797	12,963
26593	13,497	-5,	-16,806	8,9114
26594	16,488	-5,	15,449	8,9896
26595	19,521	-5,	6,952	13,189
26596	-5,9835	-5,	-41,049	14,36
26597	15,259	-5,	-6,7911	11,329
26598	-18,182	-5,	-5,427	13,385
26599	2,4874	-5,	-22,996	10,528
26600	-23,659	-5,	14,74	7,3807
26601	-10,345	-5,	16,377	8,458
26602	22,608	-5,	-6,3708	16,101
26603	-14,04	-5,	-5,2805	11,223
26604	9,895	-5,	12,924	8,2255
26605	15,055	-5,	-4,8412	11,872
26606	-1,5457	-5,	33,003	14,004
26607	7,2454	-5,	15,669	7,8894
26608	-13,603	-5,	25,01	9,1617
26609	4,1844	-5,	51,798	15,691
26610	-1,9029	-5,	-5,8379	7,679
26611	19,33	-5,	10,19	11,026
26612	-1,0061	-5,	17,463	7,7355
26613	-22,242	-5,	17,371	6,8319
26614	7,4033	-5,	-19,814	9,1743
26615	14,203	-5,	-23,919	8,7826
26616	15,202	-5,	13,65	9,2399
26617	-2,0156	-5,	-32,139	16,038
26618	-12,093	-5,	1,2877	10,959
26619	8,1274	-5,	-24,783	10,599
26620	-8,2604	-5,	-28,427	11,555
26621	6,5815	-5,	-19,263	8,9796
26622	-6,0891	-5,	18,087	8,2626
26623	2,8551	-5,	23,816	10,127
26624	10,717	-5,	15,562	8,4484
26625	-4,2263	-5,	25,908	10,892
26626	-10,039	-5,	27,561	10,52
26627	20,609	-5,	12,008	10,03
26628	-21,934	-5,	-11,737	10,045
26629	7,209	-5,	-28,712	12,085
26630	-11,295	-5,	-12,553	8,7236
26631	17,934	-5,	-12,643	9,8297
26632	8,6568	-5,	25,62	10,343
26633	-19,268	-5,	-0,8558	14,776
26634	-12,366	-5,	-22,997	9,2973
26635	7,1163	-5,	20,081	8,8873
26636	13,596	-5,	37,633	10,402
26637	-7,9172	-5,	35,644	13,895
26638	0,32006	-5,	-1,1433	8,3196
26639	19,781	-5,	-11,488	10,388
26640	-13,694	-5,	22,767	8,985
26641	-2,045	-5,	-10,647	6,9374
26642	1,6598	-5,	27,849	11,794
26643	1,4381	-5,	13,635	6,9094
26644	10,535	-5,	-30,823	10,763
26645	1,6806	-5,	37,793	16,174
26646	0,83227	-5,	10,851	6,8318
26647	1,4746	-5,	7,1265	7,4168
26648	-11,003	-5,	36,199	11,935
26649	-17,393	-5,	15,897	8,8511
26650	-5,7643	-5,	-26,75	11,846
26651	-7,3405	-5,	-30,108	12,459
26652	-4,4391	-5,	-14,611	7,4888
26653	-14,709	-5,	16,657	8,8399
26654	27,078	-5,	-5,9854	17,648
26655	10,123	-5,	20,83	9,1231
26656	14,354	-5,	-19,52	8,8027
26657	6,1368	-5,	23,976	10,095
26658	-19,204	-5,	14,624	9,0015
26659	10,847	-5,	-19,731	9,1286
26660	6,1049	-5,	37,056	15,867
26661	-25,068	-5,	12,097	8,681
26662	7,6297	-5,	29,566	11,682
26663	6,0581	-5,	26,211	10,853
26664	6,342	-5,	17,312	8,0937
26665	3,9703	-5,	-26,42	12,079
26666	-0,886	-5,	4,6733	7,8871
26667	-20,112	-5,	12,858	9,6292
26668	-17,458	-5,	13,707	9,4055
26669	2,7634	-5,	26,061	11,022
26670	16,077	-5,	2,2609	13,111
26671	-3,0377	-5,	1,7197	8,4295
26672	9,2047	-5,	-16,511	8,5357
26673	-10,959	-5,	25,8	9,948
26674	15,644	-5,	-5,9228	11,82
26675	4,0584	-5,	9,0426	7,31
26676	14,31	-5,	1,1988	12,17
26677	-4,915	-5,	42,717	24,502
26678	-5,6278	-5,	3,6147	8,5661
26679	-8,9817	-5,	-3,6301	9,4247
26680	2,3727	-5,	7,8054	7,3405
26681	-8,1197	-5,	1,9902	9,362
26682	4,7402	-5,	5,2703	8,122
26683	-3,2312	-5,	29,624	12,439
26684	-3,8004	-5,	6,2084	7,805
26685	11,336	-5,	-14,482	8,6859
26686	6,7019	-5,	-14,904	7,8861
26687	-11,835	-5,	-2,1277	10,764
26688	-20,825	-5,	20,002	6,7374
26689	7,1332	-5,	-11,846	7,7219
26690	-20,808	-5,	-9,7825	11,518
26691	13,519	-5,	8,7147	9,9401
26692	8,2259	-5,	-0,18	9,4872
26693	6,1173	-5,	-4,1945	8,5651
26694	3,6156	-5,	-0,71982	8,5429
26695	4,7904	-5,	-32,705	15,015
26696	-5,8966	-5,	-22,329	10,07
26697	4,179	-5,	-5,2103	8,0394
26698	9,2217	-5,	32,9	12,156
26699	13,321	-5,	6,8177	10,395
26700	-5,7607	-5,	14,511	7,4838
26701	17,64	-5,	-11,117	10,4
26702	-4,1087	-5,	-1,091	8,587
26703	5,2065	-5,	-8,4182	7,6099
26704	-18,732	-5,	11,105	10,476
26705	-14,818	-5,	12,37	9,4252
26706	-12,163	-5,	13,085	8,7483
26707	26,89	-5,	10,795	9,175
26708	-9,6116	-5,	11,633	8,2179
26709	-6,1065	-5,	-9,4177	7,6512
26710	-5,4479	-5,	-33,581	14,951
26711	17,485	-5,	-15,673	8,9122
26712	-15,341	-5,	3,8875	12,273
26713	2,4105	-5,	9,9812	7,0007
26714	-19,273	-5,	7,1596	12,925
26715	-16,731	-5,	-8,969	11,071
26716	-9,5092	-5,	38,901	13,772
26717	-12,168	-5,	-13,01	8,8964
26718	12,711	-5,	22,357	9,1318
26719	14,539	-5,	-27,493	8,5561
26720	12,629	-5,	-16,315	8,8736
26721	-12,893	-5,	20,075	8,9136
26722	4,7761	-5,	32,459	13,469
26723	-16,59	-5,	-6,9132	11,887
26724	-5,7479	-5,	29,352	12,007
26725	-13,906	-5,	14,017	8,9995
26726	-9,8218	-5,	42,462	12,876
26727	-18,219	-5,	9,8282	11,014
26728	-2,8593	-5,	32,961	13,937
26729	6,123	-5,	-32,558	14,024
26730	-16,462	-5,	17,611	8,6554
26731	0,31673	-5,	18,688	8,1336
26732	6,4417	-5,	12,946	7,4726
26733	14,992	-5,	5,4888	11,585
26734	-3,6118	-5,	-16,187	7,7761
26735	-12,329	-5,	-0,56884	11,119
26736	-13,614	-5,	-3,4429	11,453
26737	12,678	-5,	-11,96	9,1244
26738	1,082	-5,	-15,049	7,3003
26739	-2,1209	-5,	19,552	8,4784
26740	11,096	-5,	1,0694	10,511
26741	-8,8996	-5,	33,855	12,619
26742	9,7118	-5,	-9,0644	8,6569
26743	1,1326	-5,	-8,1387	7,1915
26744	10,438	-5,	24,43	9,7944
26745	11,451	-5,	20,482	9,0304
26746	-1,6847	-5,	-7,9487	7,252
26747	6,4033	-5,	15,12	7,6709
26748	-7,768	-5,	-14,701	8,0422
26749	1,0555	-5,	21,149	9,0653
26750	-3,7348	-5,	16,305	7,5682
26751	-17,158	-5,	24,749	7,8456
26752	-17,624	-5,	23,89	7,6859
26753	4,6715	-5,	-10,2	7,2947
26754	-6,886	-5,	43,511	18,41
26755	-18,819	-5,	-13,285	9,5706
26756	-7,5578	-5,	-23,453	10,299
26757	2,2731	-5,	-34,277	17,762
26758	-7,6189	-5,	-21,246	9,6048
26759	-8,5636	-5,	19,727	8,8643
26760	1,4691	-5,	-10,963	6,8852
26761	-7,4916	-5,	-25,666	11,016
26762	-5,8332	-5,	-2,6504	8,7323
26763	-11,369	-5,	-26,918	9,9854
26764	-6,8373	-5,	20,877	9,1062
26765	-2,1567	-5,	-29,062	13,866
26766	-0,82432	-5,	-25,272	11,77
26767	-16,194	-5,	7,0144	11,599
26768	-1,6006	-5,	-1,5739	8,3273
26769	-12,743	-5,	24,517	9,3475
26770	-4,3076	-5,	23,672	10,048
26771	-5,736	-5,	-35,	15,248
26772	-20,088	-5,	-17,177	7,8306
26773	-14,63	-5,	21,065	8,7406
26774	3,9931	-5,	1,1043	8,5752
26775	6,5001	-5,	10,761	7,5369
26776	-8,3627	-5,	26,508	10,628
26777	7,5791	-5,	6,9102	8,382
26778	30,645	-5,	2,4649	21,207
26779	-6,3492	-5,	32,192	12,987
26780	5,4699	-5,	-15,145	7,7385
26781	-0,28942	-5,	34,41	14,596
26782	4,4786	-5,	2,8416	8,4834
26783	4,0344	-5,	-40,838	18,915
26784	-13,412	-5,	-16,91	8,9079
26785	-3,0693	-5,	-19,145	8,7861
26786	-5,1384	-5,	6,0888	8,0265
26787	-0,96453	-5,	39,17	15,977
26788	-12,81	-5,	34,921	10,599
26789	-23,469	-5,	-6,4783	16,542
26790	-1,5675	-5,	14,087	6,9712
26791	11,964	-5,	-26,001	9,6681
26792	-0,9371	-5,	50,758	18,102
26793	-9,3233	-5,	22,496	9,5048
26794	-17,422	-5,	11,54	10,125
26795	-26,007	-5,	-12,512	7,6473
26796	-6,2789	-5,	-42,463	13,227
26797	-11,204	-5,	16,878	8,6091
26798	-8,2931	-5,	-38,786	12,172
26799	12,65	-5,	-14,132	8,9195
26800	9,1945	-5,	-14,31	8,2725
26801	8,048	-5,	-1,7579	9,3635
26802	-0,90311	-5,	6,4181	7,5398
26803	-4,3152	-5,	-18,96	8,766
26804	-2,8599	-5,	-6,4523	7,634
26805	-25,034	-5,	-7,1978	15,306
26806	-9,5367	-5,	13,709	8,1433
26807	-3,6564	-5,	49,891	17,96
26808	-3,4008	-5,	-33,331	16,306
26809	4,0264	-5,	-28,602	13,169
26810	8,0919	-5,	16,21	8,1064
26811	12,085	-5,	-21,579	9,2299
26812	12,359	-5,	-27,374	9,5901
26813	10,452	-5,	-33,048	10,919
26814	-0,72741	-5,	24,291	10,337
26815	12,626	-5,	-18,537	8,945
26816	2,874	-5,	33,493	14,191
26817	20,197	-5,	5,05	15,053
26818	-10,109	-5,	-25,046	10,161
26819	-8,5207	-5,	-19,587	9,128
26820	-6,4215	-5,	-31,825	13,553
26821	-13,792	-5,	18,36	8,7993
26822	-21,77	-5,	18,248	6,7588
26823	-11,961	-5,	21,776	9,1638
26824	6,6921	-5,	35,013	14,219
26825	6,1144	-5,	32,179	13,044
26826	-11,385	-5,	37,564	11,845
26827	13,3	-5,	4,2171	11,086
26828	22,737	-5,	-8,7291	12,657
26829	-5,8957	-5,	24,846	10,402
26830	-12,671	-5,	26,795	9,6219
26831	5,2951	-5,	-47,041	11,321
26832	-5,9679	-5,	34,482	14,211
26833	-0,5675	-5,	-14,286	7,1168
26834	-0,53581	-5,	-9,3985	6,9799
26835	-3,9735	-5,	30,26	12,628
26836	11,704	-5,	11,84	8,7555
26837	9,9378	-5,	6,7422	9,113
26838	-16,451	-5,	-19,688	8,3699
26839	-14,787	-5,	-14,391	9,176
26840	6,4434	-5,	-25,907	11,352
26841	-15,244	-5,	28,237	8,7218
26842	2,593	-5,	-18,594	8,5442
26843	4,4342	-5,	10,416	7,1937
26844	-12,427	-5,	33,56	10,63
26845	-2,1468	-5,	17,24	7,7093
26846	3,023	-5,	-37,596	19,96
26847	10,902	-5,	-8,8098	9,0852
26848	-18,542	-5,	22,153	7,4495
26849	27,423	-5,	5,5682	18,444
26850	-0,30998	-5,	-21,262	9,6997
26851	-12,891	-5,	-19,945	8,9973
26852	1,1954	-5,	24,75	10,523
26853	-19,934	-5,	-6,0144	14,167
26854	-12,625	-5,	-8,3938	9,7812
26855	24,647	-5,	10,715	10,251
26856	3,2361	-5,	-23,606	10,79
26857	-6,9483	-5,	-9,9274	7,7856
26858	-7,8013	-5,	-12,582	7,8811
26859	-15,342	-5,	-4,6915	12,073
26860	19,945	-5,	19,529	7,3042
26861	-2,746	-5,	22,472	9,5994
26862	16,427	-5,	17,639	8,656
26863	3,9131	-5,	-11,767	7,1195
26864	-5,8279	-5,	-24,535	10,939
26865	-15,716	-5,	-12,734	9,5994
26866	-6,4638	-5,	19,48	8,6801
26867	18,729	-5,	15,518	8,781
26868	24,595	-5,	-6,0068	18,47
26869	25,563	-5,	8,9195	12,231
26870	-9,7194	-5,	23,891	9,783
26871	-16,967	-5,	-16,664	8,7531
26872	10,831	-5,	40,662	12,257
26873	9,7429	-5,	-28,073	10,833
26874	9,7338	-5,	19,469	8,8603
26875	7,4282	-5,	23,692	9,9353
26876	14,259	-5,	15,339	8,9157
26877	5,5144	-5,	16,747	7,8635
26878	-3,3009	-5,	-0,22387	8,5211
26879	0,30087	-5,	26,547	11,274
26880	15,756	-5,	-8,0009	11,103
26881	-4,0204	-5,	-8,5786	7,3878
26882	12,575	-5,	12,279	8,9281
26883	7,5376	-5,	-13,238	7,8519
26884	7,7692	-5,	-5,6409	8,7064
26885	4,0583	-5,	-7,8503	7,5152
26886	-10,411	-5,	-12,081	8,5282
26887	-12,099	-5,	15,192	8,6542
26888	4,1445	-5,	-19,734	9,06
26889	-15,537	-5,	19,334	8,6267
26890	3,1467	-5,	-25,838	11,909
26891	-4,8672	-5,	18,32	8,2202
26892	10,514	-5,	22,197	9,3612
26893	15,344	-5,	-11,112	9,9496
26894	23,376	-5,	8,8763	12,492
26895	-5,6122	-5,	-5,9382	8,1412
26896	-3,6553	-5,	4,5177	8,1157
26897	18,825	-5,	-15,287	8,8326
26898	10,921	-5,	-13,146	8,6105
26899	-11,346	-5,	10,574	8,8256
26900	-4,1333	-5,	-25,567	11,641
26901	-3,2859	-5,	12,844	6,9884
26902	4,4422	-5,	25,041	10,554
26903	-9,7737	-5,	-21,471	9,5139
26904	10,763	-5,	-21,916	9,4776
26905	15,368	-5,	-4,0165	12,284
26906	-10,713	-5,	19,918	8,9595
26907	12,389	-5,	18,766	8,8314
26908	9,4777	-5,	-0,301	9,8981
26909	-10,344	-5,	-16,262	8,6437
26910	-9,5849	-5,	28,437	10,843
26911	-19,517	-5,	9,3594	11,556
26912	-1,2712	-5,	21,224	9,0964
26913	-21,051	-5,	-13,349	9,2237
26914	-7,9897	-5,	-35,147	13,007
26915	13,28	-5,	-25,648	9,1391
26916	0,96323	-5,	8,6984	7,0997
26917	-14,216	-5,	-0,91469	12,145
26918	13,574	-5,	3,4391	11,403
26919	-0,55562	-5,	1,1241	8,3316
26920	10,359	-5,	26,668	10,253
26921	7,4729	-5,	-17,637	8,5754
26922	8,1401	-5,	14,029	7,8653
26923	-14,362	-5,	3,649	11,782
26924	0,67302	-5,	-4,5534	7,8793
26925	-6,9513	-5,	16,446	7,983
26926	-1,973	-5,	-17,144	7,9725
26927	0,96167	-5,	16,76	7,5256
26928	5,5336	-5,	-29,782	13,208
26929	-5,0978	-5,	33,623	13,983
26930	-6,1305	-5,	-11,53	7,5082
26931	-15,646	-5,	14,945	9,061
26932	-13,982	-5,	-11,858	9,4575
26933	-7,5926	-5,	23,698	9,9268
26934	6,3511	-5,	4,1596	8,6218
26935	4,5818	-5,	20,579	8,9348
26936	-25,354	-5,	17,913	4,131
26937	-28,542	-5,	1,8589	26,155
26938	-28,542	-5,	-1,8589	26,133
26939	28,542	-5,	-1,8589	26,099
26940	-1,9454	-5,	53,716	20,038
26941	-2,8948	-5,	53,479	18,794
26942	-1,4184	-5,	48,74	16,31
26943	-0,48215	-5,	48,971	13,702
26944	-15,425	-5,	36,354	9,4135
26945	-15,897	-5,	35,476	9,068
26946	-23,582	-5,	-3,7401	30,164
26947	-31,974	-5,	5,6191	20,026
26948	-31,501	-5,	6,4973	17,794
26949	-26,418	-5,	3,7401	36,459
26950	-28,884	-5,	-0,95726	23,407
26951	-29,	-5,	-4,8986e-016	21,596
26952	-28,884	-5,	0,95726	22,815
26953	-22,006	-5,	-2,6525	21,997
26954	-22,728	-5,	-3,2919	26,114
26955	-2,2723	-5,	48,292	22,568
26956	-27,994	-5,	2,6525	30,468
26957	-27,272	-5,	3,2919	34,271
26958	27,994	-5,	-2,6525	30,322
26959	-27,994	-5,	-2,6525	30,437
26960	6,3288	-5,	51,65	11,521
26961	-32,447	-5,	4,741	20,356
26962	-32,872	-5,	3,8495	19,979
26963	-32,872	-5,	-3,8495	19,937
26964	0,48215	-5,	-48,971	1,7693
26965	32,876	-5,	-3,8418	19,923
26966	0,48215	-5,	48,971	13,599
26967	1,4184	-5,	48,74	16,235
26968	1,4184	-5,	-48,74	5,0971
26969	-4,6029	-5,	-52,991	6,5108
26970	-3,7364	-5,	-53,399	6,3966
26971	27,994	-5,	2,6525	30,466
26972	-25,827	-5,	17,035	4,1216
26973	-26,3	-5,	16,157	4,1673
26974	23,582	-5,	-3,7401	30,169
26975	-1,4184	-5,	-41,26	32,856
26976	-0,48215	-5,	-41,029	28,801
26977	-10,223	-5,	46,014	8,2448
26978	2,994	-5,	42,348	23,328
26979	2,2723	-5,	41,708	18,354
26980	-3,5418	-5,	-43,141	34,472
26981	-20,153	-5,	27,573	6,0699
26982	7,7142	-5,	50,271	8,4172
26983	7,0553	-5,	50,994	9,8003
26984	-33,206	-5,	2,9205	20,422
26985	-33,448	-5,	1,9629	20,907
26986	-33,594	-5,	0,98628	21,243
26987	-33,642	-5,	-8,6736e-015	21,352
26988	-33,206	-5,	-2,9205	20,403
26989	-33,594	-5,	-0,98628	21,223
26990	-33,448	-5,	-1,9629	20,881
26991	32,876	-5,	3,8418	19,948
26992	33,597	-5,	0,9843	21,198
26993	27,272	-5,	-3,2919	33,993
26994	3,5418	-5,	46,859	35,036
26995	2,2723	-5,	48,292	22,405
26996	2,994	-5,	47,652	30,36
26997	2,834	-5,	-53,721	6,303
26998	3,7364	-5,	-53,399	6,395
26999	4,	-5,	-45,	28,241
27000	-6,3288	-5,	51,65	11,511
27001	-7,0553	-5,	50,994	9,7875
27002	2,8948	-5,	53,479	18,761
27003	1,9454	-5,	53,716	20,037
27004	-18,735	-5,	30,207	6,9771
27005	33,21	-5,	-2,9146	20,391
27006	33,645	-5,	7,8063e-015	21,315
27007	33,451	-5,	-1,959	20,859
27008	33,597	-5,	-0,9843	21,204
27009	-17,316	-5,	32,842	7,9974
27010	0,9774	-5,	53,86	20,837
27011	6,0715e-015	-5,	53,907	21,111
27012	-0,9774	-5,	53,86	20,818
27013	3,8165	-5,	53,15	17,166
27014	5,5418	-5,	52,231	13,402
27015	4,7017	-5,	52,733	15,334
27016	-5,5418	-5,	52,231	13,412
27017	-3,8165	-5,	53,15	17,187
27018	-4,7017	-5,	52,733	15,341
27019	-14,479	-5,	38,111	10,031
27020	-14,952	-5,	37,232	9,739
27021	-29,137	-5,	10,888	7,096
27022	22,728	-5,	-3,2919	26,055
27023	22,006	-5,	-2,6525	21,98
27024	1,9046	-5,	-53,953	6,2381
27025	-3,4694e-015	-5,	-54,14	6,1879
27026	0,95687	-5,	-54,093	6,1982
27027	-27,719	-5,	13,522	4,8366
27028	-2,994	-5,	47,652	31,568
27029	-3,8838	-5,	-44,043	31,182
27030	-27,272	-5,	-3,2919	34,012
27031	-26,418	-5,	-3,7401	35,983
27032	-0,95687	-5,	-54,093	6,2024
27033	-2,834	-5,	-53,721	6,309
27034	-1,9046	-5,	-53,953	6,245
27035	-31,029	-5,	7,3754	15,108
27036	6,9071	-5,	-51,288	7,0303
27037	-6,1959	-5,	-51,93	6,8238
27038	-5,4254	-5,	-52,5	6,6497
27039	26,418	-5,	-3,7401	36,839
27040	-24,409	-5,	19,67	4,271
27041	-24,882	-5,	18,791	4,1835
27042	21,458	-5,	-1,8589	18,005
27043	21,116	-5,	-0,95726	15,058
27044	6,1959	-5,	-51,93	6,8196
27045	4,6029	-5,	-52,991	6,5109
27046	5,4254	-5,	-52,5	6,6496
27047	8,2992	-5,	49,486	7,4599
27048	3,8838	-5,	44,043	36,843
27049	3,5418	-5,	43,141	29,895
27050	-13,533	-5,	39,867	10,444
27051	-14,006	-5,	38,989	10,274
27052	21,	-5,	-4,8986e-016	14,095
27053	-21,116	-5,	-0,95726	15,092
27054	-21,458	-5,	-1,8589	18,019
27055	0,48215	-5,	-41,029	27,534
27056	1,4184	-5,	-41,26	32,763
27057	-24,518	-5,	-3,9708	33,824
27058	-25,482	-5,	-3,9708	35,58
27059	-22,517	-5,	23,182	4,8776
27060	-2,2723	-5,	-48,292	9,464
27061	-22,006	-5,	2,6525	21,953
27062	-21,458	-5,	1,8589	18,181
27063	-7,7142	-5,	50,271	8,3752
27064	-8,2992	-5,	49,486	7,4105
27065	-21,572	-5,	24,938	5,3027
27066	-22,044	-5,	24,06	5,0811
27067	-4,	-5,	-45,	28,075
27068	-2,994	-5,	-47,652	13,907
27069	-3,5418	-5,	-46,859	18,73
27070	-3,8838	-5,	-45,957	23,626
27071	-8,8047	-5,	48,648	7,3623
27072	-9,2776	-5,	47,77	7,6555
27073	-9,7504	-5,	46,892	7,825
27074	-11,642	-5,	43,38	9,9103
27075	-23,936	-5,	20,548	4,3875
27076	-22,99	-5,	22,304	4,6931
27077	-23,463	-5,	21,426	4,5292
27078	7,5522	-5,	-50,58	7,321
27079	8,1249	-5,	-49,812	7,7511
27080	3,5418	-5,	-43,141	34,365
27081	3,8838	-5,	-44,043	30,688
27082	22,728	-5,	3,2919	26,163
27083	23,582	-5,	3,7401	30,188
27084	-25,482	-5,	3,9708	35,198
27085	-24,518	-5,	3,9708	33,861
27086	29,	-5,	2,8189e-015	21,638
27087	28,884	-5,	-0,95726	22,866
27088	-16,37	-5,	34,598	8,7123
27089	-16,843	-5,	33,72	8,3537
27090	-19,207	-5,	29,329	6,6604
27091	-19,68	-5,	28,451	6,3576
27092	-3,5418	-5,	43,141	29,717
27093	-2,2723	-5,	41,708	18,427
27094	-2,994	-5,	42,348	23,401
27095	-2,994	-5,	-42,348	35,416
27096	-2,2723	-5,	-41,708	34,516
27097	-26,773	-5,	15,279	4,2848
27098	-27,246	-5,	14,401	4,4973
27099	-12,115	-5,	42,501	10,27
27100	-12,588	-5,	41,623	10,468
27101	-13,06	-5,	40,745	10,519
27102	24,518	-5,	3,9708	33,752
27103	25,482	-5,	3,9708	35,093
27104	28,542	-5,	1,8589	26,329
27105	28,884	-5,	0,95726	22,683
27106	33,451	-5,	1,959	20,876
27107	33,21	-5,	2,9146	20,404
27108	-21,116	-5,	0,95726	15,084
27109	-21,	-5,	2,8189e-015	14,098
27110	-0,48215	-5,	-48,971	2,1229
27111	-1,4184	-5,	-48,74	5,5664
27112	2,2723	-5,	-41,708	34,209
27113	2,994	-5,	-42,348	35,215
27114	-0,48215	-5,	41,029	16,126
27115	-1,4184	-5,	41,26	16,373
27116	-10,696	-5,	45,136	8,8155
27117	-11,169	-5,	44,258	9,4071
27118	2,994	-5,	-47,652	13,781
27119	2,2723	-5,	-48,292	9,4504
27120	1,4184	-5,	41,26	16,659
27121	0,48215	-5,	41,029	16,045
27122	-17,789	-5,	31,964	7,6474
27123	-18,262	-5,	31,085	7,3067
27124	-6,9071	-5,	-51,288	7,0363
27125	-8,1249	-5,	-49,812	7,756
27126	-7,5522	-5,	-50,58	7,331
27127	-3,8838	-5,	45,957	41,66
27128	-3,5418	-5,	46,859	38,462
27129	3,8838	-5,	45,957	41,528
27130	4,	-5,	45,	40,737
27131	3,8838	-5,	-45,957	23,652
27132	3,5418	-5,	-46,859	18,79
27133	21,116	-5,	0,95726	15,219
27134	21,458	-5,	1,8589	18,055
27135	22,006	-5,	2,6525	22,116
27136	-28,192	-5,	12,644	5,3447
27137	-28,664	-5,	11,766	6,0755
27138	26,418	-5,	3,7401	36,475
27139	27,272	-5,	3,2919	34,273
27140	-29,61	-5,	10,01	8,477
27141	-30,083	-5,	9,1317	10,276
27142	-30,556	-5,	8,2536	12,516
27143	-23,582	-5,	3,7401	30,113
27144	-22,728	-5,	3,2919	26,098
27145	-20,626	-5,	26,695	5,7977
27146	-21,099	-5,	25,817	5,5418
27147	25,482	-5,	-3,9708	35,81
27148	24,518	-5,	-3,9708	33,877
27149	-3,8838	-5,	44,043	35,731
27150	-4,	-5,	45,	40,744
27151	-20,623	-3,	26,699	5,783
27152	-20,626	-2,	26,695	5,7816
27153	-20,156	-2,	27,568	6,0531
27154	-20,153	-3,	27,573	6,0546
27155	-21,096	-3,	25,821	5,526
27156	-21,099	-2,	25,817	5,5247
27157	-19,683	-2,	28,446	6,3417
27158	-19,68	-3,	28,451	6,3432
27159	-21,569	-3,	24,943	5,2857
27160	-21,572	-2,	24,938	5,2846
27161	-19,21	-2,	29,324	6,6453
27162	-19,207	-3,	29,329	6,6469
27163	-22,042	-3,	24,065	5,0627
27164	-22,044	-2,	24,06	5,0616
27165	-18,737	-2,	30,203	6,963
27166	-18,735	-3,	30,207	6,9647
27167	-22,515	-3,	23,187	4,8574
27168	-22,517	-2,	23,182	4,8564
27169	-18,264	-2,	31,081	7,2937
27170	-18,262	-3,	31,085	7,2955
27171	-22,988	-3,	22,309	4,6708
27172	-22,99	-2,	22,304	4,6699
27173	-17,791	-2,	31,959	7,6361
27174	-17,789	-3,	31,964	7,6379
27175	-23,461	-3,	21,43	4,504
27176	-23,463	-2,	21,426	4,5033
27177	-17,318	-2,	32,837	7,988
27178	-17,316	-3,	32,842	7,9899
27179	-23,933	-3,	20,552	4,3588
27180	-23,936	-2,	20,548	4,3581
27181	-16,846	-2,	33,715	8,3468
27182	-16,843	-3,	33,72	8,3487
27183	-24,406	-3,	19,674	4,2375
27184	-24,409	-2,	19,67	4,237
27185	-16,373	-2,	34,593	8,7086
27186	-16,37	-3,	34,598	8,7105
27187	-24,879	-3,	18,796	4,1439
27188	-24,882	-2,	18,791	4,1435
27189	-15,9	-2,	35,472	9,0683
27190	-15,897	-3,	35,476	9,0702
27191	-25,352	-3,	17,918	4,0833
27192	-25,354	-2,	17,913	4,0831
27193	-15,427	-2,	36,35	9,4187
27194	-15,425	-3,	36,354	9,4205
27195	-25,825	-3,	17,04	4,0637
27196	-25,827	-2,	17,035	4,0637
27197	-14,954	-2,	37,228	9,7499
27198	-14,952	-3,	37,232	9,7516
27199	-26,298	-3,	16,162	4,0965
27200	-26,3	-2,	16,157	4,0968
27201	-14,481	-2,	38,106	10,049
27202	-14,479	-3,	38,111	10,05
27203	-26,77	-3,	15,283	4,1981
27204	-26,773	-2,	15,279	4,1989
27205	-14,009	-2,	38,984	10,298
27206	-14,006	-3,	38,989	10,299
27207	-27,243	-3,	14,405	4,3924
27208	-27,246	-2,	14,401	4,3935
27209	-13,536	-2,	39,862	10,475
27210	-13,533	-3,	39,867	10,476
27211	-27,716	-3,	13,527	4,7125
27212	-27,719	-2,	13,522	4,7143
27213	-13,063	-2,	40,74	10,553
27214	-13,06	-3,	40,745	10,553
27215	-28,189	-3,	12,649	5,2042
27216	-28,192	-2,	12,644	5,2069
27217	-12,59	-2,	41,619	10,505
27218	-12,588	-3,	41,623	10,505
27219	-28,662	-3,	11,771	5,9282
27220	-28,664	-2,	11,766	5,9325
27221	-12,117	-2,	42,497	10,307
27222	-12,115	-3,	42,501	10,306
27223	-29,135	-3,	10,893	6,9586
27224	-29,137	-2,	10,888	6,9643
27225	-11,644	-2,	43,375	9,9486
27226	-11,642	-3,	43,38	9,9466
27227	-29,608	-3,	10,014	8,3797
27228	-11,171	-2,	44,253	9,451
27229	-11,169	-3,	44,258	9,4477
27230	-30,081	-3,	9,1361	10,26
27231	-30,083	-2,	9,1317	10,268
27232	-10,698	-2,	45,132	8,8775
27233	-10,696	-3,	45,136	8,875
27234	-30,556	-2,	8,2536	12,624
27235	-10,225	-2,	46,01	8,3357
27236	-10,223	-3,	46,014	8,3334
27237	-31,027	-3,	7,3791	15,342
27238	-31,029	-2,	7,3754	15,341
27239	-9,7518	-2,	46,889	7,9417
27240	-31,5	-3,	6,5001	18,077
27241	-31,501	-2,	6,4973	18,074
27242	-9,2782	-2,	47,769	7,7402
27243	-9,2776	-3,	47,77	7,7395
27244	-9,2763	-4,	47,773	7,685
27245	-9,7492	-4,	46,894	7,8643
27246	-10,222	-4,	46,016	8,2719
27247	-10,695	-4,	45,138	8,8396
27248	-11,168	-4,	44,26	9,4342
27249	-11,641	-4,	43,382	9,9456
27250	-12,113	-4,	42,504	10,309
27251	-12,586	-4,	41,626	10,508
27252	-13,059	-4,	40,747	10,556
27253	-13,532	-4,	39,869	10,476
27254	-14,005	-4,	38,991	10,298
27255	-14,478	-4,	38,113	10,05
27256	-14,95	-4,	37,235	9,7515
27257	-15,423	-4,	36,357	9,4212
27258	-15,896	-4,	35,478	9,0717
27259	-16,369	-4,	34,6	8,7129
27260	-16,842	-4,	33,722	8,3518
27261	-17,788	-4,	31,966	7,6422
27262	-18,26	-4,	31,088	7,3003
27263	-18,733	-4,	30,21	6,9698
27264	-19,206	-4,	29,331	6,6523
27265	-19,679	-4,	28,453	6,349
27266	-20,152	-4,	27,575	6,0606
27267	-20,625	-4,	26,697	5,7879
27268	-21,098	-4,	25,819	5,5314
27269	-21,57	-4,	24,941	5,2917
27270	-22,043	-4,	24,063	5,0692
27271	-22,516	-4,	23,184	4,8647
27272	-22,989	-4,	22,306	4,679
27273	-23,462	-4,	21,428	4,5134
27274	-23,935	-4,	20,55	4,3696
27275	-24,407	-4,	19,672	4,2501
27276	-24,88	-4,	18,794	4,1587
27277	-25,353	-4,	17,916	4,1009
27278	-25,826	-4,	17,037	4,0846
27279	-26,299	-4,	16,159	4,1212
27280	-26,772	-4,	15,281	4,2269
27281	-27,245	-4,	14,403	4,4249
27282	-27,717	-4,	13,525	4,7472
27283	-28,19	-4,	12,647	5,2376
27284	-28,663	-4,	11,769	5,9535
27285	-29,136	-4,	10,89	6,9692
27286	-29,609	-4,	10,012	8,3646
27287	-30,082	-4,	9,134	10,212
27288	-30,555	-4,	8,2558	12,538
27289	-31,027	-4,	7,3776	15,255
27290	-31,5	-4,	6,4993	18,04
27291	-31,973	-4,	5,6209	20,281
27292	-31,974	-3,	5,6203	20,222
27293	-31,974	-2,	5,6191	20,202
27294	-31,976	-1,	5,6168	20,269
27295	-31,503	-1,	6,495	18,045
27296	-31,03	-1,	7,3731	15,256
27297	-30,557	-1,	8,2513	12,542
27298	-30,084	-1,	9,1294	10,215
27299	-29,611	-1,	10,008	8,3681
27300	-29,138	-1,	10,886	6,9724
27301	-28,666	-1,	11,764	5,9567
27302	-28,193	-1,	12,642	5,2401
27303	-27,72	-1,	13,52	4,7486
27304	-27,247	-1,	14,398	4,4257
27305	-26,774	-1,	15,276	4,2274
27306	-26,301	-1,	16,155	4,1215
27307	-25,829	-1,	17,033	4,0847
27308	-25,356	-1,	17,911	4,1008
27309	-24,883	-1,	18,789	4,1583
27310	-24,41	-1,	19,667	4,2496
27311	-23,937	-1,	20,545	4,3689
27312	-23,464	-1,	21,423	4,5126
27313	-22,991	-1,	22,302	4,6782
27314	-22,519	-1,	23,18	4,8637
27315	-22,046	-1,	24,058	5,0681
27316	-21,573	-1,	24,936	5,2905
27317	-21,1	-1,	25,814	5,5302
27318	-20,627	-1,	26,692	5,7866
27319	-20,154	-1,	27,571	6,0592
27320	-19,681	-1,	28,449	6,3475
27321	-19,209	-1,	29,327	6,6507
27322	-18,736	-1,	30,205	6,9681
27323	-18,263	-1,	31,083	7,2985
27324	-17,79	-1,	31,961	7,6404
27325	-17,317	-1,	32,839	7,9918
27326	-16,844	-1,	33,718	8,3499
27327	-16,372	-1,	34,596	8,711
27328	-15,899	-1,	35,474	9,0698
27329	-15,426	-1,	36,352	9,4193
27330	-14,953	-1,	37,23	9,7498
27331	-14,48	-1,	38,108	10,048
27332	-14,007	-1,	38,986	10,297
27333	-13,534	-1,	39,865	10,475
27334	-13,062	-1,	40,743	10,555
27335	-12,589	-1,	41,621	10,509
27336	-12,116	-1,	42,499	10,311
27337	-11,643	-1,	43,377	9,9492
27338	-11,17	-1,	44,255	9,439
27339	-10,697	-1,	45,134	8,8425
27340	-10,224	-1,	46,012	8,2737
27341	-9,7513	-1,	46,89	7,8657
27342	-9,2782	-1,	47,769	7,6876
27343	-17,315	-4,	32,844	7,9936
27344	-9,7504	-3,	46,892	7,9413
27345	-29,61	-2,	10,01	8,3873
27346	-30,554	-3,	8,2577	12,618
27347	-32,447	-2,	4,741	20,335
27348	-32,447	-3,	4,741	20,379
27349	-8,8047	-3,	48,648	7,3872
27350	-8,8047	-2,	48,648	7,3938
27351	-32,447	-1,	4,741	20,402
27352	-8,8047	-1,	48,648	7,3337
27353	-32,447	-4,	4,741	20,446
27354	-8,8047	-4,	48,648	7,3263
27355	-33,642	-3,	4,0077e-003	20,955
27356	-33,594	-1,9999	0,98306	20,857
27357	-33,593	-2,9999	0,99043	20,85
27358	-33,594	-3,	-0,98242	20,845
27359	-33,593	-2,	-0,98985	20,834
27360	-33,448	-1,9998	1,9601	20,559
27361	-33,447	-2,9998	1,9671	20,55
27362	-33,449	-3,0001	-1,9593	20,534
27363	-33,447	-2,0001	-1,9664	20,529
27364	-33,207	-1,9993	2,9181	20,125
27365	-33,205	-2,9995	2,9242	20,137
27366	-33,207	-3,0005	-2,9173	20,111
27367	-33,206	-2,0004	-2,9237	20,108
27368	-32,872	-1,9988	3,8483	19,786
27369	-32,871	-2,9987	3,8513	19,784
27370	-32,867	-4,	3,8601	19,821
27371	-33,203	-4,	2,9314	20,201
27372	-33,446	-4,	1,9742	20,687
27373	-33,593	-4,	0,99766	21,009
27374	-33,642	-3,9999	1,1413e-002	21,12
27375	-33,45	-3,9999	-1,9524	20,664
27376	-33,209	-3,9999	-2,9106	20,199
27377	-32,875	-4,0001	-3,8411	19,789
27378	-32,872	-3,0013	-3,8479	19,766
27379	-32,871	-2,0014	-3,8511	19,767
27380	-32,867	-1,0001	-3,86	19,777
27381	-33,203	-1,	-2,9314	20,186
27382	-33,446	-1,	-1,9741	20,664
27383	-33,593	-1,	-0,99754	20,992
27384	-33,642	-1,	-1,1245e-002	21,131
27385	-33,45	-1,	1,9529	20,703
27386	-33,209	-0,99998	2,9117	20,206
27387	-32,874	-0,99988	3,8436	19,801
27388	-33,642	-2,	-3,3812e-003	20,962
27389	-33,595	-1,0001	0,97538	21,029
27390	-33,595	-3,9999	-0,97509	21,01
27391	7,0396e-003	-3,	53,907	20,695
27392	-6,4853e-003	-1,9999	53,907	20,703
27393	0,97067	-1,9999	53,86	20,42
27394	0,98426	-3,	53,859	20,426
27395	-0,97015	-3,	53,86	20,417
27396	-0,98351	-1,9999	53,859	20,425
27397	1,9386	-1,9999	53,718	19,67
27398	1,9519	-3,0001	53,715	19,655
27399	-1,938	-3,	53,718	19,673
27400	-1,9511	-1,9999	53,715	19,65
27401	2,888	-2,	53,481	18,433
27402	-2,8874	-3,	53,481	18,439
27403	-2,9001	-1,9999	53,478	18,425
27404	3,8097	-2,	53,153	16,885
27405	3,8221	-3,0001	53,148	16,861
27406	-3,8092	-3,	53,153	16,902
27407	-3,8214	-2,	53,148	16,874
27408	4,695	-2,	52,737	15,099
27409	4,7066	-3,	52,731	15,074
27410	-4,6947	-3,	52,737	15,101
27411	-4,7063	-2,	52,731	15,074
27412	5,5356	-1,9999	52,235	13,227
27413	5,5464	-3,	52,228	13,202
27414	-5,5354	-3,0001	52,236	13,215
27415	-5,5463	-2,0001	52,228	13,204
27416	6,3235	-1,9998	51,654	11,361
27417	6,3333	-2,9998	51,646	11,356
27418	-6,3231	-3,0001	51,655	11,367
27419	-6,3332	-2,0001	51,646	11,335
27420	7,0509	-1,9996	50,999	9,6857
27421	-7,0503	-3,0003	50,999	9,6727
27422	-7,0594	-2,0003	50,99	9,6734
27423	7,711	-1,9988	50,275	8,3065
27424	7,7182	-2,9991	50,266	8,3099
27425	-7,7102	-3,001	50,275	8,3182
27426	-7,7178	-2,0008	50,266	8,31
27427	8,2979	-1,9979	49,488	7,4114
27428	8,301	-2,9976	49,484	7,4152
27429	8,3105	-4,	49,469	7,3509
27430	7,7272	-3,9999	50,255	8,2905
27431	7,0697	-4,	50,98	9,6698
27432	6,3446	-4,0001	51,637	11,375
27433	5,5588	-4,0001	52,22	13,252
27434	4,7197	-4,0001	52,724	15,15
27435	3,8354	-4,0001	53,143	16,983
27436	2,9144	-4,0001	53,473	18,556
27437	1,9655	-4,0001	53,712	19,818
27438	0,99775	-4,0001	53,857	20,618
27439	2,0411e-002	-4,0001	53,907	20,91
27440	-0,95708	-4,0001	53,861	20,623
27441	-1,9254	-4,0001	53,72	19,855
27442	-2,8753	-4,0001	53,485	18,634
27443	-3,7977	-4,0001	53,158	17,057
27444	-4,6838	-4,	52,743	15,235
27445	-5,5251	-4,	52,242	13,317
27446	-6,3136	-4,0001	51,662	11,439
27447	-7,0417	-4,0001	51,008	9,7298
27448	-7,7027	-4,	50,285	8,3052
27449	-8,2903	-4,0001	49,499	7,3647
27450	-8,2974	-3,0023	49,489	7,4101
27451	-8,3008	-2,0024	49,484	7,4081
27452	-8,3106	-1,	49,469	7,3664
27453	-7,7271	-1,	50,255	8,2706
27454	-7,0697	-1,	50,98	9,6826
27455	-6,3447	-0,99999	51,637	11,364
27456	-5,5588	-0,99993	52,22	13,247
27457	-4,7198	-0,99993	52,723	15,158
27458	-3,8355	-0,9999	53,143	16,978
27459	-2,9145	-0,99987	53,473	18,578
27460	-1,9656	-0,99987	53,712	19,817
27461	-0,99783	-0,99988	53,857	20,628
27462	-2,0558e-002	-0,99988	53,907	20,898
27463	0,95699	-0,99989	53,861	20,638
27464	1,9253	-0,99989	53,72	19,856
27465	2,8753	-0,99991	53,485	18,621
27466	3,7977	-0,99994	53,158	17,046
27467	4,6838	-1,	52,743	15,229
27468	5,5252	-1,	52,242	13,322
27469	7,0425	-1,0001	51,007	9,7157
27470	7,7042	-1,0001	50,283	8,3275
27471	8,2931	-1,	49,495	7,3477
27472	2,9006	-3,0001	53,477	18,413
27473	7,0596	-2,9996	50,99	9,6651
27474	6,3139	-1,	51,662	11,442
27475	33,645	-3,	-4,7724e-003	20,913
27476	33,645	-2,	3,9118e-003	20,934
27477	33,597	-1,9998	-0,98082	20,806
27478	33,596	-2,9999	-0,98931	20,804
27479	33,597	-3,0001	0,97972	20,866
27480	33,596	-2,0001	0,98835	20,815
27481	33,452	-1,9997	-1,956	20,501
27482	33,45	-2,9997	-1,964	20,515
27483	33,452	-3,0002	1,9547	20,515
27484	33,45	-2,0002	1,9631	20,515
27485	33,211	-1,9992	-2,9122	20,098
27486	33,209	-2,9995	-2,9192	20,089
27487	33,211	-3,0006	2,9109	20,104
27488	33,209	-2,0005	2,9184	20,098
27489	32,877	-1,9987	-3,8406	19,767
27490	32,875	-2,9985	-3,8441	19,758
27491	32,871	-4,	-3,8543	19,78
27492	33,206	-4,	-2,9275	20,163
27493	33,448	-4,	-1,9722	20,65
27494	33,595	-4,	-0,99764	20,964
27495	33,645	-4,	-1,326e-002	21,1
27496	33,214	-4,	2,9032	20,2
27497	32,88	-4,0001	3,832	19,801
27498	32,877	-3,0015	3,8399	19,783
27499	32,875	-2,0016	3,8436	19,774
27500	32,871	-1,	3,8543	19,8
27501	33,206	-1,	2,9275	20,183
27502	33,448	-1,	1,9721	20,635
27503	33,595	-1,	0,9975	20,98
27504	33,645	-1,	1,2987e-002	21,104
27505	33,213	-1,0001	-2,905	20,182
27506	32,879	-1,	-3,8356	19,792
27507	33,598	-0,99995	-0,97188	20,974
27508	33,453	-0,99995	-1,9476	20,645
27509	33,598	-4,0001	0,97136	21,031
27510	33,453	-4,0001	1,9467	20,645
27511	-1,3346e-002	-3,0001	-54,14	6,0448
27512	-8,9127e-004	-1,9982	-54,14	6,0431
27513	-0,94737	-1,9992	-54,094	6,0559
27514	-0,95902	-3,0015	-54,093	6,0567
27515	0,93764	-2,9983	-54,095	6,0555
27516	0,94942	-1,9973	-54,094	6,0601
27517	-1,8884	-2,0011	-53,956	6,0953
27518	-1,8995	-3,0033	-53,954	6,0998
27519	1,8802	-2,9983	-53,958	6,0974
27520	1,8914	-1,9947	-53,956	6,0965
27521	-2,8116	-2,0018	-53,728	6,1565
27522	-2,8226	-3,0058	-53,725	6,1581
27523	2,8074	-2,9976	-53,729	6,1597
27524	2,8184	-1,9947	-53,726	6,1618
27525	-3,7119	-2,0025	-53,409	6,2445
27526	-3,7225	-3,0058	-53,405	6,2453
27527	3,7097	-2,9974	-53,41	6,2461
27528	3,7203	-1,9946	-53,406	6,2478
27529	-4,5785	-2,0026	-53,004	6,3517
27530	-4,5885	-3,0057	-52,998	6,3555
27531	4,5774	-2,9974	-53,004	6,353
27532	4,5875	-1,9947	-52,999	6,3581
27533	-5,4025	-2,0025	-52,515	6,4859
27534	-5,4116	-3,0053	-52,509	6,4852
27535	5,4018	-2,9976	-52,515	6,4866
27536	5,4111	-1,9949	-52,509	6,483
27537	-6,1757	-2,0019	-51,947	6,6415
27538	-6,1836	-3,0042	-51,94	6,6468
27539	6,1748	-2,9978	-51,947	6,6428
27540	6,1832	-1,9955	-51,941	6,6511
27541	-6,8907	-2,0012	-51,305	6,8478
27542	-6,8972	-3,0025	-51,298	6,856
27543	6,8893	-2,9984	-51,306	6,8544
27544	6,8966	-1,9966	-51,299	6,8483
27545	-7,5407	-2,0003	-50,594	7,1554
27546	-7,5455	-3,0014	-50,588	7,1605
27547	7,539	-2,9993	-50,596	7,1527
27548	7,5448	-1,9988	-50,589	7,1583
27549	-8,1194	-1,9991	-49,82	7,6256
27550	-8,1216	-3,0006	-49,817	7,6412
27551	-8,1223	-4,0046	-49,816	7,6463
27552	-7,548	-4,0033	-50,585	7,1989
27553	-6,9024	-4,0048	-51,293	6,9151
27554	-6,1911	-4,0077	-51,934	6,7099
27555	-5,4204	-4,009	-52,503	6,5473
27556	-4,5976	-4,0088	-52,994	6,4148
27557	-3,7307	-4,0086	-53,402	6,3033
27558	-2,8282	-4,0085	-53,723	6,2156
27559	-1,8985	-4,0082	-53,954	6,1535
27560	-0,97346	-4,0032	-54,092	6,1112
27561	-1,7941e-002	-4,0047	-54,14	6,0961
27562	0,91604	-4,	-54,097	6,1053
27563	1,8644	-4,	-53,961	6,147
27564	2,7948	-4,	-53,733	6,2116
27565	3,6986	-4,	-53,415	6,2976
27566	4,567	-4,0001	-53,01	6,4147
27567	6,8799	-3,9999	-51,315	6,9017
27568	7,5293	-3,9999	-50,608	7,1836
27569	8,1074	-3,9999	-49,838	7,6204
27570	8,1186	-3,0016	-49,821	7,6293
27571	8,1212	-2,0008	-49,817	7,635
27572	8,1222	-1,0003	-49,816	7,644
27573	7,5479	-0,9957	-50,585	7,1945
27574	6,9024	-0,99349	-51,293	6,9017
27575	6,1909	-0,99215	-51,934	6,7075
27576	5,4201	-0,99192	-52,503	6,5471
27577	4,5974	-0,99167	-52,994	6,4191
27578	3,7306	-0,99171	-53,402	6,3065
27579	2,828	-0,99187	-53,723	6,2168
27580	1,8983	-0,99225	-53,955	6,1538
27581	0,95032	-0,9934	-54,094	6,1116
27582	1,657e-002	-0,99685	-54,14	6,0943
27583	-0,9391	-0,99443	-54,095	6,1073
27584	-1,8645	-1,	-53,961	6,1461
27585	-2,795	-1,	-53,733	6,2102
27586	-3,6988	-0,99997	-53,415	6,2965
27587	-4,5674	-0,99994	-53,01	6,4098
27588	-5,3924	-1,	-52,521	6,5383
27589	-6,8819	-1,	-51,313	6,8957
27590	-7,5327	-1,0001	-50,604	7,1742
27591	-8,1133	-1,0002	-49,829	7,6268
27592	-6,1663	-1,	-51,954	6,6959
27593	5,3917	-4,0001	-52,522	6,5481
27594	6,1652	-4,	-51,955	6,6997
27595	-28,884	-2,9985	0,95632	20,954
27596	-28,542	-2,999	1,8579	24,967
27597	-29,	-2,9982	-7,3592e-004	19,38
27598	-27,995	-2,9996	2,6516	29,827
27599	-28,884	-2,9983	-0,95779	20,898
27600	-27,273	-3,0001	3,2912	33,356
27601	-28,542	-2,9987	-1,8592	24,83
27602	-26,42	-3,0009	3,7396	36,474
27603	-27,994	-2,9992	-2,6527	29,834
27604	-25,483	-3,0018	3,9707	36,073
27605	-27,272	-2,9998	-3,2921	34,445
27606	-24,519	-3,0024	3,971	34,169
27607	-26,418	-3,0003	-3,7402	37,236
27608	-23,583	-3,003	3,7405	30,507
27609	-25,482	-3,0009	-3,9709	37,139
27610	-22,729	-3,0033	3,2927	26,411
27611	-24,518	-3,0014	-3,9708	34,152
27612	-22,007	-3,0037	2,6534	22,068
27613	-23,581	-3,002	-3,74	30,518
27614	-21,459	-3,0042	1,8599	18,033
27615	-22,727	-3,0025	-3,2917	26,341
27616	-21,116	-3,0046	0,95831	15,166
27617	-22,006	-3,0031	-2,6522	22,047
27618	-21,458	-3,0036	-1,8585	17,958
27619	-21,116	-3,0041	-0,95663	15,138
27620	-21,	-3,0046	8,2138e-004	14,048
27621	-21,117	-2,0048	-0,95866	15,136
27622	-21,	-2,005	-1,1323e-003	14,052
27623	-21,459	-2,0043	-1,8603	17,854
27624	-21,116	-2,0049	0,9563	15,168
27625	-22,007	-2,0037	-2,6538	22,185
27626	-21,458	-2,0045	1,8583	18,009
27627	-22,729	-2,0032	-3,293	26,334
27628	-22,005	-2,0041	2,6519	22,19
27629	-23,583	-2,0026	-3,7407	30,495
27630	-22,727	-2,0035	3,2916	26,397
27631	-24,52	-2,0021	-3,9711	34,12
27632	-23,581	-2,003	3,7398	30,475
27633	-25,484	-2,0015	-3,9706	36,707
27634	-24,517	-2,0025	3,9708	34,216
27635	-26,42	-2,001	-3,7394	36,697
27636	-25,481	-2,0018	3,9709	36,207
27637	-27,274	-2,0004	-3,2909	33,602
27638	-26,418	-2,0012	3,7403	37,632
27639	-27,995	-1,9999	-2,6511	29,818
27640	-27,272	-2,0005	3,2924	34,03
27641	-28,543	-1,9994	-1,8573	24,898
27642	-27,993	-1,9998	2,6531	29,768
27643	-29,	-1,9988	1,3694e-003	19,429
27644	-28,884	-1,9989	-0,95568	20,878
27645	-28,541	-1,9992	1,8597	25,023
27646	-28,883	-1,9989	0,95837	20,985
27647	-28,883	-0,99898	0,95958	21,516
27648	-29,	-0,99896	3,0904e-003	19,903
27649	-28,885	-0,99951	-0,95351	21,347
27650	-28,543	-1,0001	-1,8557	25,193
27651	-27,997	-1,0006	-2,6496	29,947
27652	-27,276	-1,0011	-3,2896	34,269
27653	-26,422	-1,0017	-3,7387	35,763
27654	-25,486	-1,0022	-3,9704	36,809
27655	-24,522	-1,0028	-3,9713	34,12
27656	-23,585	-1,0033	-3,7414	30,434
27657	-22,731	-1,0039	-3,294	26,257
27658	-22,008	-1,0044	-2,6553	22,24
27659	-21,46	-1,005	-1,8621	17,991
27660	-21,117	-1,0055	-0,96089	15,172
27661	-21,	-1,006	-3,4656e-003	14,117
27662	-21,116	-1,0055	0,95512	15,193
27663	-21,457	-1,0049	1,8565	18,073
27664	-22,004	-1,0043	2,6508	22,241
27665	-22,725	-1,0037	3,29	26,269
27666	-23,58	-1,0031	3,7394	30,441
27667	-24,515	-1,0025	3,9704	34,235
27668	-25,48	-1,0019	3,9711	36,202
27669	-26,416	-1,0014	3,7409	37,386
27670	-27,27	-1,0008	3,2937	34,525
27671	-27,992	-1,0002	2,6548	30,097
27672	-28,541	-0,9996	1,8609	25,401
27673	-25,485	-4,0019	3,9704	36,348
27674	-24,522	-4,0025	3,9713	34,161
27675	-23,585	-4,0031	3,7414	30,423
27676	-22,73	-4,0028	3,2938	26,346
27677	-22,008	-4,0034	2,6549	22,164
27678	-21,46	-4,004	1,8619	18,052
27679	-21,117	-4,0046	0,96083	15,19
27680	-21,	-4,0041	3,324e-003	14,125
27681	-21,116	-4,0035	-0,95495	15,187
27682	-21,457	-4,003	-1,8565	17,977
27683	-22,004	-4,0024	-2,6505	22,174
27684	-22,726	-4,0019	-3,2904	26,195
27685	-23,579	-4,0013	-3,7391	30,443
27686	-24,515	-4,0008	-3,9705	34,051
27687	-25,48	-4,0002	-3,9712	36,775
27688	-26,416	-3,9997	-3,741	37,031
27689	-27,27	-3,9991	-3,2934	34,135
27690	-27,992	-3,9985	-2,6545	30,046
27691	-28,541	-3,998	-1,8612	25,042
27692	-28,883	-3,9974	-0,95967	21,736
27693	-29,	-3,9975	-3,1051e-003	19,959
27694	-28,885	-3,998	0,95366	21,313
27695	-28,543	-3,9986	1,8558	25,193
27696	-27,996	-3,9992	2,6498	30,088
27697	-27,275	-3,9998	3,2901	34,476
27698	-26,422	-4,0004	3,7385	36,93
27699	21,116	-2,9985	0,95629	15,221
27700	21,458	-2,999	1,8578	18,401
27701	21,	-2,9982	-7,4771e-004	14,029
27702	22,005	-2,9995	2,6515	22,291
27703	21,116	-2,9983	-0,9578	15,138
27704	22,727	-3,0002	3,2912	26,421
27705	21,458	-2,9987	-1,8592	17,953
27706	23,58	-3,0009	3,7396	30,464
27707	22,006	-2,9992	-2,6527	22,178
27708	24,517	-3,0017	3,9707	34,177
27709	22,728	-2,9997	-3,292	26,337
27710	25,481	-3,0025	3,971	35,981
27711	23,582	-3,0003	-3,7401	30,436
27712	26,417	-3,003	3,7405	35,943
27713	24,518	-3,0009	-3,9708	34,19
27714	27,271	-3,0033	3,2928	34,366
27715	25,482	-3,0014	-3,9708	36,272
27716	27,993	-3,0037	2,6534	30,045
27717	26,419	-3,002	-3,74	36,826
27718	28,541	-3,0043	1,86	25,142
27719	27,272	-3,0024	-3,2918	34,046
27720	28,884	-3,0045	0,9583	21,041
27721	27,994	-3,0031	-2,6522	29,6
27722	28,542	-3,0036	-1,8586	24,757
27723	28,884	-3,0041	-0,95662	21,244
27724	29,	-3,0046	8,2116e-004	19,66
27725	28,883	-2,0048	-0,95867	20,809
27726	29,	-2,005	-1,1317e-003	19,452
27727	28,541	-2,0043	-1,8603	24,572
27728	28,884	-2,0049	0,95632	20,86
27729	27,993	-2,0037	-2,6538	29,722
27730	28,542	-2,0045	1,8583	25,106
27731	27,271	-2,0032	-3,2929	33,726
27732	27,995	-2,0041	2,6519	29,985
27733	26,417	-2,0027	-3,7407	36,498
27734	27,273	-2,0035	3,2916	34,241
27735	25,48	-2,0021	-3,9711	36,307
27736	26,419	-2,003	3,7398	35,928
27737	24,516	-2,0015	-3,9706	34,197
27738	25,483	-2,0025	3,9708	36,537
27739	23,58	-2,0009	-3,7394	30,461
27740	24,519	-2,0018	3,9709	34,136
27741	22,726	-2,0004	-3,2909	26,328
27742	23,582	-2,0011	3,7403	30,488
27743	22,005	-1,9999	-2,6511	22,132
27744	22,728	-2,0005	3,2923	26,404
27745	21,457	-1,9994	-1,8573	17,958
27746	22,006	-1,9999	2,653	22,299
27747	21,	-1,9988	1,3548e-003	14,03
27748	21,116	-1,9989	-0,95568	15,14
27749	21,459	-1,9993	1,8596	18,405
27750	21,117	-1,9988	0,95836	15,226
27751	21,117	-0,99898	0,95953	15,313
27752	21,	-0,99896	3,0966e-003	14,084
27753	21,115	-0,9995	-0,95351	15,17
27754	21,457	-1,	-1,8557	17,984
27755	22,003	-1,0006	-2,6496	22,152
27756	22,724	-1,0011	-3,2896	26,188
27757	23,578	-1,0017	-3,7387	30,411
27758	24,514	-1,0022	-3,9704	34,268
27759	25,479	-1,0028	-3,9713	36,386
27760	26,415	-1,0033	-3,7414	36,628
27761	27,269	-1,0039	-3,294	34,235
27762	27,992	-1,0044	-2,6553	29,878
27763	28,54	-1,0049	-1,8621	25,032
27764	28,883	-1,0055	-0,96089	21,078
27765	29,	-1,006	-3,467e-003	19,88
27766	28,884	-1,0054	0,95513	21,526
27767	28,543	-1,0049	1,8565	25,357
27768	27,996	-1,0043	2,6508	30,016
27769	27,275	-1,0037	3,29	34,545
27770	26,42	-1,0031	3,7393	36,522
27771	25,485	-1,0025	3,9705	36,807
27772	24,52	-1,0019	3,9712	34,132
27773	23,584	-1,0013	3,7409	30,43
27774	22,73	-1,0008	3,2934	26,342
27775	22,008	-1,0002	2,6544	22,26
27776	21,459	-0,9996	1,8611	18,466
27777	24,514	-4,0019	3,9704	34,134
27778	25,479	-4,0025	3,9713	36,234
27779	26,415	-4,0031	3,7414	36,838
27780	27,27	-4,0028	3,2936	34,589
27781	27,991	-4,0034	2,6554	30,295
27782	28,54	-4,004	1,8617	25,385
27783	28,883	-4,0046	0,96089	21,41
27784	29,	-4,0041	3,3248e-003	20,001
27785	28,884	-4,0035	-0,95501	21,388
27786	28,543	-4,003	-1,8563	25,214
27787	27,995	-4,0024	-2,6511	30,062
27788	27,275	-4,0019	-3,2903	34,21
27789	26,421	-4,0013	-3,7391	37,168
27790	25,484	-4,0008	-3,9706	36,221
27791	24,52	-4,0002	-3,9711	34,101
27792	23,583	-3,9996	-3,7408	30,393
27793	22,73	-3,9991	-3,2936	26,207
27794	22,008	-3,9985	-2,6544	22,158
27795	21,459	-3,998	-1,8612	18,
27796	21,117	-3,9974	-0,95968	15,18
27797	21,	-3,9975	-3,099e-003	14,085
27798	21,115	-3,998	0,95366	15,304
27799	21,457	-3,9986	1,8558	18,449
27800	22,004	-3,9992	2,6498	22,241
27801	22,725	-3,9998	3,2899	26,349
27802	23,578	-4,0004	3,7388	30,411
27803	-3,8841	-2,9985	45,956	43,429
27804	-3,5424	-2,9989	46,858	39,789
27805	-4,	-2,9985	44,999	41,808
27806	-2,9949	-2,9996	47,651	30,986
27807	-3,8836	-2,9987	44,042	37,141
27808	-2,2734	-3,0001	48,291	22,056
27809	-3,5417	-2,9991	43,141	30,226
27810	-1,4197	-3,0003	48,74	14,423
27811	-2,9938	-2,9997	42,347	23,249
27812	-0,48343	-3,0003	48,971	11,479
27813	-2,272	-3,0003	41,708	18,372
27814	0,48087	-3,0005	48,971	11,305
27815	-1,4181	-3,0008	41,26	16,832
27816	1,4171	-3,0009	48,741	14,423
27817	-0,48192	-3,0013	41,029	17,119
27818	2,2712	-3,0014	48,293	22,323
27819	0,48237	-3,0018	41,029	17,155
27820	2,9932	-3,002	47,653	30,103
27821	1,4186	-3,0024	41,26	16,838
27822	3,5412	-3,0025	46,86	38,427
27823	2,2724	-3,0026	41,708	18,365
27824	3,8835	-3,003	45,958	43,078
27825	2,9943	-3,0028	42,348	23,238
27826	3,542	-3,003	43,141	30,483
27827	3,8839	-3,0032	44,043	37,446
27828	4,	-3,0034	45,001	42,217
27829	3,8834	-2,0037	44,041	37,129
27830	4,	-2,0033	44,999	42,224
27831	3,541	-2,0036	43,14	30,407
27832	3,8841	-2,0031	45,956	43,03
27833	2,9929	-2,0033	42,346	23,262
27834	3,5422	-2,0027	46,858	39,043
27835	2,2707	-2,0031	41,707	18,4
27836	2,9946	-2,0023	47,652	30,677
27837	1,4167	-2,0026	41,259	16,839
27838	2,2729	-2,0019	48,292	21,571
27839	0,48048	-2,0022	41,029	17,141
27840	1,4191	-2,0013	48,74	14,64
27841	-0,48378	-2,0016	41,029	17,168
27842	0,48302	-2,0009	48,971	11,332
27843	-1,4198	-2,0011	41,26	16,844
27844	-0,48129	-2,0009	48,971	11,444
27845	-2,2736	-2,0005	41,709	18,392
27846	-1,4177	-2,0008	48,74	14,568
27847	-2,995	-2,	42,349	23,212
27848	-2,2717	-2,0004	48,292	21,263
27849	-3,5426	-1,9994	43,143	30,41
27850	-2,9936	-1,9998	47,653	31,413
27851	-4,	-1,9987	45,001	42,376
27852	-3,8841	-1,9989	44,044	37,097
27853	-3,5415	-1,9992	46,86	39,414
27854	-3,8835	-1,9987	45,958	43,015
27855	-3,8832	-0,99865	45,96	43,527
27856	-4,	-0,99863	45,003	42,562
27857	-3,8848	-0,99918	44,047	37,375
27858	-3,5431	-0,99972	43,143	30,182
27859	-2,9967	-1,0003	42,351	23,232
27860	-2,2746	-1,0008	41,71	18,322
27861	-1,4215	-1,0014	41,261	16,857
27862	-0,48514	-1,0019	41,03	16,865
27863	0,47822	-1,0025	41,029	16,882
27864	1,4151	-1,003	41,259	16,711
27865	2,2693	-1,0036	41,706	18,347
27866	2,9915	-1,0041	42,345	23,247
27867	3,5404	-1,0038	43,138	30,374
27868	3,8827	-1,0044	44,039	37,019
27869	4,	-1,0038	44,996	42,353
27870	3,8842	-1,0032	45,955	43,363
27871	3,5434	-1,0026	46,856	38,367
27872	2,9954	-1,0028	47,651	31,316
27873	2,2742	-1,0023	48,291	22,144
27874	1,4213	-1,0017	48,739	15,352
27875	0,48513	-1,0011	48,97	12,446
27876	-0,47943	-1,0016	48,971	12,409
27877	-1,416	-1,0014	48,741	15,377
27878	-2,2698	-1,0008	48,294	22,085
27879	-2,9925	-1,0002	47,654	31,913
27880	-3,5407	-0,9996	46,861	39,367
27881	-0,48569	-3,9993	48,97	12,451
27882	0,47858	-3,9999	48,971	12,357
27883	1,4152	-4,0005	48,741	15,158
27884	2,2688	-4,0011	48,294	22,373
27885	2,9914	-4,0017	47,656	30,493
27886	3,5402	-4,0023	46,862	38,588
27887	3,8828	-4,0029	45,961	42,966
27888	4,	-4,0035	45,003	42,273
27889	3,8844	-4,0029	44,045	37,165
27890	3,5431	-4,0024	43,144	30,274
27891	2,9954	-4,0021	42,349	23,204
27892	2,2746	-4,0024	41,71	18,346
27893	1,4206	-4,0021	41,261	16,801
27894	0,48401	-4,0016	41,029	16,89
27895	-0,47927	-4,001	41,029	16,901
27896	-1,4161	-4,0005	41,259	16,7
27897	-2,2699	-3,9999	41,706	18,368
27898	-2,9928	-3,9994	42,346	23,252
27899	-3,5405	-3,9988	43,139	30,169
27900	-3,8832	-3,9983	44,041	36,902
27901	-4,	-3,9983	44,997	41,811
27902	-3,8845	-3,998	45,954	43,514
27903	-3,5437	-3,9986	46,855	39,615
27904	-2,9969	-3,9992	47,649	32,2
27905	-2,2751	-3,9998	48,29	22,379
27906	-1,4217	-4,0004	48,739	15,257
27907	-3,884	-2,9986	-44,044	29,331
27908	-3,5424	-2,9989	-43,142	30,718
27909	-4,	-2,9984	-45,001	26,667
27910	-2,995	-2,9996	-42,349	29,684
27911	-3,8836	-2,9987	-45,958	22,639
27912	-2,2734	-3,0001	-41,709	25,887
27913	-3,5417	-2,9992	-46,859	18,05
27914	-1,4197	-3,0003	-41,26	20,558
27915	-2,9938	-2,9996	-47,653	13,477
27916	-0,48344	-3,0003	-41,029	16,003
27917	-2,2721	-3,0003	-48,292	9,2125
27918	0,48075	-3,0004	-41,029	16,138
27919	-1,4181	-3,0008	-48,74	5,3786
27920	1,4171	-3,0009	-41,259	20,619
27921	-0,48194	-3,0013	-48,971	2,0212
27922	2,271	-3,0015	-41,707	25,838
27923	0,48237	-3,0018	-48,971	2,1402
27924	2,9931	-3,002	-42,346	29,576
27925	1,4186	-3,0024	-48,74	5,4783
27926	3,5412	-3,0024	-43,14	30,915
27927	2,2725	-3,0027	-48,292	9,2414
27928	3,8835	-3,003	-44,042	29,55
27929	2,9943	-3,0027	-47,652	13,483
27930	3,5421	-3,0029	-46,858	18,034
27931	3,884	-3,0032	-45,956	22,576
27932	4,	-3,0034	-44,999	26,385
27933	3,8835	-2,0036	-45,958	22,6
27934	4,	-2,0034	-45,001	26,672
27935	3,5411	-2,0035	-46,86	17,88
27936	3,884	-2,0031	-44,044	29,739
27937	2,9929	-2,0033	-47,654	13,163
27938	3,5422	-2,0027	-43,142	31,068
27939	2,2708	-2,0031	-48,293	9,0631
27940	2,9946	-2,0023	-42,348	29,626
27941	1,4167	-2,0026	-48,741	5,355
27942	2,2727	-2,0019	-41,708	25,861
27943	0,48037	-2,0021	-48,971	2,0716
27944	1,4191	-2,0013	-41,26	20,63
27945	-0,48378	-2,0016	-48,971	2,0281
27946	0,48289	-2,001	-41,029	16,139
27947	-1,4199	-2,0011	-48,739	5,3102
27948	-0,48132	-2,0009	-41,029	15,963
27949	-2,2736	-2,0005	-48,291	9,0812
27950	-1,4177	-2,0008	-41,26	20,393
27951	-2,9951	-1,9999	-47,651	13,486
27952	-2,2717	-2,0004	-41,708	25,869
27953	-3,5426	-1,9994	-46,857	18,056
27954	-2,9936	-1,9998	-42,347	29,582
27955	-4,	-1,9987	-44,999	26,745
27956	-3,8841	-1,999	-45,956	22,656
27957	-3,5415	-1,9992	-43,14	30,724
27958	-3,8835	-1,9987	-44,042	29,689
27959	-3,8832	-0,99865	-44,04	30,014
27960	-4,	-0,99863	-44,997	26,803
27961	-3,8847	-0,99918	-45,953	22,694
27962	-3,5434	-0,99972	-46,856	18,184
27963	-2,9965	-1,0003	-47,65	13,271
27964	-2,2747	-1,0008	-48,29	9,2446
27965	-1,4212	-1,0014	-48,739	5,1895
27966	-0,48593	-1,0019	-48,97	1,9801
27967	0,4785	-1,0025	-48,971	2,0995
27968	1,4151	-1,003	-48,741	5,2602
27969	2,2693	-1,0035	-48,294	9,2833
27970	2,9916	-1,0041	-47,655	13,47
27971	3,5403	-1,0038	-46,862	18,08
27972	3,8829	-1,0043	-45,961	22,619
27973	4,	-1,0038	-45,003	26,741
27974	3,8843	-1,0032	-44,045	29,673
27975	3,5434	-1,0026	-43,144	31,155
27976	2,9954	-1,0028	-42,349	29,836
27977	2,2745	-1,0023	-41,71	26,016
27978	1,4205	-1,0017	-41,261	20,864
27979	0,48541	-1,0011	-41,03	17,012
27980	-0,47948	-1,0016	-41,029	16,767
27981	-1,416	-1,0014	-41,259	20,57
27982	-2,2698	-1,0008	-41,706	25,985
27983	-2,9925	-1,0002	-42,346	29,769
27984	-3,5407	-0,9996	-43,139	30,998
27985	-0,48574	-3,9993	-41,03	16,789
27986	0,47885	-3,9999	-41,029	17,046
27987	1,4144	-4,0005	-41,258	20,849
27988	2,269	-4,0011	-41,706	26,026
27989	2,9913	-4,0017	-42,344	29,793
27990	3,5403	-4,0023	-43,138	31,021
27991	3,8827	-4,0029	-44,038	29,774
27992	4,	-4,0035	-44,997	26,826
27993	3,8843	-4,0029	-45,955	22,697
27994	3,543	-4,0024	-46,857	18,172
27995	2,9959	-4,0021	-47,65	13,55
27996	2,2744	-4,0024	-48,29	9,2769
27997	1,4207	-4,0021	-48,739	5,2606
27998	0,48401	-4,0016	-48,971	2,0074
27999	-0,47928	-4,001	-48,971	2,1171
28000	-1,4161	-4,0005	-48,741	5,4659
28001	-2,2699	-3,9999	-48,294	9,2594
28002	-2,9928	-3,9994	-47,654	13,567
28003	-3,5404	-3,9988	-46,862	18,137
28004	-3,8834	-3,9983	-45,959	22,717
28005	-4,	-3,9983	-45,004	26,661
28006	-3,8845	-3,998	-44,046	29,458
28007	-3,5437	-3,9986	-43,145	30,924
28008	-2,997	-3,9992	-42,351	29,875
28009	-2,2751	-3,9998	-41,71	26,131
28010	-1,4217	-4,0004	-41,261	20,59
28011	-17,102	-0,89549	1,258e-003	13,854
28012	-16,59	-0,91122	-0,24191	13,55
28013	-16,715	-1,3336	1,7523e-002	13,615
28014	-16,611	-0,91895	0,27119	13,56
28015	-16,704	-0,45564	1,7166e-002	13,678
28016	-11,806	-0,96837	5,1016	10,155
28017	-11,123	-0,97109	5,2991	9,8381
28018	-11,599	-1,4815	5,4903	9,9754
28019	-11,452	-0,97493	5,88	9,8305
28020	-12,122	-0,97743	5,6349	10,164
28021	-11,64	-0,48983	5,4918	10,015
28022	-17,933	-0,88809	-3,5325e-002	14,27
28023	-17,394	-0,88862	-0,39278	14,004
28024	-17,489	-1,3434	-4,9178e-003	14,056
28025	-17,418	-0,90206	0,35602	14,017
28026	-17,473	-0,43985	-9,3136e-003	14,12
28027	-12,496	-0,95512	4,872	10,512
28028	-13,137	-0,95912	4,606	10,864
28029	-13,004	-1,4285	5,0139	10,698
28030	-12,812	-0,96417	5,4053	10,516
28031	-13,489	-0,95755	5,1405	10,901
28032	-13,002	-0,47657	5,0148	10,726
28033	-13,782	-0,96052	4,3259	11,257
28034	-14,441	-0,95057	4,0505	11,661
28035	-14,258	-1,4557	4,4548	11,454
28036	-14,804	-0,95297	4,5719	11,719
28037	-14,133	-0,95894	4,8604	11,284
28038	-14,304	-0,47796	4,4577	11,515
28039	-18,821	-0,92375	-3,9839e-002	14,553
28040	-18,326	-0,9044	-0,48029	14,441
28041	-18,383	-1,3382	-5,9539e-002	14,461
28042	-18,359	-0,90213	0,38322	14,456
28043	-18,394	-0,44824	-6,1335e-002	14,535
28044	-20,339	-1,0239	1,4692	15,182
28045	-21,001	-1,0526	2,741	17,098
28046	-20,738	-0,78173	2,3413	16,361
28047	-20,432	-1,5243	2,0667	15,742
28048	-20,613	-1,0384	2,7025	16,039
28049	-20,131	-1,0117	2,5142	15,38
28050	-19,81	-1,0128	1,9079	15,172
28051	-20,333	-0,52736	1,9018	15,429
28052	-20,955	-1,0298	1,9275	16,666
28053	-19,71	-0,97001	-1,3406e-002	14,483
28054	-19,222	-0,94623	-0,48059	14,672
28055	-19,248	-1,4521	-1,23e-002	14,642
28056	-19,254	-0,95386	0,44477	14,681
28057	-19,262	-0,47551	-1,9973e-002	14,693
28058	-12,122	-0,97738	4,3077	10,465
28059	-11,468	-0,96612	4,5162	10,145
28060	-11,992	-1,4339	4,7294	10,315
28061	-11,99	-0,47855	4,7292	10,338
28062	-12,764	-0,98138	4,0417	10,825
28063	-13,425	-0,95557	3,808	11,192
28064	-13,291	-1,4316	4,2066	11,03
28065	-13,289	-0,48255	4,2081	11,061
28066	-14,084	-0,94562	3,5327	11,607
28067	-14,699	-0,95351	3,2259	12,
28068	-14,549	-1,4509	3,6377	11,818
28069	-15,093	-0,94581	3,7525	12,106
28070	-14,592	-0,4726	3,6466	11,882
28071	-20,197	-0,99105	0,4658	14,553
28072	-20,223	-1,4937	0,96362	14,739
28073	-19,741	-0,9749	0,92398	14,671
28074	-20,232	-0,49656	0,9565	14,727
28075	-20,67	-0,99928	0,9476	14,707
28076	-12,403	-0,97567	3,499	10,758
28077	-11,738	-0,99847	3,7073	10,424
28078	-12,238	-1,4845	3,8979	10,6
28079	-12,269	-0,49883	3,9119	10,638
28080	-13,063	-0,94986	3,2653	11,132
28081	-13,699	-0,9418	3,007	11,499
28082	-13,578	-1,4174	3,4161	11,351
28083	-13,576	-0,47302	3,4187	11,385
28084	-20,181	-0,99163	-0,48258	14,555
28085	-20,165	-1,4883	-5,8482e-003	14,411
28086	-20,172	-0,4945	-7,2723e-003	14,41
28087	-20,585	-0,99752	-5,967e-003	14,04
28088	-14,313	-0,94969	2,7003	11,906
28089	-14,916	-0,95832	2,3874	12,294
28090	-14,783	-1,4614	2,7988	12,135
28091	-15,305	-0,96074	2,9085	12,433
28092	-14,819	-0,48091	2,8158	12,2
28093	-12,682	-0,94594	2,7179	11,028
28094	-12,038	-0,96751	2,9198	10,697
28095	-12,517	-1,4754	3,0978	10,882
28096	-12,552	-0,47684	3,129	10,923
28097	-13,317	-0,93788	2,4595	11,404
28098	-13,94	-0,93647	2,1977	11,769
28099	-13,789	-1,4532	2,5796	11,622
28100	-13,824	-0,46878	2,6039	11,676
28101	-19,694	-0,96785	-0,94976	14,666
28102	-20,293	-1,023	-1,4853	15,116
28103	-20,201	-1,4935	-0,96118	14,735
28104	-20,158	-0,49714	-0,96878	14,739
28105	-20,654	-0,99988	-0,95879	14,684
28106	-12,937	-0,93007	1,9546	11,266
28107	-12,318	-0,93987	2,1506	10,942
28108	-12,787	-1,4548	2,3169	11,138
28109	-12,811	-0,4691	2,3416	11,18
28110	-14,543	-0,9451	1,8848	12,171
28111	-15,124	-0,94719	1,5342	12,546
28112	-15,01	-1,4569	1,9596	12,417
28113	-15,518	-0,96003	2,0632	12,723
28114	-15,052	-0,47741	1,9868	12,49
28115	-19,136	-0,96076	-1,4039	14,7
28116	-18,727	-0,92687	-0,92104	14,555
28117	-19,213	-1,4527	-0,944	14,708
28118	-19,195	-0,47071	-0,94283	14,744
28119	-19,735	-1,0159	-1,9395	15,077
28120	-20,079	-1,0346	-2,5498	15,261
28121	-21,018	-1,1085	-2,6764	17,285
28122	-20,493	-1,5254	-2,4521	15,841
28123	-20,692	-0,77492	-2,3518	16,219
28124	-20,328	-1,5204	-2,0704	15,541
28125	-20,239	-0,52584	-1,9269	15,307
28126	-20,927	-1,0283	-1,938	16,537
28127	-13,561	-0,92866	1,6927	11,64
28128	-14,167	-0,93311	1,39	11,999
28129	-14,033	-1,4462	1,7632	11,876
28130	-14,06	-0,46769	1,8001	11,93
28131	-18,583	-0,96206	-1,8045	14,504
28132	-18,977	-0,98769	-2,3228	14,66
28133	-19,096	-1,4806	-1,8648	14,72
28134	-19,077	-0,49004	-1,8657	14,789
28135	-17,787	-0,90493	-0,83774	14,186
28136	-18,174	-0,92818	-1,3216	14,348
28137	-18,25	-1,3544	-0,88512	14,396
28138	-18,259	-0,45616	-0,89924	14,474
28139	-15,312	-0,9332	0,57831	12,737
28140	-14,748	-0,9352	1,0393	12,391
28141	-15,218	-1,4563	1,081	12,645
28142	-15,713	-0,93366	1,2079	12,959
28143	-15,223	-0,46979	1,0988	12,708
28144	-16,883	-0,90435	-0,63595	13,71
28145	-17,202	-0,91385	-1,1689	13,848
28146	-17,285	-1,3537	-0,7963	13,919
28147	-17,315	-0,44877	-0,77624	14,012
28148	-17,589	-0,9371	-1,6528	14,027
28149	-17,974	-0,96343	-2,167	14,152
28150	-18,093	-1,4519	-1,7187	14,281
28151	-18,089	-0,47202	-1,7441	14,346
28152	-15,926	-0,91899	-0,21894	13,144
28153	-16,292	-0,92221	-0,88271	13,333
28154	-16,461	-1,3894	-0,49797	13,452
28155	-16,395	-0,45558	-0,51427	13,475
28156	-13,164	-0,91131	1,1968	11,46
28157	-12,565	-0,919	1,4211	11,145
28158	-13,045	-1,4286	1,541	11,364
28159	-13,061	-0,46097	1,5854	11,404
28160	-14,843	-0,9256	5,6694e-002	12,494
28161	-15,274	-0,93092	-0,4599	12,723
28162	-15,444	-1,4222	0,25511	12,833
28163	-15,946	-0,92672	0,29416	13,155
28164	-15,402	-0,46341	5,7776e-002	12,872
28165	-16,612	-0,93172	-1,4157	13,487
28166	-16,977	-0,94135	-1,9779	13,616
28167	-17,109	-1,4469	-1,5151	13,75
28168	-17,089	-0,46508	-1,5616	13,81
28169	-13,77	-0,91575	0,89402	11,831
28170	-14,279	-0,92761	0,51772	12,124
28171	-14,256	-1,405	0,97779	12,087
28172	-14,274	-0,46542	0,97983	12,141
28173	-15,64	-0,93415	-1,1237	12,93
28174	-16,014	-0,94688	-1,703	13,076
28175	-16,155	-1,4385	-1,2518	13,213
28176	-16,111	-0,46664	-1,266	13,249
28177	-13,32	-0,88802	0,43657	11,588
28178	-12,789	-0,89241	0,63155	11,313
28179	-13,241	-1,2932	0,75783	11,53
28180	-13,266	-0,45033	0,8082	11,575
28181	-13,829	-0,89988	6,0272e-002	11,896
28182	-14,273	-0,91764	-0,38098	12,13
28183	-14,298	-1,4029	1,7019e-002	12,145
28184	-14,318	-0,46219	6,854e-002	12,205
28185	-14,704	-0,92296	-0,89757	12,382
28186	-15,04	-0,93668	-1,4356	12,518
28187	-15,114	-1,4252	-0,8668	12,611
28188	-15,146	-0,46751	-0,97757	12,678
28189	-13,371	-0,86786	-0,3466	11,622
28190	-12,913	-0,85897	-6,7112e-002	11,393
28191	-13,309	-1,296	3,5957e-002	11,596
28192	-13,374	-0,43769	6,4932e-002	11,661
28193	-13,815	-0,88562	-0,78785	11,872
28194	-14,143	-0,91134	-1,2619	12,007
28195	-14,229	-1,4362	-0,80896	12,085
28196	-14,261	-0,45545	-0,81756	12,152
28197	-13,034	-0,87775	-0,74096	11,443
28198	-13,246	-0,90673	-1,122	11,523
28199	-13,308	-1,359	-0,69275	11,576
28200	-13,369	-0,43017	-0,75814	11,645
28201	-12,576	-0,86886	-0,46147	11,205
28202	-12,464	-0,86826	-1,0023	11,128
28203	-12,702	-1,3592	-0,72715	11,249
28204	-12,667	-0,44758	-0,73437	11,267
28205	-12,382	-0,86336	0,12786	11,111
28206	-12,098	-0,84641	-0,41612	10,975
28207	-12,404	-1,2692	-0,2614	11,116
28208	-12,452	-0,42128	-0,19916	11,171
28209	-12,191	-0,9001	0,85582	10,99
28210	-11,876	-0,88615	0,25119	10,87
28211	-12,321	-1,2922	0,44839	11,066
28212	-12,306	-0,44208	0,51094	11,09
28213	-11,946	-0,9288	1,6171	10,815
28214	-11,603	-0,92232	1,0213	10,71
28215	-12,078	-1,3651	1,2402	10,908
28216	-12,069	-0,45802	1,2567	10,93
28217	-11,674	-0,96145	2,3526	10,605
28218	-11,348	-0,94749	1,7472	10,537
28219	-11,812	-1,4576	1,968	10,712
28220	-11,816	-0,47078	1,9924	10,738
28221	-11,373	-0,99031	3,128	10,358
28222	-11,042	-0,97594	2,5442	10,312
28223	-11,496	-1,6038	2,6826	10,477
28224	-11,531	-0,49067	2,7591	10,507
28225	-11,084	-0,98721	3,9158	10,1
28226	-10,733	-0,98589	3,3127	10,071
28227	-11,14	-1,6214	3,4896	10,204
28228	-11,241	-0,49964	3,5565	10,252
28229	-10,785	-0,96884	4,7137	9,825
28230	-10,388	-0,94888	4,1122	9,7982
28231	-10,951	-1,5644	4,3168	9,9783
28232	-10,96	-0,48757	4,345	9,9873
28233	-10,463	-0,95888	5,5224	9,5364
28234	-10,121	-0,94661	4,9316	9,5417
28235	-10,576	-1,4891	5,1789	9,6488
28236	-10,641	-0,48126	5,1505	9,6978
28237	-9,7421	-0,96182	7,119	8,9482
28238	-9,1014	-0,94865	7,309	8,7118
28239	-9,5112	-1,4633	7,5052	8,7965
28240	-9,3571	-0,94997	7,9182	8,6662
28241	-10,031	-0,9609	7,7329	8,9143
28242	-9,5672	-0,47688	7,5235	8,8204
28243	-10,11	-0,96255	6,3174	9,2412
28244	-9,4564	-0,96174	6,5241	8,985
28245	-9,8115	-1,451	6,7527	9,0485
28246	-10,399	-0,97265	6,8976	9,216
28247	-9,935	-0,48494	6,7274	9,1068
28248	-9,8137	-0,9504	5,7208	9,2717
28249	-10,279	-1,4325	5,8616	9,401
28250	-10,792	-0,96272	6,1032	9,5325
28251	-10,308	-0,47762	5,9366	9,4067
28252	-1,4914	-0,96623	39,559	16,719
28253	-1,4929	-0,99994	40,203	17,033
28254	-1,17	-1,4838	39,945	16,421
28255	-1,0341	-0,73047	40,128	16,24
28256	-0,65481	-0,99978	39,996	15,96
28257	-0,86239	-0,94967	39,522	16,092
28258	-1,1919	-0,48111	39,987	16,423
28259	-2,1398	-0,96283	38,78	17,025
28260	-2,1601	-0,9641	39,462	17,73
28261	-1,7774	-1,4388	39,184	16,934
28262	-1,468	-0,96342	38,871	16,54
28263	-1,8018	-0,48511	39,195	17,044
28264	-2,7911	-0,955	37,978	16,87
28265	-2,8203	-0,94113	38,664	17,601
28266	-2,5522	-1,4467	38,298	17,003
28267	-2,1297	-0,95383	38,069	16,626
28268	-2,4598	-0,47772	38,393	17,112
28269	-3,4095	-0,9668	37,19	16,416
28270	-3,446	-0,93684	37,876	17,072
28271	-3,1309	-1,5219	37,552	16,656
28272	-2,7514	-0,95993	37,297	16,368
28273	-3,0954	-0,47728	37,631	16,783
28274	-4,0096	-0,96747	36,385	15,819
28275	-4,0572	-0,965	37,058	16,362
28276	-3,7293	-1,5375	36,762	16,107
28277	-3,3544	-0,97126	36,519	15,91
28278	-3,6891	-0,48952	36,805	16,19
28279	-4,6805	-0,96447	35,597	15,176
28280	-4,5969	-0,94195	36,263	15,668
28281	-4,3353	-1,5317	35,96	15,467
28282	-3,9769	-0,96084	35,705	15,34
28283	-4,3045	-0,47795	35,981	15,537
28284	-5,3478	-0,96139	35,519	14,966
28285	-5,4354	-0,99247	34,822	14,521
28286	-5,0081	-1,4512	35,308	14,911
28287	-4,6873	-0,97535	34,922	14,742
28288	-5,0556	-0,48652	35,209	14,878
28289	-5,8079	-0,94404	36,061	15,182
28290	-5,2641	-0,93887	36,184	15,458
28291	-6,359	-0,9591	35,484	14,566
28292	-5,6576	-1,3987	35,749	15,016
28293	-5,6307	-0,47487	35,778	15,087
28294	-5,7784	-0,92621	36,61	15,6
28295	-6,3085	-0,9417	36,279	15,092
28296	-5,9964	-1,37	36,225	15,205
28297	-5,9639	-0,46918	36,282	15,311
28298	-5,2346	-0,92104	36,733	15,872
28299	-4,6444	-0,93948	36,935	16,217
28300	-4,991	-1,4356	36,548	15,79
28301	-4,8892	-0,464	36,545	15,875
28302	-5,3306	-0,91349	37,373	16,422
28303	-5,9292	-0,92038	37,075	15,856
28304	-5,6068	-1,3472	36,903	15,868
28305	-5,5535	-0,45704	36,951	15,998
28306	-4,7405	-0,93194	37,575	16,753
28307	-4,0937	-0,93504	37,744	17,02
28308	-4,475	-1,444	37,344	16,573
28309	-4,3723	-0,47548	37,355	16,682
28310	-4,8358	-0,90704	38,287	17,54
28311	-5,489	-0,91273	37,975	16,861
28312	-5,1126	-1,3287	37,791	16,857
28313	-5,0814	-0,45646	37,824	16,996
28314	-4,1889	-0,91015	38,456	17,787
28315	-3,4752	-0,92297	38,562	17,797
28316	-3,8888	-1,4305	38,164	17,422
28317	-3,7863	-0,45956	38,184	17,554
28318	-4,6663	-0,89132	39,182	18,713
28319	-4,166	-0,90299	39,121	18,667
28320	-5,0834	-0,89924	38,876	18,038
28321	-4,5416	-1,3354	38,75	18,098
28322	-4,5902	-0,45059	38,75	18,257
28323	-3,4522	-0,91581	39,228	18,678
28324	-2,8406	-0,9424	39,346	18,29
28325	-3,2189	-1,464	38,892	18,057
28326	-3,1707	-0,46341	38,978	18,291
28327	-4,5456	-0,88792	39,863	19,742
28328	-5,0114	-0,88243	39,704	19,222
28329	-4,7272	-1,3166	39,586	19,196
28330	-4,7287	-0,44073	39,58	19,38
28331	-4,0452	-0,89959	39,802	19,694
28332	-3,445	-0,91086	39,91	19,662
28333	-3,8068	-1,3163	39,451	19,108
28334	-3,7417	-0,4524	39,493	19,361
28335	-2,8334	-0,93744	40,028	19,285
28336	-2,1617	-0,99781	40,106	18,034
28337	-2,4793	-1,4625	39,7	18,312
28338	-2,5077	-0,47899	39,743	18,594
28339	-4,107	-0,916	40,496	20,967
28340	-4,6485	-0,90128	40,375	20,456
28341	-4,3636	-1,3295	40,113	20,219
28342	-4,2793	-0,44718	40,062	20,345
28343	-3,5067	-0,92727	40,603	20,903
28344	-2,9133	-0,94972	40,686	20,166
28345	-3,1155	-1,3861	40,322	20,028
28346	-3,1483	-0,45845	40,327	20,39
28347	-2,2416	-1,0101	40,764	18,925
28348	-1,3461	-0,76818	40,408	16,849
28349	-1,7033	-1,5591	40,501	17,482
28350	-0,96675	-1,0375	40,276	16,568
28351	-1,8375	-0,51882	40,506	17,882
28352	-1,6131	-1,0195	40,872	17,237
28353	-3,6271	-0,95482	41,269	22,314
28354	-4,1983	-0,93894	41,191	22,207
28355	-3,8489	-1,3843	40,86	21,63
28356	-3,8681	-0,46882	40,825	21,891
28357	-3,0337	-0,97726	41,352	21,56
28358	-2,6769	-1,4829	41,031	20,197
28359	-2,6698	-0,49126	41,084	20,567
28360	-2,4765	-0,99167	41,378	19,244
28361	-3,707	-0,973	42,	24,125
28362	-3,3971	-1,469	41,65	22,943
28363	-3,3878	-0,486	41,714	23,469
28364	-3,1929	-0,98613	42,005	22,966
28365	-4,2782	-0,95712	41,921	24,087
28366	-4,3389	-1,0508	42,812	26,336
28367	-4,062	-1,4671	42,345	25,444
28368	-4,045	-0,487	42,351	25,733
28369	-3,784	-0,98687	42,742	27,62
28370	-4,8696	-0,94038	41,769	22,609
28371	-4,7399	-0,92421	41,07	21,769
28372	-4,5631	-1,404	41,531	22,79
28373	-4,5072	-0,47012	41,483	23,042
28374	-4,9303	-1,0341	42,659	25,025
28375	-5,0514	-1,0677	43,409	25,472
28376	-4,8004	-1,1029	44,199	27,318
28377	-4,9408	-1,6852	44,044	26,361
28378	-4,7343	-1,0535	43,88	27,599
28379	-4,6986	-1,5419	43,27	27,366
28380	-4,688	-0,5638	43,081	26,401
28381	-4,2689	-1,0634	43,665	32,354
28382	-5,4075	-0,92151	41,575	21,577
28383	-5,5443	-0,94279	42,26	21,958
28384	-5,2772	-1,3841	42,001	22,341
28385	-5,1956	-0,47026	42,025	22,826
28386	-5,3461	-0,93295	43,977	24,595
28387	-5,6654	-0,97647	43,01	22,579
28388	-5,7756	-0,97788	43,789	22,268
28389	-5,1989	-1,0431	44,325	25,754
28390	-5,5878	-1,3942	43,432	23,061
28391	-5,3393	-1,6254	44,17	24,742
28392	-5,1328	-0,99359	44,006	25,857
28393	-5,4578	-0,50394	43,502	23,719
28394	-5,1143	-0,89579	40,216	19,975
28395	-5,2778	-0,90534	40,876	20,637
28396	-4,9759	-1,3223	40,686	20,743
28397	-4,9363	-0,45409	40,648	20,992
28398	-5,5674	-0,89423	44,489	23,539
28399	-5,0951	-0,96815	44,767	26,684
28400	-5,3427	-1,2946	44,413	24,866
28401	-5,2355	-1,5504	44,612	25,658
28402	-5,0291	-0,91867	44,447	26,733
28403	-5,1511	-0,42901	44,43	25,853
28404	-4,5636	-0,9286	44,232	30,776
28405	-5,6302	-0,8908	40,016	19,062
28406	-5,4285	-0,89036	39,399	18,588
28407	-5,2885	-1,2796	39,809	19,141
28408	-5,2804	-0,4417	39,795	19,322
28409	-5,7937	-0,90034	40,676	19,79
28410	-5,9712	-0,91798	41,34	20,089
28411	-5,5569	-1,3526	41,103	20,627
28412	-5,61	-0,45124	41,118	20,747
28413	-6,108	-0,93926	42,025	20,556
28414	-6,242	-0,94187	42,699	20,435
28415	-5,8879	-1,3217	42,482	21,48
28416	-5,8809	-0,47252	42,484	21,535
28417	-6,1676	-0,90984	39,777	18,283
28418	-6,3544	-0,91278	40,442	18,58
28419	-5,8685	-1,2917	40,292	19,12
28420	-5,9918	-0,4491	40,232	19,09
28421	-5,9969	-0,93915	44,302	21,254
28422	-6,2044	-0,94056	44,786	19,899
28423	-5,8737	-0,94815	45,116	20,77
28424	-5,9255	-1,3411	44,608	21,489
28425	-5,8528	-0,46522	44,591	21,517
28426	-6,5318	-0,93042	41,106	18,943
28427	-6,7003	-0,93303	41,78	18,919
28428	-6,3497	-1,3049	41,546	19,554
28429	-6,335	-0,46674	41,566	19,779
28430	-6,3522	-0,94328	43,479	20,188
28431	-6,5309	-0,94463	44,122	19,279
28432	-6,2452	-1,4491	43,984	20,399
28433	-6,1483	-0,47393	43,915	20,668
28434	-5,9659	-0,9094	39,159	17,76
28435	-5,7366	-0,90494	38,564	17,403
28436	-5,6264	-1,376	39,026	17,939
28437	-5,5733	-0,44866	38,976	18,052
28438	-6,8344	-0,93564	42,454	18,86
28439	-6,9978	-0,94075	43,114	18,314
28440	-6,6024	-1,4212	42,906	19,487
28441	-6,6031	-0,46935	42,914	19,534
28442	-6,7547	-0,9314	39,523	17,244
28443	-6,5442	-0,92944	38,869	17,005
28444	-6,2824	-1,4059	39,34	17,628
28445	-6,3552	-0,46075	39,316	17,67
28446	-6,9414	-0,93433	40,188	17,589
28447	-7,125	-0,93759	40,862	17,627
28448	-6,6455	-1,3892	40,675	18,364
28449	-6,7398	-0,46368	40,646	18,312
28450	-7,2935	-0,9402	41,535	17,652
28451	-7,4599	-0,94114	42,209	17,331
28452	-7,018	-1,4506	42,023	18,323
28453	-7,0755	-0,46629	41,996	18,283
28454	-7,5448	-0,94772	39,943	16,494
28455	-7,3485	-0,94783	39,269	16,418
28456	-7,1441	-1,4042	39,731	16,926
28457	-7,1542	-0,47065	39,73	17,026
28458	-7,7283	-0,95097	40,616	16,57
28459	-7,91	-0,95321	41,295	16,386
28460	-7,5137	-1,4176	41,076	17,053
28461	-7,5213	-0,4739	41,076	17,147
28462	-6,3148	-0,92497	38,275	16,612
28463	-6,0875	-0,91962	37,678	16,318
28464	-5,9128	-1,3304	38,141	16,79
28465	-5,8761	-0,45628	38,117	16,897
28466	-8,1388	-0,95925	39,695	15,619
28467	-8,3302	-0,95941	40,379	15,522
28468	-7,9279	-1,4263	40,156	16,055
28469	-7,9354	-0,47707	40,155	16,128
28470	-7,138	-0,94587	38,616	16,142
28471	-6,9074	-0,94217	37,973	15,954
28472	-6,6762	-1,4295	38,441	16,46
28473	-6,7331	-0,46869	38,423	16,495
28474	-7,9425	-0,95936	39,022	15,514
28475	-7,7251	-0,96224	38,359	15,445
28476	-7,4897	-1,4472	38,838	15,935
28477	-7,5428	-0,47718	38,809	15,939
28478	-6,6801	-0,93682	37,377	15,633
28479	-6,4593	-0,93587	36,744	15,36
28480	-6,2601	-1,377	37,22	15,786
28481	-6,273	-0,46334	37,218	15,852
28482	27,806	-0,9892	5,0508	20,106
28483	27,241	-0,98124	5,2298	20,169
28484	27,512	-1,441	4,9371	21,118
28485	27,756	-1,0251	4,4318	22,366
28486	27,298	-0,74906	4,6315	23,294
28487	26,889	-1,0223	4,902	22,665
28488	27,497	-0,5026	4,7047	21,738
28489	-8,5465	-0,97102	38,779	14,768
28490	-8,7465	-0,96859	39,465	14,721
28491	-8,3351	-1,4407	39,238	15,158
28492	-8,3422	-0,48218	39,235	15,212
28493	27,802	-0,97211	5,5256	18,536
28494	28,438	-0,9794	5,3705	18,383
28495	28,489	-0,98366	4,8412	19,262
28496	27,966	-1,4424	5,2082	19,345
28497	28,043	-0,48659	5,1357	19,186
28498	-7,4946	-0,95854	37,716	15,229
28499	-7,2586	-0,95719	37,044	15,052
28500	-7,0587	-1,4427	37,527	15,473
28501	-7,0891	-0,47348	37,509	15,504
28502	27,237	-0,96416	5,7046	18,68
28503	26,586	-0,95893	5,914	18,601
28504	26,879	-1,3552	5,5708	19,58
28505	26,941	-0,7251	4,9453	22,554
28506	26,532	-0,9983	5,2158	22,123
28507	26,853	-0,47864	5,4591	19,713
28508	-8,3291	-0,9739	38,116	14,676
28509	-8,1048	-0,97734	37,447	14,607
28510	-7,8868	-1,4642	37,926	15,012
28511	-7,9158	-0,48507	37,889	15,026
28512	-7,0379	-0,95624	36,412	14,761
28513	-6,8596	-0,95676	35,702	14,491
28514	-6,6063	-1,4093	36,139	14,842
28515	-6,6401	-0,47253	36,26	14,946
28516	-8,9598	-0,98453	37,873	14,013
28517	-9,1679	-0,98025	38,562	13,991
28518	-8,7447	-1,4616	38,328	14,361
28519	-8,7508	-0,48883	38,323	14,399
28520	27,341	-0,96298	6,2811	16,935
28521	27,999	-0,96623	6,0808	17,053
28522	27,589	-1,4462	5,876	17,839
28523	27,589	-0,48551	5,8655	17,675
28524	-7,8689	-0,97598	36,775	14,408
28525	-7,6305	-0,97843	36,083	14,254
28526	-7,4252	-1,4644	36,567	14,62
28527	-7,4222	-0,48371	36,513	14,638
28528	-6,4467	-0,99019	34,788	14,117
28529	-6,1194	-1,0106	34,016	13,874
28530	-5,8091	-1,4784	34,401	14,158
28531	-5,397	-1,0071	34,141	14,133
28532	-5,8143	-0,50595	34,431	14,211
28533	-8,7356	-0,98797	37,204	13,924
28534	-8,5105	-0,99201	36,527	13,859
28535	-8,2963	-1,4813	36,993	14,203
28536	-8,2975	-0,49228	36,961	14,231
28537	-7,4523	-0,97895	35,373	13,97
28538	-7,213	-0,98951	34,649	13,762
28539	-6,8643	-1,3942	35,127	14,145
28540	-6,887	-0,48423	35,136	14,177
28541	26,69	-0,95775	6,4905	16,854
28542	26,034	-0,953	6,7112	16,569
28543	26,276	-1,4196	6,2261	17,878
28544	25,87	-0,95781	6,1244	18,362
28545	26,288	-0,48029	6,2844	17,46
28546	-8,2721	-0,99446	35,835	13,686
28547	-8,0346	-1,0085	35,131	13,557
28548	-7,7998	-1,4935	35,584	13,879
28549	-7,8071	-0,49472	35,574	13,905
28550	-9,3884	-0,99526	36,988	13,342
28551	-9,5991	-0,99186	37,671	13,332
28552	-9,1637	-1,4871	37,448	13,66
28553	-9,1689	-0,4957	37,423	13,68
28554	26,849	-0,95305	7,1154	15,24
28555	27,513	-0,95455	6,9057	15,444
28556	27,091	-1,4291	6,7019	16,086
28557	27,092	-0,47746	6,6967	15,974
28558	-6,7135	-1,0067	33,161	13,265
28559	-6,8858	-1,0099	33,876	13,499
28560	-6,4528	-1,5077	33,598	13,54
28561	-6,0124	-1,0099	33,313	13,538
28562	-6,4318	-0,50464	33,609	13,579
28563	-9,1634	-0,99929	36,311	13,26
28564	-8,9412	-1,0079	35,613	13,196
28565	-8,7251	-1,4975	36,077	13,498
28566	-8,713	-0,49974	36,05	13,527
28567	-7,4369	-1,0059	32,993	12,91
28568	-7,2559	-1,0065	32,291	12,72
28569	-7,0291	-1,5027	32,727	12,958
28570	-6,5731	-1,0033	32,443	12,982
28571	-6,998	-0,50203	32,731	12,994
28572	-9,834	-1,0036	36,113	12,741
28573	-10,046	-0,99929	36,799	12,738
28574	-9,6032	-1,4989	36,551	13,021
28575	-9,6033	-0,49956	36,547	13,044
28576	-7,7954	-1,0191	34,406	13,336
28577	-7,6092	-1,0092	33,708	13,155
28578	-7,3668	-1,5007	34,16	13,438
28579	-7,3319	-0,50528	34,164	13,484
28580	26,193	-0,9483	7,3361	14,934
28581	25,523	-0,94658	7,548	14,663
28582	25,775	-1,4152	7,1383	15,509
28583	25,369	-0,9447	6,9439	15,995
28584	25,78	-0,47272	7,1379	15,392
28585	-8,7037	-1,022	34,909	13,051
28586	-8,4938	-1,0242	34,222	12,939
28587	-8,2464	-1,5383	34,665	13,224
28588	-8,2438	-0,51378	34,66	13,252
28589	-8,3076	-1,0143	33,524	12,746
28590	-8,1217	-1,0096	32,826	12,597
28591	-7,8994	-1,5047	33,271	12,841
28592	-7,8732	-0,5039	33,26	12,871
28593	-9,6118	-1,0122	35,415	12,662
28594	-9,4009	-1,0151	34,724	12,606
28595	-9,1672	-1,5213	35,161	12,875
28596	-9,1637	-0,50818	35,157	12,899
28597	26,361	-0,95282	7,9503	13,712
28598	27,028	-0,9542	7,738	13,91
28599	26,603	-1,4254	7,5328	14,456
28600	26,606	-0,47558	7,5342	14,37
28601	-10,297	-1,0085	35,236	12,194
28602	-10,507	-1,0052	35,923	12,197
28603	-10,062	-1,5097	35,675	12,448
28604	-10,06	-0,504	35,672	12,467
28605	-9,191	-1,0173	34,037	12,481
28606	-8,993	-1,0155	33,347	12,384
28607	-8,7716	-1,5143	33,792	12,626
28608	-8,7438	-0,51041	33,784	12,659
28609	-7,9407	-1,0101	32,125	12,398
28610	-7,7581	-1,0047	31,424	12,237
28611	-7,5102	-1,5102	31,855	12,459
28612	-7,0876	-1,0058	31,587	12,49
28613	-7,5094	-0,50447	31,86	12,482
28614	25,691	-0,9511	8,1623	13,422
28615	25,018	-0,95099	8,3664	13,213
28616	25,264	-1,4175	7,954	13,891
28617	24,847	-0,94357	7,7491	14,239
28618	25,267	-0,47386	7,9581	13,82
28619	-8,807	-1,0108	32,649	12,225
28620	-8,615	-1,0067	31,955	12,104
28621	-8,3747	-1,5138	32,384	12,327
28622	-8,3719	-0,50566	32,389	12,35
28623	-10,086	-1,0113	34,545	12,126
28624	-9,8813	-1,0112	33,854	12,078
28625	-9,6417	-1,5186	34,29	12,32
28626	-9,6381	-0,50687	34,29	12,342
28627	25,874	-0,95692	8,7816	12,407
28628	26,547	-0,95795	8,572	12,539
28629	26,114	-1,429	8,3628	13,023
28630	26,116	-0,47724	8,3664	12,987
28631	-10,772	-1,0082	34,363	11,699
28632	-10,98	-1,0063	35,049	11,702
28633	-10,536	-1,5125	34,8	11,928
28634	-10,534	-0,50445	34,8	11,944
28635	25,201	-0,95681	8,9858	12,188
28636	24,527	-0,95719	9,1858	12,059
28637	24,768	-1,4285	8,7709	12,589
28638	24,342	-0,9528	8,5619	12,893
28639	24,769	-0,47713	8,7747	12,57
28640	-9,6833	-1,0095	33,164	11,971
28641	-9,4837	-1,0068	32,471	11,892
28642	-9,2449	-1,513	32,906	12,115
28643	-9,2422	-0,50512	32,909	12,136
28644	-8,4325	-1,0013	31,254	11,936
28645	-8,2473	-0,99768	30,556	11,797
28646	-8,0077	-1,4985	30,984	11,998
28647	-7,5828	-0,99872	30,718	12,036
28648	-8,0069	-0,50022	30,988	12,018
28649	25,389	-0,962	9,6118	11,326
28650	26,065	-0,96266	9,4058	11,375
28651	25,631	-1,4361	9,1932	11,825
28652	25,633	-0,47968	9,1969	11,822
28653	-10,567	-1,0081	33,672	11,642
28654	-10,362	-1,0068	32,983	11,604
28655	-10,126	-1,5116	33,417	11,821
28656	-10,124	-0,50435	33,418	11,838
28657	24,043	-0,96268	10,01	11,137
28658	24,715	-0,96238	9,8118	11,192
28659	24,285	-1,4378	9,5937	11,556
28660	23,855	-0,95922	9,3724	11,849
28661	24,285	-0,48006	9,5969	11,564
28662	-11,246	-1,0065	33,49	11,252
28663	-11,454	-1,0057	34,175	11,252
28664	-11,01	-1,5106	33,926	11,46
28665	-11,009	-0,50377	33,927	11,474
28666	-9,2917	-1,0027	31,778	11,763
28667	-9,1003	-0,99965	31,09	11,662
28668	-8,8594	-1,5011	31,518	11,865
28669	-8,8582	-0,50104	31,521	11,885
28670	23,563	-0,9677	10,844	10,389
28671	24,235	-0,96758	10,643	10,382
28672	23,802	-1,4459	10,421	10,726
28673	23,376	-0,96391	10,203	11,004
28674	23,802	-0,48262	10,424	10,749
28675	-10,162	-1,0041	32,291	11,518
28676	-9,9628	-1,0016	31,603	11,454
28677	-9,7261	-1,5031	32,031	11,654
28678	-9,7253	-0,50167	32,034	11,672
28679	24,907	-0,96728	10,444	10,439
28680	25,58	-0,96785	10,236	10,418
28681	25,145	-1,4443	10,023	10,841
28682	25,146	-0,48232	10,027	10,86
28683	-8,9151	-0,99608	30,391	11,518
28684	-8,7177	-0,99357	29,695	11,4
28685	-8,4877	-1,4907	30,123	11,583
28686	-8,0609	-0,99353	29,854	11,624
28687	-8,4877	-0,49747	30,125	11,601
28688	-11,041	-1,0051	32,801	11,206
28689	-10,839	-1,0036	32,113	11,178
28690	-10,6	-1,5059	32,547	11,376
28691	-10,599	-0,50242	32,548	11,392
28692	-9,7714	-0,99853	30,915	11,347
28693	-9,5732	-0,9962	30,222	11,262
28694	-9,3684	-1,5007	30,66	11,438
28695	-9,3425	-0,49861	30,658	11,463
28696	-11,72	-1,0046	32,618	10,843
28697	-11,927	-1,0043	33,301	10,839
28698	-11,484	-1,5076	33,053	11,034
28699	-11,483	-0,50273	33,054	11,047
28700	23,756	-0,97267	11,479	9,7263
28701	23,086	-0,97264	11,688	9,7767
28702	23,323	-1,453	11,261	10,05
28703	22,897	-0,9688	11,042	10,32
28704	23,324	-0,48508	11,264	10,08
28705	-9,3758	-0,99368	29,525	11,14
28706	-9,186	-0,99193	28,835	11,035
28707	-8,9467	-1,4872	29,264	11,206
28708	-8,5238	-0,99075	29,001	11,249
28709	-8,9476	-0,4961	29,265	11,223
28710	-10,639	-1,0011	31,425	11,108
28711	-10,437	-0,99909	30,737	11,058
28712	-10,2	-1,4984	31,17	11,242
28713	-10,2	-0,49991	31,172	11,258
28714	24,428	-0,97255	11,278	9,7201
28715	25,107	-0,97315	11,078	9,6212
28716	24,667	-1,4521	10,858	10,039
28717	24,668	-0,48496	10,862	10,068
28718	-10,238	-0,99676	30,043	10,969
28719	-10,044	-0,99488	29,358	10,896
28720	-9,8029	-1,4917	29,784	11,067
28721	-9,8039	-0,49758	29,785	11,083
28722	-11,517	-1,0031	31,929	10,807
28723	-11,314	-1,0019	31,243	10,789
28724	-11,077	-1,5026	31,676	10,969
28725	-11,078	-0,50122	31,678	10,984
28726	-11,112	-0,99983	30,555	10,734
28727	-10,91	-0,9981	29,869	10,696
28728	-10,672	-1,4965	30,3	10,864
28729	-10,673	-0,49918	30,301	10,879
28730	-12,194	-1,0033	31,745	10,466
28731	-12,401	-1,0029	32,427	10,457
28732	-11,957	-1,5052	32,181	10,643
28733	-11,957	-0,50189	32,181	10,655
28734	23,956	-0,97804	12,124	9,1269
28735	24,631	-0,97828	11,92	8,9817
28736	24,19	-1,4741	11,683	9,4
28737	24,187	-0,48759	11,694	9,4294
28738	-11,991	-1,002	31,059	10,442
28739	-11,787	-1,001	30,373	10,433
28740	-11,55	-1,5011	30,808	10,599
28741	-11,551	-0,50064	30,809	10,613
28742	-9,6584	-0,99178	27,976	10,696
28743	-9,8545	-0,99313	28,668	10,788
28744	-9,4233	-1,4867	28,405	10,854
28745	-8,9954	-0,99025	28,144	10,897
28746	-9,4245	-0,49583	28,405	10,869
28747	23,286	-0,97801	12,333	9,1784
28748	22,612	-0,97747	12,539	9,2765
28749	22,847	-1,4604	12,109	9,4969
28750	22,418	-0,97297	11,892	9,7593
28751	22,848	-0,48756	12,112	9,53
28752	-10,129	-0,99213	27,117	10,384
28753	-10,32	-0,99319	27,801	10,466
28754	-9,8912	-1,4871	27,546	10,53
28755	-9,4663	-0,99068	27,285	10,572
28756	-9,8924	-0,49595	27,546	10,545
28757	-12,874	-1,0021	31,553	10,101
28758	-12,668	-1,0026	30,872	10,118
28759	-12,431	-1,5039	31,308	10,281
28760	-12,431	-0,5014	31,308	10,294
28761	-10,797	-0,99345	26,943	10,167
28762	-10,597	-0,99251	26,252	10,097
28763	-10,365	-1,4878	26,688	10,23
28764	-9,933	-0,9913	26,427	10,272
28765	-10,366	-0,49618	26,688	10,245
28766	-10,715	-0,99621	29,183	10,62
28767	-10,516	-0,99455	28,493	10,56
28768	-10,283	-1,4911	28,929	10,716
28769	-10,284	-0,4973	28,93	10,731
28770	23,488	-0,98282	12,985	8,6379
28771	24,164	-0,9838	12,778	8,454
28772	23,721	-1,4679	12,55	8,8497
28773	23,723	-0,49045	12,554	8,8855
28774	-11,585	-0,9993	29,687	10,39
28775	-11,383	-0,99766	29,001	10,362
28776	-11,145	-1,4959	29,436	10,518
28777	-11,146	-0,49891	29,437	10,532
28778	-13,081	-1,0018	32,236	10,097
28779	-12,608	-1,0026	33,111	10,46
28780	-13,285	-1,0014	32,918	10,07
28781	-12,847	-1,503	32,675	10,268
28782	-12,846	-0,50106	32,675	10,278
28783	-10,987	-0,99452	27,626	10,25
28784	-11,183	-0,99599	28,311	10,299
28785	-10,746	-1,491	28,055	10,394
28786	-10,748	-0,49725	28,056	10,409
28787	-12,261	-1,0006	29,503	10,105
28788	-12,464	-1,0016	30,186	10,104
28789	-12,023	-1,5004	29,937	10,258
28790	-12,024	-0,50039	29,938	10,271
28791	-11,66	-0,99592	27,448	10,004
28792	-11,46	-0,99457	26,76	9,9654
28793	-11,226	-1,4911	27,196	10,097
28794	-11,227	-0,49727	27,197	10,112
28795	-11,855	-0,99739	28,132	10,056
28796	-12,058	-0,99897	28,816	10,073
28797	-11,617	-1,4954	28,564	10,198
28798	-11,619	-0,49874	28,565	10,213
28799	-13,554	-1,0013	31,361	9,7573
28800	-13,758	-1,0009	32,042	9,7241
28801	-13,32	-1,5021	31,8	9,9174
28802	-13,319	-0,50073	31,8	9,9278
28803	-12,527	-0,99883	27,946	9,7833
28804	-12,329	-0,99722	27,262	9,7742
28805	-12,091	-1,4952	27,698	9,9045
28806	-12,092	-0,49864	27,698	9,919
28807	-12,937	-1,0014	29,314	9,7913
28808	-12,729	-1,0004	28,631	9,8037
28809	-12,496	-1,4999	29,067	9,9432
28810	-12,497	-0,50023	29,068	9,9567
28811	-13,141	-1,0023	29,998	9,7946
28812	-13,347	-1,0017	30,679	9,769
28813	-12,904	-1,5033	30,435	9,9462
28814	-12,904	-0,50117	30,435	9,9585
28815	22,814	-0,98228	13,191	8,7368
28816	22,139	-0,98197	13,396	8,8685
28817	22,374	-1,4674	12,963	9,046
28818	21,941	-0,9775	12,745	9,3012
28819	22,375	-0,48991	12,966	9,0797
28820	-13,822	-1,002	29,806	9,4583
28821	-13,614	-1,0023	29,124	9,4945
28822	-13,377	-1,5032	29,561	9,6348
28823	-13,378	-0,50113	29,561	9,6474
28824	-13,406	-1,0014	28,441	9,5036
28825	-13,198	-1,0003	27,758	9,5261
28826	-12,96	-1,4997	28,193	9,6558
28827	-12,961	-0,50018	28,194	9,6695
28828	-14,029	-1,0014	30,487	9,4373
28829	-14,231	-1,0007	31,166	9,396
28830	-13,793	-1,5016	30,925	9,588
28831	-13,792	-0,50057	30,925	9,5989
28832	23,017	-0,98659	13,849	8,248
28833	23,693	-0,98727	13,642	8,0332
28834	23,25	-1,4747	13,412	8,4154
28835	23,251	-0,49237	13,415	8,4506
28836	-12,814	-1,0022	33,794	10,436
28837	-12,135	-1,0035	33,986	10,847
28838	-12,375	-1,5045	33,551	10,643
28839	-12,374	-0,50154	33,551	10,652
28840	22,342	-0,98628	14,054	8,3805
28841	21,666	-0,98538	14,257	8,5388
28842	21,901	-1,474	13,823	8,6792
28843	21,465	-0,98175	13,6	8,9286
28844	21,902	-0,49206	13,826	8,712
28845	-14,503	-1,0017	29,613	9,1372
28846	-14,706	-1,001	30,291	9,0855
28847	-14,268	-1,5019	30,051	9,2779
28848	-14,267	-0,50083	30,051	9,2895
28849	-14,295	-1,0021	28,931	9,1695
28850	-14,087	-1,0024	28,25	9,2164
28851	-13,85	-1,5033	28,687	9,3459
28852	-13,851	-0,50119	28,687	9,3589
28853	-13,491	-1,001	33,601	10,054
28854	-13,963	-1,0005	32,724	9,7038
28855	-14,164	-1,0002	33,404	9,6703
28856	-13,727	-1,5005	33,162	9,8725
28857	-13,726	-0,50035	33,162	9,8796
28858	-13,697	-1,0006	34,283	10,021
28859	-13,02	-1,0017	34,478	10,421
28860	-13,257	-1,5014	34,04	10,231
28861	-13,255	-0,50068	34,04	10,237
28862	-14,637	-0,99996	32,527	9,3288
28863	-14,436	-1,0003	31,847	9,3687
28864	-14,199	-1,5	32,285	9,5295
28865	-14,199	-0,50012	32,285	9,5377
28866	-14,37	-0,99973	34,086	9,6448
28867	-14,838	-0,99969	33,207	9,3026
28868	-15,045	-0,99977	33,884	9,2698
28869	-14,603	-1,4997	33,645	9,4707
28870	-14,602	-0,49985	33,646	9,4755
28871	22,546	-0,98996	14,717	7,9385
28872	23,222	-0,99054	14,51	7,7015
28873	22,781	-1,4806	14,279	8,0674
28874	22,782	-0,49422	14,282	8,1013
28875	-13,902	-0,99985	34,965	9,9942
28876	-14,577	-0,99975	34,763	9,6157
28877	-14,14	-1,4998	34,525	9,8153
28878	-14,139	-0,49988	34,526	9,8181
28879	-15,314	-0,99978	32,329	8,966
28880	-15,519	-0,9998	33,007	8,9267
28881	-15,077	-1,4996	32,768	9,1297
28882	-15,075	-0,49984	32,769	9,136
28883	-15,18	-1,001	29,415	8,7939
28884	-14,976	-1,0019	28,737	8,8576
28885	-14,74	-1,5022	29,175	8,9884
28886	-14,74	-0,50092	29,175	9,0006
28887	-11,067	-0,99268	25,387	9,8334
28888	-11,26	-0,99362	26,069	9,8941
28889	-10,828	-1,4886	25,816	9,9548
28890	-10,401	-0,99172	25,561	9,9945
28891	-10,828	-0,49633	25,816	9,9702
28892	-12,341	-1,003	34,67	10,824
28893	-11,663	-1,0038	34,861	11,264
28894	-11,902	-1,506	34,426	11,044
28895	-11,9	-0,50195	34,426	11,054
28896	21,194	-0,98839	15,121	8,2772
28897	21,871	-0,98907	14,921	8,0976
28898	21,43	-1,4792	14,685	8,3856
28899	20,99	-0,98509	14,456	8,6288
28900	21,431	-0,49332	14,688	8,4171
28901	-15,113	-1,0001	31,648	8,9991
28902	-14,909	-1,0003	30,97	9,0495
28903	-14,673	-1,4998	31,409	9,202
28904	-14,672	-0,50018	31,409	9,2112
28905	-13,225	-1,001	35,16	10,386
28906	-12,548	-1,0017	35,354	10,805
28907	-12,785	-1,5023	34,917	10,606
28908	-12,784	-0,50105	34,916	10,611
28909	21,398	-0,99201	15,79	7,8793
28910	20,722	-0,9921	15,987	8,0753
28911	20,958	-1,4902	15,555	8,1536
28912	20,518	-0,98829	15,321	8,3887
28913	20,957	-0,49507	15,55	8,1868
28914	22,075	-0,99268	15,589	7,6989
28915	22,75	-0,99315	15,383	7,4449
28916	22,31	-1,4857	15,151	7,7947
28917	22,311	-0,49574	15,153	7,8267
28918	-13,43	-1,	35,842	10,351
28919	-14,105	-0,99983	35,641	9,9655
28920	-13,668	-1,5001	35,403	10,171
28921	-13,666	-0,49997	35,403	10,171
28922	21,602	-0,99473	16,463	7,5204
28923	22,278	-0,99518	16,258	7,2541
28924	21,838	-1,4897	16,024	7,5876
28925	21,839	-0,49694	16,026	7,6177
28926	-15,787	-0,99959	31,451	8,6421
28927	-15,994	-0,9999	32,128	8,5906
28928	-15,555	-1,5007	31,887	8,7965
28929	-15,551	-0,49995	31,89	8,8057
28930	-11,738	-0,99359	25,209	9,6443
28931	-11,54	-0,99276	24,523	9,5944
28932	-11,305	-1,4886	24,957	9,7034
28933	-10,876	-0,99182	24,703	9,7417
28934	-11,306	-0,49635	24,958	9,7189
28935	-15,584	-0,99982	30,773	8,6862
28936	-15,383	-1,0003	30,094	8,7467
28937	-15,146	-1,4996	30,532	8,8907
28938	-15,145	-0,50017	30,532	8,9008
28939	-11,19	-1,0031	35,736	11,716
28940	-11,869	-1,0026	35,545	11,236
28941	-11,432	-1,5046	35,3	11,474
28942	-11,428	-0,50187	35,301	11,486
28943	-12,129	-0,99586	26,574	9,734
28944	-11,931	-0,99453	25,891	9,7054
28945	-11,691	-1,4913	26,322	9,8253
28946	-11,692	-0,49729	26,322	9,8404
28947	-16,258	-0,99912	30,575	8,3324
28948	-16,465	-0,99955	31,251	8,2676
28949	-16,023	-1,4991	31,013	8,4811
28950	-16,022	-0,49964	31,014	8,4899
28951	-13,	-0,9987	27,073	9,5151
28952	-12,802	-0,99705	26,391	9,5169
28953	-12,564	-1,4949	26,825	9,6351
28954	-12,565	-0,49857	26,825	9,6498
28955	-10,719	-1,0009	36,609	12,207
28956	-11,397	-1,0013	36,42	11,678
28957	-10,958	-1,5024	36,177	11,945
28958	-10,955	-0,5012	36,176	11,958
28959	-12,605	-0,99572	25,708	9,4874
28960	-12,404	-0,99448	25,023	9,4699
28961	-12,17	-1,4912	25,459	9,5767
28962	-12,171	-0,49724	25,46	9,592
28963	-13,88	-1,0013	27,567	9,2365
28964	-13,672	-1,0002	26,885	9,27
28965	-13,434	-1,4995	27,321	9,3881
28966	-13,435	-0,50013	27,321	9,4021
28967	-16,057	-0,99956	29,896	8,3871
28968	-15,859	-0,99994	29,218	8,4594
28969	-15,622	-1,5011	29,65	8,5943
28970	-15,623	-0,50008	29,657	8,6049
28971	-14,561	-1,0023	27,375	8,96
28972	-14,768	-1,0021	28,056	8,9014
28973	-14,324	-1,5033	27,812	9,0785
28974	-14,324	-0,5012	27,812	9,0921
28975	-13,474	-0,9985	26,203	9,2705
28976	-13,271	-0,99693	25,521	9,2851
28977	-13,037	-1,4946	25,956	9,3899
28978	-13,038	-0,49847	25,957	9,4049
28979	-16,731	-0,99883	29,698	8,0356
28980	-16,938	-0,99933	30,374	7,9558
28981	-16,496	-1,4987	30,136	8,1766
28982	-16,495	-0,49948	30,137	8,1862
28983	-10,257	-0,99589	37,481	12,743
28984	-10,927	-0,99845	37,293	12,152
28985	-10,484	-1,4976	37,047	12,46
28986	-10,485	-0,49973	37,044	12,474
28987	-14,353	-1,0011	26,693	8,9917
28988	-14,146	-0,99995	26,012	9,037
28989	-13,908	-1,4993	26,448	9,1434
28990	-13,909	-0,50003	26,449	9,1579
28991	-9,8072	-0,98758	38,36	13,327
28992	-10,464	-0,99355	38,167	12,662
28993	-10,026	-1,4855	37,922	13,018
28994	-10,029	-0,49617	37,919	13,036
28995	-12,753	-1,0008	36,036	10,761
28996	-12,076	-1,0008	36,229	11,208
28997	-12,315	-1,5021	35,792	10,998
28998	-12,312	-0,5007	35,792	11,004
28999	-15,241	-1,0019	27,18	8,6538
29000	-15,034	-1,0019	26,5	8,7253
29001	-14,797	-1,5029	26,937	8,8327
29002	-14,798	-0,50107	26,937	8,8468
29003	-12,957	-0,99996	36,717	10,71
29004	-13,632	-0,99993	36,519	10,312
29005	-13,195	-1,5004	36,281	10,53
29006	-13,194	-0,50006	36,281	10,528
29007	-9,3679	-0,97782	39,249	13,963
29008	-10,011	-0,9858	39,048	13,208
29009	-9,5802	-1,4695	38,804	13,628
29010	-9,585	-0,49141	38,801	13,652
29011	20,926	-0,99482	16,66	7,7174
29012	20,251	-0,99479	16,858	7,9254
29013	20,486	-1,4899	16,419	7,9815
29014	20,046	-0,99266	16,183	8,2065
29015	20,486	-0,49703	16,421	8,0095
29016	-12,011	-0,99296	23,657	9,381
29017	-12,206	-0,99365	24,337	9,4202
29018	-11,774	-1,4888	24,088	9,477
29019	-11,341	-0,99199	23,834	9,5133
29020	-11,775	-0,49641	24,088	9,4927
29021	-8,9379	-0,96875	40,149	14,646
29022	-9,5634	-0,97724	39,936	13,792
29023	-9,1445	-1,4544	39,698	14,289
29024	-9,1507	-0,48641	39,696	14,324
29025	-15,655	-1,0008	28,54	8,5192
29026	-15,448	-1,0018	27,86	8,5977
29027	-15,213	-1,5023	28,299	8,7184
29028	-15,212	-0,50094	28,299	8,7312
29029	-8,5119	-0,96164	41,058	15,362
29030	-9,1328	-0,96967	40,834	14,385
29031	-8,7186	-1,4427	40,603	14,991
29032	-8,7251	-0,48234	40,602	15,038
29033	21,129	-0,996	17,337	7,3953
29034	21,806	-0,99604	17,132	7,1206
29035	21,366	-1,4928	16,899	7,4377
29036	21,366	-0,49779	16,9	7,4656
29037	-12,48	-0,99323	22,789	9,1942
29038	-12,681	-0,99387	23,473	9,2212
29039	-12,246	-1,4892	23,225	9,2767
29040	-11,815	-0,99242	22,974	9,3112
29041	-12,247	-0,49655	23,225	9,2927
29042	-16,533	-0,99921	29,02	8,1027
29043	-16,335	-0,99965	28,342	8,1899
29044	-16,1	-1,499	28,781	8,3153
29045	-16,099	-0,49986	28,781	8,3269
29046	-13,149	-0,99403	22,601	9,0496
29047	-12,952	-0,99337	21,922	9,0351
29048	-12,713	-1,4896	22,353	9,1035
29049	-12,282	-0,99275	22,104	9,1362
29050	-12,714	-0,49668	22,353	9,12
29051	-17,205	-0,99865	28,82	7,7542
29052	-17,411	-0,99916	29,496	7,6579
29053	-16,969	-1,4984	29,258	7,8869
29054	-16,968	-0,49935	29,259	7,8974
29055	-13,07	-0,99569	24,836	9,2673
29056	-12,876	-0,99456	24,154	9,2596
29057	-12,637	-1,4912	24,586	9,3543
29058	-12,638	-0,49724	24,586	9,37
29059	-12,28	-0,99998	36,91	11,148
29060	-11,604	-0,99881	37,105	11,633
29061	-11,842	-1,5002	36,668	11,412
29062	-11,839	-0,50008	36,668	11,418
29063	-13,943	-0,99838	25,33	9,0509
29064	-13,744	-0,99688	24,65	9,0762
29065	-13,501	-1,4946	25,084	9,1714
29066	-13,503	-0,49845	25,085	9,1868
29067	-16,128	-1,0006	27,663	8,2651
29068	-15,921	-1,0015	26,984	8,3578
29069	-15,685	-1,5019	27,422	8,4681
29070	-15,685	-0,50082	27,422	8,4816
29071	-12,483	-0,99921	37,592	11,068
29072	-13,16	-0,99986	37,393	10,65
29073	-12,722	-1,4999	37,154	10,89
29074	-12,721	-0,4999	37,156	10,886
29075	-14,827	-1,0008	25,819	8,7694
29076	-14,621	-0,99969	25,139	8,8275
29077	-14,383	-1,499	25,575	8,9219
29078	-14,383	-0,49992	25,576	8,9369
29079	-17,006	-0,99909	28,142	7,8369
29080	-16,807	-0,99951	27,465	7,9404
29081	-16,572	-1,4988	27,904	8,0562
29082	-16,571	-0,49979	27,903	8,0686
29083	-13,55	-0,99575	23,968	9,0689
29084	-13,349	-0,99468	23,285	9,0752
29085	-13,114	-1,4914	23,721	9,1561
29086	-13,115	-0,49732	23,722	9,1722
29087	-15,508	-1,0014	25,625	8,5128
29088	-15,714	-1,0015	26,304	8,4274
29089	-15,271	-1,5023	26,062	8,6088
29090	-15,271	-0,50086	26,062	8,6235
29091	-14,421	-0,99819	24,458	8,8527
29092	-14,218	-0,99678	23,779	8,8923
29093	-13,984	-1,4946	24,214	8,9722
29094	-13,985	-0,49843	24,214	8,9881
29095	-14,017	-0,99571	23,096	8,8995
29096	-13,821	-0,99511	22,414	8,918
29097	-13,583	-1,4916	22,849	8,9855
29098	-13,583	-0,49736	22,849	9,0022
29099	-15,301	-1,0004	24,945	8,5702
29100	-15,095	-0,99929	24,266	8,6422
29101	-14,857	-1,4986	24,702	8,7241
29102	-14,858	-0,49976	24,703	8,7397
29103	-17,678	-0,99858	27,942	7,4894
29104	-17,884	-0,99908	28,618	7,3752
29105	-17,443	-1,4983	28,38	7,6134
29106	-17,441	-0,4993	28,381	7,6246
29107	-16,187	-1,001	25,428	8,2227
29108	-15,981	-1,0009	24,75	8,3233
29109	-15,744	-1,5015	25,187	8,4074
29110	-15,744	-0,50059	25,187	8,4228
29111	-14,892	-0,99787	23,587	8,6822
29112	-14,692	-0,99654	22,908	8,7351
29113	-14,451	-1,4944	23,343	8,8034
29114	-14,451	-0,49835	23,343	8,82
29115	-16,394	-1,001	26,107	8,1386
29116	-16,6	-1,0004	26,786	8,0304
29117	-16,158	-1,5014	26,546	8,2382
29118	-16,157	-0,50064	26,545	8,2523
29119	-11,807	-0,99803	37,787	11,545
29120	-11,133	-0,99611	37,979	12,082
29121	-11,37	-1,4967	37,546	11,85
29122	-11,366	-0,49873	37,545	11,856
29123	-15,571	-0,9988	23,392	8,4815
29124	-15,775	-0,99979	24,071	8,3951
29125	-15,331	-1,4979	23,829	8,551
29126	-15,332	-0,49952	23,83	8,5674
29127	-13,624	-0,99444	21,735	8,9055
29128	-13,423	-0,99337	21,056	8,906
29129	-13,189	-1,4898	21,49	8,9588
29130	-12,756	-0,99279	21,242	8,9902
29131	-13,189	-0,49669	21,491	8,9758
29132	-12,01	-0,99782	38,472	11,423
29133	-12,687	-0,99902	38,271	10,974
29134	-12,248	-1,498	38,032	11,248
29135	-12,247	-0,49931	38,034	11,242
29136	-14,496	-0,99594	22,225	8,7551
29137	-14,295	-0,99499	21,546	8,7897
29138	-14,075	-1,4988	21,969	8,8381
29139	-14,06	-0,49775	21,981	8,8591
29140	-16,867	-1,0006	25,231	7,941
29141	-17,073	-1,	25,908	7,816
29142	-16,631	-1,5008	25,669	8,0294
29143	-16,63	-0,50041	25,669	8,0441
29144	-15,372	-0,99747	22,713	8,5354
29145	-15,166	-0,99611	22,037	8,6055
29146	-14,931	-1,494	22,471	8,6576
29147	-14,932	-0,49819	22,472	8,675
29148	-17,479	-0,999	27,265	7,589
29149	-17,279	-0,99935	26,587	7,71
29150	-17,044	-1,4986	27,026	7,8159
29151	-17,043	-0,49972	27,026	7,8289
29152	-16,251	-0,99919	23,195	8,2446
29153	-16,046	-0,99808	22,519	8,3482
29154	-15,825	-1,502	22,945	8,398
29155	-15,809	-0,49928	22,956	8,4202
29156	-16,455	-1,0002	23,875	8,1579
29157	-16,661	-1,0004	24,552	8,0408
29158	-16,218	-1,5004	24,312	8,2295
29159	-16,218	-0,50027	24,312	8,2455
29160	-8,0764	-0,95415	41,968	16,093
29161	-8,6992	-0,96371	41,739	14,979
29162	-8,2922	-1,434	41,513	15,72
29163	-8,2987	-0,4793	41,513	15,773
29164	-17,134	-0,99982	23,676	7,8828
29165	-16,928	-0,99941	23,	8,0178
29166	-16,691	-1,4994	23,437	8,0761
29167	-16,692	-0,49991	23,437	8,093
29168	-18,151	-0,99855	27,065	7,2421
29169	-18,357	-0,99907	27,74	7,109
29170	-17,916	-1,4983	27,503	7,3569
29171	-17,914	-0,49928	27,503	7,3687
29172	3,2554	-1,0539	9,3541	7,1619
29173	2,5411	-1,049	9,4167	7,0824
29174	2,918	-1,539	9,7759	7,0689
29175	3,2781	-1,0332	10,148	7,0659
29176	2,5828	-1,0372	10,198	6,991
29177	2,9026	-0,51851	9,7727	7,0705
29178	-17,34	-1,0001	24,354	7,766
29179	-17,546	-0,99971	25,031	7,623
29180	-17,104	-1,5002	24,792	7,8426
29181	-17,103	-0,50017	24,792	7,8581
29182	3,902	-1,0782	8,4959	7,3731
29183	3,183	-1,0689	8,5499	7,279
29184	3,6645	-1,5811	8,9391	7,2705
29185	4,0643	-1,0458	9,3651	7,2592
29186	3,5898	-0,53535	8,9296	7,2654
29187	-17,952	-0,9989	26,387	7,3598
29188	-17,752	-0,99917	25,709	7,4996
29189	-17,516	-1,4985	26,148	7,595
29190	-17,516	-0,49963	26,148	7,6086
29191	4,5375	-1,076	7,5902	7,6253
29192	3,8112	-1,0914	7,6732	7,5098
29193	4,2742	-1,5995	8,0712	7,4983
29194	4,6806	-1,0589	8,3757	7,506
29195	4,2142	-0,54286	8,0622	7,4947
29196	-18,624	-0,99851	26,187	7,0132
29197	-18,83	-0,99905	26,862	6,8596
29198	-18,389	-1,4982	26,625	7,1184
29199	-18,387	-0,49927	26,626	7,1308
29200	19,78	-0,99577	17,733	7,8228
29201	20,454	-0,99597	17,535	7,6046
29202	20,014	-1,4967	17,299	7,8547
29203	19,575	-0,99457	17,059	8,0708
29204	20,015	-0,49776	17,296	7,882
29205	-7,6234	-0,94624	42,869	16,817
29206	-8,255	-0,95654	42,642	15,543
29207	-7,8494	-1,4219	42,423	16,463
29208	-7,8561	-0,47484	42,423	16,499
29209	-18,018	-0,99934	24,154	7,4524
29210	-17,813	-0,99953	23,477	7,615
29211	-17,577	-1,4994	23,916	7,6791
29212	-17,576	-0,49991	23,916	7,6953
29213	5,1685	-1,0617	6,6796	7,9039
29214	4,4466	-1,076	6,7514	7,776
29215	4,8713	-1,5745	7,1716	7,7582
29216	5,2894	-1,0497	7,4595	7,7733
29217	4,8453	-0,53313	7,1205	7,7686
29218	-18,424	-0,99878	25,509	7,1504
29219	-18,224	-0,99897	24,832	7,3104
29220	-17,988	-1,4982	25,271	7,3947
29221	-17,988	-0,49954	25,27	7,409
29222	19,982	-0,99639	18,41	7,5371
29223	19,307	-0,99682	18,609	7,7644
29224	19,544	-1,4937	18,17	7,7765
29225	19,104	-0,99549	17,933	7,9825
29226	19,544	-0,49802	18,17	7,8009
29227	5,782	-1,0517	5,8157	8,1858
29228	5,0566	-1,0684	5,868	8,0468
29229	5,4754	-1,57	6,2272	8,0452
29230	5,9143	-1,0444	6,5944	8,0584
29231	5,4566	-0,52855	6,2512	8,0454
29232	-19,097	-0,99846	25,309	6,8039
29233	-19,303	-0,99902	25,984	6,6286
29234	-18,861	-1,4982	25,748	6,8992
29235	-18,861	-0,49924	25,748	6,9119
29236	-7,1766	-0,94209	43,758	17,433
29237	-7,7999	-0,94981	43,533	16,035
29238	-7,3873	-1,4084	43,315	17,191
29239	-7,3926	-0,4714	43,314	17,172
29240	6,383	-1,0505	4,9707	8,4686
29241	5,6604	-1,0694	5,014	8,3179
29242	6,1234	-1,5863	5,3896	8,3366
29243	6,5335	-1,0384	5,7485	8,3535
29244	6,0521	-0,52314	5,4211	8,3232
29245	-18,897	-0,99865	24,632	6,9619
29246	-18,697	-0,99874	23,954	7,1435
29247	-18,461	-1,498	24,393	7,2162
29248	-18,461	-0,49943	24,393	7,2312
29249	6,9731	-1,0431	4,1198	8,7529
29250	6,2564	-1,0717	4,166	8,5855
29251	6,7114	-1,6221	4,5974	8,6095
29252	7,117	-1,0497	4,9044	8,6483
29253	6,6584	-0,52735	4,5598	8,6129
29254	-19,57	-0,9984	24,432	6,6152
29255	-19,776	-0,99898	25,106	6,4167
29256	-19,334	-1,4981	24,871	6,6997
29257	-19,334	-0,49922	24,87	6,713
29258	7,5577	-1,029	3,2644	9,0319
29259	6,8871	-1,0323	3,2878	8,863
29260	7,2724	-1,5939	3,7035	8,8917
29261	7,666	-1,0452	4,0536	8,9372
29262	7,2493	-0,51575	3,6965	8,8998
29263	-7,3354	-0,94733	44,412	16,423
29264	-6,7384	-0,94603	44,606	17,945
29265	-6,9774	-1,4259	44,186	17,722
29266	-6,9641	-0,47069	44,19	17,621
29267	20,656	-0,99658	18,212	7,3175
29268	21,333	-0,99674	18,008	7,0357
29269	20,893	-1,4977	17,774	7,338
29270	20,893	-0,49821	17,774	7,3638
29271	-10,667	-0,99177	38,856	12,555
29272	-11,336	-0,9959	38,665	11,952
29273	-10,896	-1,4897	38,418	12,314
29274	-10,898	-0,49739	38,416	12,318
29275	8,1491	-1,0153	2,4179	9,3015
29276	7,4892	-1,0296	2,4364	9,1197
29277	7,8829	-1,526	2,8389	9,1764
29278	8,2447	-1,0275	3,1988	9,2305
29279	7,8199	-0,51329	2,847	9,1704
29280	-10,868	-0,9913	39,541	12,365
29281	-10,206	-0,98522	39,736	13,05
29282	-10,432	-1,4796	39,296	12,798
29283	-10,436	-0,49439	39,295	12,806
29284	20,183	-0,9968	19,087	7,282
29285	20,86	-0,99805	18,885	6,9943
29286	20,42	-1,4987	18,649	7,2826
29287	20,42	-0,49837	18,649	7,3067
29288	2,4687	-1,064	8,6124	7,1996
29289	1,7802	-1,0511	8,6833	7,1388
29290	2,1314	-1,5858	9,0875	7,0985
29291	1,8371	-1,0534	9,4969	7,0184
29292	2,1611	-0,53048	9,0548	7,1057
29293	8,7288	-1,002	1,5993	9,5549
29294	8,1231	-1,0099	1,5959	9,3718
29295	8,4433	-1,5159	2,0229	9,4294
29296	8,7944	-1,0062	2,3724	9,5019
29297	8,4247	-0,502	2,0047	9,4399
29298	-11,537	-0,99542	39,35	11,769
29299	-12,213	-0,99815	39,152	11,275
29300	-11,774	-1,4947	38,914	11,6
29301	-11,774	-0,49851	38,914	11,592
29302	9,3415	-0,98575	0,81328	9,807
29303	8,7232	-1,0103	0,80347	9,5999
29304	9,0584	-1,4846	1,1961	9,6903
29305	9,343	-0,99036	1,5796	9,7595
29306	9,0066	-0,50005	1,2031	9,6878
29307	3,0922	-1,0821	7,7271	7,4171
29308	2,3944	-1,0811	7,7919	7,3421
29309	2,7855	-1,6402	8,1554	7,3084
29310	2,7802	-0,53352	8,1922	7,3031
29311	-11,069	-0,99154	40,225	12,095
29312	-11,739	-0,99622	40,028	11,544
29313	-11,3	-1,4896	39,787	11,941
29314	-11,301	-0,49691	39,786	11,935
29315	3,7203	-1,0914	6,8343	7,6614
29316	2,9886	-1,0849	6,8971	7,5701
29317	3,3808	-1,6621	7,305	7,5296
29318	3,4083	-0,54857	7,2841	7,54
29319	-10,407	-0,98546	40,42	12,774
29320	-9,7584	-0,97816	40,621	13,545
29321	-9,9708	-1,4682	40,178	13,304
29322	-9,9762	-0,49083	40,176	13,318
29323	-14,094	-0,99391	20,867	8,7926
29324	-13,895	-0,99316	20,189	8,8089
29325	-13,656	-1,4897	20,62	8,8454
29326	-13,223	-0,99275	20,374	8,876
29327	-13,657	-0,49667	20,621	8,8631
29328	-10,608	-0,98655	41,104	12,389
29329	-11,272	-0,99339	40,905	11,764
29330	-10,836	-1,4831	40,664	12,254
29331	-10,838	-0,49463	40,664	12,251
29332	4,3346	-1,0827	5,9397	7,9207
29333	3,6141	-1,0819	6,0026	7,8163
29334	3,8933	-1,687	6,4323	7,7631
29335	4,0217	-0,54284	6,3874	7,7939
29336	10,035	-0,95885	5,4944e-002	10,079
29337	9,4707	-0,9755	5,0516e-002	9,8693
29338	9,6823	-1,4457	0,43395	9,9374
29339	9,9371	-0,96311	0,79571	10,021
29340	9,6764	-0,4857	0,42351	9,9563
29341	-9,9594	-0,97925	41,305	13,153
29342	-9,3201	-0,97174	41,515	14,017
29343	-9,5347	-1,4578	41,067	13,787
29344	-9,5406	-0,48733	41,066	13,808
29345	-14,966	-0,99516	21,358	8,6419
29346	-14,768	-0,99412	20,679	8,6924
29347	-14,545	-1,4979	21,104	8,726
29348	-14,531	-0,49724	21,113	8,7468
29349	-10,151	-0,98125	41,987	12,628
29350	-10,805	-0,98993	41,785	11,923
29351	-10,377	-1,4764	41,544	12,527
29352	-10,378	-0,49192	41,544	12,529
29353	-9,512	-0,97374	42,198	13,487
29354	-8,8778	-0,9661	42,413	14,442
29355	-9,0936	-1,4493	41,965	14,249
29356	-9,0996	-0,48441	41,965	14,272
29357	4,9349	-1,086	5,0662	8,1814
29358	4,2357	-1,0938	5,1006	8,0714
29359	4,6259	-1,5743	5,4579	8,0589
29360	4,6265	-0,53982	5,5002	8,0564
29361	-15,841	-0,99672	21,844	8,4196
29362	-15,64	-0,99528	21,167	8,5057
29363	-15,4	-1,4932	21,602	8,5438
29364	-15,4	-0,49792	21,603	8,562
29365	-9,6986	-0,97672	42,875	12,783
29366	-10,348	-0,98657	42,668	11,993
29367	-9,9199	-1,4703	42,43	12,736
29368	-9,9243	-0,48934	42,43	12,737
29369	-14,379	-0,99214	19,327	8,7449
29370	-14,569	-0,99337	20,002	8,7116
29371	-14,132	-1,4892	19,757	8,7645
29372	-13,697	-0,99243	19,512	8,795
29373	-14,132	-0,49649	19,758	8,783
29374	-16,723	-0,9983	22,324	8,1222
29375	-16,518	-0,99694	21,649	8,2439
29376	-16,293	-1,4995	22,077	8,2805
29377	-16,281	-0,4988	22,085	8,302
29378	-15,058	-0,99157	19,139	8,6636
29379	-14,861	-0,98984	18,467	8,7181
29380	-14,626	-1,4861	18,894	8,7174
29381	-14,19	-0,99077	18,651	8,7492
29382	-14,626	-0,49565	18,895	8,737
29383	5,5338	-1,0906	4,2093	8,4374
29384	4,8488	-1,0987	4,2295	8,3186
29385	5,2075	-1,5742	4,6011	8,3129
29386	5,2328	-0,54621	4,6376	8,3172
29387	-15,442	-0,99424	20,488	8,5585
29388	-15,247	-0,9928	19,814	8,627
29389	-15,018	-1,4973	20,238	8,6449
29390	-15,005	-0,49688	20,246	8,6661
29391	-17,607	-0,99912	22,801	7,7501
29392	-17,402	-0,99846	22,125	7,9046
29393	-17,165	-1,498	22,562	7,9489
29394	-17,165	-0,4995	22,562	7,9667
29395	-16,317	-0,9955	20,972	8,3317
29396	-16,121	-0,99362	20,298	8,436
29397	-15,879	-1,4914	20,73	8,4578
29398	-15,879	-0,49736	20,731	8,4771
29399	-15,926	-0,99218	19,623	8,5071
29400	-15,733	-0,99041	18,951	8,5962
29401	-15,49	-1,487	19,381	8,5977
29402	-15,49	-0,49592	19,382	8,6178
29403	-16,993	-0,99527	20,778	8,169
29404	-17,197	-0,9971	21,451	8,0275
29405	-16,755	-1,4935	21,212	8,1934
29406	-16,755	-0,49814	21,213	8,2124
29407	-18,491	-0,99894	23,277	7,3056
29408	-18,286	-0,99893	22,601	7,4894
29409	-18,049	-1,4987	23,039	7,5402
29410	-18,049	-0,49962	23,039	7,5572
29411	-16,796	-0,99339	20,103	8,2753
29412	-16,599	-0,99221	19,43	8,4007
29413	-16,362	-1,4878	19,863	8,4039
29414	-16,362	-0,49626	19,864	8,4242
29415	10,809	-0,93834	-0,58262	10,385
29416	10,2	-0,95494	-0,68544	10,129
29417	10,406	-1,4117	-0,31286	10,218
29418	10,652	-0,94514	0,12334	10,317
29419	10,394	-0,47315	-0,31363	10,235
29420	-17,671	-0,99538	20,578	7,9633
29421	-17,467	-0,99317	19,908	8,1266
29422	-17,229	-1,4901	20,341	8,134
29423	-17,23	-0,49713	20,343	8,1541
29424	-19,37	-0,99849	23,754	6,7954
29425	-19,169	-0,99849	23,077	7,0004
29426	-18,933	-1,4977	23,515	7,0606
29427	-18,933	-0,49931	23,515	7,0765
29428	0,92164	-0,98841	7,9631	7,2295
29429	1,7059	-1,0681	7,8627	7,2811
29430	1,3577	-1,5446	8,2521	7,1916
29431	1,0936	-1,026	8,7465	7,0952
29432	1,4052	-0,52059	8,3393	7,18
29433	-9,0644	-0,96908	43,09	13,735
29434	-8,4316	-0,96011	43,306	14,773
29435	-8,6492	-1,4404	42,861	14,648
29436	-8,6559	-0,48169	42,862	14,655
29437	0,81821	-1,0005	7,1037	7,3931
29438	0,1112	-0,95198	7,0439	7,3936
29439	0,29636	-1,4341	7,6177	7,2841
29440	0,25032	-0,95391	8,0356	7,2022
29441	0,5609	-0,46782	7,6035	7,2906
29442	-9,2413	-0,97341	43,763	12,837
29443	-9,8879	-0,9841	43,552	11,968
29444	-9,4669	-1,4649	43,317	12,849
29445	-9,4729	-0,48739	43,319	12,84
29446	-20,044	-0,99832	23,554	6,4483
29447	-20,249	-0,99893	24,228	6,225
29448	-19,807	-1,498	23,993	6,5213
29449	-19,807	-0,49918	23,993	6,5354
29450	-8,6085	-0,96443	43,98	13,872
29451	-7,9587	-0,95505	44,187	15,034
29452	-8,1995	-1,4287	43,75	14,944
29453	-8,2072	-0,47841	43,751	14,898
29454	5,491	-1,088	3,3496	8,5647
29455	6,1705	-1,0609	3,3341	8,6976
29456	5,7467	-1,4555	3,7484	8,5528
29457	5,8349	-0,54435	3,781	8,5728
29458	-8,7679	-0,97138	44,65	12,799
29459	-9,4213	-0,98257	44,437	11,847
29460	-9,0025	-1,4597	44,206	12,867
29461	-9,0098	-0,48602	44,208	12,825
29462	-8,1182	-0,962	44,857	13,959
29463	-7,4637	-0,96037	45,04	15,256
29464	-7,7036	-1,4251	44,619	15,232
29465	-7,7103	-0,47664	44,623	15,082
29466	2,2907	-1,0839	6,9619	7,4961
29467	1,6025	-1,0802	7,0033	7,4449
29468	1,9235	-1,5984	7,3607	7,3916
29469	2,0126	-0,54754	7,4137	7,3895
29470	-8,2777	-0,97608	45,519	12,719
29471	-8,94	-0,98192	45,319	11,67
29472	-8,5092	-1,4705	45,098	12,819
29473	-8,5261	-0,48536	45,091	12,711
29474	2,8824	-1,0754	6,0654	7,7267
29475	2,1984	-1,1011	6,1033	7,664
29476	2,5264	-1,605	6,535	7,5999
29477	2,5904	-0,53637	6,5045	7,6163
29478	-18,081	-0,99826	21,925	7,6445
29479	-17,876	-0,99721	21,251	7,8203
29480	-17,639	-1,4962	21,687	7,8496
29481	-17,639	-0,49896	21,688	7,8682
29482	1,5101	-1,0974	6,1447	7,614
29483	0,78408	-1,0598	6,1366	7,5895
29484	1,1217	-1,5521	6,561	7,5132
29485	1,2029	-0,53269	6,628	7,5056
29486	7,7066e-002	-1,0113	6,0769	7,5921
29487	-0,6448	-0,97855	5,9551	7,6224
29488	-0,2479	-1,5097	6,5405	7,4998
29489	-0,36608	-0,95921	7,1683	7,3685
29490	-0,52586	-0,95726	6,6038	7,4899
29491	-0,2017	-0,48416	6,5596	7,4971
29492	2,8253	-1,0826	5,1941	7,8941
29493	3,5152	-1,093	5,1635	7,9687
29494	3,1179	-1,5951	5,8613	7,791
29495	3,2074	-0,53903	5,6092	7,8545
29496	2,1413	-1,1084	5,232	7,8326
29497	1,4506	-1,1184	5,247	7,7908
29498	1,7679	-1,618	5,6936	7,7182
29499	1,8278	-0,56475	5,6965	7,7258
29500	0,72451	-1,0808	5,2389	7,7677
29501	-9,6201e-003	-1,0582	5,2008	7,7664
29502	0,33087	-1,5454	5,6676	7,6771
29503	0,40988	-0,52714	5,7233	7,6701
29504	2,7861	-1,0909	4,3075	8,0538
29505	2,102	-1,1051	4,3106	8,0006
29506	2,3711	-1,5963	4,8486	7,9235
29507	2,4575	-0,5436	4,7632	7,9505
29508	-18,759	-0,9982	21,725	7,391
29509	-18,964	-0,99848	22,4	7,1841
29510	-18,522	-1,4976	22,163	7,4275
29511	-18,522	-0,4993	22,163	7,4456
29512	3,476	-1,1013	4,2768	8,1269
29513	4,1497	-1,1065	4,2638	8,2106
29514	3,8185	-1,6013	4,7096	8,0911
29515	3,8345	-0,55401	4,7063	8,0986
29516	1,4112	-1,1152	4,3255	7,9598
29517	0,71183	-1,1416	4,3323	7,9357
29518	1,0572	-1,6856	4,7868	7,864
29519	1,0616	-0,55369	4,8512	7,8565
29520	2,785	-1,1088	3,3869	8,2013
29521	3,4456	-1,1092	3,3957	8,2647
29522	3,0919	-1,615	3,8931	8,1537
29523	3,1135	-0,5473	3,8464	8,1682
29524	-18,554	-0,99714	21,05	7,5677
29525	-18,35	-0,9958	20,377	7,7668
29526	-18,112	-1,4937	20,813	7,78
29527	-18,113	-0,49824	20,814	7,7997
29528	4,806	-1,0961	3,3698	8,4478
29529	4,1194	-1,1144	3,3827	8,3468
29530	4,5255	-1,5988	3,7901	8,3425
29531	4,4649	-0,55251	3,8214	8,3355
29532	-19,437	-0,99792	21,523	7,0899
29533	-19,232	-0,99736	20,849	7,3219
29534	-18,995	-1,4962	21,286	7,3431
29535	-18,995	-0,4989	21,287	7,3622
29536	2,1008	-1,123	3,39	8,1492
29537	1,4184	-1,1325	3,382	8,1126
29538	1,6723	-1,6856	3,8337	8,056
29539	1,741	-0,56151	3,8726	8,0595
29540	-19,843	-0,99831	22,876	6,6524
29541	-19,642	-0,9982	22,199	6,8827
29542	-19,406	-1,4974	22,638	6,9296
29543	-19,406	-0,49918	22,638	6,9463
29544	2,7924	-1,1337	2,469	8,3211
29545	2,1432	-1,1318	2,4461	8,2736
29546	2,4228	-1,7198	2,8435	8,2473
29547	2,4366	-0,56147	2,9368	8,2435
29548	-20,517	-0,99822	22,676	6,3045
29549	-20,722	-0,99888	23,351	6,0545
29550	-20,281	-1,4979	23,115	6,3654
29551	-20,28	-0,49914	23,115	6,3803
29552	4,8197	-1,0965	2,4774	8,5642
29553	5,4577	-1,0894	2,4946	8,6694
29554	5,1166	-1,6098	2,9221	8,5555
29555	5,128	-0,54363	2,9303	8,5691
29556	3,4531	-1,1342	2,4778	8,3834
29557	4,1331	-1,1148	2,4904	8,4645
29558	3,759	-1,6595	2,9132	8,3661
29559	3,7738	-0,56193	2,9441	8,3726
29560	-20,316	-0,99811	21,999	6,5345
29561	-20,114	-0,99787	21,322	6,7924
29562	-19,878	-1,497	21,76	6,8248
29563	-19,878	-0,49902	21,76	6,8426
29564	3,4948	-1,1397	1,557	8,4733
29565	2,8448	-1,153	1,5283	8,4101
29566	3,1658	-1,7075	2,0266	8,4027
29567	3,1323	-0,57224	2,0116	8,4074
29568	-20,991	-0,99849	21,797	6,1852
29569	-21,195	-0,99881	22,473	5,9066
29570	-20,754	-1,4978	22,238	6,2334
29571	-20,754	-0,49909	22,238	6,2493
29572	4,8302	-1,1064	1,605	8,6477
29573	4,1749	-1,1204	1,5695	8,5535
29574	4,3673	-1,6685	2,1127	8,536
29575	4,4758	-0,55289	2,0432	8,5667
29576	11,671	-0,92606	-1,0424	10,748
29577	11,065	-0,93647	-1,2262	10,457
29578	11,231	-1,3915	-0,85062	10,547
29579	11,422	-0,93113	-0,39504	10,648
29580	11,224	-0,46519	-0,85161	10,569
29581	-6,8667	-0,95907	45,234	16,774
29582	-6,1855	-0,95828	45,342	19,077
29583	-6,4929	-1,3989	45,024	18,375
29584	-6,5163	-0,47534	45,012	17,973
29585	19,509	-0,99723	19,286	7,5107
29586	18,836	-0,99678	19,484	7,7459
29587	19,071	-1,4947	19,046	7,7393
29588	18,633	-0,9965	18,808	7,937
29589	19,072	-0,4988	19,046	7,762
29590	6,1371	-1,0623	2,479	8,8006
29591	6,8187	-1,0329	2,4598	8,9526
29592	6,5606	-1,4362	2,8818	8,8465
29593	6,4788	-0,51655	2,9027	8,8327
29594	12,594	-0,92204	-1,3869	11,173
29595	11,985	-0,92713	-1,6245	10,843
29596	12,144	-1,4445	-1,1886	10,95
29597	12,261	-0,92461	-0,7826	11,03
29598	12,118	-0,46087	-1,2332	10,965
29599	5,4682	-1,0993	1,6221	8,7516
29600	6,1351	-1,0748	1,6337	8,8799
29601	5,7655	-1,6045	1,9831	8,7845
29602	5,7682	-0,54574	2,0709	8,7802
29603	-15,536	-0,98869	18,279	8,6542
29604	-15,33	-0,98689	17,608	8,7319
29605	-15,1	-1,4923	18,029	8,7108
29606	-14,66	-0,98776	17,794	8,7437
29607	-15,097	-0,49419	18,038	8,7313
29608	13,547	-0,92842	-1,6163	11,657
29609	12,952	-0,92781	-1,9314	11,291
29610	13,068	-1,4463	-1,4681	11,389
29611	13,136	-0,91675	-1,1559	11,46
29612	13,07	-0,46117	-1,5405	11,426
29613	-16,406	-0,99045	18,757	8,4926
29614	-16,205	-0,98766	18,089	8,6051
29615	-15,975	-1,4925	18,511	8,5858
29616	-15,975	-0,4945	18,519	8,6065
29617	13,915	-0,94228	-2,0991	11,788
29618	14,547	-0,94377	-1,802	12,203
29619	14,002	-1,3695	-1,6458	11,881
29620	14,133	-0,9319	-1,3015	12,
29621	14,044	-0,46725	-1,7161	11,948
29622	5,5673	-1,0789	0,72485	8,8211
29623	4,9112	-1,0896	0,69799	8,7069
29624	5,1797	-1,6535	1,1751	8,7321
29625	5,1682	-0,55352	1,1734	8,7404
29626	-17,27	-0,99199	19,234	8,2542
29627	-17,073	-0,98974	18,564	8,4028
29628	-16,838	-1,4848	18,998	8,3862
29629	-16,839	-0,49596	18,999	8,4076
29630	-7,6232	-0,97445	45,701	14,016
29631	-6,9626	-0,96456	45,884	15,4
29632	-7,1878	-1,4501	45,483	15,48
29633	-7,2077	-0,48373	45,478	15,175
29634	6,8166	-1,0453	1,6145	9,0309
29635	7,4633	-1,0242	1,6144	9,1912
29636	7,1096	-1,4492	2,0227	9,0639
29637	7,1078	-0,51632	2,0456	9,0762
29638	-18,145	-0,99358	19,707	7,9318
29639	-17,943	-0,99194	19,038	8,1187
29640	-17,703	-1,4868	19,472	8,1082
29641	-17,704	-0,49603	19,473	8,1295
29642	-7,7863	-0,97613	46,377	12,655
29643	-8,4505	-0,98734	46,183	11,504
29644	-8,0044	-1,4799	45,943	12,79
29645	-8,004	-0,49072	45,945	12,63
29646	-19,028	-0,99601	20,176	7,5221
29647	-18,824	-0,99495	19,504	7,7466
29648	-18,586	-1,4913	19,939	7,7424
29649	-18,587	-0,49755	19,94	7,7633
29650	6,2342	-1,0544	0,7364	8,9487
29651	6,8771	-1,0344	0,78044	9,0933
29652	6,3901	-1,5883	1,1594	8,9646
29653	6,4779	-0,52902	1,2026	8,9932
29654	19,711	-0,99767	19,962	7,2839
29655	20,387	-0,9982	19,761	6,992
29656	19,947	-1,4986	19,525	7,2673
29657	19,946	-0,49843	19,525	7,2898
29658	-19,909	-0,99731	20,647	7,025
29659	-19,705	-0,99665	19,973	7,2844
29660	-19,468	-1,4948	20,41	7,289
29661	-19,468	-0,49846	20,411	7,3093
29662	6,3243	-1,0618	-0,12486	8,9826
29663	5,7156	-1,0504	-0,18065	8,8568
29664	6,0238	-1,5354	0,21308	8,921
29665	5,936	-0,52539	0,29281	8,9119
29666	-7,1257	-0,96624	46,56	14,04
29667	-7,319	-0,96877	47,224	12,661
29668	-7,9761	-0,98175	47,049	11,372
29669	-7,5391	-1,4745	46,81	12,689
29670	-7,5433	-0,48541	46,808	12,508
29671	-15,998	-0,98586	17,418	8,6865
29672	-15,789	-0,9842	16,751	8,7877
29673	-15,564	-1,4893	17,17	8,7453
29674	-15,124	-0,9846	16,937	8,7797
29675	-15,562	-0,4927	17,177	8,7667
29676	-20,587	-0,99745	20,444	6,7318
29677	-20,79	-0,99825	21,12	6,4432
29678	-20,35	-1,4963	20,883	6,7484
29679	-20,351	-0,49885	20,883	6,7675
29680	-6,4934	-0,96695	46,734	15,416
29681	-6,2814	-0,96376	45,992	17,703
29682	-6,6342	-1,4703	46,305	15,799
29683	-6,708	-0,48083	46,312	15,184
29684	7,5237	-1,0133	0,78033	9,253
29685	8,1175	-1,0181	0,80007	9,4178
29686	7,6854	-1,4755	1,1911	9,2799
29687	7,7693	-0,50788	1,2056	9,3126
29688	-16,872	-0,98695	17,895	8,5183
29689	-16,666	-0,98532	17,228	8,6559
29690	-16,438	-1,4892	17,651	8,6156
29691	-16,435	-0,49316	17,658	8,6378
29692	7,5977	-1,024	-3,8001e-002	9,2895
29693	6,9672	-1,0418	-8,0827e-002	9,1266
29694	7,2221	-1,5495	0,27466	9,1868
29695	7,2141	-0,50539	0,36465	9,199
29696	-16,456	-0,98366	16,562	8,7609
29697	-16,245	-0,98195	15,901	8,8871
29698	-16,022	-1,488	16,316	8,8228
29699	-15,576	-0,98202	16,084	8,859
29700	-16,015	-0,49151	16,325	8,8452
29701	-17,746	-0,9897	18,367	8,2697
29702	-17,539	-0,98667	17,705	8,4446
29703	-17,309	-1,4804	18,131	8,4079
29704	-17,31	-0,49379	18,132	8,4306
29705	-17,333	-0,98504	17,038	8,5853
29706	-17,128	-0,98666	16,372	8,7489
29707	-16,901	-1,4884	16,791	8,687
29708	-16,897	-0,49216	16,798	8,7105
29709	-18,416	-0,99001	18,171	8,1486
29710	-18,621	-0,9933	18,835	7,9353
29711	-18,185	-1,4922	18,598	8,1174
29712	-18,18	-0,49591	18,604	8,1409
29713	-6,6867	-0,96948	47,398	14,04
29714	-6,8342	-0,96527	48,067	12,905
29715	-7,5149	-0,97881	47,899	11,44
29716	-7,1101	-1,4628	47,662	12,675
29717	-7,0947	-0,48336	47,64	12,607
29718	-18,209	-0,98699	17,509	8,326
29719	-18,004	-0,98477	16,849	8,5278
29720	-17,768	-1,4778	17,276	8,4703
29721	-17,768	-0,49288	17,277	8,4946
29722	-6,0897	-0,97088	47,514	15,446
29723	-5,8787	-0,97864	46,92	17,338
29724	-6,3032	-1,5038	47,237	15,291
29725	-6,2816	-0,48612	47,152	15,15
29726	-19,092	-0,99014	17,969	7,9778
29727	-18,886	-0,98691	17,31	8,2193
29728	-18,654	-1,4885	17,734	8,1678
29729	-18,651	-0,49411	17,741	8,1919
29730	-19,297	-0,99343	18,633	7,7626
29731	-19,501	-0,99558	19,302	7,5101
29732	-19,063	-1,4956	19,065	7,7384
29733	-19,06	-0,4974	19,068	7,7617
29734	8,1915	-1,0289	-1,8259e-002	9,4538
29735	8,8524	-1,0001	4,0706e-002	9,6624
29736	8,4722	-1,5333	0,4133	9,5323
29737	8,4398	-0,51026	0,40389	9,54
29738	-19,974	-0,99327	18,43	7,5351
29739	-19,769	-0,9902	17,765	7,8177
29740	-19,535	-1,4933	18,193	7,7737
29741	-19,533	-0,49604	18,197	7,798
29742	7,8539	-0,99061	-0,79386	9,3436
29743	8,3785	-1,0134	-0,79224	9,4988
29744	7,9873	-1,5593	-0,42182	9,392
29745	7,9432	-0,51865	-0,44041	9,3928
29746	7,2234	-1,0083	-0,83668	9,1803
29747	6,4893	-1,0508	-0,9819	8,9921
29748	6,7162	-1,5069	-0,51365	9,0595
29749	6,6822	-0,53639	-0,52606	9,0662
29750	-20,178	-0,99542	19,098	7,2813
29751	-20,382	-0,99679	19,771	6,9919
29752	-19,941	-1,4932	19,534	7,2677
29753	-19,942	-0,49819	19,535	7,2894
29754	8,0907	-0,96218	-1,5652	9,3682
29755	7,4398	-0,99788	-1,6742	9,1766
29756	7,8094	-1,4303	-1,0596	9,3224
29757	7,6364	-0,47196	-1,2307	9,2762
29758	9,0394	-0,98452	-0,73328	9,7067
29759	9,636	-0,97159	-0,68987	9,9189
29760	9,3529	-1,3943	-0,19632	9,8262
29761	9,2269	-0,4898	-0,34269	9,7983
29762	4,2558	-1,1035	0,66251	8,6134
29763	3,6101	-1,1088	0,61987	8,5315
29764	3,8039	-1,7628	1,1825	8,5337
29765	3,8574	-0,56748	1,1024	8,5526
29766	8,6153	-0,98494	-1,5636	9,5247
29767	9,248	-0,98092	-1,4649	9,7438
29768	8,8455	-1,4882	-1,0891	9,629
29769	8,7891	-0,49471	-1,1659	9,6219
29770	-20,855	-0,99536	18,896	6,9938
29771	-20,651	-0,9928	18,226	7,3156
29772	-20,415	-1,4951	18,659	7,282
29773	-20,414	-0,49723	18,661	7,3059
29774	8,87	-0,98496	-2,2879	9,5466
29775	8,225	-0,99986	-2,4351	9,325
29776	8,4215	-1,4556	-1,8841	9,4462
29777	8,4009	-0,49023	-2,0115	9,437
29778	10,456	-0,95307	-1,329	10,204
29779	9,8447	-0,968	-1,4215	9,9562
29780	10,071	-1,4452	-1,0176	10,065
29781	10,007	-0,48179	-1,0572	10,057
29782	-6,2371	-0,96667	48,183	14,32
29783	-5,4705	-0,98261	47,664	17,231
29784	-5,2877	-0,93533	48,081	16,625
29785	-5,7938	-1,4166	47,884	15,878
29786	-5,9022	-0,48476	47,902	15,326
29787	-21,059	-0,99673	19,568	6,7035
29788	-21,263	-0,99786	20,243	6,3821
29789	-20,823	-1,4954	20,005	6,7029
29790	-20,823	-0,49861	20,006	6,7234
29791	11,379	-0,93754	-1,8083	10,557
29792	10,746	-0,95018	-1,9868	10,26
29793	10,879	-1,4538	-1,648	10,346
29794	10,906	-0,47128	-1,6007	10,383
29795	-6,2331	-0,95664	48,798	13,606
29796	-6,9813	-0,97583	48,723	11,893
29797	-6,6453	-1,4036	48,509	12,903
29798	-6,5736	-0,48191	48,495	13,124
29799	-21,734	-0,99683	19,368	6,3533
29800	-21,531	-0,99523	18,694	6,7104
29801	-21,295	-1,4971	19,129	6,6909
29802	-21,295	-0,49813	19,129	6,7136
29803	-21,466	-0,99866	20,919	6,0932
29804	-21,67	-0,99912	21,594	5,7825
29805	-21,229	-1,4994	21,357	6,1262
29806	-21,228	-0,49941	21,359	6,1438
29807	5,0595	-1,061	-0,20751	8,7426
29808	4,3893	-1,058	-0,25804	8,6361
29809	4,7398	-1,596	0,1819	8,6925
29810	4,6342	-0,53605	0,21932	8,6853
29811	-21,938	-0,99795	20,043	6,0314
29812	-22,143	-0,99895	20,716	5,6855
29813	-21,702	-1,499	20,479	6,0485
29814	-21,701	-0,49926	20,481	6,0673
29815	9,5028	-0,98095	-2,1892	9,7651
29816	10,135	-0,96512	-2,0793	10,014
29817	9,666	-1,4633	-1,7634	9,8625
29818	9,6651	-0,48621	-1,8201	9,8764
29819	-22,41	-0,9968	19,167	6,0023
29820	-22,614	-0,99841	19,84	5,6176
29821	-22,175	-1,498	19,603	6,0017
29822	-22,174	-0,4987	19,605	6,0221
29823	9,7953	-0,97831	-2,8778	9,7931
29824	9,1427	-0,98848	-3,0031	9,5443
29825	9,3487	-1,4497	-2,5206	9,6768
29826	9,3177	-0,49474	-2,6299	9,6675
29827	18,365	-0,99584	20,359	7,7637
29828	19,039	-0,99721	20,16	7,5204
29829	18,599	-1,4976	19,923	7,7403
29830	18,162	-0,99576	19,682	7,9302
29831	18,601	-0,49797	19,921	7,7612
29832	5,8806	-1,0394	-1,0377	8,8663
29833	5,2139	-1,0393	-1,1133	8,7359
29834	5,504	-1,5874	-0,67212	8,8073
29835	5,4414	-0,52496	-0,6323	8,8089
29836	-0,73148	-1,0254	5,0791	7,7993
29837	-1,4871	-1,0017	5,0285	7,8345
29838	-1,2182	-1,5464	5,4773	7,7364
29839	-1,3974	-0,9659	5,7363	7,692
29840	-1,0214	-0,49439	5,4311	7,742
29841	12,343	-0,93289	-2,169	10,968
29842	11,708	-0,93944	-2,4036	10,631
29843	11,857	-1,4495	-1,9818	10,745
29844	11,852	-0,46625	-2,0158	10,767
29845	11,076	-0,95209	-2,5822	10,339
29846	10,427	-0,96247	-2,7679	10,041
29847	10,641	-1,456	-2,4372	10,169
29848	10,587	-0,4789	-2,3729	10,174
29849	13,32	-0,94166	-2,4142	11,433
29850	12,687	-0,9535	-2,698	11,056
29851	12,827	-1,4612	-2,2484	11,182
29852	12,834	-0,46664	-2,3222	11,212
29853	12,052	-0,96005	-2,9326	10,725
29854	11,413	-0,95087	-3,1809	10,391
29855	11,486	-1,508	-2,8222	10,477
29856	11,564	-0,47318	-2,7914	10,538
29857	13,67	-0,96303	-2,923	11,523
29858	14,326	-0,94924	-2,6383	11,949
29859	13,772	-1,3812	-2,4274	11,649
29860	13,822	-0,47502	-2,535	11,708
29861	13,037	-0,97486	-3,2068	11,156
29862	12,395	-0,97791	-3,4819	10,783
29863	12,526	-1,4968	-3,0357	10,926
29864	12,556	-0,48686	-3,104	10,954
29865	18,565	-0,99637	21,037	7,5655
29866	17,894	-0,99559	21,235	7,8154
29867	18,129	-1,4933	20,797	7,7758
29868	17,692	-0,99558	20,557	7,959
29869	18,129	-0,49787	20,797	7,7956
29870	13,398	-0,97135	-3,7512	11,222
29871	14,037	-0,96965	-3,4621	11,624
29872	13,481	-1,4361	-3,2586	11,371
29873	13,554	-0,488	-3,3602	11,414
29874	-2,2303e-002	-1,1189	4,2942	7,9351
29875	-0,79874	-1,06	4,2629	7,9506
29876	-0,44926	-1,5437	4,7252	7,8605
29877	-0,36445	-0,53101	4,7357	7,8622
29878	6,7056	-1,0404	-1,8194	8,9896
29879	6,0671	-1,0574	-1,9042	8,8394
29880	6,2609	-1,5443	-1,454	8,9145
29881	6,2697	-0,51444	-1,4398	8,9318
29882	0,71897	-1,1589	3,3887	8,0889
29883	1,9652e-003	-1,1872	3,4007	8,0786
29884	0,33016	-1,7753	3,8745	8,0082
29885	0,35038	-0,58789	3,8671	8,0151
29886	-8,8157	-0,94858	6,714	8,7469
29887	-8,1776	-0,94176	6,8624	8,5362
29888	-8,5531	-1,514	7,0934	8,5914
29889	-8,4257	-0,94625	7,4606	8,4857
29890	-8,6356	-0,47178	7,0945	8,6261
29891	7,5742	-1,0356	-2,5441	9,1342
29892	6,9298	-1,0364	-2,6406	8,9552
29893	7,0462	-1,5445	-2,3529	9,0188
29894	7,1149	-0,52592	-2,2011	9,0621
29895	10,765	-0,96126	-3,3666	10,097
29896	10,094	-0,98715	-3,5352	9,8026
29897	10,211	-1,5072	-3,1957	9,8953
29898	10,267	-0,48357	-3,1628	9,9434
29899	8,4978	-1,0034	-3,1503	9,3238
29900	7,8437	-0,99671	-3,3033	9,1069
29901	7,994	-1,4484	-2,9633	9,1983
29902	8,0334	-0,50963	-2,8871	9,2296
29903	11,756	-0,96874	-3,7302	10,456
29904	11,079	-0,98043	-3,9548	10,12
29905	11,204	-1,5397	-3,7036	10,217
29906	11,263	-0,47769	-3,5704	10,284
29907	9,4418	-0,99733	-3,6606	9,5543
29908	8,795	-0,98122	-3,8303	9,308
29909	9,0415	-1,4719	-3,4378	9,4522
29910	8,9667	-0,49374	-3,4362	9,4399
29911	-9,1605	-0,94959	5,9274	9,0132
29912	-8,4973	-0,9643	6,0658	8,7877
29913	-8,9519	-1,4317	6,3596	8,8621
29914	-8,9959	-0,47681	6,3336	8,8897
29915	12,756	-0,9744	-4,0263	10,859
29916	12,111	-0,96758	-4,2916	10,497
29917	12,141	-1,5973	-3,9776	10,567
29918	12,262	-0,49105	-3,9023	10,668
29919	-9,4723	-0,93813	5,13	9,2752
29920	-8,8388	-0,9457	5,2919	9,0452
29921	-9,3706	-1,418	5,4891	9,1669
29922	-9,33	-0,47278	5,5385	9,1594
29923	13,107	-0,96269	-4,5708	10,901
29924	13,784	-0,95761	-4,2941	11,305
29925	13,24	-1,49	-4,2176	11,042
29926	13,278	-0,48335	-4,1732	11,102
29927	10,409	-1,0063	-4,1234	9,8283
29928	9,7739	-0,98796	-4,3185	9,5533
29929	9,7399	-1,5904	-3,8775	9,6159
29930	9,9366	-0,50358	-3,9298	9,6969
29931	-9,1251	-0,8686	4,6013	9,272
29932	-9,7238	-0,92666	4,33	9,5122
29933	-9,7	-1,3369	4,7674	9,4222
29934	-9,6398	-0,46535	4,7495	9,4202
29935	11,434	-0,97927	-4,5163	10,166
29936	10,742	-0,99526	-4,7202	9,8416
29937	10,919	-1,5194	-4,3324	9,983
29938	10,925	-0,50274	-4,345	10,005
29939	-16,918	-0,98495	15,711	8,8791
29940	-16,705	-0,97982	15,054	9,0328
29941	-16,483	-1,4873	15,466	8,9451
29942	-16,037	-0,97966	15,237	8,9838
29943	-16,476	-0,49044	15,477	8,9682
29944	19,238	-0,99774	20,838	7,321
29945	19,916	-0,99824	20,636	7,0242
29946	19,476	-1,4994	20,4	7,2875
29947	19,475	-0,49924	20,4	7,3086
29948	12,462	-0,95587	-4,8361	10,547
29949	11,789	-0,95731	-5,0739	10,195
29950	11,968	-1,4187	-4,7056	10,353
29951	11,973	-0,47653	-4,6933	10,375
29952	-17,799	-0,9864	16,183	8,6946
29953	-17,589	-0,98466	15,523	8,8869
29954	-17,365	-1,4913	15,937	8,8022
29955	-17,358	-0,49451	15,95	8,8258
29956	12,791	-0,95706	-5,3688	10,566
29957	13,474	-0,9542	-5,1067	10,953
29958	12,918	-1,4621	-4,9933	10,718
29959	12,97	-0,47934	-4,9789	10,766
29960	-18,681	-0,98469	16,649	8,4236
29961	-18,47	-0,98247	15,997	8,6543
29962	-18,239	-1,4748	16,419	8,5739
29963	-18,239	-0,49189	16,42	8,5998
29964	18,763	-0,99699	21,715	7,3905
29965	19,441	-0,99804	21,514	7,0894
29966	19,001	-1,4978	21,277	7,342
29967	19,	-0,4985	21,277	7,3617
29968	-19,356	-0,98392	16,451	8,3331
29969	-19,563	-0,98697	17,106	8,0611
29970	-19,122	-1,4771	16,877	8,2587
29971	-19,122	-0,4928	16,879	8,2847
29972	-17,16	-0,9783	14,214	9,2269
29973	-17,376	-0,97953	14,866	9,0446
29974	-16,943	-1,4865	14,62	9,1155
29975	-16,49	-0,97748	14,395	9,1561
29976	-16,933	-0,48938	14,632	9,1396
29977	-5,4013	-1,0221	45,394	23,879
29978	-5,6667	-0,97545	46,177	19,615
29979	-5,8715	-1,4193	45,619	20,119
29980	-5,8196	-0,48294	45,729	19,531
29981	-17,831	-0,97823	14,034	9,2572
29982	-17,617	-0,97831	13,379	9,4725
29983	-17,398	-1,4862	13,78	9,3358
29984	-16,947	-0,97682	13,563	9,3775
29985	-17,387	-0,48892	13,797	9,3594
29986	-18,26	-0,98073	15,337	8,8497
29987	-18,047	-0,97946	14,686	9,0711
29988	-17,826	-1,4872	15,089	8,9641
29989	-17,818	-0,49015	15,101	8,9893
29990	-19,146	-0,9817	15,798	8,5664
29991	-18,935	-0,97989	15,153	8,8272
29992	-18,702	-1,4709	15,572	8,7227
29993	-18,702	-0,49058	15,574	8,7504
29994	-20,033	-0,98333	16,248	8,1886
29995	-19,823	-0,9806	15,599	8,4937
29996	-19,591	-1,4722	16,021	8,3948
29997	-19,591	-0,49112	16,023	8,4227
29998	-4,7952	-1,0357	45,693	27,353
29999	-5,0882	-1,6606	44,96	26,849
30000	-4,8818	-1,0288	44,796	27,893
30001	-5,0148	-1,4788	45,172	27,249
30002	-4,8908	-0,53914	45,209	27,616
30003	-4,4739	-1,0385	45,059	35,066
30004	-20,24	-0,98638	16,902	7,9147
30005	-20,446	-0,98973	17,562	7,5996
30006	-20,005	-1,4808	17,327	7,8496
30007	-20,005	-0,49417	17,329	7,8752
30008	-5,2595	-0,99037	47,069	19,123
30009	-5,0606	-0,98907	46,476	23,235
30010	-5,5892	-1,5117	46,643	19,069
30011	-5,4784	-0,49251	46,702	18,704
30012	-20,918	-0,98603	16,697	7,7072
30013	-20,709	-0,9826	16,049	8,0562
30014	-20,475	-1,4749	16,47	7,9673
30015	-20,475	-0,49221	16,472	7,9949
30016	-21,124	-0,98939	17,357	7,3908
30017	-21,327	-0,99266	18,024	7,0332
30018	-20,887	-1,4851	17,786	7,3367
30019	-20,887	-0,49557	17,788	7,3618
30020	-4,8576	-0,94843	47,872	18,424
30021	-4,6641	-0,9945	47,326	21,723
30022	-5,0461	-1,5188	47,561	18,681
30023	-5,0707	-0,49786	47,547	18,279
30024	-18,721	-0,97861	14,502	9,0517
30025	-18,502	-0,97846	13,849	9,3073
30026	-18,275	-1,4676	14,271	9,169
30027	-18,275	-0,48931	14,272	9,198
30028	-21,595	-0,98654	16,495	7,5102
30029	-21,802	-0,98937	17,154	7,1138
30030	-21,36	-1,4796	16,92	7,4322
30031	-21,361	-0,49382	16,922	7,4592
30032	-19,611	-0,97879	14,953	8,7571
30033	-19,394	-0,98143	14,303	9,0555
30034	-19,168	-1,4672	14,731	8,9192
30035	-19,168	-0,48931	14,732	8,9489
30036	-5,2838	-0,9253	48,695	15,978
30037	-4,7453	-0,93976	48,857	16,922
30038	-4,2349	-0,92525	48,142	19,457
30039	-4,7716	-1,3339	48,398	17,52
30040	-4,8278	-0,45058	48,397	17,42
30041	-20,499	-0,97987	15,4	8,363
30042	-20,284	-0,97764	14,756	8,7041
30043	-20,056	-1,4675	15,173	8,579
30044	-20,055	-0,48948	15,175	8,609
30045	-5,3542	-0,96392	49,262	14,967
30046	-5,8369	-0,97153	49,507	13,826
30047	-6,3911	-0,96883	49,393	12,646
30048	-5,9281	-1,4491	49,061	14,055
30049	-5,8926	-0,47473	49,101	14,222
30050	-21,385	-0,98311	15,847	7,8603
30051	-21,174	-0,97968	15,201	8,2483
30052	-20,942	-1,4697	15,623	8,1311
30053	-20,942	-0,49039	15,625	8,1608
30054	-5,0168	-0,9842	49,782	15,228
30055	-4,4047	-0,97818	49,497	16,251
30056	-4,8504	-1,4087	49,387	15,907
30057	-4,8096	-0,48919	49,417	16,232
30058	-18,288	-0,97855	13,194	9,5267
30059	-18,076	-0,98001	12,535	9,7781
30060	-17,847	-1,4675	12,962	9,6037
30061	-17,409	-0,97812	12,725	9,6551
30062	-17,847	-0,48939	12,961	9,6344
30063	-22,064	-0,98305	15,642	7,6782
30064	-22,272	-0,98666	16,295	7,2405
30065	-21,829	-1,4749	16,064	7,5744
30066	-21,83	-0,49272	16,066	7,6038
30067	-19,175	-0,98128	13,65	9,3148
30068	-18,953	-0,97882	13,006	9,6032
30069	-18,729	-1,4671	13,428	9,4338
30070	-18,729	-0,48915	13,427	9,4656
30071	-5,4995	-0,99181	50,026	14,037
30072	-6,0391	-0,99608	50,12	12,8
30073	-5,7606	-1,548	49,854	13,589
30074	-5,7687	-0,4968	49,916	13,791
30075	-20,067	-0,98028	14,106	9,0052
30076	-19,844	-0,98251	13,457	9,3418
30077	-19,626	-1,4867	13,851	9,1873
30078	-19,619	-0,49212	13,883	9,2072
30079	-7,8592	-0,95748	6,2142	8,5776
30080	-7,2369	-0,9366	6,3386	8,4
30081	-7,59	-1,51	6,5624	8,4371
30082	-7,526	-0,94088	6,9945	8,3381
30083	-7,7197	-0,46998	6,6304	8,468
30084	-20,959	-0,97745	14,558	8,5911
30085	-20,738	-0,97519	13,927	8,9671
30086	-20,517	-1,4798	14,314	8,8242
30087	-20,514	-0,48816	14,338	8,8467
30088	-8,1756	-0,96041	5,4303	8,8206
30089	-7,5296	-0,95779	5,5258	8,6327
30090	-7,8704	-1,4801	5,722	8,6784
30091	-8,0249	-0,4875	5,8305	8,7102
30092	-21,852	-0,97962	14,997	8,0671
30093	-21,634	-0,97914	14,356	8,4987
30094	-21,407	-1,481	14,758	8,3583
30095	-21,406	-0,48929	14,778	8,3818
30096	-4,7865	-0,96599	50,361	14,988
30097	-5,4495	-0,99606	50,515	13,727
30098	-5,0789	-1,5065	50,096	14,678
30099	-5,1267	-0,49501	50,173	14,904
30100	1,4607	-1,1413	2,4381	8,2375
30101	0,76584	-1,1692	2,442	8,213
30102	1,1095	-1,7512	2,9183	8,1655
30103	1,0796	-0,57097	2,9293	8,1706
30104	-22,53	-0,97993	14,793	7,9041
30105	-22,744	-0,98266	15,438	7,4196
30106	-22,299	-1,4831	15,202	7,7736
30107	-22,3	-0,49033	15,216	7,799
30108	-8,4917	-0,87618	4,7632	9,0419
30109	-7,8639	-0,93546	4,7876	8,8614
30110	-8,2741	-1,4071	5,0526	8,9232
30111	-8,3605	-0,47292	5,0646	8,9555
30112	2,1956	-1,1511	1,5055	8,3631
30113	1,5244	-1,1641	1,4865	8,3254
30114	1,8748	-1,7114	1,9056	8,311
30115	1,8191	-0,57038	1,9787	8,31
30116	-8,7603	-0,78796	4,0825	9,2473
30117	-8,3138	-0,85409	4,1854	9,0961
30118	-8,4884	-1,3315	4,6038	9,0697
30119	-8,6544	-0,40326	4,3643	9,1751
30120	-9,3591	-0,84601	3,8112	9,4909
30121	-10,036	-0,94756	3,5091	9,7666
30122	-9,7769	-1,3609	3,8946	9,6085
30123	-9,897	-0,46131	3,9371	9,6609
30124	2,96	-1,1221	0,59118	8,4686
30125	2,2972	-1,122	0,55056	8,4123
30126	2,6159	-1,6976	1,1261	8,4195
30127	2,5572	-0,58075	1,045	8,4249
30128	-9,0988	-0,87964	3,1568	9,4959
30129	-8,4895	-0,8563	3,3102	9,2886
30130	-8,9256	-1,3006	3,6204	9,3745
30131	-8,9462	-0,3847	3,5855	9,4006
30132	-6,3164	-0,92306	5,7713	8,305
30133	-6,9073	-0,9369	5,6501	8,4566
30134	-6,7127	-1,4309	6,0359	8,3353
30135	-6,6324	-0,92558	6,4551	8,2354
30136	-6,7902	-0,46661	6,0705	8,3549
30137	3,7436	-1,0632	-0,30068	8,5544
30138	3,0955	-1,0612	-0,35408	8,4841
30139	3,4202	-1,593	0,21714	8,5211
30140	3,3469	-0,54132	0,12969	8,522
30141	-9,7759	-0,98119	2,8548	9,7775
30142	-10,401	-0,97152	2,7289	10,022
30143	-10,158	-1,4576	3,1551	9,8672
30144	-10,253	-0,48625	3,1208	9,9266
30145	4,5436	-1,0362	-1,1638	8,6291
30146	3,7772	-1,0055	-1,2317	8,519
30147	4,1053	-1,582	-0,75776	8,5934
30148	4,1246	-0,52192	-0,75298	8,5981
30149	-9,465	-0,99403	2,1931	9,7422
30150	-8,8389	-1,0078	2,3154	9,5265
30151	-9,3286	-1,4909	2,6458	9,6435
30152	-9,3051	-0,49494	2,6222	9,6545
30153	-5,4447	-0,90905	5,2289	8,2397
30154	-6,0128	-0,92602	5,0872	8,3699
30155	-5,7232	-1,3417	5,4304	8,253
30156	-5,7547	-0,90293	5,9127	8,161
30157	-5,9084	-0,45645	5,5284	8,2731
30158	-7,2179	-0,93284	4,883	8,6757
30159	-6,6038	-0,93986	4,9659	8,5202
30160	-7,0834	-1,5274	5,2181	8,5802
30161	-7,0928	-0,47029	5,2805	8,5798
30162	-10,09	-0,98436	2,0672	9,9876
30163	-10,715	-0,96198	1,9389	10,24
30164	-10,532	-1,4883	2,3537	10,119
30165	-10,558	-0,48527	2,3608	10,15
30166	-7,6861	-0,91338	4,2098	8,9183
30167	-7,0153	-0,93796	4,2396	8,7451
30168	-7,3382	-1,4406	4,5132	8,7716
30169	-7,3975	-0,46255	4,5103	8,7979
30170	-9,7771	-0,99039	1,3773	9,9271
30171	-9,1829	-1,0032	1,4458	9,7181
30172	-9,556	-1,537	1,8137	9,8126
30173	-9,6163	-0,49909	1,7867	9,8541
30174	-5,1288	-0,92563	4,5259	8,3097
30175	-4,5884	-0,93335	4,7055	8,1978
30176	-4,8455	-1,3843	4,9087	8,1985
30177	-4,9984	-0,82949	5,3126	8,1458
30178	-5,0354	-0,4526	4,9712	8,2222
30179	-7,3863	-0,90764	3,4968	8,9573
30180	-8,043	-0,92243	3,4132	9,1372
30181	-7,8434	-1,4038	4,0276	8,9894
30182	-7,8684	-0,45084	3,8138	9,0415
30183	-5,6969	-0,94259	4,3842	8,4391
30184	-6,4011	-0,94498	4,3225	8,5911
30185	-6,0162	-1,292	4,5983	8,4596
30186	-6,1763	-0,46957	4,7169	8,4806
30187	5,4004	-1,0573	-1,9799	8,7085
30188	4,7499	-1,0319	-2,0662	8,5874
30189	4,8135	-1,4919	-1,6647	8,6343
30190	4,968	-0,51432	-1,5848	8,6755
30191	-4,8054	-0,98221	3,7905	8,386
30192	-5,4039	-0,99708	3,6532	8,5015
30193	-5,1559	-1,4384	4,0177	8,4047
30194	-5,2668	-0,47302	4,0873	8,4178
30195	-4,4652	-0,99319	46,733	25,766
30196	-4,7354	-1,4959	46,231	26,447
30197	-4,6153	-0,49655	46,261	26,668
30198	-4,2629	-0,99588	46,115	35,32
30199	-4,2649	-0,98993	3,9701	8,2741
30200	-3,6935	-1,0006	4,1881	8,1697
30201	-4,1094	-1,4266	4,5137	8,1626
30202	-4,1281	-0,92943	4,894	8,0935
30203	-4,166	-0,48074	4,4565	8,1858
30204	-6,1081	-0,99947	3,5916	8,6507
30205	-6,7155	-0,93222	3,5266	8,7876
30206	-6,608	-1,3076	3,9729	8,6953
30207	-6,5741	-0,47541	3,942	8,7009
30208	-4,5192	-1,0412	3,006	8,4528
30209	-3,8871	-1,0172	3,1245	8,3581
30210	-4,3606	-1,4939	3,5135	8,3615
30211	-4,3534	-0,50918	3,4873	8,3721
30212	-1,5544	-1,0364	4,2124	7,9861
30213	-2,5637	-1,0272	4,2736	8,0445
30214	-1,9286	-1,5429	4,6216	7,9337
30215	-2,1943	-0,98039	4,9993	7,8797
30216	-1,899	-0,50733	4,571	7,9444
30217	-5,1177	-1,056	2,8688	8,5677
30218	-5,6751	-0,99436	2,7646	8,6756
30219	-5,5484	-1,5481	3,2531	8,583
30220	-5,561	-0,52406	3,2165	8,6052
30221	-0,77447	-1,1283	3,3694	8,094
30222	-1,5472	-1,072	3,352	8,1231
30223	-1,2944	-1,4727	3,7906	8,0459
30224	-1,1973	-0,52904	3,8044	8,0449
30225	-6,2825	-0,9271	2,6997	8,8103
30226	-6,9755	-0,94198	2,6326	8,9689
30227	-6,7484	-1,1482	3,1757	8,8512
30228	-6,7887	-0,4568	3,0738	8,881
30229	-7,6322	-0,95677	2,549	9,1469
30230	-8,2296	-0,98448	2,4688	9,3173
30231	-8,1275	-1,4993	2,9228	9,237
30232	-8,0681	-0,4716	2,8951	9,2343
30233	-4,8422	-1,088	2,0429	8,6103
30234	-4,2211	-1,0618	2,1269	8,5164
30235	-4,6289	-1,5531	2,5206	8,5311
30236	-4,6555	-0,53198	2,5038	8,5446
30237	-5,3995	-1,0263	1,9387	8,7179
30238	-6,0198	-0,96676	1,8589	8,8381
30239	-5,7784	-1,4132	2,477	8,7327
30240	-5,8405	-0,47029	2,3384	8,7684
30241	-6,7128	-0,98164	1,7918	8,9955
30242	-7,3053	-1,0046	1,7307	9,1389
30243	-7,2477	-1,4079	2,0437	9,1005
30244	-7,1547	-0,48518	2,1738	9,0747
30245	-5,1185	-1,14	1,0534	8,7238
30246	-4,5827	-1,1373	1,1425	8,641
30247	-4,9591	-1,6317	1,6055	8,6678
30248	-5,0099	-0,55604	1,5647	8,6891
30249	-5,7388	-1,0804	0,97355	8,8437
30250	-6,4742	-1,0136	0,93212	8,9911
30251	-6,2848	-1,6311	1,3697	8,93
30252	-6,2501	-0,49646	1,4306	8,93
30253	4,8833e-002	-1,1976	2,454	8,2028
30254	-0,66051	-1,1542	2,452	8,2088
30255	-0,32147	-1,7004	2,9125	8,1506
30256	-0,34645	-0,59928	2,9343	8,1528
30257	-3,3157	-1,0279	3,3425	8,2537
30258	-2,5565	-1,0629	3,4132	8,1798
30259	-3,1261	-1,4805	3,8739	8,1575
30260	-3,2775	-0,97892	4,4086	8,0795
30261	-3,2344	-0,51989	3,9875	8,1551
30262	0,82951	-1,192	1,4903	8,3012
30263	0,15752	-1,1508	1,4695	8,2913
30264	0,47396	-1,6937	1,9891	8,2532
30265	0,44412	-0,59827	1,9737	8,2628
30266	-3,5891	-1,0379	2,2454	8,4225
30267	-2,9349	-1,034	2,3331	8,3515
30268	-3,4261	-1,474	2,7787	8,3474
30269	-3,386	-0,50801	2,7998	8,3477
30270	6,2913	-1,0535	-2,7254	8,8041
30271	5,6482	-1,0554	-2,842	8,6543
30272	5,8307	-1,5952	-2,4397	8,7407
30273	5,8379	-0,54299	-2,3708	8,759
30274	-3,9616	-1,1111	1,2265	8,5476
30275	-3,3321	-1,0696	1,2868	8,4764
30276	-3,7891	-1,5685	1,7261	8,4972
30277	-3,7469	-0,52985	1,7853	8,4947
30278	-4,9224	-1,1611	0,12213	8,7206
30279	-5,3933	-1,0787	0,13305	8,8002
30280	-5,3261	-1,7601	0,62458	8,7794
30281	-5,3235	-0,58396	0,56763	8,7917
30282	1,626	-1,135	0,53156	8,3748
30283	0,95494	-1,1414	0,49556	8,3473
30284	1,1917	-1,6933	0,99222	8,3407
30285	1,2149	-0,59376	1,007	8,3488
30286	6,5571	-1,0037	-3,533	8,7486
30287	7,1993	-0,99757	-3,3997	8,927
30288	6,7383	-1,4964	-3,1299	8,8483
30289	6,7435	-0,5105	-3,0871	8,8673
30290	2,4327	-1,0612	-0,39469	8,4278
30291	1,7723	-1,0659	-0,44395	8,3787
30292	1,9865	-1,5274	-2,8211e-002	8,4034
30293	2,0274	-0,54129	5,6107e-002	8,411
30294	-4,3866	-1,1585	0,21124	8,6373
30295	-3,7489	-1,1867	0,26316	8,5571
30296	-4,1681	-1,7204	0,74356	8,5984
30297	-4,1554	-0,5813	0,72027	8,6075
30298	3,1292	-1,0035	-1,2851	8,4486
30299	2,6063	-1,0552	-1,3465	8,3964
30300	2,7623	-1,4568	-0,87744	8,4358
30301	2,8328	-0,51993	-0,85688	8,453
30302	-4,8844	-1,1182	-0,78176	8,6973
30303	-4,2534	-1,1421	-0,76367	8,6065
30304	-4,6231	-1,6944	-0,21626	8,6739
30305	-4,6177	-0,57716	-0,2978	8,6817
30306	-4,0414	-0,97131	47,596	22,911
30307	-4,2506	-1,4961	47,209	24,852
30308	-4,2762	-0,49664	47,233	23,579
30309	-3,9143	-0,99644	47,029	31,762
30310	3,9835	-1,0012	-2,1341	8,4764
30311	3,3384	-0,98633	-2,2043	8,388
30312	3,3917	-1,4703	-1,7195	8,4465
30313	3,5556	-0,48354	-1,7343	8,4675
30314	-8,5567	-1,017	1,568	9,5012
30315	-7,9027	-1,0323	1,6505	9,3088
30316	-8,417	-1,5423	2,0148	9,4227
30317	-8,3699	-0,51289	2,0181	9,4223
30318	4,9977	-1,03	-2,9284	8,5322
30319	4,3603	-1,0565	-3,0338	8,4145
30320	4,4459	-1,5057	-2,5064	8,4969
30321	4,5457	-0,51761	-2,5461	8,5154
30322	-10,402	-0,96802	1,2489	10,181
30323	-11,005	-0,94102	1,1514	10,429
30324	-10,874	-1,4551	1,5373	10,342
30325	-10,857	-0,47672	1,5387	10,359
30326	5,9141	-1,0056	-3,6496	8,5979
30327	5,2662	-1,0609	-3,7968	8,4494
30328	5,4682	-1,5239	-3,3237	8,5599
30329	5,4554	-0,51237	-3,3156	8,5662
30330	-9,5423	-0,99036	0,61613	9,886
30331	-10,115	-0,96937	0,56477	10,095
30332	-9,8159	-1,5147	1,0518	9,9639
30333	-9,9319	-0,4913	0,98091	10,029
30334	-8,9481	-1,0032	0,68461	9,6764
30335	-8,3065	-1,0311	0,74325	9,4779
30336	-8,7428	-1,5203	1,1358	9,5909
30337	-8,7263	-0,50415	1,1326	9,6014
30338	-3,8943	-0,96366	48,783	19,08
30339	-3,2251	-0,94303	48,547	19,137
30340	-3,8261	-1,536	48,036	21,105
30341	-3,7807	-0,47467	48,192	20,45
30342	-3,3937	-0,97476	47,825	25,889
30343	-9,3792	-0,98774	-0,15333	9,8371
30344	-8,7844	-1,0059	-0,12828	9,6394
30345	-9,12	-1,5193	0,27707	9,7405
30346	-9,1185	-0,49906	0,26597	9,7626
30347	-7,0667	-1,0365	0,87105	9,1342
30348	-7,6525	-1,0464	0,82577	9,2851
30349	-7,3942	-1,4303	1,2338	9,1998
30350	-7,4629	-0,51941	1,2863	9,2265
30351	-10,717	-0,94237	0,46722	10,345
30352	-11,287	-0,90837	0,41665	10,586
30353	-11,155	-1,3775	0,77276	10,513
30354	-11,136	-0,4643	0,7858	10,529
30355	-6,1287	-1,0119	9,1617e-002	8,947
30356	-6,9366	-1,0263	-7,6603e-003	9,1184
30357	-6,7337	-1,5247	0,43733	9,072
30358	-6,6766	-0,51713	0,47364	9,0667
30359	6,8314	-0,97428	-4,2671	8,7002
30360	6,1947	-1,0198	-4,4714	8,5157
30361	6,2798	-1,3795	-4,1015	8,5999
30362	6,3714	-0,4932	-3,9895	8,6471
30363	-5,3552	-1,0358	-0,77084	8,7768
30364	-6,0091	-1,0175	-0,80755	8,9007
30365	-5,6373	-1,434	-0,30612	8,8421
30366	-5,7113	-0,49473	-0,32286	8,869
30367	-9,9518	-0,96674	-0,20469	10,047
30368	-10,536	-0,93643	-0,2313	10,274
30369	-10,295	-1,4227	0,12984	10,174
30370	-10,298	-0,47807	0,14863	10,197
30371	-4,1744	-0,95996	50,077	16,125
30372	-3,6049	-0,97823	49,768	16,84
30373	-4,089	-1,4917	49,641	16,388
30374	-3,9936	-0,48899	49,57	17,216
30375	-9,8926	-0,97016	-0,94645	10,003
30376	-9,2702	-0,99245	-0,9474	9,7804
30377	-9,594	-1,4673	-0,56853	9,9037
30378	-9,5728	-0,48867	-0,565	9,9172
30379	8,1409	-0,97454	-3,9832	9,0915
30380	7,4737	-0,96815	-4,1338	8,8792
30381	7,5719	-1,4309	-3,7547	8,966
30382	7,6686	-0,48707	-3,7276	9,0079
30383	-4,0322	-0,96095	50,738	15,799
30384	-4,6543	-0,95948	50,985	14,854
30385	-4,4423	-1,4612	50,518	15,444
30386	-4,3551	-0,47097	50,584	15,92
30387	8,4626	-0,97924	-4,6516	9,0663
30388	9,127	-0,97185	-4,4882	9,3082
30389	8,6033	-1,4772	-4,2374	9,1876
30390	8,6314	-0,48747	-4,2547	9,2005
30391	7,7954	-0,97285	-4,8023	8,8536
30392	7,1385	-0,95416	-4,9855	8,646
30393	7,2217	-1,4243	-4,5668	8,7427
30394	7,3027	-0,48108	-4,5446	8,7756
30395	-5,4163	-1,1022	-1,7544	8,7273
30396	-4,7709	-1,1228	-1,7485	8,6223
30397	-5,1546	-1,6003	-1,2062	8,7281
30398	-5,1357	-0,54107	-1,2765	8,726
30399	8,7978	-0,9744	-5,2772	9,0588
30400	8,145	-0,97116	-5,4477	8,8277
30401	8,2945	-1,439	-5,0759	8,9428
30402	8,2974	-0,49176	-5,0563	8,9565
30403	-7,5224	-1,0361	-5,2938e-002	9,2697
30404	-8,1428	-1,0338	-6,9641e-002	9,4399
30405	-7,8705	-1,5305	0,35393	9,3609
30406	-7,8695	-0,52696	0,36862	9,3739
30407	-3,4627	-0,97922	50,43	16,653
30408	-2,9357	-0,95761	49,533	17,427
30409	-2,8599	-0,9745	50,213	17,045
30410	-3,3152	-1,4469	50,029	17,057
30411	-3,1871	-0,48925	49,937	17,786
30412	-6,817	-1,032	-0,90682	9,0741
30413	-7,4369	-1,0269	-0,91172	9,2262
30414	-7,1813	-1,5207	-0,53193	9,1772
30415	-7,1311	-0,50918	-0,46149	9,1774
30416	9,4622	-0,96702	-5,1138	9,3004
30417	10,107	-0,9769	-4,9153	9,5692
30418	9,5698	-1,5052	-4,7034	9,4135
30419	9,6263	-0,48438	-4,7293	9,4435
30420	-6,0703	-1,0839	-1,7911	8,8529
30421	-6,7475	-1,0528	-1,7818	8,9999
30422	-6,4586	-1,4515	-1,4138	8,9661
30423	-6,4105	-0,52279	-1,3339	8,97
30424	9,802	-0,96075	-5,6932	9,3073
30425	9,1298	-0,96743	-5,8745	9,0447
30426	9,2537	-1,5151	-5,5031	9,1533
30427	9,2981	-0,48263	-5,4982	9,1852
30428	-6,0333	-1,1071	-2,6836	8,7528
30429	-5,357	-1,1296	-2,7119	8,6199
30430	-5,7376	-1,6247	-2,2551	8,7452
30431	-5,6817	-0,56113	-2,243	8,7439
30432	-3,3316	-0,98115	51,082	16,13
30433	-3,9469	-0,98437	51,349	15,618
30434	-3,7588	-1,4784	50,876	15,914
30435	-3,6816	-0,48998	50,884	16,507
30436	-2,2168	-0,95135	49,393	17,046
30437	-2,6753	-1,5043	49,144	17,791
30438	-2,6849	-0,46836	49,069	18,494
30439	-2,4625	-0,96874	48,696	18,982
30440	-2,1411	-0,96824	50,073	16,636
30441	-2,7289	-0,97643	50,866	16,766
30442	-2,1876	-0,93704	50,687	16,764
30443	-2,5364	-1,3749	50,456	16,96
30444	-2,2863	-1,4795	50,305	16,738
30445	-2,4806	-0,48525	50,425	17,757
30446	2,0574	-1,0141	49,263	16,646
30447	2,9229	-1,054	48,821	17,877
30448	2,7125	-1,0256	49,498	17,054
30449	2,4803	-1,5668	49,005	17,903
30450	2,4448	-0,5141	49,056	17,947
30451	2,3543	-1,0152	48,667	19,111
30452	17,422	-0,99532	22,111	7,8983
30453	18,092	-0,99622	21,913	7,6413
30454	17,657	-1,4929	21,673	7,844
30455	17,222	-0,99501	21,433	8,0206
30456	17,658	-0,49772	21,673	7,8625
30457	-1,7013	-0,90698	50,043	16,706
30458	-1,0782	-0,92838	49,814	15,677
30459	-1,9235	-1,4772	49,919	16,518
30460	-1,7836	-1,4299	49,643	16,481
30461	-1,6574	-0,48299	49,671	17,324
30462	-1,5972	-0,98367	49,214	14,637
30463	1,2232	-0,9834	49,621	15,77
30464	1,8511	-0,99343	49,932	16,495
30465	1,6686	-1,5013	49,485	15,927
30466	1,6809	-0,50001	49,45	16,931
30467	1,5509	-1,0009	49,111	14,65
30468	-2,5725	-0,9904	51,444	16,432
30469	-3,1648	-0,99124	51,717	16,303
30470	-2,8999	-1,5559	51,137	16,372
30471	-2,9464	-0,49118	51,272	16,824
30472	16,95	-0,99509	22,987	8,01
30473	17,62	-0,99608	22,789	7,7462
30474	17,186	-1,4924	22,549	7,9421
30475	16,748	-0,99473	22,308	8,1145
30476	17,186	-0,4976	22,549	7,9596
30477	-18,741	-0,98028	12,346	9,859
30478	-18,536	-0,98283	11,673	10,154
30479	-18,307	-1,4849	12,086	9,9511
30480	-17,873	-0,98074	11,872	9,9976
30481	-18,305	-0,49062	12,109	9,975
30482	0,19395	-0,92877	49,85	15,634
30483	0,93979	-0,94729	50,191	16,08
30484	0,46003	-1,2374	50,214	15,86
30485	0,69427	-1,4891	49,763	15,635
30486	0,74828	-0,48339	49,729	16,666
30487	0,62553	-0,98393	49,365	12,931
30488	-19,622	-0,98005	12,812	9,6339
30489	-19,405	-0,98356	12,148	9,9695
30490	-19,185	-1,4856	12,549	9,775
30491	-19,177	-0,48966	12,584	9,7937
30492	-1,7478	-0,87578	50,656	16,736
30493	-1,1148	-0,85077	50,543	16,205
30494	-1,7	-1,5435	50,492	16,671
30495	-1,8465	-1,4182	50,274	16,597
30496	-1,4911	-0,42399	50,391	17,404
30497	-20,515	-0,97742	13,278	9,3059
30498	-20,288	-0,98251	12,618	9,69
30499	-20,075	-1,4858	13,004	9,5069
30500	-20,065	-0,49039	13,05	9,52
30501	-0,49171	-0,87217	50,315	16,235
30502	3,3964e-002	-0,86315	50,515	15,979
30503	-0,11195	-1,1994	50,305	16,114
30504	-0,45363	-1,4508	49,956	16,065
30505	-0,33346	-0,44538	49,964	17,076
30506	-0,42872	-0,9462	49,456	13,219
30507	-21,412	-0,97688	13,725	8,8766
30508	-21,183	-0,97687	13,089	9,2999
30509	-20,969	-1,48	13,472	9,1254
30510	-20,962	-0,48703	13,516	9,1382
30511	16,479	-0,9949	23,864	8,1488
30512	17,147	-0,99591	23,666	7,878
30513	16,714	-1,4921	23,425	8,0679
30514	16,281	-0,99447	23,184	8,2347
30515	16,715	-0,49749	23,426	8,0845
30516	-22,311	-0,97945	14,152	8,3365
30517	-22,089	-0,97549	13,525	8,8081
30518	-21,866	-1,4795	13,911	8,6425
30519	-21,865	-0,48985	13,938	8,6621
30520	-2,0312	-0,95101	51,265	16,667
30521	-1,524	-0,84714	51,078	16,512
30522	-1,872	-1,4119	50,916	16,542
30523	-1,9701	-1,446	50,532	16,532
30524	-1,8456	-0,45179	50,889	17,264
30525	-0,89099	-0,82213	50,966	16,41
30526	-0,35852	-0,83314	50,969	16,374
30527	-0,63665	-1,5062	50,803	16,371
30528	-0,22564	-1,1808	50,679	16,14
30529	-0,65489	-0,42678	50,676	16,986
30530	-22,207	-0,9952	18,492	6,3599
30531	-22,006	-0,99265	17,821	6,7555
30532	-21,767	-1,4897	18,252	6,7172
30533	-21,768	-0,4971	18,254	6,7412
30534	-1,8513	-0,97924	51,792	16,681
30535	-2,3668	-1,0093	52,046	16,85
30536	-2,1229	-1,6721	51,423	16,515
30537	-2,2089	-0,49922	51,627	17,059
30538	-22,884	-0,99521	18,289	6,0102
30539	-23,088	-0,99761	18,963	5,5819
30540	-22,648	-1,497	18,726	5,9892
30541	-22,647	-0,4981	18,728	6,0117
30542	-1,344	-0,87536	51,605	16,744
30543	-0,9769	-0,78737	51,447	16,658
30544	-1,1288	-1,3904	51,244	16,42
30545	-1,1766	-0,39534	51,243	17,079
30546	16,008	-0,99483	24,74	8,3129
30547	16,675	-0,99574	24,542	8,0353
30548	16,243	-1,4919	24,302	8,22
30549	15,806	-0,9943	24,06	8,3843
30550	16,243	-0,49741	24,302	8,2357
30551	-22,479	-0,98949	16,954	6,8437
30552	-22,682	-0,99266	17,618	6,4062
30553	-22,243	-1,485	17,383	6,7809
30554	-22,243	-0,49555	17,386	6,807
30555	-1,1156	-0,88243	52,049	16,919
30556	-1,6215	-0,9555	52,338	17,317
30557	-1,4518	-1,6898	51,904	16,757
30558	-1,5074	-0,48002	51,961	17,251
30559	-8,6754	-1,0107	-0,92234	9,5818
30560	-8,0573	-1,0246	-0,92843	9,397
30561	-8,476	-1,523	-0,44086	9,5354
30562	-8,3622	-0,50688	-0,50979	9,5155
30563	-23,208	-0,98036	14,588	7,6616
30564	-22,991	-0,97676	13,952	8,194
30565	-22,762	-1,4651	14,367	8,0245
30566	-22,763	-0,4896	14,369	8,0581
30567	-22,951	-0,98627	16,091	6,9818
30568	-23,155	-0,99082	16,751	6,4969
30569	-22,714	-1,48	16,52	6,892
30570	-22,715	-0,49394	16,522	6,9206
30571	-11,591	-0,86919	-0,29279	10,73
30572	-11,106	-0,90243	-0,28187	10,516
30573	-11,404	-1,3456	0,10213	10,645
30574	-11,438	-0,44407	4,75e-002	10,684
30575	-23,358	-0,99399	17,415	6,0592
30576	-23,561	-0,99642	18,085	5,5835
30577	-23,121	-1,4952	17,85	6,0158
30578	-23,121	-0,49711	17,851	6,0414
30579	-23,629	-0,98679	15,884	6,6407
30580	-23,422	-0,98309	15,233	7,1774
30581	-23,186	-1,4751	15,658	7,0561
30582	-23,187	-0,49233	15,66	7,0875
30583	-11,528	-0,88283	-0,96285	10,681
30584	-11,987	-0,84581	-0,95696	10,896
30585	-11,724	-1,2646	-0,74416	10,781
30586	-11,745	-0,42513	-0,63309	10,817
30587	-10,477	-0,93985	-0,97305	10,23
30588	-11,043	-0,91606	-0,95192	10,466
30589	-10,757	-1,3647	-0,60963	10,358
30590	-10,74	-0,45836	-0,60961	10,371
30591	-23,832	-0,99134	16,544	6,1561
30592	-24,035	-0,99598	17,212	5,6265
30593	-23,594	-1,494	16,977	6,0863
30594	-23,594	-0,49688	16,977	6,1158
30595	-10,512	-0,96798	-1,6746	10,197
30596	-9,8291	-0,97583	-1,7299	9,9295
30597	-10,296	-1,4973	-1,4441	10,126
30598	-10,118	-0,48149	-1,3377	10,085
30599	-24,306	-0,98755	15,677	6,3093
30600	-24,509	-0,99298	16,335	5,7225
30601	-24,068	-1,4906	16,105	6,2097
30602	-24,07	-0,49446	16,108	6,2405
30603	-11,078	-0,94419	-1,6534	10,433
30604	-11,647	-0,91111	-1,5712	10,695
30605	-11,306	-1,34	-1,2667	10,56
30606	-11,264	-0,4577	-1,3062	10,564
30607	-9,2067	-0,99812	-1,7309	9,7063
30608	-8,6142	-1,0195	-1,7513	9,5118
30609	-8,8954	-1,4696	-1,2838	9,6384
30610	-8,8949	-0,50377	-1,3488	9,6469
30611	-7,3674	-1,0476	-1,7867	9,1531
30612	-7,9962	-1,0334	-1,7574	9,3263
30613	-7,7646	-1,5973	-1,3359	9,2912
30614	-7,6459	-0,51767	-1,3496	9,2727
30615	-10,534	-0,96995	-2,406	10,131
30616	-11,219	-0,96386	-2,2925	10,433
30617	-10,976	-1,4622	-2,0709	10,347
30618	-10,779	-0,48649	-2,0267	10,292
30619	-9,8513	-0,97781	-2,4614	9,8634
30620	-9,2055	-1,0038	-2,5321	9,6267
30621	-9,4601	-1,4927	-2,1205	9,7575
30622	-9,4787	-0,49435	-2,125	9,7819
30623	-7,3355	-1,0635	-2,6438	9,0565
30624	-6,7105	-1,076	-2,6743	8,9013
30625	-6,9715	-1,6247	-2,2562	9,0116
30626	-6,9849	-0,52997	-2,2279	9,0285
30627	-7,9643	-1,0492	-2,6145	9,2304
30628	-8,613	-1,0252	-2,5525	9,4312
30629	-8,2669	-1,5207	-2,1453	9,3709
30630	-8,2598	-0,51572	-2,1799	9,3786
30631	-10,025	-0,98061	-3,1794	9,8313
30632	-10,694	-0,96654	-3,0615	10,112
30633	-10,311	-1,4866	-2,7712	9,9948
30634	-10,224	-0,48346	-2,7978	9,9777
30635	-8,0511	-1,0536	-3,4148	9,1509
30636	-7,3796	-1,0713	-3,5028	8,9539
30637	-7,5475	-1,6584	-3,1151	9,0544
30638	-7,6348	-0,53352	-3,0632	9,0956
30639	-8,6999	-1,0295	-3,3528	9,3526
30640	-9,379	-1,0066	-3,25	9,594
30641	-8,949	-1,4847	-2,9344	9,4917
30642	-8,9324	-0,50945	-2,9391	9,4998
30643	-6,7546	-1,0838	-3,5333	8,7971
30644	-6,0942	-1,0913	-3,5786	8,6424
30645	-6,4335	-1,5984	-3,1012	8,7866
30646	-6,3508	-0,54602	-3,1327	8,7729
30647	-8,8814	-1,0355	-4,0941	9,2962
30648	-8,1853	-1,0574	-4,2294	9,0591
30649	-8,4515	-1,5601	-3,8329	9,1999
30650	-8,4463	-0,52006	-3,7799	9,2239
30651	-7,5138	-1,0752	-4,3175	8,8612
30652	-6,8222	-1,0889	-4,4151	8,6705
30653	-7,112	-1,6181	-3,9504	8,814
30654	-7,0962	-0,53778	-3,9538	8,8248
30655	-9,5605	-1,0126	-3,9913	9,5378
30656	-10,282	-0,99719	-3,8334	9,8296
30657	-9,9361	-1,5423	-3,5975	9,7342
30658	-9,797	-0,49715	-3,5738	9,7057
30659	15,537	-0,99511	25,616	8,501
30660	16,208	-0,99577	25,418	8,2142
30661	15,767	-1,4953	25,178	8,3981
30662	15,34	-0,99432	24,936	8,5562
30663	15,772	-0,49742	25,178	8,4116
30664	-9,068	-1,0384	-4,84	9,2227
30665	-9,7666	-1,0234	-4,6886	9,4893
30666	-9,2009	-1,6215	-4,3942	9,3433
30667	-9,2953	-0,51542	-4,4217	9,3877
30668	15,066	-0,99534	26,491	8,7121
30669	15,737	-0,9959	26,295	8,4175
30670	15,301	-1,4923	26,053	8,5965
30671	14,865	-0,99462	25,81	8,7552
30672	15,302	-0,49769	26,054	8,6109
30673	-8,372	-1,0603	-4,9753	8,9858
30674	-7,6553	-1,066	-5,1392	8,7507
30675	-7,9257	-1,5856	-4,6915	8,904
30676	-7,9032	-0,53739	-4,6924	8,9113
30677	-24,099	-0,98385	15,026	6,8448
30678	-23,89	-0,98019	14,378	7,4409
30679	-23,655	-1,4703	14,803	7,282
30680	-23,656	-0,49076	14,805	7,3167
30681	-9,3289	-1,0484	-5,5115	9,1834
30682	-8,5925	-1,061	-5,7403	8,9032
30683	-8,8328	-1,5712	-5,2823	9,0652
30684	-8,8198	-0,52296	-5,2885	9,073
30685	-12,105	-0,87409	-1,5653	10,911
30686	-12,676	-0,89724	-1,3834	11,216
30687	-12,252	-1,3631	-1,2726	10,999
30688	-12,229	-0,42068	-1,2808	11,016
30689	18,29	-0,99697	22,591	7,4886
30690	18,968	-0,99772	22,39	7,1835
30691	18,528	-1,4975	22,153	7,4262
30692	18,526	-0,49849	22,153	7,4449
30693	-11,788	-0,93078	-2,2103	10,693
30694	-12,4	-0,92988	-2,0452	11,009
30695	-12,012	-1,5057	-1,9062	10,831
30696	-11,91	-0,4534	-1,8998	10,807
30697	-19,2	-0,98612	11,475	10,27
30698	-19,001	-0,98893	10,792	10,614
30699	-18,766	-1,476	11,239	10,356
30700	-18,339	-0,9841	11,002	10,415
30701	-18,767	-0,49221	11,236	10,393
30702	-11,379	-0,96046	-2,948	10,412
30703	-12,019	-0,94758	-2,7895	10,729
30704	-11,649	-1,5128	-2,5699	10,58
30705	-11,554	-0,47737	-2,5962	10,56
30706	-20,07	-0,98603	11,954	10,03
30707	-19,847	-0,98812	11,288	10,411
30708	-19,633	-1,4897	11,685	10,181
30709	-19,627	-0,4939	11,722	10,198
30710	-10,951	-0,98313	-3,7155	10,109
30711	-11,603	-0,96154	-3,5677	10,414
30712	-11,226	-1,4827	-3,348	10,282
30713	-11,131	-0,48309	-3,3394	10,266
30714	-20,957	-0,98196	12,429	9,6868
30715	-20,715	-0,98063	11,796	10,102
30716	-20,515	-1,4814	12,168	9,8911
30717	-20,504	-0,49213	12,207	9,9052
30718	-10,488	-1,008	-4,5307	9,7795
30719	-11,214	-0,99979	-4,3368	10,108
30720	-10,788	-1,4682	-4,0921	9,9771
30721	-10,703	-0,50004	-4,1184	9,9575
30722	-21,86	-0,97547	12,889	9,2333
30723	-21,615	-0,97451	12,272	9,6956
30724	-21,412	-1,4783	12,63	9,4988
30725	-21,402	-0,48983	12,675	9,5088
30726	-10,028	-1,0334	-5,3601	9,4494
30727	-10,736	-1,0102	-5,1756	9,7518
30728	-10,265	-1,56	-4,921	9,6183
30729	-10,238	-0,50797	-4,9554	9,6215
30730	-22,77	-0,97279	13,325	8,6662
30731	-22,535	-0,96988	12,71	9,1833
30732	-22,316	-1,4554	13,114	8,9698
30733	-22,316	-0,48563	13,115	9,0039
30734	-9,6075	-1,0556	-6,2141	9,1331
30735	-10,339	-1,0502	-5,9868	9,437
30736	-9,7343	-1,5802	-5,7492	9,2679
30737	-9,8142	-0,52547	-5,7809	9,305
30738	-23,673	-0,97659	13,743	7,9726
30739	-23,448	-0,9751	13,111	8,5635
30740	-23,222	-1,4597	13,532	8,3467
30741	-23,223	-0,48716	13,534	8,3828
30742	17,817	-0,9969	23,467	7,614
30743	18,495	-0,99779	23,267	7,3047
30744	18,055	-1,4972	23,029	7,5385
30745	18,053	-0,49848	23,029	7,5563
30746	-24,778	-0,98502	14,812	6,5326
30747	-24,981	-0,99118	15,465	5,8777
30748	-24,541	-1,4815	15,246	6,39
30749	-24,541	-0,49309	15,247	6,4264
30750	17,343	-0,99675	24,344	7,7648
30751	18,022	-0,99774	24,144	7,4513
30752	17,582	-1,497	23,906	7,6772
30753	17,58	-0,49843	23,906	7,6942
30754	14,595	-0,99513	27,366	8,9452
30755	15,266	-0,99583	27,171	8,6431
30756	14,825	-1,4951	26,929	8,8209
30757	14,4	-0,99457	26,686	8,9739
30758	14,83	-0,49765	26,929	8,8329
30759	-19,648	-0,99093	10,606	10,76
30760	-19,453	-0,98834	9,8866	11,174
30761	-19,232	-1,4871	10,351	10,861
30762	-18,811	-0,99113	10,111	10,921
30763	-19,234	-0,49672	10,347	10,9
30764	16,875	-0,99667	25,221	7,9373
30765	17,549	-0,99755	25,022	7,6218
30766	17,109	-1,4968	24,783	7,8403
30767	17,107	-0,49833	24,782	7,8567
30768	-24,569	-0,98136	14,165	7,1267
30769	-24,354	-0,97825	13,528	7,7861
30770	-24,122	-1,4665	13,95	7,5819
30771	-24,123	-0,48943	13,952	7,62
30772	16,409	-0,99656	26,098	8,132
30773	17,083	-0,99736	25,899	7,8117
30774	16,642	-1,4967	25,659	8,0244
30775	16,644	-0,49835	25,66	8,0379
30776	-20,491	-0,98272	11,13	10,486
30777	-20,292	-0,97243	10,415	10,949
30778	-20,065	-1,4789	10,868	10,643
30779	-20,063	-0,49421	10,864	10,68
30780	-25,248	-0,98337	13,951	6,8404
30781	-25,455	-0,98967	14,596	6,107
30782	-25,013	-1,4788	14,374	6,6547
30783	-25,015	-0,49193	14,377	6,6945
30784	-21,373	-0,97318	11,638	10,112
30785	-21,149	-0,96357	10,96	10,608
30786	-20,924	-1,4624	11,398	10,314
30787	-20,92	-0,4885	11,396	10,351
30788	15,937	-0,99639	26,976	8,3504
30789	16,61	-0,99721	26,777	8,0261
30790	16,171	-1,4965	26,537	8,2323
30791	16,173	-0,49821	26,537	8,2451
30792	-22,289	-0,96892	12,093	9,6468
30793	-22,052	-0,95196	11,459	10,172
30794	-21,828	-1,4522	11,881	9,8961
30795	-21,826	-0,48468	11,881	9,9301
30796	14,795	-0,99559	28,048	8,8893
30797	14,125	-0,9948	28,242	9,2
30798	14,359	-1,4918	27,805	9,0632
30799	13,924	-0,99429	27,56	9,2186
30800	14,36	-0,49748	27,805	9,0765
30801	-23,213	-0,97219	12,497	9,0817
30802	-22,973	-0,96051	11,885	9,6545
30803	-22,753	-1,4514	12,304	9,3816
30804	-22,753	-0,48425	12,305	9,4181
30805	15,465	-0,99629	27,852	8,5896
30806	16,138	-0,99714	27,654	8,2604
30807	15,701	-1,494	27,414	8,4609
30808	15,701	-0,49818	27,414	8,4738
30809	-24,129	-0,97677	12,896	8,3761
30810	-23,897	-0,97406	12,281	9,0189
30811	-23,679	-1,4739	12,662	8,7803
30812	-23,673	-0,48795	12,698	8,7943
30813	-2,1757	-1,069	2,4038	8,2793
30814	-1,4332	-1,0979	2,4346	8,2372
30815	-2,0002	-1,5848	2,9082	8,2075
30816	-1,8918	-0,54297	2,956	8,2027
30817	14,994	-0,9962	28,728	8,8487
30818	15,666	-0,99706	28,531	8,5142
30819	15,227	-1,496	28,29	8,7113
30820	15,23	-0,49811	28,291	8,7227
30821	-2,6779	-1,0657	1,3744	8,4058
30822	-2,0019	-1,1499	1,4509	8,3553
30823	-2,426	-1,5497	1,9878	8,3422
30824	-2,4506	-0,52599	2,019	8,3483
30825	-13,575	-0,93245	-1,5961	11,672
30826	-12,97	-0,95304	-1,8632	11,309
30827	-13,116	-1,4827	-1,3544	11,43
30828	-13,121	-0,47656	-1,5184	11,453
30829	-3,1194	-1,1451	0,32344	8,486
30830	-2,4751	-1,0838	0,34949	8,4335
30831	-2,8421	-1,5434	0,80698	8,4546
30832	-2,8801	-0,53975	0,86913	8,4619
30833	-14,48	-0,92506	-1,7999	12,162
30834	-13,875	-0,93301	-2,1174	11,763
30835	-14,009	-1,4387	-1,6904	11,889
30836	-14,026	-0,45589	-1,7063	11,938
30837	-3,6158	-1,1703	-0,71174	8,5258
30838	-2,9644	-1,1536	-0,70842	8,4607
30839	-3,3303	-1,7176	-0,17594	8,5116
30840	-3,3424	-0,60539	-0,19394	8,5205
30841	-25,032	-0,98026	13,314	7,4965
30842	-24,813	-0,97791	12,68	8,2297
30843	-24,585	-1,4799	13,081	7,9869
30844	-24,584	-0,48882	13,103	8,0125
30845	-4,14	-1,1466	-1,7304	8,5308
30846	-3,4853	-1,1766	-1,7262	8,4517
30847	-3,968	-1,6403	-1,0786	8,5574
30848	-3,8673	-0,56491	-1,2372	8,5424
30849	-12,631	-0,94669	-2,6243	11,04
30850	-13,271	-0,95361	-2,3845	11,41
30851	-12,807	-1,4613	-2,2485	11,177
30852	-12,802	-0,47648	-2,2653	11,203
30853	-25,712	-0,98322	13,095	7,2505
30854	-25,924	-0,98902	13,735	6,4293
30855	-25,479	-1,4862	13,509	7,0146
30856	-25,48	-0,49144	13,524	7,0505
30857	-4,7116	-1,1502	-2,7059	8,5135
30858	-4,0517	-1,174	-2,7295	8,4157
30859	-4,4278	-1,6933	-2,2494	8,5209
30860	-4,3909	-0,58174	-2,2312	8,5298
30861	-12,243	-0,94866	-3,4092	10,727
30862	-12,92	-0,94131	-3,1831	11,102
30863	-12,473	-1,4572	-3,0325	10,898
30864	-12,434	-0,47021	-3,0275	10,908
30865	11,097	-0,9733	-5,2779	9,8741
30866	10,447	-0,97063	-5,4947	9,574
30867	10,495	-1,5345	-5,1065	9,6652
30868	10,611	-0,49252	-5,1121	9,7305
30869	-5,4179	-1,1138	-3,6069	8,5075
30870	-4,7174	-1,1408	-3,6555	8,3805
30871	-5,0318	-1,7088	-3,1897	8,4982
30872	-5,0323	-0,56846	-3,1807	8,5119
30873	12,118	-0,9585	-5,6066	10,221
30874	11,45	-0,95812	-5,8417	9,8891
30875	11,548	-1,3615	-5,485	10,009
30876	11,628	-0,48078	-5,4672	10,062
30877	-6,1618	-1,0965	-4,4604	8,5139
30878	-5,4994	-1,0901	-4,4974	8,3761
30879	-5,8319	-1,6351	-4,102	8,5095
30880	-5,7763	-0,54532	-4,053	8,5134
30881	12,456	-0,95056	-6,152	10,229
30882	13,145	-0,954	-5,8975	10,595
30883	12,638	-1,4135	-5,7708	10,408
30884	12,649	-0,47772	-5,7644	10,427
30885	10,8	-0,95545	-6,0586	9,5925
30886	10,14	-0,95399	-6,2686	9,3053
30887	10,28	-1,4649	-5,92	9,4239
30888	10,306	-0,47811	-5,8881	9,4571
30889	-6,9638	-1,0798	-5,2369	8,5587
30890	-6,2603	-1,0833	-5,3206	8,3795
30891	-6,5334	-1,6436	-4,8826	8,5186
30892	-6,5201	-0,55114	-4,8877	8,5265
30893	-11,866	-0,9782	-4,189	10,411
30894	-12,549	-0,97076	-3,9743	10,771
30895	-12,104	-1,4831	-3,8169	10,587
30896	-12,041	-0,47845	-3,8103	10,585
30897	11,788	-0,95018	-6,3872	9,9025
30898	11,124	-0,95964	-6,6178	9,5906
30899	11,236	-1,4099	-6,2132	9,7228
30900	11,305	-0,47734	-6,2371	9,7603
30901	-11,462	-1,002	-4,9818	10,077
30902	-12,166	-0,98942	-4,7615	10,428
30903	-11,733	-1,5085	-4,565	10,278
30904	-11,664	-0,49975	-4,5769	10,266
30905	-1,2594	-1,1789	1,4817	8,3137
30906	-0,55183	-1,1075	1,4675	8,2971
30907	-0,97645	-1,6681	1,9978	8,2648
30908	-0,97074	-0,55497	1,9936	8,2722
30909	12,109	-0,95405	-6,9439	9,8975
30910	12,782	-0,95204	-6,6966	10,231
30911	12,249	-1,4327	-6,5341	10,052
30912	12,303	-0,47284	-6,5486	10,088
30913	-1,799	-1,168	0,42592	8,3832
30914	-1,1219	-1,1768	0,46954	8,3544
30915	-1,5178	-1,7703	0,95837	8,3576
30916	-1,5442	-0,62391	0,99367	8,3636
30917	-14,804	-0,95209	-2,3289	12,258
30918	-15,415	-0,94941	-2,0149	12,684
30919	-14,943	-1,4528	-1,8992	12,402
30920	-14,934	-0,46917	-1,8936	12,449
30921	-2,3202	-1,0923	-0,68236	8,4081
30922	-1,641	-1,0927	-0,64614	8,3698
30923	-2,063	-1,5236	-0,12639	8,4087
30924	-2,0496	-0,54405	-0,1207	8,414
30925	-7,8758	-1,0667	-5,9042	8,6687
30926	-7,1232	-1,0521	-6,0411	8,4438
30927	-7,4006	-1,5858	-5,5964	8,5994
30928	-7,3887	-0,52865	-5,6129	8,6023
30929	-2,8339	-1,1599	-1,7229	8,3862
30930	-2,1721	-1,1179	-1,7422	8,334
30931	-2,5334	-1,6517	-1,3151	8,3945
30932	-2,5645	-0,54826	-1,2173	8,4116
30933	13,654	-0,99461	29,118	9,4768
30934	14,324	-0,99541	28,922	9,1564
30935	13,888	-1,4915	28,68	9,329
30936	13,46	-0,99401	28,436	9,4815
30937	13,889	-0,49732	28,68	9,3419
30938	-11,048	-1,0269	-5,8023	9,7373
30939	-11,747	-1,0003	-5,5863	10,067
30940	-11,222	-1,5868	-5,3399	9,9025
30941	-11,234	-0,50224	-5,3959	9,9158
30942	13,182	-0,99468	29,993	9,7757
30943	13,852	-0,99535	29,8	9,4444
30944	13,418	-1,4915	29,556	9,6167
30945	12,983	-0,99396	29,31	9,7718
30946	13,418	-0,49729	29,557	9,6292
30947	-8,871	-1,0682	-6,4429	8,8559
30948	-8,078	-1,0656	-6,7066	8,5686
30949	-8,2895	-1,5774	-6,1876	8,729
30950	-8,3442	-0,538	-6,2223	8,7487
30951	-2,7321	-1,1652	-2,7726	8,2652
30952	-3,3969	-1,2039	-2,7253	8,3357
30953	-3,0924	-1,7503	-2,2353	8,364
30954	-3,0814	-0,61165	-2,2229	8,3715
30955	-9,9362	-1,0648	-6,875	9,1132
30956	-9,2408	-1,0512	-7,1053	8,838
30957	-9,334	-1,5801	-6,6349	8,9601
30958	-9,408	-0,53017	-6,6575	8,9926
30959	-10,668	-1,0593	-6,6477	9,4136
30960	-11,385	-1,0449	-6,4041	9,7383
30961	-10,854	-1,6343	-6,198	9,5758
30962	-10,848	-0,52469	-6,2217	9,5879
30963	12,711	-0,9947	30,868	10,097
30964	13,381	-0,9955	30,674	9,753
30965	12,946	-1,4918	30,43	9,9267
30966	12,514	-0,99414	30,182	10,082
30967	12,947	-0,49739	30,431	9,9387
30968	-10,286	-1,0599	-7,5432	9,0948
30969	-10,994	-1,0675	-7,2846	9,398
30970	-10,486	-1,6284	-7,0596	9,2599
30971	-10,465	-0,53463	-7,0952	9,263
30972	-13,56	-0,94823	-2,9432	11,463
30973	-14,2	-0,96005	-2,6464	11,874
30974	-13,737	-1,4611	-2,5343	11,622
30975	-13,727	-0,47712	-2,5399	11,655
30976	12,241	-0,99451	31,746	10,443
30977	12,91	-0,99536	31,551	10,083
30978	12,476	-1,4916	31,307	10,26
30979	12,043	-0,99383	31,059	10,419
30980	12,477	-0,49731	31,308	10,272
30981	-13,88	-0,94875	-3,483	11,539
30982	-13,226	-0,96341	-3,7482	11,139
30983	-13,431	-1,4652	-3,3603	11,316
30984	-13,395	-0,4711	-3,358	11,333
30985	-14,52	-0,96057	-3,1861	11,937
30986	-15,161	-0,95989	-2,8878	12,377
30987	-14,672	-1,4204	-2,7618	12,103
30988	-14,677	-0,48292	-2,7676	12,152
30989	14,522	-0,99615	29,605	9,1277
30990	15,194	-0,99703	29,407	8,7867
30991	14,757	-1,4937	29,166	8,9797
30992	14,758	-0,49809	29,166	8,9914
30993	-20,096	-0,96984	9,6964	11,37
30994	-19,864	-0,97824	8,9329	11,865
30995	-19,649	-1,4861	9,4152	11,482
30996	-19,226	-0,98682	9,1986	11,519
30997	-19,688	-0,49163	9,4237	11,525
30998	-14,202	-0,96951	-4,0234	11,577
30999	-14,859	-0,95768	-3,7409	12,01
31000	-14,4	-1,4709	-3,6076	11,776
31001	-14,371	-0,47765	-3,614	11,801
31002	-20,95	-0,95328	10,246	11,075
31003	-20,804	-0,95318	9,4395	11,691
31004	-20,489	-1,4369	9,9467	11,252
31005	-20,522	-0,47822	9,9675	11,284
31006	11,77	-0,99449	32,622	10,818
31007	12,438	-0,99523	32,427	10,438
31008	12,005	-1,4912	32,183	10,62
31009	11,573	-0,99359	31,933	10,782
31010	12,006	-0,4972	32,184	10,631
31011	-21,829	-0,94234	10,781	10,671
31012	-21,623	-0,93647	10,148	11,202
31013	-21,364	-1,3817	10,518	10,897
31014	-21,344	-0,47506	10,581	10,886
31015	14,051	-0,99617	30,482	9,4261
31016	14,721	-0,99702	30,285	9,0778
31017	14,286	-1,4937	30,043	9,2686
31018	14,286	-0,49806	30,044	9,2797
31019	-22,736	-0,94355	11,251	10,183
31020	-22,489	-0,93569	10,652	10,741
31021	-22,282	-1,3863	11,03	10,433
31022	-22,263	-0,46728	11,062	10,454
31023	13,579	-0,99616	31,357	9,7444
31024	14,25	-0,9971	31,161	9,3867
31025	13,814	-1,4938	30,919	9,5768
31026	13,815	-0,49811	30,919	9,5872
31027	11,299	-0,99568	33,499	11,225
31028	11,967	-0,99521	33,305	10,819
31029	11,534	-1,4914	33,06	11,008
31030	11,107	-0,99397	32,812	11,175
31031	11,535	-0,49729	33,06	11,021
31032	-20,246	-0,97306	7,9459	12,708
31033	-20,572	-0,96157	8,676	12,202
31034	-20,03	-1,4739	8,4382	12,245
31035	-19,624	-0,97978	8,2371	12,254
31036	-20,094	-0,48661	8,4517	12,295
31037	13,107	-0,99609	32,233	10,084
31038	13,777	-0,99702	32,038	9,7141
31039	13,339	-1,4956	31,794	9,9071
31040	13,343	-0,49805	31,796	9,9157
31041	10,826	-0,99977	34,379	11,671
31042	11,495	-0,99704	34,183	11,23
31043	11,063	-1,4941	33,937	11,432
31044	10,635	-0,99648	33,692	11,609
31045	11,063	-0,49839	33,939	11,445
31046	12,635	-0,99596	33,111	10,445
31047	13,305	-0,9969	32,915	10,06
31048	12,87	-1,4934	32,672	10,256
31049	12,871	-0,49804	32,672	10,265
31050	-0,41429	-1,1054	0,45538	8,3379
31051	0,28295	-1,1001	0,47473	8,3375
31052	-4,5569e-002	-1,5498	0,90498	8,3264
31053	-0,14048	-0,55253	0,9767	8,3288
31054	10,344	-1,0075	35,27	12,171
31055	11,021	-1,0024	35,063	11,68
31056	10,591	-1,502	34,817	11,898
31057	10,159	-1,0027	34,577	12,091
31058	10,589	-0,50138	34,82	11,914
31059	-0,96384	-1,1015	-0,60251	8,3409
31060	-0,272	-1,1315	-0,54192	8,3332
31061	-0,6748	-1,5782	-0,10916	8,3494
31062	-0,70242	-0,55291	-5,332e-002	8,3563
31063	9,8404	-1,0176	36,177	12,753
31064	10,533	-1,0112	35,957	12,186
31065	10,102	-1,5153	35,715	12,429
31066	9,6643	-1,0096	35,472	12,645
31067	10,1	-0,50609	35,719	12,451
31068	-20,573	-0,96546	6,9396	13,709
31069	-20,833	-0,95971	7,5776	13,246
31070	-20,447	-1,4501	7,4472	13,188
31071	-19,98	-0,97875	7,2655	13,108
31072	-20,435	-0,48645	7,4519	13,216
31073	-1,4929	-1,1183	-1,7059	8,2954
31074	-0,78891	-1,0966	-1,6235	8,2815
31075	-1,2945	-1,5966	-1,1694	8,3314
31076	-1,2314	-0,54861	-1,1443	8,3365
31077	-20,873	-0,95567	5,9366	14,907
31078	-21,111	-0,96084	6,5896	14,402
31079	-20,685	-1,4643	6,4493	14,243
31080	-20,309	-0,96226	6,2609	14,13
31081	-20,712	-0,479	6,4273	14,312
31082	-2,0703	-1,1232	-2,7919	8,2125
31083	-1,308	-1,131	-2,7359	8,1819
31084	-1,7854	-1,7293	-2,2988	8,2561
31085	-1,758	-0,56968	-2,2793	8,2645
31086	12,163	-0,99658	33,989	10,832
31087	12,832	-0,99671	33,793	10,426
31088	12,398	-1,4933	33,549	10,629
31089	12,399	-0,49792	33,55	10,638
31090	-21,449	-0,94792	5,6176	15,91
31091	-21,167	-0,96886	4,9739	16,295
31092	-20,998	-1,4633	5,4742	15,547
31093	-20,6	-0,96795	5,2948	15,25
31094	-21,034	-0,47667	5,4459	15,626
31095	11,69	-0,99971	34,866	11,248
31096	12,36	-0,99785	34,67	10,813
31097	11,927	-1,4949	34,426	11,029
31098	11,926	-0,49866	34,427	11,038
31099	-21,687	-0,95309	6,2705	15,337
31100	-22,275	-0,94164	5,9708	16,39
31101	-22,002	-0,95403	5,3322	17,275
31102	-21,825	-1,4601	5,8231	16,142
31103	-21,863	-0,47125	5,7892	16,222
31104	-2,7403	-1,1163	-3,7966	8,1185
31105	-1,91	-1,1098	-3,9906	8,0214
31106	-2,4375	-1,6437	-3,4504	8,1487
31107	-2,3718	-0,55354	-3,342	8,1672
31108	-4,0575	-1,1645	-3,679	8,2813
31109	-3,4051	-1,155	-3,7493	8,1899
31110	-3,7944	-1,7572	-3,2418	8,3145
31111	-3,7125	-0,59222	-3,2277	8,3145
31112	11,21	-1,0061	35,75	11,704
31113	11,887	-1,0019	35,548	11,226
31114	11,455	-1,5014	35,303	11,46
31115	11,453	-0,50105	35,305	11,471
31116	-4,1092	-1,1431	-4,6087	8,1306
31117	-4,7988	-1,1171	-4,546	8,2472
31118	-4,4433	-1,7526	-4,1211	8,2692
31119	-4,4025	-0,57232	-4,1304	8,2645
31120	-21,37	-0,95509	7,2275	13,893
31121	-21,911	-0,95929	6,9116	14,574
31122	-21,494	-1,4628	6,7714	14,493
31123	-21,52	-0,48184	6,7323	14,569
31124	10,017	-1,0212	36,868	12,777
31125	9,3045	-1,0294	37,089	13,443
31126	9,5848	-1,5312	36,63	13,056
31127	9,1432	-1,019	36,38	13,295
31128	9,5812	-0,5115	36,635	13,084
31129	-3,4568	-1,1336	-4,6789	8,0381
31130	-2,7637	-1,1421	-4,8235	7,9366
31131	-3,1241	-1,6114	-4,2253	8,0825
31132	-3,0579	-0,56279	-4,2768	8,0734
31133	10,709	-1,0147	36,648	12,222
31134	11,403	-1,0081	36,435	11,675
31135	10,97	-1,5125	36,192	11,939
31136	10,967	-0,50507	36,195	11,952
31137	-4,216	-1,1222	-5,4908	7,9815
31138	-3,5659	-1,1176	-5,5857	7,876
31139	-3,8669	-1,8176	-5,0743	8,0129
31140	-3,816	-0,5708	-5,087	8,0107
31141	-4,9056	-1,0963	-5,4282	8,1
31142	-5,5978	-1,077	-5,3576	8,2391
31143	-5,2284	-1,5778	-4,8028	8,2702
31144	-5,1849	-0,54482	-4,9717	8,243
31145	-21,159	-0,94821	8,3076	12,702
31146	-21,577	-0,93421	7,7884	13,356
31147	-21,212	-1,4505	7,731	13,267
31148	-21,213	-0,47325	7,7115	13,314
31149	-5,0229	-1,0905	-6,2872	7,9555
31150	-4,3619	-1,0834	-6,3592	7,8329
31151	-4,6686	-1,6662	-5,7796	7,9897
31152	-4,616	-0,55145	-5,8947	7,9691
31153	-5,7151	-1,0713	-6,2166	8,0966
31154	-6,4197	-1,0556	-6,1248	8,2626
31155	-6,0516	-1,5636	-5,7936	8,2453
31156	-5,9773	-0,5322	-5,8107	8,2346
31157	10,192	-1,0241	37,552	12,811
31158	10,899	-1,0155	37,333	12,178
31159	10,456	-1,5258	37,099	12,49
31160	10,452	-0,50968	37,101	12,509
31161	-21,423	-0,93713	8,8061	12,314
31162	-21,478	-0,93637	9,3419	11,817
31163	-21,057	-1,3965	8,8849	12,16
31164	-21,053	-0,47496	8,9387	12,147
31165	-5,8387	-1,0466	-7,0311	7,9692
31166	-5,1637	-1,0571	-7,1141	7,823
31167	-5,4531	-1,611	-6,6502	7,9624
31168	-5,4297	-0,53906	-6,6796	7,9603
31169	-21,841	-0,92312	8,2868	12,925
31170	-22,014	-0,92754	8,9238	12,284
31171	-21,777	-1,3774	8,7233	12,448
31172	-21,759	-0,46217	8,7001	12,493
31173	-23,657	-0,96239	11,669	9,5928
31174	-23,412	-0,95085	11,055	10,231
31175	-23,22	-1,4392	11,421	9,9378
31176	-23,19	-0,47627	11,478	9,9364
31177	-6,5434	-1,0309	-6,9393	8,1365
31178	-7,3254	-1,051	-6,8434	8,3431
31179	-6,7965	-1,5523	-6,4982	8,2789
31180	-6,8383	-0,5234	-6,5296	8,2894
31181	-24,581	-0,97521	12,065	8,8709
31182	-24,339	-0,97261	11,453	9,5822
31183	-24,134	-1,4711	11,829	9,2914
31184	-24,121	-0,48612	11,874	9,2943
31185	-22,118	-0,9384	7,4724	14,005
31186	-22,331	-0,92435	8,0886	13,254
31187	-21,91	-1,3925	7,881	13,394
31188	-21,923	-0,46096	7,8736	13,418
31189	-22,283	-0,92982	10,019	11,272
31190	-22,068	-0,92678	9,4596	11,803
31191	-21,886	-1,3082	9,7732	11,502
31192	-21,817	-0,46141	9,8147	11,494
31193	-6,6179	-1,0002	-7,7566	8,0041
31194	-5,9579	-1,0221	-7,8207	7,8506
31195	-6,2343	-1,5245	-7,3586	7,9911
31196	-6,2513	-0,50754	-7,4222	7,9894
31197	-23,164	-0,94299	10,455	10,792
31198	-22,907	-0,94238	9,8974	11,387
31199	-22,667	-1,3404	10,239	11,07
31200	-22,687	-0,46841	10,291	11,045
31201	-22,5	-0,94784	6,6118	15,582
31202	-22,719	-0,94545	7,2416	14,57
31203	-22,302	-1,4539	7,0926	14,609
31204	-22,298	-0,47744	7,0688	14,632
31205	-24,093	-0,96108	10,838	10,221
31206	-23,842	-0,95025	10,239	10,927
31207	-23,693	-1,3926	10,62	10,555
31208	-23,624	-0,47458	10,664	10,553
31209	-25,492	-0,98087	12,461	7,9786
31210	-25,261	-0,97916	11,832	8,7957
31211	-25,042	-1,478	12,231	8,49
31212	-25,041	-0,48909	12,256	8,5121
31213	-25,018	-0,97656	11,22	9,5054
31214	-24,773	-0,97381	10,615	10,292
31215	-24,575	-1,4671	10,986	9,9427
31216	-24,556	-0,48649	11,033	9,929
31217	-23,09	-0,95634	6,3427	16,506
31218	-22,849	-0,96324	5,7134	17,955
31219	-22,663	-1,4546	6,1807	16,529
31220	-22,687	-0,47039	6,1523	16,557
31221	-22,693	-0,93934	9,3381	11,918
31222	-22,504	-0,92877	8,7255	12,602
31223	-22,267	-1,3516	9,1769	12,068
31224	-22,269	-0,46537	9,1475	12,119
31225	-26,173	-0,98454	12,234	7,7973
31226	-26,388	-0,98925	12,876	6,8696
31227	-25,942	-1,4784	12,662	7,475
31228	-25,944	-0,49178	12,667	7,5248
31229	-23,585	-0,94964	9,6814	11,526
31230	-23,352	-0,94724	9,0939	12,245
31231	-23,107	-1,4129	9,5187	11,739
31232	-23,116	-0,47397	9,5286	11,753
31233	-25,7	-0,98121	10,981	9,5127
31234	-25,941	-0,98283	11,605	8,607
31235	-25,481	-1,4679	11,408	9,0991
31236	-25,484	-0,49007	11,409	9,1462
31237	-24,522	-0,96298	10,016	10,998
31238	-24,262	-0,95661	9,4187	11,796
31239	-24,052	-1,4419	9,8417	11,295
31240	-24,055	-0,47567	9,8415	11,32
31241	-7,3999	-1,0203	-7,6607	8,2111
31242	-7,9649	-1,024	-7,741	8,3467
31243	-8,4478	-1,0486	-7,369	8,5533
31244	-7,7909	-1,6505	-7,2417	8,3896
31245	-7,8118	-0,52756	-7,1908	8,414
31246	-25,454	-0,97845	10,376	10,296
31247	-25,199	-0,97624	9,773	11,165
31248	-24,988	-1,4627	10,184	10,663
31249	-24,99	-0,48732	10,198	10,703
31250	-6,7096	-0,98197	-8,5395	7,8997
31251	-7,352	-0,97291	-8,4645	8,0639
31252	-6,9644	-1,4157	-8,0686	8,037
31253	-6,9778	-0,49271	-8,1263	8,0331
31254	0,42524	-1,1262	-0,52257	8,3328
31255	1,1012	-1,0722	-0,47995	8,3512
31256	0,69339	-1,6639	-1,8803e-002	8,3505
31257	0,67968	-0,5476	-3,7869e-003	8,3554
31258	-26,138	-0,98488	10,122	10,396
31259	-26,387	-0,98557	10,744	9,4028
31260	-25,917	-1,4797	10,56	9,8772
31261	-25,924	-0,49114	10,551	9,9441
31262	-7,9171	-0,97662	-8,5449	8,2052
31263	-8,4627	-1,0012	-8,4001	8,3803
31264	-8,1448	-1,4567	-8,3657	8,2845
31265	-8,1008	-0,49641	-8,2555	8,3086
31266	0,58869	-1,0951	-1,4865	8,2884
31267	-9,7073e-002	-1,1266	-1,5629	8,2738
31268	8,2385e-002	-1,5999	-1,006	8,3121
31269	0,14314	-0,57864	-1,032	8,3191
31270	1,2646	-1,0411	-1,4439	8,3069
31271	1,9459	-1,0598	-1,3957	8,347
31272	1,4295	-1,6278	-1,0449	8,3421
31273	1,5034	-0,52462	-0,93683	8,3576
31274	-5,2829	-1,0326	-7,9037	7,7034
31275	-4,5028	-1,0499	-7,1861	7,6986
31276	-4,6395	-1,0282	-8,0087	7,5713
31277	-4,866	-1,543	-7,5591	7,6883
31278	-4,8978	-0,51799	-7,5449	7,7015
31279	0,78902	-1,0378	-2,4505	8,1961
31280	1,4707	-1,027	-2,3818	8,2316
31281	1,055	-1,496	-1,9593	8,2582
31282	1,0066	-0,51646	-1,9469	8,2653
31283	-6,0497	-1,0039	-8,6037	7,7454
31284	-5,4179	-1,0188	-8,7012	7,6002
31285	-5,6662	-1,5367	-8,242	7,7191
31286	-5,6681	-0,51459	-8,2589	7,7233
31287	0,10326	-1,0693	-2,5269	8,1813
31288	-0,60403	-1,1093	-2,6535	8,1678
31289	-0,34968	-1,5701	-2,0912	8,2316
31290	-0,37934	-0,54796	-2,1048	8,2367
31291	-6,8119	-0,97086	-9,2721	7,8186
31292	-6,1847	-0,9857	-9,3675	7,6681
31293	-6,4219	-1,3865	-8,8566	7,7797
31294	-6,4146	-0,48927	-8,9714	7,7764
31295	-3,7118	-1,0788	-6,4541	7,7262
31296	-3,853	-1,0408	-7,3138	7,5775
31297	-4,0638	-1,5704	-6,8543	7,6943
31298	-4,0978	-0,53191	-6,8329	7,7085
31299	-7,4543	-0,9618	-9,1972	7,9827
31300	-8,0784	-0,97103	-9,1061	8,1603
31301	-7,7328	-1,3585	-8,8383	8,1074
31302	-7,6363	-0,48021	-8,869	8,0834
31303	-2,8728	-1,1262	-5,7303	7,7745
31304	-3,0672	-1,0826	-6,5937	7,6212
31305	-3,3557	-1,6396	-6,121	7,7502
31306	-3,2946	-0,54685	-6,0976	7,7498
31307	0,32345	-1,1011	-3,5112	8,0408
31308	1,0242	-1,0249	-3,3862	8,0799
31309	0,61141	-1,5738	-2,9227	8,1345
31310	0,52741	-0,52135	-2,9583	8,1343
31311	-0,38384	-1,141	-3,6378	8,0273
31312	-1,1478	-1,1176	-3,9345	7,99
31313	-0,84513	-1,6162	-3,2052	8,1019
31314	-0,89031	-0,56129	-3,233	8,1054
31315	-22,933	-0,9314	7,8577	13,807
31316	-23,163	-0,93667	8,4813	12,937
31317	-22,765	-1,4123	8,3213	13,104
31318	-22,739	-0,4634	8,3035	13,126
31319	-8,5331e-002	-1,1513	-4,5689	7,8581
31320	0,59342	-1,1161	-4,4359	7,893
31321	8,2249e-002	-1,6598	-3,9778	7,9667
31322	5,7122e-002	-0,57973	-4,0482	7,9597
31323	-7,5999	-0,96596	-9,9053	7,9326
31324	-6,9618	-0,96781	-10,027	7,7677
31325	-7,2272	-1,4217	-9,5792	7,8809
31326	-7,166	-0,48159	-9,6372	7,862
31327	-1,9334	-1,1356	-5,0174	7,8404
31328	-2,2093	-1,1032	-5,9616	7,6677
31329	-2,3873	-1,6025	-5,3557	7,8064
31330	-2,4297	-0,57931	-5,3761	7,8084
31331	-23,309	-0,95395	6,9725	15,477
31332	-23,548	-0,94715	7,5984	14,316
31333	-23,112	-1,4441	7,4367	14,493
31334	-23,126	-0,468	7,4119	14,51
31335	-0,84926	-1,1278	-4,8656	7,8223
31336	-1,3074	-1,0723	-5,4295	7,7178
31337	-1,528	-1,6118	-4,6164	7,8935
31338	-1,4613	-0,55627	-4,6393	7,8897
31339	-23,891	-0,96993	6,7227	16,2
31340	-23,7	-0,9838	6,0747	18,059
31341	-23,485	-1,4707	6,5545	16,447
31342	-23,495	-0,48595	6,5221	16,438
31343	-0,45284	-1,0507	-5,6722	7,6464
31344	0,26616	-1,1026	-5,4304	7,6978
31345	-0,40944	-1,6389	-5,0097	7,7798
31346	-0,2614	-0,57158	-5,0725	7,7694
31347	-0,91102	-0,99511	-6,2361	7,549
31348	-0,50362	-0,96618	-6,6448	7,4538
31349	-1,6452e-002	-0,99262	-6,5	7,4833
31350	-0,59159	-1,5083	-6,282	7,5285
31351	-0,4617	-0,4791	-6,1827	7,5507
31352	-1,5833	-1,0399	-6,3737	7,5504
31353	-1,0306	-1,0146	-6,7146	7,4543
31354	-1,205	-1,5846	-6,1946	7,5652
31355	-1,1801	-0,51601	-6,1398	7,5801
31356	-0,6232	-0,98566	-7,1234	7,3637
31357	6,8589e-002	-0,96834	-7,2061	7,3392
31358	-0,26208	-1,4877	-6,9739	7,3833
31359	-0,32279	-0,48708	-6,9987	7,3835
31360	-24,029	-0,95422	8,8311	12,52
31361	-23,778	-0,95242	8,222	13,438
31362	-23,554	-1,4259	8,6755	12,753
31363	-23,587	-0,47327	8,6591	12,768
31364	-2,4038	-1,0597	-6,8249	7,5164
31365	-1,7992	-1,0324	-7,0809	7,417
31366	-1,9645	-1,5871	-6,4701	7,5542
31367	-2,0014	-0,52391	-6,5099	7,5496
31368	-24,939	-0,96987	9,1756	11,963
31369	-24,674	-0,9659	8,575	12,913
31370	-24,452	-1,4524	9,0372	12,256
31371	-24,475	-0,48095	9,0062	12,282
31372	-3,2084	-1,0446	-7,4535	7,4732
31373	-2,5972	-1,0409	-7,6213	7,3785
31374	-2,8942	-1,5989	-6,9175	7,5397
31375	-2,8187	-0,53577	-7,1028	7,5011
31376	-25,882	-0,98268	9,5196	11,26
31377	-25,614	-0,97389	8,9231	12,241
31378	-25,399	-1,4543	9,3408	11,677
31379	-25,408	-0,48893	9,348	11,663
31380	-3,9897	-1,0191	-8,1365	7,4508
31381	-3,383	-1,017	-8,2693	7,3474
31382	-3,6512	-1,5535	-7,7481	7,475
31383	-3,6007	-0,50887	-7,8014	7,4591
31384	-8,9455	-1,0258	-8,0281	8,577
31385	-9,5909	-1,0463	-7,7735	8,8236
31386	-9,059	-1,5673	-7,614	8,6835
31387	-9,0838	-0,52106	-7,5472	8,7175
31388	-4,7745	-1,0144	-8,8062	7,4685
31389	-4,1511	-1,0113	-8,9266	7,3511
31390	-4,3561	-1,5442	-8,447	7,4545
31391	-4,3919	-0,51023	-8,4584	7,4618
31392	2,1519	-1,0458	-2,3336	8,2723
31393	2,8155	-1,038	-2,2656	8,3353
31394	2,369	-1,5307	-1,8081	8,3425
31395	2,3712	-0,53523	-1,8433	8,3471
31396	-26,628	-0,98719	11,368	8,508
31397	-26,85	-0,9902	12,007	7,4677
31398	-26,401	-1,4805	11,796	8,0993
31399	-26,402	-0,49275	11,801	8,1539
31400	1,7059	-1,0141	-3,3175	8,1161
31401	2,386	-1,0156	-3,247	8,1752
31402	1,9862	-1,4804	-2,7224	8,2161
31403	1,9068	-0,51058	-2,8142	8,2069
31404	-26,829	-0,99076	9,8783	10,385
31405	-26,568	-0,98354	9,2652	11,471
31406	-26,365	-1,4718	9,6957	10,872
31407	-26,356	-0,49375	9,6911	10,914
31408	1,2942	-1,0399	-4,3109	7,9328
31409	1,9679	-1,0026	-4,2329	7,9862
31410	1,3887	-1,5549	-3,8555	8,02
31411	1,4698	-0,50352	-3,7919	8,0378
31412	-27,078	-0,99144	10,5	9,4081
31413	-27,315	-0,99297	11,128	8,2581
31414	-26,855	-1,484	10,928	8,9012
31415	-26,855	-0,49443	10,935	8,9564
31416	0,94492	-1,0674	-5,2974	7,7339
31417	1,5799	-1,0288	-5,1943	7,7845
31418	1,0589	-1,5664	-4,8425	7,8276
31419	1,0751	-0,53639	-4,7753	7,8454
31420	-1,2465	-1,0071	-7,4219	7,3256
31421	-0,61864	-0,98201	-7,6951	7,253
31422	-0,86413	-1,4772	-7,2462	7,3447
31423	-0,88342	-0,49858	-7,229	7,3508
31424	-27,522	-0,99749	9,6295	10,52
31425	-27,762	-0,99562	10,267	9,2508
31426	-27,304	-1,4896	10,058	9,901
31427	-27,302	-0,49701	10,065	9,96
31428	0,70255	-1,0446	-6,2582	7,5354
31429	1,2512	-1,0297	-6,1458	7,5789
31430	0,77766	-1,5992	-5,7399	7,6443
31431	0,81851	-0,53105	-5,7979	7,6362
31432	-1,9926	-1,0136	-7,8773	7,2831
31433	-1,3711	-0,99379	-8,0975	7,2044
31434	-1,5917	-1,5035	-7,6969	7,2929
31435	-1,6095	-0,50854	-7,6148	7,3074
31436	-8,624	-0,99558	-8,9614	8,333
31437	-9,2536	-1,0091	-8,7189	8,5548
31438	-8,821	-1,4563	-8,4816	8,4605
31439	-8,8072	-0,50475	-8,509	8,4659
31440	-4,9437	-1,0001	-9,5828	7,3961
31441	-5,5529	-1,0006	-9,465	7,5237
31442	-5,1614	-1,5203	-9,1085	7,4924
31443	-5,1677	-0,5042	-9,1435	7,4949
31444	0,55576	-0,99479	-7,0613	7,3718
31445	1,0077	-1,0228	-7,0851	7,3806
31446	0,61148	-1,5922	-6,731	7,4386
31447	0,61137	-0,51352	-6,7282	7,4423
31448	-9,899	-1,0296	-8,4643	8,795
31449	-10,595	-1,0428	-8,2134	9,0696
31450	-10,129	-1,6768	-7,9638	8,9579
31451	-10,095	-0,52528	-8,0046	8,9556
31452	-2,7718	-1,0133	-8,4372	7,2547
31453	-2,1654	-0,99715	-8,6069	7,1723
31454	-2,364	-1,477	-8,243	7,2454
31455	-2,3785	-0,50511	-8,1294	7,2708
31456	-8,2239	-0,9752	-9,8143	8,109
31457	-8,8682	-0,99172	-9,6251	8,309
31458	-8,4603	-1,3684	-9,478	8,2135
31459	-8,4407	-0,49083	-9,4138	8,2252
31460	-9,4977	-1,0052	-9,3826	8,5241
31461	-10,163	-1,0155	-9,1431	8,7644
31462	-9,7507	-1,5411	-8,9652	8,6649
31463	-9,7037	-0,50433	-8,9315	8,6669
31464	-3,5444	-1,0092	-9,0594	7,2491
31465	-2,9537	-1,0005	-9,1953	7,1602
31466	-3,1093	-1,4728	-8,8309	7,2284
31467	-3,1678	-0,50816	-8,7346	7,2516
31468	-8,431	-0,97837	-10,46	8,0956
31469	-7,7822	-0,97708	-10,619	7,9165
31470	-8,0056	-1,4512	-10,218	8,0053
31471	-8,0072	-0,48437	-10,215	8,0147
31472	-9,0752	-0,9949	-10,271	8,2906
31473	-9,7339	-1,012	-10,065	8,5007
31474	-9,3023	-1,521	-9,867	8,3999
31475	-9,3014	-0,5009	-9,8349	8,4147
31476	-4,3203	-0,99696	-9,7032	7,2799
31477	-3,7226	-0,99162	-9,8208	7,1811
31478	-3,7658	-1,4885	-9,427	7,2306
31479	-3,9346	-0,50108	-9,3724	7,2628
31480	-9,2835	-0,98805	-10,944	8,2832
31481	-8,632	-0,98074	-11,131	8,0989
31482	-8,8244	-1,4974	-10,754	8,1729
31483	-8,8593	-0,494	-10,705	8,1977
31484	-5,1091	-0,9855	-10,343	7,3541
31485	-4,5118	-0,98374	-10,45	7,2441
31486	-4,6759	-1,5468	-10,038	7,3038
31487	-4,7197	-0,49588	-10,022	7,3157
31488	7,3148e-002	-0,96469	-7,7778	7,2302
31489	0,73724	-0,97499	-7,8044	7,2321
31490	0,51949	-1,511	-7,3066	7,3226
31491	0,40109	-0,48126	-7,5019	7,2856
31492	-12,85	-0,98198	-4,5467	10,783
31493	-13,549	-0,98418	-4,2886	11,187
31494	-13,102	-1,5002	-4,1459	10,987
31495	-13,042	-0,49231	-4,1445	10,991
31496	-0,74332	-0,96867	-8,3707	7,1368
31497	-1,318e-002	-0,95911	-8,5956	7,0903
31498	-0,34835	-1,4464	-8,1697	7,1621
31499	-0,35386	-0,48343	-8,1611	7,1653
31500	-12,45	-0,98771	-5,366	10,413
31501	-13,157	-0,98477	-5,1103	10,799
31502	-12,717	-1,508	-4,9538	10,625
31503	-12,641	-0,48967	-4,9552	10,618
31504	-1,5439	-0,97729	-8,8272	7,0973
31505	-0,93387	-0,96652	-9,037	7,0373
31506	-1,1224	-1,4825	-8,602	7,1102
31507	-1,132	-0,48525	-8,5815	7,1153
31508	-12,084	-1,0182	-6,1881	10,064
31509	-12,778	-0,99694	-5,9367	10,421
31510	-12,337	-1,5141	-5,7778	10,263
31511	-12,26	-0,49804	-5,7768	10,256
31512	-2,3473	-0,98437	-9,3651	7,0803
31513	-1,7471	-0,96758	-9,5128	7,016
31514	-1,9323	-1,4975	-9,1257	7,0783
31515	-1,955	-0,49205	-9,0741	7,0882
31516	-11,711	-1,0531	-7,041	9,7172
31517	-12,408	-1,0243	-6,7725	10,057
31518	-11,976	-1,5455	-6,6001	9,9202
31519	-11,88	-0,5202	-6,6118	9,9014
31520	-24,13	-0,96313	7,3487	15,041
31521	-24,424	-0,9641	7,9659	13,831
31522	-23,967	-1,4243	7,7903	14,137
31523	-23,977	-0,47915	7,7884	14,101
31524	-11,302	-1,0504	-7,9549	9,3659
31525	-12,012	-1,0437	-7,6517	9,6933
31526	-11,596	-1,5813	-7,4617	9,5771
31527	-11,493	-0,53287	-7,4979	9,5501
31528	-3,1319	-0,98287	-9,9568	7,0941
31529	-2,5415	-0,97099	-10,085	7,02
31530	-2,7313	-1,4693	-9,6683	7,0797
31531	-2,7396	-0,49233	-9,6561	7,0833
31532	-13,856	-0,98697	-4,8521	11,194
31533	-14,524	-0,97494	-4,5812	11,611
31534	-14,087	-1,4986	-4,4415	11,41
31535	-14,031	-0,49186	-4,443	11,418
31536	-5,7183	-0,98605	-10,225	7,4797
31537	-6,3346	-0,98265	-10,123	7,6184
31538	-5,8651	-1,4756	-9,6767	7,5555
31539	-5,9363	-0,49643	-9,7995	7,5682
31540	-13,485	-0,99401	-5,681	10,8
31541	-14,158	-0,9842	-5,4137	11,195
31542	-13,729	-1,5036	-5,2658	11,019
31543	-13,66	-0,49511	-5,2689	11,019
31544	-3,914	-0,9784	-10,567	7,1468
31545	-3,3106	-0,97922	-10,69	7,06
31546	-3,4706	-1,507	-10,309	7,1046
31547	-3,5242	-0,49054	-10,257	7,117
31548	-13,101	-1,003	-6,5212	10,408
31549	-13,776	-0,98725	-6,2501	10,779
31550	-13,359	-1,513	-6,0923	10,628
31551	-13,277	-0,4989	-6,1012	10,619
31552	-24,76	-0,97346	7,0906	15,596
31553	-24,492	-0,97492	6,4264	17,482
31554	-24,279	-1,4435	6,9159	16,008
31555	-24,29	-0,48399	6,9124	15,912
31556	-25,054	-0,97442	7,7079	14,396
31557	-25,349	-0,96992	8,3226	13,186
31558	-24,869	-1,449	8,1484	13,566
31559	-24,878	-0,48496	8,1469	13,525
31560	-12,709	-1,0149	-7,3832	10,025
31561	-13,389	-0,9982	-7,0964	10,376
31562	-12,977	-1,5248	-6,9307	10,244
31563	-12,884	-0,50411	-6,9506	10,227
31564	-25,712	-0,98864	7,4467	14,791
31565	-25,34	-0,98957	6,8563	16,363
31566	-25,22	-1,4839	7,3124	15,2
31567	-25,23	-0,48947	7,2773	15,161
31568	-10,859	-1,0287	-8,8922	9,0317
31569	-11,553	-1,0357	-8,6303	9,3143
31570	-11,154	-1,6241	-8,428	9,2147
31571	-11,092	-0,51752	-8,4271	9,2121
31572	-12,263	-1,029	-8,3271	9,6307
31573	-12,966	-1,0106	-7,9778	9,9769
31574	-12,578	-1,5523	-7,797	9,8689
31575	-12,512	-0,51078	-7,8207	9,8609
31576	-10,4	-1,0223	-9,8254	8,7332
31577	-11,076	-1,0277	-9,5816	8,9811
31578	-10,619	-1,5233	-9,3622	8,8708
31579	-10,627	-0,51121	-9,3573	8,8892
31580	-11,769	-1,0347	-9,3196	9,2541
31581	-12,49	-1,021	-8,9992	9,5625
31582	-12,08	-1,6201	-8,8159	9,4541
31583	-12,014	-0,5182	-8,8334	9,4497
31584	-10,597	-1,018	-10,528	8,6962
31585	-9,9422	-1,0052	-10,739	8,4865
31586	-10,211	-1,533	-10,296	8,6122
31587	-10,174	-0,51112	-10,289	8,6139
31588	-11,273	-1,0233	-10,285	8,9347
31589	-11,931	-1,0292	-10,064	9,1681
31590	-11,549	-1,5562	-9,8215	9,089
31591	-11,525	-0,5165	-9,8058	9,1022
31592	-5,293	-0,97461	-11,079	7,3481
31593	-5,9066	-0,97835	-10,964	7,4711
31594	-5,4666	-1,5045	-10,715	7,3961
31595	-5,4986	-0,48961	-10,664	7,4096
31596	-10,787	-1,0048	-11,221	8,6761
31597	-11,43	-1,0139	-11,032	8,8748
31598	-11,051	-1,5291	-10,727	8,8025
31599	-11,022	-0,50684	-10,763	8,8065
31600	-26,3	-0,97476	8,6687	12,442
31601	-26,008	-0,98413	8,0614	13,594
31602	-25,858	-1,464	8,5181	12,821
31603	-25,818	-0,48496	8,4935	12,837
31604	-4,6956	-0,97286	-11,186	7,24
31605	-4,0979	-0,96842	-11,301	7,1442
31606	-4,2508	-1,506	-10,926	7,1782
31607	-4,3039	-0,48786	-10,877	7,19
31608	-27,261	-0,99027	9,0164	11,581
31609	-26,992	-0,98405	8,4063	12,75
31610	-26,846	-1,4315	8,8354	12,042
31611	-26,778	-0,4898	8,8324	12,083
31612	-5,4861	-0,97262	-11,799	7,3727
31613	-4,8797	-0,96512	-11,919	7,2678
31614	-5,0503	-1,5002	-11,539	7,2942
31615	-5,0874	-0,485	-11,495	7,3047
31616	-26,7	-0,99343	7,7989	13,884
31617	-26,39	-1,0068	7,1891	15,277
31618	-26,131	-1,4434	7,6586	14,319
31619	-26,195	-0,49917	7,6245	14,298
31620	-15,771	-0,95721	-2,5737	12,784
31621	-16,38	-0,95651	-2,2651	13,225
31622	-15,909	-1,4654	-2,1249	12,945
31623	-15,892	-0,48024	-2,1375	12,994
31624	-27,963	-1,0051	8,758	11,83
31625	-28,213	-1,0002	9,393	10,491
31626	-27,746	-1,4971	9,1871	11,132
31627	-27,742	-0,50048	9,1936	11,175
31628	-15,499	-0,957	-3,4426	12,434
31629	-16,132	-0,95784	-3,1363	12,892
31630	-15,643	-1,4277	-3,0068	12,616
31631	-15,646	-0,47697	-3,0113	12,672
31632	-10,132	-0,99197	-11,432	8,4745
31633	-9,4826	-0,98442	-11,625	8,2929
31634	-9,7347	-1,5487	-11,217	8,382
31635	-9,7122	-0,49405	-11,184	8,3918
31636	-27,693	-0,99888	8,1478	12,963
31637	-27,415	-1,0043	7,5346	14,223
31638	-27,265	-1,4436	7,9935	13,385
31639	-27,2	-0,49426	7,965	13,441
31640	-10,323	-0,99087	-12,126	8,484
31641	-10,972	-0,99864	-11,936	8,6586
31642	-10,537	-1,5504	-11,678	8,5635
31643	-10,552	-0,49792	-11,679	8,582
31644	-15,181	-0,96311	-4,2987	12,03
31645	-15,838	-0,9627	-4,003	12,489
31646	-15,351	-1,4366	-3,8697	12,236
31647	-15,352	-0,48003	-3,8738	12,285
31648	-25,833	-0,98893	6,0008	18,904
31649	-26,018	-1,0077	6,5987	16,813
31650	-25,072	-0,99103	6,1921	18,213
31651	-25,594	-1,5019	6,426	17,551
31652	-25,45	-0,5001	6,4438	17,322
31653	-14,826	-0,97217	-5,1428	11,6
31654	-15,495	-0,96655	-4,8613	12,04
31655	-15,009	-1,447	-4,7205	11,813
31656	-15,009	-0,48308	-4,7235	11,855
31657	-28,407	-1,0134	7,886	13,294
31658	-28,662	-1,0057	8,5205	11,951
31659	-28,19	-1,5074	8,3163	12,531
31660	-28,183	-0,50462	8,3223	12,567
31661	-14,449	-0,97744	-5,9828	11,164
31662	-15,126	-0,97264	-5,71	11,577
31663	-14,645	-1,4586	-5,5629	11,378
31664	-14,642	-0,48909	-5,5647	11,414
31665	-26,664	-0,98257	5,7427	19,226
31666	-26,508	-0,97882	5,2442	21,387
31667	-25,831	-0,98501	5,2376	22,743
31668	-26,267	-1,4852	5,5248	20,535
31669	-26,069	-0,48883	5,5683	20,202
31670	-27,106	-1,0177	6,9248	15,584
31671	-26,848	-1,0013	6,3407	17,161
31672	-26,578	-1,5125	6,765	16,215
31673	-26,585	-0,5076	6,7537	16,077
31674	-16,741	-0,95715	-2,8277	13,311
31675	-17,362	-0,96769	-2,4921	13,764
31676	-16,885	-1,4648	-2,3675	13,492
31677	-16,865	-0,47627	-2,3941	13,543
31678	-6,5229	-0,97495	-10,862	7,6082
31679	-7,1442	-0,97893	-10,741	7,7543
31680	-6,6237	-1,5099	-10,449	7,6558
31681	-6,7311	-0,48622	-10,459	7,6847
31682	-16,47	-0,96355	-3,6967	12,927
31683	-17,103	-0,97346	-3,3721	13,414
31684	-16,639	-1,474	-3,2424	13,147
31685	-16,617	-0,48087	-3,2613	13,193
31686	-28,128	-1,0189	7,2728	14,505
31687	-27,859	-1,0132	6,665	15,79
31688	-27,66	-1,5185	7,1039	15,036
31689	-27,626	-0,51006	7,0959	14,962
31690	-6,7163	-0,98182	-11,559	7,6231
31691	-6,0997	-0,97636	-11,684	7,493
31692	-6,274	-1,5017	-11,303	7,5332
31693	-6,3111	-0,48873	-11,267	7,5486
31694	-28,86	-1,0205	7,0093	14,825
31695	-29,118	-1,011	7,6448	13,584
31696	-28,645	-1,518	7,439	14,081
31697	-28,63	-0,5088	7,4496	14,075
31698	-16,152	-0,96615	-4,5656	12,481
31699	-16,803	-0,96872	-4,2607	12,964
31700	-16,349	-1,4762	-4,1185	12,729
31701	-16,323	-0,48267	-4,1322	12,766
31702	-14,064	-0,98244	-6,8253	10,738
31703	-14,737	-0,97195	-6,5516	11,12
31704	-14,262	-1,4615	-6,4015	10,945
31705	-14,256	-0,48835	-6,4035	10,975
31706	-15,795	-0,96702	-5,4285	12,003
31707	-16,457	-0,9679	-5,14	12,461
31708	-15,98	-1,4493	-4,9983	12,24
31709	-15,981	-0,48347	-4,999	12,29
31710	-27,601	-0,99691	6,0809	17,339
31711	-27,323	-0,98059	5,4966	19,251
31712	-27,147	-1,5028	5,894	18,266
31713	-27,082	-0,49374	5,9247	17,993
31714	-16,08	-0,96609	-6,0056	11,944
31715	-15,413	-0,96715	-6,2788	11,522
31716	-15,61	-1,4491	-5,8585	11,755
31717	-15,609	-0,48355	-5,8579	11,797
31718	-7,3376	-0,9858	-11,438	7,7663
31719	-7,9832	-0,97945	-11,29	7,9244
31720	-7,5615	-1,4592	-11,026	7,8352
31721	-7,5618	-0,49271	-11,026	7,842
31722	-28,59	-1,0149	6,4015	16,059
31723	-28,316	-0,99728	5,791	17,374
31724	-28,09	-1,5295	6,2301	16,632
31725	-28,091	-0,50318	6,2281	16,52
31726	-7,5409	-0,97926	-12,124	7,8025
31727	-6,9059	-0,97587	-12,269	7,666
31728	-7,1236	-1,4612	-11,853	7,7092
31729	-7,124	-0,49309	-11,853	7,7157
31730	-8,1864	-0,97291	-11,977	7,9559
31731	-8,831	-0,97712	-11,812	8,1153
31732	-8,3825	-1,4956	-11,593	8,0105
31733	-8,4091	-0,48674	-11,558	8,0275
31734	-29,311	-1,0249	6,1363	16,25
31735	-29,581	-1,0145	6,7652	15,264
31736	-29,121	-1,5161	6,5658	15,598
31737	-29,089	-0,51172	6,5689	15,594
31738	-8,3796	-0,97916	-12,664	7,9999
31739	-7,7455	-0,96989	-12,817	7,8645
31740	-7,9407	-1,4855	-12,42	7,8958
31741	-7,964	-0,48617	-12,398	7,9094
31742	-6,2893	-0,97041	-12,395	7,5399
31743	-5,6742	-0,97418	-12,517	7,4281
31744	-5,8525	-1,498	-12,136	7,4461
31745	-5,8817	-0,48762	-12,106	7,4566
31746	-0,74848	-0,79444	51,891	16,99
31747	-0,44444	-0,79839	51,451	16,544
31748	-0,77199	-1,272	51,592	16,623
31749	-0,72647	-0,39203	51,603	17,176
31750	-9,6734	-0,98332	-12,32	8,3103
31751	-9,0242	-0,98336	-12,499	8,153
31752	-9,2487	-1,4685	-12,067	8,2117
31753	-9,253	-0,49037	-12,066	8,2237
31754	-17,724	-0,984	-3,0364	13,839
31755	-18,368	-0,98906	-2,6853	14,335
31756	-17,874	-1,4823	-2,5768	14,028
31757	-17,864	-0,49142	-2,6029	14,093
31758	-9,8691	-0,98259	-13,008	8,3518
31759	-10,516	-0,98676	-12,83	8,5002
31760	-10,076	-1,5055	-12,609	8,4015
31761	-10,094	-0,49295	-12,573	8,4194
31762	-0,37398	-0,85895	52,095	17,041
31763	-0,78208	-0,89013	52,512	17,722
31764	-0,71191	-1,3228	52,13	17,087
31765	-0,71972	-0,40241	52,129	17,484
31766	-9,2199	-0,98262	-13,188	8,202
31767	-8,5757	-0,97828	-13,355	8,0696
31768	-8,7748	-1,4965	-12,956	8,0962
31769	-8,7984	-0,49299	-12,931	8,1113
31770	-17,437	-0,97863	-3,936	13,424
31771	-18,083	-0,98813	-3,5971	13,947
31772	-17,613	-1,4907	-3,4687	13,676
31773	-17,591	-0,49258	-3,4896	13,721
31774	-9,4196	-0,97785	-13,872	8,275
31775	-10,066	-0,98041	-13,7	8,3986
31776	-9,6227	-1,4946	-13,47	8,2984
31777	-9,6444	-0,48964	-13,444	8,3148
31778	-13,646	-0,99393	-7,691	10,317
31779	-14,349	-0,97867	-7,3922	10,688
31780	-13,889	-1,4736	-7,2441	10,535
31781	-13,88	-0,49409	-7,2463	10,56
31782	-7,1105	-0,9665	-12,962	7,7331
31783	-6,4888	-0,96306	-13,095	7,6187
31784	-6,6925	-1,4468	-12,687	7,6328
31785	-6,6939	-0,48278	-12,686	7,6399
31786	-17,109	-0,97047	-4,8351	12,92
31787	-17,752	-0,97612	-4,5209	13,435
31788	-17,28	-1,4559	-4,3889	13,18
31789	-17,284	-0,48605	-4,3892	13,242
31790	-7,9416	-0,96901	-13,508	7,9404
31791	-7,3116	-0,96771	-13,652	7,8267
31792	-7,5248	-1,4494	-13,239	7,836
31793	-7,5271	-0,48372	-13,238	7,8445
31794	-16,743	-0,96697	-5,7172	12,384
31795	-17,395	-0,97039	-5,4268	12,858
31796	-16,933	-1,4522	-5,2823	12,649
31797	-16,934	-0,48442	-5,281	12,704
31798	-8,7754	-0,9735	-14,039	8,1496
31799	-8,1372	-0,97396	-14,195	8,0409
31800	-8,3535	-1,4538	-13,779	8,045
31801	-8,3561	-0,48529	-13,778	8,0554
31802	-16,359	-0,9634	-6,5807	11,852
31803	-17,015	-0,96517	-6,3091	12,279
31804	-16,552	-1,4461	-6,1553	12,106
31805	-16,552	-0,48255	-6,1533	12,154
31806	-9,6168	-0,97599	-14,558	8,351
31807	-8,9763	-0,97437	-14,723	8,2522
31808	-9,1922	-1,4597	-14,304	8,2522
31809	-9,1947	-0,48821	-14,302	8,2643
31810	-15,022	-0,96818	-7,1184	11,06
31811	-15,691	-0,96445	-6,8539	11,445
31812	-15,221	-1,4485	-6,7007	11,281
31813	-15,217	-0,4836	-6,6997	11,317
31814	-13,915	-0,98421	-8,2411	10,268
31815	-13,194	-1,0026	-8,6499	9,8939
31816	-13,434	-1,4903	-8,1363	10,108
31817	-13,421	-0,49984	-8,1349	10,13
31818	-14,618	-0,96896	-7,9422	10,628
31819	-15,306	-0,96359	-7,6862	10,983
31820	-14,833	-1,4491	-7,5399	10,834
31821	-14,826	-0,48458	-7,5372	10,865
31822	-15,976	-0,95986	-7,4217	11,356
31823	-16,633	-0,961	-7,1697	11,733
31824	-16,168	-1,4402	-7,0106	11,588
31825	-16,167	-0,48085	-7,0082	11,63
31826	-14,23	-0,96237	-8,7202	10,25
31827	-14,932	-0,9672	-8,4972	10,567
31828	-14,491	-1,4827	-8,348	10,447
31829	-14,41	-0,48437	-8,3473	10,446
31830	-27,168	-0,97684	4,9981	21,428
31831	-26,812	-0,9592	4,5509	25,564
31832	-26,811	-1,4297	4,9388	22,465
31833	-26,717	-0,48999	4,9075	22,512
31834	3,7152	-1,0417	-3,104	8,3246
31835	3,0496	-1,0078	-3,179	8,2393
31836	3,2738	-1,5452	-2,7032	8,3266
31837	3,2475	-0,50279	-2,697	8,3326
31838	-13,508	-0,98074	-9,1291	9,8895
31839	-14,118	-0,95572	-9,4649	10,005
31840	-14,597	-0,9457	-9,2438	10,223
31841	-14,086	-1,4232	-9,1313	10,081
31842	-14,049	-0,47799	-9,0931	10,103
31843	-13,352	-0,98452	-9,7157	9,6822
31844	-12,652	-1,0155	-9,7438	9,4615
31845	-12,982	-1,4771	-9,1383	9,7009
31846	-12,966	-0,50275	-9,165	9,7105
31847	-13,963	-0,95949	-10,052	9,815
31848	-14,541	-0,94272	-9,9973	9,9964
31849	-14,159	-1,4131	-9,8326	9,9228
31850	-14,161	-0,47772	-9,823	9,9478
31851	-28,038	-0,98096	5,2067	19,29
31852	-27,655	-0,92196	4,4895	22,339
31853	-27,603	-1,3841	5,0921	20,379
31854	-27,535	-0,48685	5,0655	20,166
31855	-13,463	-0,9707	-10,629	9,5356
31856	-14,091	-0,95638	-10,58	9,7173
31857	-13,654	-1,3943	-10,304	9,6534
31858	-13,658	-0,48177	-10,263	9,6878
31859	3,9824	-1,0485	-4,0281	8,2117
31860	4,6288	-1,0875	-3,9022	8,3305
31861	4,2483	-1,5696	-3,5167	8,3367
31862	4,1718	-0,53891	-3,5408	8,3255
31863	-29,037	-1,0073	5,5258	17,541
31864	-28,743	-1,0073	4,8959	18,785
31865	-28,579	-1,4354	5,3714	18,172
31866	-28,542	-0,4941	5,3277	18,158
31867	3,3167	-1,0146	-4,1031	8,1245
31868	2,648	-1,0041	-4,1624	8,0468
31869	2,8959	-1,4963	-3,5599	8,1711
31870	2,8394	-0,50501	-3,6731	8,1532
31871	-15,62	-0,96183	-8,2412	10,913
31872	-16,265	-0,95741	-8,0038	11,241
31873	-15,789	-1,434	-7,8396	11,115
31874	-15,787	-0,47901	-7,8352	11,152
31875	4,2428	-1,006	-4,9177	8,0957
31876	3,5853	-0,99587	-5,0123	7,9883
31877	3,8115	-1,5037	-4,6162	8,094
31878	3,7765	-0,50956	-4,5155	8,1108
31879	-12,762	-1,0017	-10,657	9,3133
31880	-12,088	-1,0198	-10,812	9,0985
31881	-12,326	-1,4865	-10,312	9,2459
31882	-12,337	-0,51274	-10,323	9,2673
31883	-15,299	-0,95053	-9,0207	10,533
31884	-15,926	-0,95654	-8,8143	10,81
31885	-15,499	-1,4723	-8,6444	10,717
31886	-15,439	-0,48283	-8,6412	10,731
31887	5,5469	-1,0751	-4,6186	8,3664
31888	4,8893	-1,045	-4,7918	8,2158
31889	5,0975	-1,6271	-4,2779	8,3434
31890	5,0739	-0,54855	-4,2803	8,3463
31891	-15,02	-0,9327	-9,7761	10,207
31892	-15,617	-0,93599	-9,5879	10,441
31893	-15,187	-1,4635	-9,4172	10,36
31894	-15,145	-0,4677	-9,3944	10,385
31895	6,5018	-0,99966	-5,1898	8,4622
31896	5,7016	-1,0082	-5,4609	8,2373
31897	5,9842	-1,4531	-4,9727	8,3898
31898	6,0199	-0,52659	-4,9568	8,4038
31899	-14,669	-0,93961	-10,525	9,8986
31900	-15,309	-0,95607	-10,371	10,106
31901	-14,881	-1,456	-10,176	10,041
31902	-14,895	-0,46499	-10,158	10,079
31903	5,044	-0,97813	-5,6342	8,0873
31904	4,5007	-0,97115	-5,7849	7,9663
31905	4,7069	-1,5388	-5,4777	8,0568
31906	4,7221	-0,49647	-5,322	8,0981
31907	-13,579	-0,97634	-11,304	9,4239
31908	-12,943	-0,98285	-11,426	9,2442
31909	-13,227	-1,439	-11,049	9,3807
31910	-13,15	-0,48893	-10,976	9,3923
31911	6,8432	-0,94241	-5,8567	8,4096
31912	7,488	-0,95248	-5,6309	8,6199
31913	7,0679	-1,3803	-5,3839	8,5544
31914	6,9755	-0,47308	-5,4166	8,5357
31915	5,2626	-1,079	42,604	23,668
31916	5,4726	-1,0676	43,304	23,347
31917	5,2037	-1,1023	43,725	24,608
31918	4,9008	-1,0943	44,097	26,86
31919	4,8657	-0,82053	43,673	26,667
31920	4,8501	-1,5881	43,233	26,317
31921	4,6055	-1,0647	42,803	25,467
31922	4,9143	-0,55781	43,009	25,146
31923	4,3975	-1,06	43,617	31,156
31924	-14,208	-0,96202	-11,255	9,6052
31925	-14,878	-0,96396	-11,125	9,7905
31926	-14,456	-1,4713	-10,916	9,7373
31927	-14,444	-0,47461	-10,893	9,7646
31928	6,0431	-0,95099	-6,1278	8,1851
31929	5,4066	-0,94155	-6,5236	7,977
31930	5,2737	-1,4533	-6,1022	8,0407
31931	5,5105	-0,48166	-5,9307	8,1196
31932	-14,418	-0,97553	-11,877	9,5128
31933	-13,747	-0,98018	-12,016	9,3465
31934	-13,983	-1,4531	-11,612	9,4674
31935	-13,971	-0,4874	-11,616	9,4878
31936	7,1988	-0,93943	-6,4637	8,3843
31937	6,5443	-0,94482	-6,6464	8,1894
31938	6,8848	-1,3469	-6,3176	8,3298
31939	6,6658	-0,46934	-6,2842	8,2935
31940	8,7467	-1,0437	38,003	14,265
31941	9,4805	-1,0324	37,773	13,462
31942	9,0324	-1,5494	37,538	13,801
31943	8,5924	-1,0356	37,301	14,076
31944	9,0278	-0,51794	37,543	13,843
31945	5,9053	-1,0307	41,53	20,542
31946	6,0165	-1,0401	42,292	20,75
31947	5,6028	-1,6094	42,076	21,653
31948	5,2172	-1,0443	41,714	21,858
31949	5,5902	-0,52124	41,967	21,812
31950	7,8436	-0,94949	-6,2379	8,5936
31951	8,477	-0,96419	-6,045	8,8138
31952	8,0154	-1,4693	-5,7798	8,728
31953	7,9772	-0,4794	-5,8415	8,7162
31954	8,1912	-1,0425	38,89	15,214
31955	8,9307	-1,0447	38,68	14,268
31956	8,471	-1,572	38,46	14,691
31957	8,0263	-1,0442	38,191	14,991
31958	8,4655	-0,52577	38,463	14,749
31959	9,6645	-1,0333	38,45	13,485
31960	10,387	-1,0241	38,227	12,738
31961	9,9387	-1,5392	38,001	13,111
31962	9,9331	-0,51444	38,003	13,139
31963	-29,775	-1,0116	5,2779	17,458
31964	-30,048	-1,0167	5,8877	16,782
31965	-29,597	-1,4986	5,711	16,934
31966	-29,533	-0,51317	5,7038	16,904
31967	6,7331	-1,0246	40,728	18,327
31968	6,5962	-1,0193	41,392	18,86
31969	6,1766	-1,6117	41,079	19,562
31970	5,7963	-1,0279	40,751	19,68
31971	6,1976	-0,50943	41,047	19,604
31972	8,1808	-0,93996	-6,8326	8,5777
31973	7,5637	-0,93054	-7,0259	8,3702
31974	7,7085	-1,3988	-6,6642	8,4719
31975	7,6798	-0,47009	-6,6264	8,4842
31976	9,4675	-0,96067	-6,4499	9,0437
31977	8,8142	-0,95466	-6,6396	8,7971
31978	8,885	-1,3952	-6,2089	8,9016
31979	8,967	-0,4848	-6,2548	8,9303
31980	7,5927	-1,0319	39,863	16,455
31981	8,3968	-1,0351	39,549	15,171
31982	7,9744	-1,5488	39,298	15,612
31983	7,4414	-1,0427	39,055	16,077
31984	7,8884	-0,51675	39,343	15,819
31985	10,464	-0,95818	-6,8278	9,3064
31986	9,806	-0,94792	-7,0394	9,0358
31987	9,984	-1,4674	-6,6335	9,177
31988	9,9736	-0,47588	-6,649	9,1833
31989	7,3616	-1,026	40,829	17,202
31990	7,8784	-1,0203	40,508	16,251
31991	7,2654	-1,565	40,379	17,147
31992	6,7588	-1,0431	40,031	17,573
31993	7,2427	-0,51516	40,363	17,294
31994	11,445	-0,96351	-7,1745	9,5906
31995	10,777	-0,95757	-7,3977	9,2965
31996	10,963	-1,4397	-7,0112	9,4413
31997	10,961	-0,4823	-7,0103	9,4599
31998	7,2247	-1,0207	41,493	17,778
31999	7,8232	-1,001	41,358	16,559
32000	7,4016	-1,5138	41,232	17,287
32001	7,4399	-0,51088	41,211	17,326
32002	11,742	-0,96193	-7,7453	9,5744
32003	12,429	-0,96388	-7,5033	9,889
32004	11,995	-1,4408	-7,3669	9,7519
32005	11,942	-0,48121	-7,3423	9,7566
32006	9,1527	-0,94191	-7,229	8,7907
32007	8,4974	-0,93331	-7,411	8,5572
32008	8,5566	-1,4851	-7,0413	8,6436
32009	8,6666	-0,46987	-7,024	8,6896
32010	9,1364	-1,0373	39,339	14,253
32011	9,8684	-1,0298	39,113	13,363
32012	9,4032	-1,551	38,898	13,828
32013	9,3959	-0,5189	38,896	13,87
32014	10,119	-0,94731	-7,6092	9,0291
32015	9,4622	-0,93932	-7,8105	8,7764
32016	9,6126	-1,4545	-7,4299	8,8967
32017	9,6384	-0,47204	-7,4297	8,916
32018	6,7074	-1,0287	42,155	19,165
32019	7,3722	-1,0001	42,018	17,494
32020	6,9008	-1,5337	41,717	18,497
32021	6,9513	-0,50984	41,703	18,508
32022	11,074	-0,95599	-7,9684	9,2851
32023	10,398	-0,95105	-8,1766	9,0119
32024	10,687	-1,4738	-7,7962	9,1772
32025	10,6	-0,47527	-7,7887	9,1686
32026	6,8047	-1,023	42,819	18,887
32027	6,2264	-1,0287	42,993	20,604
32028	6,4569	-1,5563	42,629	19,942
32029	6,4198	-0,51884	42,476	20,032
32030	11,339	-0,9647	-8,5468	9,2598
32031	12,033	-0,96704	-8,3225	9,5515
32032	11,569	-1,4388	-8,1547	9,4177
32033	11,555	-0,48072	-8,1475	9,4333
32034	-29,224	-0,99837	3,9985	19,87
32035	-29,481	-1,0116	4,648	18,751
32036	-28,36	-0,94828	4,1788	22,07
32037	-29,012	-1,5214	4,3627	19,577
32038	-28,945	-0,51317	4,444	19,441
32039	8,6826	-1,0235	40,195	15,006
32040	9,3796	-1,0269	39,988	14,026
32041	8,8826	-1,5457	39,794	14,638
32042	8,8769	-0,51839	39,782	14,695
32043	8,807	-0,93072	-7,9925	8,5443
32044	7,8803	-0,92389	-7,6043	8,3509
32045	8,1378	-0,91984	-8,1567	8,3234
32046	8,2968	-1,424	-7,8014	8,4277
32047	8,3469	-0,46344	-7,7882	8,4542
32048	8,3401	-0,99523	41,037	15,628
32049	8,9783	-1,0053	40,831	14,612
32050	8,4885	-1,5036	40,624	15,337
32051	8,4883	-0,5051	40,607	15,401
32052	-29,983	-0,98416	3,7752	19,788
32053	-29,736	-0,96949	3,1212	20,721
32054	-29,077	-0,97443	3,3137	22,164
32055	-29,555	-1,3915	3,5171	20,532
32056	-29,459	-0,4852	3,5922	20,572
32057	9,7408	-0,94306	-8,3779	8,7624
32058	9,073	-0,93248	-8,5622	8,5253
32059	9,2144	-1,4276	-8,1988	8,6258
32060	9,2861	-0,46728	-8,1913	8,6626
32061	7,9708	-0,98042	41,882	16,306
32062	8,6232	-0,98269	41,679	15,116
32063	8,183	-1,4972	41,477	15,904
32064	8,1919	-0,49013	41,467	15,956
32065	-30,24	-0,99737	4,4247	18,502
32066	-30,521	-1,0014	5,0311	17,97
32067	-30,134	-1,4837	4,8669	18,017
32068	-30,006	-0,49841	4,8541	18,049
32069	10,663	-0,95976	-8,7549	8,9909
32070	9,9859	-0,94595	-8,9541	8,7401
32071	10,203	-1,4268	-8,5563	8,8718
32072	10,209	-0,47577	-8,5728	8,889
32073	7,4695	-0,99444	42,682	17,264
32074	8,1687	-0,98419	42,54	15,749
32075	7,7681	-1,5047	42,315	16,67
32076	7,7496	-0,49029	42,298	16,759
32077	10,909	-0,96686	-9,3498	8,9674
32078	11,607	-0,97266	-9,142	9,2315
32079	11,127	-1,4523	-8,9437	9,1003
32080	11,142	-0,48398	-8,9527	9,1266
32081	6,9092	-0,93593	-7,2087	8,1745
32082	7,1881	-0,92175	-7,8422	8,1266
32083	7,4319	-1,371	-7,4309	8,2602
32084	7,4326	-0,46045	-7,415	8,2719
32085	6,9699	-1,0176	43,507	18,221
32086	7,6337	-1,008	43,345	16,552
32087	7,2544	-1,5253	43,114	17,635
32088	7,1894	-0,50416	43,065	17,844
32089	6,3676	-0,9663	-7,3528	8,0205
32090	5,9078	-0,93538	-7,0423	7,9835
32091	6,5797	-1,4133	-7,02	8,1293
32092	6,3999	-0,47548	-7,0273	8,0936
32093	-30,669	-0,98251	3,5688	19,442
32094	-30,969	-1,0001	4,1799	19,032
32095	-30,512	-1,4304	4,0189	19,083
32096	-30,437	-0,49897	4,0112	19,105
32097	-18,727	-0,9932	-3,246	14,402
32098	-19,321	-1,0064	-2,9332	14,946
32099	-18,891	-1,4962	-2,7833	14,623
32100	-18,878	-0,49765	-2,7806	14,667
32101	6,6465	-0,95212	-7,9864	7,9731
32102	6,1967	-0,95998	-7,8713	7,8939
32103	6,452	-1,3839	-7,6524	7,9858
32104	6,394	-0,49082	-7,7106	7,9693
32105	27,149	-1,815	5,278	20,418
32106	27,671	-1,8942	5,0944	20,352
32107	26,682	-1,9357	5,1945	21,289
32108	27,64	-2,1521	4,7443	21,473
32109	26,803	-1,8217	5,0105	22,393
32110	27,08	-2,4622	4,9018	22,507
32111	27,643	-1,9063	4,4264	22,903
32112	7,4456	-0,91771	-8,3946	8,1017
32113	6,8328	-0,91642	-8,477	7,9378
32114	6,9425	-1,3527	-8,2361	8,0021
32115	7,0581	-0,4613	-8,1902	8,0422
32116	-18,398	-0,98562	-4,1821	13,919
32117	-19,024	-0,99292	-3,8428	14,521
32118	-18,567	-1,4808	-3,7122	14,2
32119	-18,576	-0,49555	-3,7115	14,272
32120	-27,521	-0,89217	-4,7713	21,848
32121	-27,665	-0,95436	-4,295	23,366
32122	-27,013	-0,93379	-4,716	23,175
32123	-27,244	-1,1691	-4,5809	23,44
32124	-27,174	-0,93549	-4,2657	26,279
32125	-27,356	-1,259	-4,5544	23,411
32126	-27,326	-0,44641	-4,5343	23,012
32127	-26,874	-0,94725	-4,1362	29,587
32128	8,4037	-0,92161	-8,7265	8,3054
32129	7,7626	-0,91479	-8,879	8,1086
32130	7,9695	-1,3594	-8,5327	8,2145
32131	7,9761	-0,4564	-8,5348	8,2245
32132	-18,038	-0,97604	-5,1126	13,341
32133	-18,67	-0,98355	-4,7902	13,913
32134	-18,241	-1,4866	-4,634	13,672
32135	-18,221	-0,49007	-4,6527	13,712
32136	-31,013	-0,97757	2,817	20,181
32137	-30,422	-0,96784	2,9147	20,6
32138	-31,367	-0,9824	3,322	19,926
32139	-30,94	-1,4124	3,1691	19,916
32140	-30,84	-0,48354	3,1742	20,102
32141	-31,38	-0,98239	1,964	20,463
32142	-30,752	-0,9858	2,1329	21,044
32143	-31,652	-0,99067	2,5818	20,308
32144	-31,248	-1,4242	2,4087	20,445
32145	-31,15	-0,49403	2,4939	20,684
32146	-27,69	-0,90075	-5,2832	19,299
32147	-28,053	-0,88323	-5,0158	19,58
32148	-27,731	-1,21	-5,0068	20,182
32149	-27,728	-0,44576	-5,0205	19,951
32150	-17,667	-0,96859	-6,0187	12,73
32151	-18,306	-0,97333	-5,7278	13,231
32152	-17,879	-1,4755	-5,5555	13,053
32153	-17,855	-0,48597	-5,5725	13,089
32154	9,318	-0,93538	-9,1385	8,506
32155	8,6571	-0,9323	-9,3218	8,2891
32156	8,8249	-1,3439	-8,9155	8,3934
32157	8,8796	-0,4652	-8,9438	8,4156
32158	-17,289	-0,96277	-6,8981	12,143
32159	-17,93	-0,96655	-6,6288	12,573
32160	-17,51	-1,4682	-6,4505	12,445
32161	-17,478	-0,48262	-6,4649	12,473
32162	-28,053	-0,93565	-5,6072	18,
32163	-27,641	-0,98956	-6,0774	17,237
32164	-27,182	-0,94237	-5,2279	20,733
32165	-27,674	-1,2015	-5,5764	18,503
32166	-27,567	-0,45499	-5,6455	18,194
32167	-31,759	-0,97707	1,1538	20,672
32168	-31,193	-0,98155	1,0022	21,131
32169	-32,034	-0,98203	1,615	20,594
32170	-31,645	-1,4063	1,5198	20,673
32171	-31,519	-0,48836	1,5206	21,094
32172	-30,161	-0,97607	2,2307	21,302
32173	-29,572	-0,98192	2,4732	22,167
32174	-29,953	-1,4413	2,6257	21,336
32175	-29,951	-0,4843	2,7283	21,466
32176	-28,417	-0,91813	-5,3397	18,285
32177	-28,615	-0,96176	-5,818	17,161
32178	-28,333	-1,4024	-5,6161	17,829
32179	-28,326	-0,48066	-5,6378	17,645
32180	-30,565	-0,98496	1,1712	21,381
32181	-29,948	-0,98501	1,5236	22,122
32182	-30,377	-1,4425	1,7239	21,588
32183	-30,346	-0,49177	1,7865	22,119
32184	-31,764	-0,97736	0,57777	20,71
32185	-32,254	-0,98415	0,90659	20,605
32186	-31,909	-1,4686	0,90268	20,584
32187	-31,872	-0,48871	0,91251	20,914
32188	-28,735	-0,83084	-5,0973	18,518
32189	-28,197	-0,94542	-4,5395	21,085
32190	-28,285	-1,3105	-5,0449	19,097
32191	-28,405	-0,43747	-5,0065	18,942
32192	-31,199	-0,98184	0,42625	21,277
32193	-30,663	-0,98739	-0,12643	21,35
32194	-30,238	-0,98787	0,39656	21,965
32195	-30,744	-1,4279	0,52356	21,804
32196	-30,728	-0,49319	0,58595	22,238
32197	-31,576	-0,98085	-0,2607	20,678
32198	-32,1	-0,98266	0,17659	20,716
32199	-31,53	-1,4864	0,26356	20,919
32200	-31,621	-0,48865	0,28211	21,188
32201	-31,041	-0,9864	-0,81338	21,385
32202	-30,437	-1,0019	-1,4637	21,32
32203	-30,091	-0,99024	-0,85601	22,159
32204	-30,54	-1,4814	-0,85806	21,839
32205	-30,54	-0,4942	-0,79999	22,444
32206	-16,922	-0,95855	-7,7519	11,605
32207	-17,56	-0,96203	-7,5047	11,97
32208	-17,144	-1,4646	-7,3198	11,877
32209	-17,102	-0,48015	-7,3307	11,9
32210	-31,524	-0,98625	-1,282	20,642
32211	-32,036	-0,98916	-0,83804	20,707
32212	-31,548	-1,4794	-0,81051	20,791
32213	-31,511	-0,4922	-0,76972	21,192
32214	-16,572	-0,95212	-8,5769	11,128
32215	-17,212	-0,95828	-8,3529	11,438
32216	-16,791	-1,4639	-8,165	11,366
32217	-16,743	-0,47841	-8,1725	11,386
32218	-16,244	-0,942	-9,3814	10,711
32219	-16,875	-0,95097	-9,1742	10,972
32220	-16,444	-1,4602	-8,9843	10,913
32221	-16,399	-0,47371	-8,9814	10,936
32222	-30,921	-1,0017	-1,9323	20,982
32223	-31,536	-0,99024	-2,0738	20,458
32224	-31,986	-0,99003	-1,7697	20,519
32225	-31,56	-1,4408	-1,7544	20,561
32226	-31,48	-0,49405	-1,6983	20,995
32227	-15,906	-0,95936	-10,183	10,334
32228	-16,543	-0,95051	-9,9859	10,56
32229	-16,106	-1,4561	-9,793	10,511
32230	-16,089	-0,46829	-9,7814	10,544
32231	-30,011	-1,0066	-2,719	20,717
32232	-30,629	-0,99737	-2,4361	20,837
32233	-29,812	-1,0053	-2,0326	22,19
32234	-30,308	-1,4574	-2,1618	21,423
32235	-30,325	-0,50766	-2,1041	21,83
32236	-15,517	-0,98042	-10,971	9,9931
32237	-16,168	-0,98363	-10,796	10,184
32238	-15,735	-1,4871	-10,595	10,147
32239	-15,736	-0,49108	-10,574	10,184
32240	-11,615	-1,0078	-11,747	8,8494
32241	-12,268	-1,001	-11,581	9,0356
32242	-11,789	-1,4951	-11,171	8,9533
32243	-11,838	-0,50709	-11,301	8,9732
32244	-15,089	-0,97748	-11,747	9,6947
32245	-15,754	-0,97359	-11,581	9,86
32246	-15,313	-1,4884	-11,376	9,8252
32247	-15,317	-0,48935	-11,356	9,8594
32248	6,3917	-1,0232	43,681	19,894
32249	5,764	-1,0543	43,835	22,484
32250	6,0939	-1,5556	43,473	21,079
32251	5,426	-0,77255	43,782	24,393
32252	5,8626	-0,50983	43,408	21,826
32253	-14,638	-0,97603	-12,542	9,4352
32254	-15,307	-0,97526	-12,375	9,5766
32255	-14,867	-1,4488	-12,134	9,553
32256	-14,862	-0,48813	-12,14	9,5754
32257	-11,165	-0,99452	-12,639	8,6666
32258	-11,812	-0,99744	-12,461	8,8272
32259	-11,384	-1,4969	-12,19	8,7451
32260	-11,389	-0,50071	-12,199	8,7613
32261	-12,465	-0,99064	-12,295	9,0066
32262	-13,111	-0,98669	-12,139	9,1711
32263	-12,752	-1,496	-11,887	9,1202
32264	-12,686	-0,49391	-11,854	9,128
32265	-10,712	-0,98458	-13,522	8,5394
32266	-11,362	-0,98836	-13,345	8,6751
32267	-10,935	-1,4795	-13,09	8,5898
32268	-10,938	-0,49381	-13,086	8,6057
32269	-12,008	-0,99127	-13,167	8,8281
32270	-12,66	-0,98972	-12,998	8,9709
32271	-12,232	-1,4873	-12,734	8,9018
32272	-12,231	-0,49672	-12,729	8,9213
32273	-13,305	-0,98577	-12,842	9,1293
32274	-13,966	-0,98068	-12,682	9,2733
32275	-13,53	-1,4728	-12,417	9,2256
32276	-13,523	-0,49278	-12,417	9,2465
32277	-10,263	-0,97855	-14,387	8,4674
32278	-10,913	-0,98147	-14,211	8,5782
32279	-10,47	-1,4952	-13,982	8,4886
32280	-10,487	-0,49077	-13,959	8,5056
32281	-12,214	-0,98649	-13,86	8,8247
32282	-11,563	-0,98525	-14,035	8,7066
32283	-11,785	-1,4794	-13,61	8,7541
32284	-11,785	-0,49455	-13,607	8,7712
32285	-12,866	-0,98494	-13,691	8,9608
32286	-13,523	-0,9833	-13,519	9,0816
32287	-13,09	-1,4771	-13,268	9,0326
32288	-13,088	-0,493	-13,266	9,0519
32289	-10,464	-0,97814	-15,07	8,5338
32290	-9,8155	-0,98134	-15,241	8,4478
32291	-10,037	-1,4615	-14,818	8,446
32292	-10,039	-0,48778	-14,817	8,4598
32293	-13,077	-0,98268	-14,368	8,9385
32294	-12,419	-0,9837	-14,544	8,842
32295	-12,644	-1,4748	-14,118	8,8878
32296	-12,643	-0,49195	-14,116	8,9067
32297	6,4843	-1,0304	44,365	19,205
32298	7,1593	-1,0247	44,211	17,155
32299	6,7968	-1,5444	43,973	18,5
32300	6,7305	-0,51341	43,882	18,687
32301	-14,184	-0,97821	-13,359	9,2199
32302	-14,85	-0,97462	-13,186	9,3382
32303	-14,414	-1,4606	-12,944	9,3141
32304	-14,409	-0,4879	-12,946	9,3363
32305	-11,115	-0,98106	-14,894	8,6374
32306	-11,768	-0,98245	-14,718	8,7307
32307	-11,326	-1,4921	-14,487	8,6572
32308	-11,34	-0,4907	-14,465	8,6756
32309	-13,735	-0,98105	-14,196	9,053
32310	-14,398	-0,98088	-14,019	9,1469
32311	-13,96	-1,469	-13,772	9,1223
32312	-13,958	-0,49031	-13,773	9,1437
32313	-11,316	-0,97931	-15,574	8,687
32314	-10,666	-0,98299	-15,748	8,6189
32315	-10,887	-1,4658	-15,326	8,6157
32316	-10,888	-0,49036	-15,325	8,631
32317	-13,287	-0,98084	-15,043	8,9354
32318	-13,949	-0,98121	-14,866	9,0048
32319	-13,512	-1,4717	-14,62	8,9801
32320	-13,512	-0,49074	-14,619	9,0004
32321	10,231	-0,95305	-9,549	8,7211
32322	9,5523	-0,94221	-9,7356	8,4921
32323	9,7836	-1,4044	-9,3158	8,6157
32324	9,7919	-0,47017	-9,3545	8,6269
32325	-11,969	-0,9807	-15,399	8,7735
32326	-12,629	-0,98186	-15,22	8,8453
32327	-12,194	-1,4719	-14,976	8,7945
32328	-12,195	-0,49175	-14,975	8,8122
32329	10,462	-0,96573	-10,168	8,7059
32330	11,153	-0,97262	-9,967	8,9427
32331	10,686	-1,4329	-9,7273	8,8333
32332	10,701	-0,48288	-9,7615	8,8481
32333	-12,177	-0,97838	-16,071	8,8009
32334	-11,524	-0,97691	-16,248	8,7545
32335	-11,741	-1,4657	-15,827	8,7508
32336	-11,742	-0,48895	-15,826	8,7676
32337	-12,837	-0,97954	-15,891	8,8664
32338	-13,494	-0,98072	-15,712	8,9115
32339	-13,063	-1,47	-15,467	8,887
32340	-13,063	-0,4901	-15,467	8,9063
32341	2,2536	-0,99144	-5,1163	7,8399
32342	2,9166	-0,98538	-5,0716	7,908
32343	2,3952	-1,5039	-4,7691	7,9195
32344	2,4318	-0,49907	-4,6202	7,9536
32345	-12,389	-0,9783	-16,743	8,8448
32346	-13,046	-0,97973	-16,561	8,8656
32347	-12,601	-1,4859	-16,332	8,8415
32348	-12,612	-0,48944	-16,316	8,8603
32349	-29,518	-0,99448	-3,8015	19,887
32350	-30,164	-0,9997	-3,5467	19,995
32351	-29,253	-1,0005	-3,147	22,075
32352	-29,687	-1,5083	-3,377	20,592
32353	-29,72	-0,49893	-3,3214	20,795
32354	1,8861	-0,99104	-6,0427	7,6313
32355	2,5342	-0,97348	-5,9725	7,6966
32356	2,0912	-1,4467	-5,6995	7,7157
32357	2,0514	-0,49237	-5,5487	7,7461
32358	-29,21	-0,88892	-4,7206	18,661
32359	-29,777	-0,99227	-4,4861	18,791
32360	-28,672	-1,0035	-4,1628	21,314
32361	-29,222	-1,5792	-4,3084	19,422
32362	-29,363	-0,49555	-4,2666	19,389
32363	5,8566	-1,0615	44,519	21,736
32364	5,1923	-1,081	44,627	26,05
32365	5,6691	-1,5624	44,32	22,916
32366	5,1571	-0,80718	44,203	25,662
32367	5,3533	-0,54446	44,329	24,383
32368	2,1625	-0,97395	-6,8723	7,4871
32369	1,5563	-1,008	-6,9728	7,4252
32370	1,7274	-1,3823	-6,5143	7,5297
32371	1,7146	-0,49867	-6,4825	7,5366
32372	-28,933	-0,87447	-5,5756	17,385
32373	-29,44	-0,88707	-5,3801	17,57
32374	-28,954	-1,3575	-5,1977	18,044
32375	-29,097	-0,39337	-5,1852	17,989
32376	6,0068	-1,0249	45,059	20,275
32377	6,6054	-1,0331	45,043	17,983
32378	6,2985	-1,5349	44,807	19,557
32379	6,2389	-0,51699	44,728	19,471
32380	-26,479	-0,97025	-6,7637	16,195
32381	-27,121	-1,0178	-6,4288	16,671
32382	-26,289	-1,049	-6,086	18,251
32383	-26,661	-0,97056	-5,5793	20,178
32384	-26,615	-1,549	-6,4017	17,048
32385	-26,593	-0,48318	-6,3082	17,127
32386	-28,203	-1,0157	-6,2882	16,355
32387	-29,027	-0,965	-6,2116	16,25
32388	-28,7	-1,4832	-6,0045	16,736
32389	-28,686	-0,48111	-6,039	16,621
32390	3,1972	-0,96743	-5,9278	7,7679
32391	3,8432	-0,961	-5,8796	7,8566
32392	3,3843	-1,4537	-5,5914	7,8564
32393	3,3829	-0,48631	-5,4784	7,8821
32394	-26,182	-0,97293	-7,6973	14,249
32395	-26,82	-0,97449	-7,4771	14,48
32396	-25,87	-0,9644	-7,0837	15,579
32397	-26,324	-1,4635	-7,1772	15,334
32398	-26,346	-0,48707	-7,2637	14,996
32399	2,8106	-0,95639	-6,802	7,5552
32400	3,4552	-0,94599	-6,75	7,637
32401	3,0371	-1,3958	-6,4074	7,6586
32402	2,9876	-0,48111	-6,3242	7,6718
32403	5,3425	-1,0444	45,168	24,503
32404	5,9579	-1,0143	45,77	19,123
32405	5,9324	-1,561	45,356	20,217
32406	5,7647	-0,50787	45,351	20,468
32407	2,3953	-0,98111	-7,6553	7,355
32408	3,0322	-0,95798	-7,595	7,4278
32409	2,6708	-1,334	-7,3086	7,4441
32410	2,5944	-0,47527	-7,2059	7,4596
32411	1,7891	-1,0151	-7,7559	7,2918
32412	1,1892	-1,003	-7,8282	7,2436
32413	1,4582	-1,5667	-7,4546	7,3266
32414	1,4041	-0,50931	-7,4421	7,3293
32415	-26,478	-0,97697	-8,3447	12,951
32416	-25,819	-0,96929	-8,555	12,79
32417	-25,552	-0,97294	-7,9491	13,837
32418	-26,13	-1,4871	-8,2053	13,277
32419	-26,027	-0,48586	-8,1276	13,416
32420	1,9677	-0,9945	-8,506	7,175
32421	2,5683	-1,0055	-8,4144	7,2388
32422	2,2478	-1,4663	-8,0895	7,2648
32423	2,1742	-0,50584	-8,0696	7,2649
32424	0,65091	-0,96941	-8,6221	7,0918
32425	1,3677	-0,98238	-8,5784	7,1257
32426	1,0148	-1,4745	-8,2094	7,1747
32427	0,97021	-0,49372	-8,2468	7,1632
32428	-0,20373	-0,95696	-9,2619	6,9935
32429	0,36899	-0,91034	-9,5393	6,9595
32430	0,85334	-0,95355	-9,4056	6,9875
32431	0,27727	-1,417	-9,0785	7,0199
32432	0,3275	-0,47568	-9,03	7,0267
32433	-0,60243	-0,93223	-9,8637	6,9263
32434	-1,1371	-0,9568	-9,7226	6,9594
32435	-0,70791	-1,4735	-9,4873	6,972
32436	-0,73323	-0,48127	-9,4328	6,9792
32437	-2,9706e-002	-0,88562	-10,141	6,8939
32438	-0,84004	-0,91124	-10,505	6,8794
32439	-0,29242	-0,90932	-10,687	6,8567
32440	-0,39734	-1,4353	-10,259	6,8887
32441	-0,46989	-0,45096	-10,234	6,8901
32442	-1,3747	-0,93581	-10,364	6,9117
32443	-1,9413	-0,95419	-10,233	6,9577
32444	-1,5269	-1,415	-9,9633	6,9545
32445	-1,5393	-0,47553	-9,9514	6,9565
32446	0,36966	-0,89254	-10,456	6,8722
32447	0,74269	-0,89928	-10,322	6,8901
32448	0,34332	-1,367	-10,133	6,9005
32449	0,3647	-0,43466	-10,009	6,9091
32450	-1,5783	-0,92843	-11,07	6,8865
32451	-1,0187	-0,91524	-11,179	6,8567
32452	-1,138	-1,4604	-10,771	6,876
32453	-1,2102	-0,46028	-10,777	6,8787
32454	0,54517	-0,91571	-11,08	6,8458
32455	0,10694	-0,91624	-11,002	6,8419
32456	0,31173	-1,3764	-10,81	6,8539
32457	0,32051	-0,45789	-10,831	6,8506
32458	1,5702	-0,96652	-9,3618	7,0245
32459	2,1708	-0,9755	-9,2772	7,0774
32460	1,7517	-1,4575	-8,9713	7,0916
32461	1,7517	-0,48866	-8,9445	7,094
32462	-2,7202	-0,96734	-10,818	6,9879
32463	-2,1449	-0,9468	-10,938	6,9308
32464	-2,2953	-1,4744	-10,539	6,9633
32465	-2,3434	-0,47866	-10,514	6,9698
32466	1,227	-0,94248	-10,188	6,9184
32467	1,7839	-0,96029	-10,105	6,9566
32468	1,3741	-1,3912	-9,9235	6,952
32469	1,3588	-0,47786	-9,7526	6,9664
32470	-3,4945	-0,96924	-11,424	7,0596
32471	-2,9074	-0,96092	-11,533	6,9907
32472	-3,0621	-1,4859	-11,145	7,0127
32473	-3,1097	-0,48868	-11,114	7,0198
32474	0,9182	-0,92244	-10,946	6,8609
32475	1,4379	-0,93156	-10,9	6,8856
32476	1,1382	-1,384	-10,668	6,8836
32477	1,074	-0,46462	-10,555	6,8855
32478	-4,282	-0,96068	-12,034	7,1747
32479	-3,6887	-0,95485	-12,139	7,0955
32480	-3,8876	-1,4379	-11,731	7,1121
32481	-3,892	-0,48056	-11,726	7,1146
32482	-2,3321	-0,94038	-11,653	6,9355
32483	-1,7257	-0,9449	-11,774	6,8914
32484	-1,8806	-1,4699	-11,366	6,9003
32485	-1,9463	-0,46814	-11,363	6,9055
32486	0,51847	-0,90856	-11,61	6,8391
32487	1,0832	-0,92532	-11,632	6,8563
32488	0,78273	-1,3264	-11,299	6,8468
32489	0,78114	-0,45782	-11,32	6,8465
32490	4,8633	-0,93458	-6,6744	7,8553
32491	4,1012	-0,93956	-6,7018	7,7291
32492	4,3369	-1,407	-6,4575	7,8121
32493	4,3135	-0,47469	-6,2367	7,8558
32494	8,0239e-002	-0,90909	-11,531	6,833
32495	-0,47106	-0,91331	-11,36	6,8381
32496	-8,7293e-002	-1,3888	-11,07	6,8432
32497	-0,1401	-0,45835	-11,099	6,8389
32498	-2,5137	-0,93959	-12,348	6,9745
32499	-3,1017	-0,94653	-12,248	7,0283
32500	-2,6554	-1,4741	-11,963	6,9709
32501	-2,7179	-0,47224	-11,944	6,9776
32502	-3,3273e-002	-0,90981	-12,198	6,8494
32503	0,58826	-0,91748	-12,323	6,8626
32504	0,28494	-1,339	-11,91	6,8408
32505	0,27544	-0,45074	-11,923	6,8406
32506	-0,58458	-0,91403	-12,027	6,8493
32507	-1,1662	-0,93171	-11,883	6,8637
32508	-0,7999	-1,3677	-11,59	6,8473
32509	-0,82717	-0,45496	-11,581	6,8464
32510	5,7369	-0,92905	-7,5608	7,8496
32511	5,0805	-0,91861	-7,491	7,7393
32512	5,3721	-1,3342	-7,2313	7,8373
32513	5,3659	-0,45989	-7,0228	7,8822
32514	-0,71903	-0,92671	-12,745	6,8965
32515	-2,2806e-002	-0,92809	-12,964	6,909
32516	-0,22403	-1,335	-12,486	6,8669
32517	-0,35064	-0,45908	-12,462	6,8677
32518	-1,3006	-0,94439	-12,602	6,9069
32519	-1,9073	-0,94411	-12,469	6,9323
32520	-1,4035	-1,4511	-12,184	6,8876
32521	-1,5254	-0,47675	-12,178	6,8925
32522	-4,4663	-0,95548	-12,754	7,2398
32523	-5,0678	-0,96667	-12,637	7,3267
32524	-4,6388	-1,4808	-12,362	7,2418
32525	-4,6721	-0,48012	-12,343	7,2495
32526	5,7748	-0,92544	-8,3396	7,7275
32527	6,383	-0,92428	-8,362	7,8526
32528	5,9857	-1,3157	-8,0361	7,8203
32529	5,9753	-0,46916	-8,0463	7,8206
32530	-1,5008	-0,93187	-13,272	6,9843
32531	-0,92938	-0,93147	-13,437	6,9815
32532	-1,1136	-1,4025	-13,064	6,9404
32533	-1,0972	-0,46763	-12,975	6,9322
32534	-2,1075	-0,9316	-13,139	7,0081
32535	-2,6839	-0,95595	-13,056	7,0466
32536	-2,2596	-1,4627	-12,775	6,9823
32537	-2,3095	-0,46736	-12,752	6,986
32538	4,3185	-0,92359	-7,5184	7,6083
32539	3,6768	-0,94758	-7,543	7,5127
32540	3,973	-1,3473	-7,2114	7,6149
32541	3,8888	-0,46487	-7,1222	7,6235
32542	-2,2962	-0,92967	-13,832	7,1163
32543	-1,7268	-0,92246	-13,899	7,089
32544	-1,8844	-1,4536	-13,553	7,0449
32545	-1,9056	-0,46424	-13,525	7,0438
32546	5,1185	-0,915	-8,2699	7,6118
32547	4,4725	-0,94591	-8,2841	7,4992
32548	4,7578	-1,294	-7,9015	7,6104
32549	4,7	-0,45872	-7,8588	7,6116
32550	3,8308	-0,9699	-8,3086	7,4004
32551	3,2052	-0,98235	-8,354	7,3136
32552	3,534	-1,3957	-7,9725	7,4176
32553	3,4226	-0,48271	-7,9268	7,4148
32554	5,2692	-0,93069	-8,9995	7,5301
32555	5,8932	-0,91779	-8,9821	7,6553
32556	5,5092	-1,344	-8,6309	7,6276
32557	5,4605	-0,45628	-8,6364	7,6224
32558	4,6232	-0,9616	-9,0138	7,4141
32559	3,9845	-0,97857	-9,0648	7,308
32560	4,1972	-1,4204	-8,7536	7,3826
32561	4,1976	-0,48719	-8,6779	7,3977
32562	-20,386	-1,038	-3,2284	16,166
32563	-19,618	-1,0061	-3,5299	15,01
32564	-19,829	-1,5076	-3,0774	15,315
32565	-20,178	-1,5083	-2,988	15,674
32566	-20,376	-0,75782	-2,8877	15,957
32567	-19,845	-0,50874	-2,9903	15,358
32568	-3,2719	-0,96289	-12,956	7,0985
32569	-3,873	-0,94966	-12,859	7,1631
32570	-3,4803	-1,4191	-12,557	7,0902
32571	-3,4854	-0,47429	-12,553	7,0926
32572	-20,808	-0,973	-3,8554	16,453
32573	-21,324	-1,1119	-3,355	18,184
32574	-20,818	-1,5421	-3,304	16,784
32575	-20,8	-1,5288	-3,1308	16,647
32576	-20,998	-0,77837	-3,0305	16,966
32577	-20,905	-0,52929	-3,312	16,972
32578	-2,8726	-0,95402	-13,749	7,1541
32579	-3,4522	-0,97266	-13,659	7,201
32580	-3,0321	-1,4815	-13,366	7,1165
32581	-3,0707	-0,48859	-13,358	7,1218
32582	6,5013	-0,91663	-9,0045	7,7843
32583	7,1498	-0,91351	-8,9614	7,9419
32584	6,6394	-1,3105	-8,636	7,8671
32585	6,7177	-0,45512	-8,711	7,8808
32586	-3,0608	-0,95341	-14,446	7,2917
32587	-2,4922	-0,92671	-14,528	7,2594
32588	-2,6507	-1,4607	-14,149	7,1986
32589	-2,6867	-0,46543	-14,139	7,2028
32590	5,4319	-0,94781	-9,6891	7,4756
32591	4,7948	-0,95753	-9,746	7,354
32592	5,1276	-1,389	-9,3575	7,4571
32593	5,0078	-0,47441	-9,3579	7,4387
32594	-4,0533	-0,95943	-13,562	7,2635
32595	-4,6566	-0,95768	-13,456	7,3342
32596	-4,2287	-1,4697	-13,172	7,2409
32597	-4,2606	-0,47536	-13,165	7,2481
32598	6,056	-0,93492	-9,6717	7,6039
32599	6,6929	-0,92852	-9,6289	7,7486
32600	6,2765	-1,4256	-9,2618	7,6989
32601	6,2626	-0,46151	-9,3363	7,6917
32602	3,3589	-0,99102	-9,1102	7,2191
32603	2,7715	-0,98649	-9,1856	7,1422
32604	3,0153	-1,4782	-8,7762	7,2257
32605	2,9625	-0,49965	-8,7592	7,2251
32606	-20,04	-0,94109	-4,1569	15,404
32607	-19,296	-0,99085	-4,4509	14,458
32608	-19,504	-1,5002	-3,9634	14,852
32609	-19,487	-0,49737	-3,9593	14,892
32610	5,5978	-0,95106	-10,4	7,4434
32611	6,2404	-0,94659	-10,332	7,5795
32612	5,8203	-1,4198	-10,027	7,5178
32613	5,8124	-0,4734	-10,028	7,5206
32614	-20,314	-0,94035	-4,7839	15,304
32615	-20,906	-0,94242	-4,4633	16,42
32616	-20,498	-1,4519	-4,273	15,889
32617	-20,487	-0,44371	-4,2977	15,875
32618	4,1561	-0,97449	-9,7971	7,2459
32619	3,5514	-0,97443	-9,8604	7,1545
32620	3,8121	-1,4703	-9,4683	7,2326
32621	3,7553	-0,49137	-9,4613	7,2274
32622	-3,6405	-0,97205	-14,356	7,337
32623	-4,2489	-0,95729	-14,259	7,3925
32624	-3,8143	-1,4803	-13,968	7,29
32625	-3,8551	-0,48407	-13,961	7,2974
32626	-5,2582	-0,96887	-13,339	7,4176
32627	-5,8737	-0,96683	-13,218	7,511
32628	-5,466	-1,4442	-12,934	7,415
32629	-5,4681	-0,48655	-12,931	7,4201
32630	-3,8237	-0,97632	-15,053	7,498
32631	-3,2314	-0,9741	-15,145	7,4599
32632	-3,4122	-1,4807	-14,756	7,3897
32633	-3,4439	-0,48799	-14,756	7,3969
32634	-4,8522	-0,95555	-14,153	7,4603
32635	-5,4588	-0,95995	-14,04	7,5345
32636	-5,0519	-1,4324	-13,755	7,4314
32637	-5,0549	-0,48232	-13,752	7,4363
32638	2,3846	-0,96927	-10,02	7,0106
32639	2,964	-0,9699	-9,9358	7,0767
32640	2,6079	-1,4732	-9,6301	7,0732
32641	2,5643	-0,48684	-9,596	7,0726
32642	-5,0486	-0,94849	-14,852	7,6095
32643	-4,4321	-0,96156	-14,956	7,5509
32644	-4,6483	-1,4172	-14,559	7,4992
32645	-4,6518	-0,47323	-14,558	7,5044
32646	4,9606	-0,96078	-10,457	7,3208
32647	4,3489	-0,96325	-10,523	7,2147
32648	4,5936	-1,4572	-10,134	7,2825
32649	4,5569	-0,48312	-10,133	7,2797
32650	2,5791	-0,9694	-10,747	6,9772
32651	1,9947	-0,94937	-10,816	6,9244
32652	2,2216	-1,4692	-10,462	6,9617
32653	2,1696	-0,48243	-10,427	6,9606
32654	5,1549	-0,95526	-11,167	7,3205
32655	5,7826	-0,95373	-11,084	7,4412
32656	5,3858	-1,4574	-10,772	7,3784
32657	5,3643	-0,47766	-10,781	7,3777
32658	-6,6899	-0,96428	-13,786	7,7173
32659	-6,0743	-0,95792	-13,918	7,6238
32660	-6,2815	-1,439	-13,506	7,6124
32661	-6,2838	-0,48028	-13,505	7,6191
32662	3,1585	-0,97002	-10,663	7,0435
32663	3,7442	-0,96318	-10,586	7,122
32664	3,3847	-1,4719	-10,271	7,0968
32665	3,3451	-0,48305	-10,256	7,0943
32666	-6,879	-0,9732	-14,479	7,8408
32667	-7,5072	-0,97267	-14,34	7,9332
32668	-7,0949	-1,4449	-14,07	7,8248
32669	-7,0973	-0,48399	-14,069	7,8332
32670	3,3511	-0,96411	-11,384	7,0422
32671	2,7663	-0,97006	-11,46	6,9762
32672	2,9944	-1,4768	-11,078	7,0071
32673	2,9568	-0,48697	-11,064	7,004
32674	-6,2634	-0,96684	-14,612	7,7525
32675	-5,6551	-0,9529	-14,739	7,6798
32676	-5,837	-1,4676	-14,338	7,6399
32677	-5,8649	-0,47763	-14,332	7,6499
32678	8,016	-0,92549	-9,4743	8,0937
32679	7,3413	-0,92539	-9,5858	7,9086
32680	7,5768	-1,3652	-9,2297	8,0105
32681	7,5775	-0,45839	-9,2382	8,0167
32682	-6,4482	-0,9771	-15,302	7,9061
32683	-7,0711	-0,98114	-15,168	7,9769
32684	-6,6401	-1,4826	-14,902	7,8622
32685	-6,6686	-0,48921	-14,895	7,8738
32686	4,5433	-0,95773	-11,233	7,2139
32687	3,9368	-0,95727	-11,307	7,1208
32688	4,1417	-1,4381	-10,917	7,1617
32689	4,1409	-0,48013	-10,913	7,1639
32690	-5,84	-0,96316	-15,429	7,8384
32691	-5,2302	-0,94859	-15,551	7,7845
32692	-5,4159	-1,4642	-15,147	7,7201
32693	-5,4454	-0,47526	-15,145	7,7306
32694	8,8914	-0,93914	-9,919	8,2787
32695	8,2187	-0,93875	-10,078	8,0785
32696	8,4309	-1,3734	-9,6912	8,177
32697	8,4544	-0,4671	-9,7105	8,1902
32698	-6,0237	-0,9636	-16,12	8,0215
32699	-6,6376	-0,98428	-15,99	8,0703
32700	-6,2102	-1,4843	-15,716	7,952
32701	-6,2405	-0,4879	-15,717	7,9647
32702	9,0986	-0,94967	-10,527	8,2726
32703	9,7828	-0,95489	-10,355	8,4815
32704	9,3254	-1,436	-10,096	8,3799
32705	9,3368	-0,47204	-10,138	8,3882
32706	4,7357	-0,95437	-11,944	7,2445
32707	5,3551	-0,9546	-11,854	7,3493
32708	4,9466	-1,432	-11,554	7,2762
32709	4,9456	-0,4776	-11,553	7,2793
32710	3,5245	-0,95169	-12,097	7,0728
32711	4,1293	-0,95391	-12,018	7,1518
32712	3,7589	-1,4653	-11,709	7,0941
32713	3,7326	-0,47714	-11,702	7,0925
32714	-18,938	-0,98084	-5,4054	13,762
32715	-19,57	-0,99012	-5,0779	14,439
32716	-19,143	-1,4919	-4,9124	14,172
32717	-19,12	-0,49347	-4,9277	14,197
32718	-4,6137	-0,96166	-15,655	7,7293
32719	-4,004	-0,97457	-15,751	7,6878
32720	-4,22	-1,4276	-15,358	7,6126
32721	-4,2235	-0,48833	-15,358	7,6182
32722	-19,197	-0,97499	-6,0469	13,583
32723	-18,569	-0,97129	-6,3379	13,046
32724	-18,781	-1,4785	-5,8621	13,425
32725	-18,757	-0,48737	-5,883	13,453
32726	-19,829	-0,98427	-5,7195	14,207
32727	-20,44	-0,98358	-5,3986	15,018
32728	-20,034	-1,4986	-5,2113	14,742
32729	-20,008	-0,49664	-5,2343	14,746
32730	-5,4139	-0,94903	-16,242	7,972
32731	-4,793	-0,96411	-16,35	7,9328
32732	-4,9869	-1,4649	-15,953	7,8477
32733	-5,0149	-0,47333	-15,956	7,8589
32734	-19,452	-0,97506	-6,6785	13,318
32735	-20,082	-0,9847	-6,3515	13,943
32736	-19,674	-1,4883	-6,1802	13,79
32737	-19,638	-0,48762	-6,2108	13,792
32738	-5,5895	-0,96542	-16,928	8,1797
32739	-6,2089	-0,97056	-16,806	8,2109
32740	-5,7823	-1,4729	-16,529	8,0898
32741	-5,8128	-0,4757	-16,529	8,1021
32742	-18,201	-0,96581	-7,2354	12,381
32743	-18,825	-0,97136	-6,9695	12,814
32744	-18,379	-1,449	-6,7943	12,693
32745	-18,382	-0,48393	-6,7927	12,746
32746	-4,9687	-0,98049	-17,037	8,144
32747	-5,7668	-0,98398	-17,613	8,3913
32748	-5,1593	-0,96357	-17,733	8,3807
32749	-5,3377	-1,4911	-17,332	8,2683
32750	-5,3733	-0,48971	-17,331	8,2802
32751	-18,473	-0,96984	-7,8583	12,143
32752	-17,85	-0,96176	-8,1057	11,789
32753	-18,015	-1,4427	-7,6786	12,059
32754	-18,019	-0,48189	-7,6781	12,107
32755	-19,097	-0,97539	-7,5924	12,554
32756	-19,72	-0,98023	-7,3324	12,99
32757	-19,263	-1,4593	-7,1445	12,905
32758	-19,267	-0,48743	-7,1462	12,954
32759	-4,1833	-0,97702	-16,446	7,894
32760	-4,3692	-0,96218	-17,147	8,1263
32761	-4,5445	-1,49	-16,748	8,0175
32762	-4,5801	-0,49078	-16,748	8,0286
32763	-18,774	-0,97444	-8,4735	11,904
32764	-19,404	-0,98561	-8,2213	12,251
32765	-18,919	-1,4588	-8,0364	12,199
32766	-18,926	-0,48796	-8,0385	12,246
32767	2,1819	-0,95003	-11,529	6,9227
32768	1,6029	-0,93444	-11,585	6,8821
32769	1,8445	-1,4447	-11,243	6,9004
32770	1,8009	-0,46694	-11,204	6,8982
32771	-3,4117	-0,97235	-15,842	7,6518
32772	-3,5846	-0,97532	-16,54	7,8702
32773	-3,7671	-1,4827	-16,153	7,7705
32774	-3,8031	-0,48624	-16,151	7,7797
32775	2,9397	-0,95764	-12,174	7,0074
32776	2,3467	-0,95799	-12,24	6,9539
32777	2,5879	-1,4691	-11,867	6,9619
32778	2,5557	-0,48309	-11,857	6,9596
32779	1,7676	-0,9424	-12,296	6,9126
32780	1,153	-0,93424	-12,344	6,8823
32781	1,395	-1,3815	-11,97	6,8767
32782	1,4069	-0,4675	-11,977	6,8781
32783	3,7055	-0,95035	-12,81	7,1372
32784	3,1014	-0,94852	-12,883	7,0728
32785	3,3489	-1,4645	-12,499	7,0705
32786	3,3164	-0,47455	-12,493	7,0683
32787	-8,338	-0,97483	-14,879	8,1501
32788	-7,6993	-0,9806	-15,029	8,0635
32789	-7,916	-1,4525	-14,618	8,0426
32790	-7,9185	-0,48867	-14,617	8,0526
32791	2,5084	-0,94887	-12,95	7,0197
32792	1,9068	-0,95005	-13,009	6,9792
32793	2,1174	-1,4121	-12,631	6,9593
32794	2,1221	-0,4749	-12,635	6,9613
32795	-9,1749	-0,97972	-15,405	8,3559
32796	-8,5333	-0,98159	-15,564	8,2802
32797	-8,7376	-1,4821	-15,158	8,2543
32798	-8,7562	-0,48615	-15,147	8,2677
32799	-27,462	-1,022	-7,1422	14,99
32800	-28,197	-1,0203	-6,9398	15,152
32801	-27,541	-1,3623	-6,5705	16,167
32802	-27,589	-0,53457	-6,685	15,794
32803	4,3102	-0,95257	-12,73	7,215
32804	4,9307	-0,9538	-12,637	7,3041
32805	4,5253	-1,4294	-12,335	7,2229
32806	4,5259	-0,47677	-12,334	7,226
32807	-10,018	-0,98619	-15,919	8,5397
32808	-9,3705	-0,98991	-16,086	8,4782
32809	-9,5773	-1,4916	-15,674	8,4506
32810	-9,5946	-0,49356	-15,665	8,4653
32811	-2,6628	-0,94739	-15,227	7,4291
32812	-2,8206	-0,97202	-15,925	7,6274
32813	-3,0011	-1,4876	-15,541	7,5357
32814	-3,0381	-0,48611	-15,54	7,5434
32815	3,8837	-0,95125	-13,515	7,2354
32816	4,5009	-0,9526	-13,427	7,3078
32817	4,1309	-1,4675	-13,125	7,2226
32818	4,0946	-0,4758	-13,126	7,2209
32819	1,2922	-0,94189	-13,057	6,9482
32820	0,59872	-0,93576	-13,089	6,929
32821	0,89541	-1,3869	-12,713	6,8982
32822	0,90108	-0,46674	-12,722	6,9007
32823	-1,9229	-0,9195	-14,595	7,2317
32824	-2,0845	-0,94956	-15,299	7,4077
32825	-2,2672	-1,4545	-14,924	7,3272
32826	-2,2977	-0,46128	-14,917	7,3313
32827	3,2796	-0,94941	-13,589	7,172
32828	2,6714	-0,94985	-13,659	7,122
32829	2,9249	-1,4628	-13,28	7,0951
32830	2,8865	-0,47397	-13,273	7,0926
32831	-1,1553	-0,92205	-14,065	7,0882
32832	-1,3767	-0,90958	-14,661	7,2176
32833	-1,5437	-1,369	-14,279	7,1456
32834	-1,548	-0,45822	-14,273	7,1472
32835	3,4741	-0,96386	-14,294	7,3073
32836	4,0752	-0,9522	-14,21	7,362
32837	3,7105	-1,467	-13,907	7,2679
32838	3,6727	-0,47545	-13,905	7,2665
32839	-0,23315	-0,93285	-13,656	6,9984
32840	-0,65739	-0,92525	-14,224	7,1037
32841	-0,90803	-1,4044	-13,877	7,0472
32842	-0,74496	-0,46384	-13,796	7,0305
32843	2,0698	-0,95104	-13,718	7,0813
32844	1,4677	-0,95102	-13,76	7,0519
32845	1,7233	-1,465	-13,406	7,0137
32846	1,6657	-0,47515	-13,392	7,01
32847	0,77419	-0,94489	-13,793	7,0298
32848	0,25897	-0,93952	-14,003	7,0583
32849	0,35176	-1,3283	-13,471	6,9721
32850	0,29637	-0,46901	-13,456	6,9718
32851	2,2532	-0,9534	-14,432	7,2216
32852	2,866	-0,9643	-14,364	7,2577
32853	2,4991	-1,4664	-14,056	7,1696
32854	2,4563	-0,47589	-14,045	7,1667
32855	-27,115	-0,97853	-8,1245	13,205
32856	-27,833	-0,98913	-7,8956	13,379
32857	-27,285	-1,3578	-7,747	13,819
32858	-27,321	-0,48743	-7,6777	13,926
32859	1,651	-0,95339	-14,474	7,1907
32860	1,1051	-0,94673	-14,541	7,181
32861	1,3006	-1,4587	-14,166	7,1135
32862	1,252	-0,47588	-14,129	7,1064
32863	-10,875	-0,98058	-16,422	8,6928
32864	-10,221	-0,98727	-16,598	8,6493
32865	-10,432	-1,4864	-16,182	8,6217
32866	-10,443	-0,49262	-16,174	8,637
32867	2,4429	-0,95466	-15,146	7,3923
32868	1,874	-0,95624	-15,223	7,3758
32869	2,0853	-1,4698	-14,836	7,2944
32870	2,0501	-0,47752	-14,819	7,2918
32871	-11,08	-0,9815	-17,099	8,7824
32872	-11,736	-0,97683	-16,92	8,8043
32873	-11,305	-1,463	-16,67	8,756
32874	-11,306	-0,48796	-16,669	8,7723
32875	3,0556	-0,96555	-15,079	7,4282
32876	3,6709	-0,97469	-14,992	7,468
32877	3,2972	-1,4785	-14,689	7,3641
32878	3,2606	-0,48841	-14,687	7,3636
32879	7,544	-0,93865	-10,189	7,894
32880	6,8773	-0,94019	-10,289	7,726
32881	7,1076	-1,4306	-9,8648	7,8191
32882	7,1051	-0,467	-9,9334	7,8178
32883	-26,726	-0,98413	-8,9832	11,868
32884	-27,395	-0,98888	-8,7806	11,926
32885	-26,927	-1,48	-8,5672	12,452
32886	-26,952	-0,49111	-8,5435	12,511
32887	2,6092	-0,95725	-15,874	7,5979
32888	3,2231	-0,9546	-15,788	7,6204
32889	2,8542	-1,4684	-15,476	7,5068
32890	2,8356	-0,47714	-15,473	7,5092
32891	8,4258	-0,94928	-10,687	8,0757
32892	7,7462	-0,94701	-10,818	7,8948
32893	7,981	-1,4089	-10,439	7,9811
32894	7,983	-0,47165	-10,446	7,9883
32895	9,3067	-0,9612	-11,158	8,2731
32896	8,6276	-0,957	-11,315	8,0878
32897	8,8569	-1,4589	-10,888	8,1718
32898	8,8687	-0,47763	-10,928	8,1829
32899	0,58983	-0,94136	-14,752	7,2125
32900	-0,16527	-0,93192	-14,571	7,1672
32901	3,556e-002	-0,9227	-14,917	7,2464
32902	0,21995	-1,3714	-14,51	7,155
32903	0,234	-0,4705	-14,501	7,1547
32904	-26,068	-0,97645	-9,1935	11,69
32905	-26,296	-0,98531	-9,8376	10,726
32906	-26,971	-0,98951	-9,6278	10,701
32907	-26,518	-1,4756	-9,4035	11,251
32908	-26,524	-0,49302	-9,4046	11,273
32909	-17,515	-0,95713	-8,9502	11,272
32910	-18,151	-0,96636	-8,7209	11,565
32911	-17,725	-1,4657	-8,5229	11,528
32912	-17,681	-0,47987	-8,5334	11,551
32913	1,328	-0,94958	-15,289	7,365
32914	0,68734	-0,94638	-15,37	7,3674
32915	0,9465	-1,4001	-14,952	7,2668
32916	0,95809	-0,47085	-14,953	7,2707
32917	-17,819	-0,96078	-9,5631	11,057
32918	-17,174	-0,95948	-9,7786	10,813
32919	-17,345	-1,4274	-9,3679	11,023
32920	-17,35	-0,47726	-9,3669	11,062
32921	2,0404	-0,95884	-15,95	7,5824
32922	1,4017	-0,95939	-16,028	7,5762
32923	1,6772	-1,4735	-15,637	7,474
32924	1,698	-0,47873	-15,626	7,4756
32925	-25,394	-0,97035	-9,4057	11,614
32926	-25,158	-0,96481	-8,7876	12,504
32927	-25,598	-1,479	-9,0058	12,123
32928	-25,619	-0,48343	-8,9847	12,141
32929	-18,455	-0,97001	-9,3338	11,339
32930	-19,106	-0,98269	-9,0986	11,614
32931	-18,613	-1,4539	-8,9079	11,599
32932	-18,621	-0,48649	-8,9084	11,642
32933	-25,623	-0,9792	-10,05	10,639
32934	-24,948	-0,97719	-10,253	10,652
32935	-24,74	-0,96606	-9,6091	11,45
32936	-25,173	-1,4549	-9,8235	11,093
32937	-25,178	-0,48692	-9,8289	11,102
32938	-18,754	-0,97457	-9,9568	11,058
32939	-18,108	-0,96427	-10,181	10,842
32940	-18,316	-1,474	-9,7574	11,077
32941	-18,288	-0,48353	-9,7592	11,109
32942	-25,836	-0,98532	-10,696	9,7814
32943	-26,51	-0,98743	-10,495	9,6573
32944	-26,065	-1,4741	-10,269	10,198
32945	-26,068	-0,49228	-10,271	10,233
32946	-19,689	-0,98801	-10,357	10,962
32947	-19,031	-0,97774	-10,586	10,783
32948	-19,405	-0,98725	-9,7216	11,322
32949	-19,24	-1,4879	-10,16	11,027
32950	-19,22	-0,49104	-10,152	11,067
32951	-24,485	-0,98338	-11,109	9,8646
32952	-25,161	-0,98331	-10,9	9,7879
32953	-24,275	-0,97706	-10,461	10,569
32954	-24,704	-1,4895	-10,71	10,185
32955	-24,719	-0,49027	-10,678	10,247
32956	9,9909	-0,96642	-10,985	8,4772
32957	10,681	-0,97278	-10,795	8,6899
32958	10,232	-1,4442	-10,578	8,5814
32959	10,237	-0,48285	-10,582	8,5985
32960	-24,016	-0,98783	-11,97	9,2234
32961	-24,694	-0,98727	-11,766	9,0846
32962	-23,807	-0,98603	-11,315	9,8554
32963	-24,251	-1,4774	-11,538	9,5037
32964	-24,251	-0,49311	-11,541	9,5386
32965	-25,37	-0,9872	-11,557	9,012
32966	-26,045	-0,98796	-11,355	8,8175
32967	-25,595	-1,4916	-11,145	9,3276
32968	-25,603	-0,49304	-11,122	9,3951
32969	-20,622	-0,99462	-10,768	10,753
32970	-19,958	-0,98847	-10,991	10,626
32971	-20,363	-0,9994	-10,117	11,196
32972	-20,15	-1,493	-10,557	10,878
32973	-20,159	-0,49697	-10,56	10,915
32974	-21,542	-0,99346	-11,215	10,402
32975	-20,871	-0,99179	-11,413	10,353
32976	-21,327	-0,99728	-10,544	10,93
32977	-21,078	-1,4842	-10,981	10,608
32978	-21,085	-0,49765	-10,976	10,646
32979	9,4999	-0,96745	-11,791	8,289
32980	10,182	-0,97303	-11,616	8,4746
32981	9,74	-1,4471	-11,385	8,3721
32982	9,7447	-0,48357	-11,389	8,3853
32983	-22,449	-0,99067	-11,69	9,9064
32984	-21,774	-0,99103	-11,88	9,9333
32985	-22,228	-0,98975	-11,032	10,486
32986	-22,	-1,4861	-11,453	10,178
32987	-21,999	-0,49581	-11,453	10,214
32988	-17,463	-0,96297	-10,397	10,607
32989	-16,806	-0,97478	-10,599	10,404
32990	-17,016	-1,473	-10,197	10,593
32991	-17,001	-0,48223	-10,191	10,626
32992	-7,8946	-0,98737	-15,714	8,1999
32993	-7,2605	-0,98831	-15,856	8,1357
32994	-7,4604	-1,4888	-15,453	8,0884
32995	-7,4899	-0,49193	-15,452	8,1027
32996	-18,385	-0,96744	-10,81	10,576
32997	-17,726	-0,96073	-11,016	10,408
32998	-17,935	-1,4752	-10,61	10,602
32999	-17,929	-0,48074	-10,603	10,64
33000	-23,341	-0,98958	-12,164	9,282
33001	-22,666	-0,98982	-12,358	9,3831
33002	-23,131	-0,98778	-11,509	9,9145
33003	-22,901	-1,4838	-11,926	9,6209
33004	-22,899	-0,49486	-11,927	9,6548
33005	-8,0889	-0,99205	-16,397	8,3562
33006	-8,7289	-0,99179	-16,245	8,409
33007	-8,2904	-1,4955	-15,989	8,3062
33008	-8,3193	-0,49544	-15,987	8,3214
33009	-19,3	-0,9782	-11,22	10,456
33010	-18,627	-0,97632	-11,437	10,326
33011	-18,843	-1,48	-11,029	10,523
33012	-18,842	-0,4867	-11,017	10,565
33013	-24,226	-0,98973	-12,629	8,5224
33014	-23,551	-0,98988	-12,83	8,7051
33015	-23,782	-1,4835	-12,399	8,9296
33016	-23,782	-0,49471	-12,4	8,9671
33017	-24,904	-0,98918	-12,424	8,3865
33018	-25,579	-0,98947	-12,218	8,1437
33019	-25,137	-1,4812	-11,99	8,6541
33020	-25,138	-0,49416	-11,991	8,6972
33021	-7,4548	-0,99299	-16,539	8,2977
33022	-6,8228	-0,99124	-16,676	8,2549
33023	-7,0257	-1,4888	-16,273	8,1851
33024	-7,0546	-0,49638	-16,27	8,1981
33025	-24,437	-0,99069	-13,291	7,8897
33026	-25,113	-0,99073	-13,085	7,6077
33027	-24,671	-1,4844	-12,857	8,0975
33028	-24,671	-0,49502	-12,858	8,1403
33029	-7,6501	-0,98966	-17,222	8,4786
33030	-8,2894	-0,99111	-17,077	8,5094
33031	-7,8487	-1,498	-16,815	8,406
33032	-7,8817	-0,49661	-16,815	8,4213
33033	-9,5741	-0,991	-16,764	8,5942
33034	-8,9294	-0,99085	-16,925	8,5565
33035	-9,1339	-1,4943	-16,514	8,5058
33036	-9,1606	-0,49635	-16,51	8,5214
33037	7,0795	-0,94855	-10,918	7,7277
33038	6,4252	-0,94927	-11,016	7,5776
33039	6,6525	-1,4169	-10,641	7,647
33040	6,6496	-0,47319	-10,645	7,6516
33041	-10,426	-0,98819	-17,275	8,745
33042	-9,7825	-0,9828	-17,442	8,7263
33043	-9,9859	-1,4902	-17,027	8,6757
33044	-10,009	-0,49465	-17,021	8,6915
33045	7,9479	-0,95473	-11,447	7,9098
33046	7,2767	-0,95277	-11,572	7,7492
33047	7,5086	-1,4223	-11,187	7,8145
33048	7,5094	-0,47536	-11,191	7,8218
33049	-7,018	-0,9879	-17,358	8,4406
33050	-6,3861	-0,98912	-17,49	8,4184
33051	-6,5811	-1,4977	-17,088	8,3259
33052	-6,6176	-0,49486	-17,085	8,3394
33053	8,8207	-0,96325	-11,948	8,1086
33054	8,1489	-0,95969	-12,094	7,9458
33055	8,3851	-1,4681	-11,676	8,0084
33056	8,3864	-0,47937	-11,703	8,017
33057	-7,8547	-0,97541	-17,904	8,6538
33058	-7,2088	-0,98714	-18,042	8,6432
33059	-7,4085	-1,4936	-17,637	8,5503
33060	-7,4384	-0,49305	-17,636	8,5643
33061	9,0106	-0,96778	-12,595	8,1497
33062	9,6898	-0,97242	-12,433	8,3113
33063	9,2514	-1,4489	-12,19	8,2087
33064	9,2551	-0,48388	-12,193	8,2209
33065	-8,494	-0,97687	-17,759	8,6797
33066	-9,1378	-0,98265	-17,603	8,6941
33067	-8,6943	-1,4876	-17,348	8,6069
33068	-8,721	-0,4945	-17,345	8,6218
33069	-10,633	-0,98388	-17,952	8,855
33070	-11,282	-0,98681	-17,778	8,8522
33071	-10,842	-1,487	-17,534	8,8066
33072	-10,862	-0,49354	-17,529	8,8229
33073	-8,6938	-0,97351	-18,436	8,8357
33074	-8,0484	-0,97438	-18,585	8,8426
33075	-8,2538	-1,4784	-18,177	8,7505
33076	-8,2782	-0,48237	-18,175	8,7649
33077	-9,3376	-0,97929	-18,28	8,8452
33078	-9,9887	-0,97849	-18,119	8,8416
33079	-9,549	-1,4788	-17,867	8,7748
33080	-9,571	-0,48815	-17,866	8,7903
33081	-0,35129	-0,9136	-14,937	7,2526
33082	-0,87872	-0,91277	-14,819	7,2346
33083	-0,58441	-1,4062	-14,565	7,1746
33084	-0,54784	-0,46141	-14,56	7,1712
33085	-9,538	-0,97696	-18,956	8,9772
33086	-8,8839	-0,98232	-19,113	9,0036
33087	-9,1134	-1,4586	-18,7	8,9142
33088	-9,1153	-0,49115	-18,7	8,9284
33089	-20,208	-0,98564	-11,636	10,233
33090	-19,541	-0,98026	-11,852	10,155
33091	-19,753	-1,4703	-11,424	10,364
33092	-19,758	-0,4915	-11,422	10,4
33093	-10,189	-0,97615	-18,795	8,9689
33094	-10,837	-0,98198	-18,628	8,9429
33095	-10,397	-1,4816	-18,382	8,901
33096	-10,417	-0,49034	-18,38	8,9167
33097	-21,104	-0,98937	-12,078	9,8878
33098	-20,433	-0,9862	-12,285	9,8735
33099	-20,655	-1,4797	-11,851	10,084
33100	-20,658	-0,49414	-11,85	10,119
33101	0,13307	-0,92772	-15,535	7,405
33102	-0,44755	-0,93785	-15,546	7,4107
33103	-0,14992	-1,4612	-15,23	7,3278
33104	-0,15046	-0,45219	-15,283	7,3402
33105	-21,991	-0,99018	-12,548	9,4114
33106	-21,318	-0,9911	-12,748	9,4683
33107	-21,549	-1,4843	-12,307	9,6753
33108	-21,55	-0,49523	-12,307	9,7102
33109	-11,938	-0,98214	-17,599	8,8684
33110	-12,595	-0,98084	-17,416	8,865
33111	-12,165	-1,466	-17,17	8,8436
33112	-12,166	-0,48887	-17,17	8,861
33113	-22,876	-0,99012	-13,025	8,806
33114	-22,202	-0,98986	-13,22	8,9401
33115	-22,435	-1,4858	-12,79	9,1303
33116	-22,435	-0,49495	-12,791	9,1655
33117	-10,392	-0,97299	-19,473	9,0727
33118	-9,7382	-0,97162	-19,635	9,1216
33119	-9,9662	-1,4569	-19,216	9,0338
33120	-9,9676	-0,48581	-19,217	9,0491
33121	0,76103	-0,95618	-16,109	7,5809
33122	9,8446e-002	-0,94406	-16,166	7,5911
33123	0,42487	-1,4657	-15,782	7,477
33124	0,42083	-0,47552	-15,775	7,4784
33125	2,1624	-0,96976	-16,675	7,8137
33126	2,7757	-0,95933	-16,579	7,819
33127	2,3941	-1,4913	-16,286	7,7027
33128	2,3828	-0,48011	-16,274	7,7036
33129	1,5238	-0,97031	-16,754	7,809
33130	0,76301	-0,95491	-16,838	7,8193
33131	1,1156	-1,4724	-16,444	7,6947
33132	1,1055	-0,48066	-16,431	7,6951
33133	-11,486	-0,98491	-18,454	8,9352
33134	-12,139	-0,98655	-18,273	8,9076
33135	-11,698	-1,488	-18,036	8,8896
33136	-11,715	-0,49327	-18,029	8,9062
33137	2,3437	-0,97268	-17,37	8,0583
33138	1,7302	-0,96243	-17,489	8,0774
33139	2,0968	-1,5512	-17,239	7,9999
33140	1,911	-0,48966	-17,053	7,9328
33141	-11,04	-0,97882	-19,306	9,0424
33142	-11,69	-0,98439	-19,129	8,9914
33143	-11,248	-1,4853	-18,89	8,9779
33144	-11,269	-0,49164	-18,885	8,9935
33145	-23,762	-0,99084	-13,492	8,0703
33146	-23,086	-0,99076	-13,696	8,2833
33147	-23,32	-1,4858	-13,261	8,4628
33148	-23,319	-0,49517	-13,262	8,5
33149	-10,583	-0,98041	-20,151	9,1873
33150	-11,242	-0,9773	-19,979	9,113
33151	-10,816	-1,4608	-19,73	9,1029
33152	-10,817	-0,48718	-19,731	9,119
33153	-23,97	-0,99223	-14,159	7,4962
33154	-24,646	-0,99155	-13,952	7,1886
33155	-24,204	-1,4863	-13,725	7,6576
33156	-24,204	-0,49567	-13,725	7,6975
33157	-6,5769	-0,98836	-18,174	8,6251
33158	-5,9596	-0,97364	-18,302	8,6239
33159	-6,1485	-1,4855	-17,902	8,5114
33160	-6,1761	-0,49427	-17,899	8,5235
33161	6,6225	-0,95349	-11,67	7,6007
33162	5,9828	-0,95308	-11,772	7,4693
33163	6,2186	-1,4575	-11,369	7,5204
33164	6,2009	-0,47608	-11,388	7,5215
33165	-7,4025	-0,98611	-18,723	8,8362
33166	-6,7741	-0,97306	-18,863	8,8491
33167	-6,9642	-1,4923	-18,458	8,7359
33168	-6,9951	-0,49409	-18,452	8,7483
33169	7,4777	-0,95773	-12,218	7,7885
33170	6,8226	-0,95558	-12,341	7,6498
33171	7,0614	-1,462	-11,932	7,6944
33172	7,044	-0,47741	-11,952	7,6973
33173	-7,5999	-0,97363	-19,406	9,0433
33174	-8,2385	-0,98319	-19,261	9,0147
33175	-7,8021	-1,4846	-18,999	8,9326
33176	-7,8252	-0,49202	-18,995	8,9455
33177	8,3388	-0,96422	-12,741	7,992
33178	7,6794	-0,96096	-12,879	7,8525
33179	7,9193	-1,4708	-12,467	7,8912
33180	7,9114	-0,48032	-12,484	7,8983
33181	6,1829	-0,95517	-12,443	7,5207
33182	5,5501	-0,95402	-12,547	7,4073
33183	5,7648	-1,4308	-12,155	7,4307
33184	5,7647	-0,477	-12,155	7,4353
33185	8,5328	-0,9692	-13,399	8,0624
33186	9,1982	-0,97151	-13,249	8,1985
33187	8,7719	-1,4773	-12,985	8,0959
33188	8,7661	-0,48389	-12,997	8,1054
33189	7,0242	-0,9588	-13,002	7,7176
33190	6,3801	-0,9565	-13,123	7,5998
33191	6,6216	-1,4687	-12,72	7,6202
33192	6,6011	-0,47817	-12,73	7,6229
33193	-31,245	-0,98589	-2,5776	20,269
33194	-31,9	-0,99261	-2,494	20,268
33195	-31,575	-1,4826	-2,3921	20,221
33196	-31,547	-0,49618	-2,355	20,564
33197	7,8734	-0,96594	-13,538	7,9281
33198	7,2188	-0,96124	-13,675	7,8104
33199	7,4452	-1,4404	-13,273	7,8214
33200	7,4473	-0,48064	-13,275	7,83
33201	-30,782	-0,99048	-3,2638	19,698
33202	-31,434	-0,98752	-3,0883	20,068
33203	-30,955	-1,487	-2,7815	20,227
33204	-30,934	-0,48971	-2,768	20,48
33205	-1,5383	-0,93964	-15,365	7,3938
33206	-0,97498	-0,93702	-15,428	7,3904
33207	-1,1853	-1,4538	-15,061	7,3026
33208	-1,2053	-0,45136	-15,048	7,3025
33209	-17,068	-0,97254	-11,219	10,212
33210	-16,405	-0,97679	-11,406	10,046
33211	-16,624	-1,4864	-11,017	10,206
33212	-16,621	-0,49255	-11,005	10,241
33213	-30,423	-0,99749	-4,2313	18,716
33214	-31,087	-0,99976	-4,0043	19,241
33215	-30,625	-1,4997	-3,7868	19,315
33216	-30,639	-0,50077	-3,7459	19,445
33217	8,0642	-0,96866	-14,21	8,0281
33218	8,7213	-0,97209	-14,063	8,1403
33219	8,296	-1,451	-13,801	8,0347
33220	8,2988	-0,48531	-13,802	8,0451
33221	-30,007	-0,99042	-5,1455	17,624
33222	-30,656	-0,99549	-4,9251	18,13
33223	-30,201	-1,4933	-4,7161	18,214
33224	-30,242	-0,49672	-4,6861	18,241
33225	-17,968	-0,9696	-11,643	10,165
33226	-17,302	-0,96449	-11,838	10,034
33227	-17,523	-1,4755	-11,442	10,196
33228	-17,523	-0,47999	-11,429	10,234
33229	-2,2423	-0,97418	-15,997	7,607
33230	-1,6547	-0,97883	-16,06	7,5958
33231	-1,8524	-1,4837	-15,686	7,4959
33232	-1,8795	-0,48828	-15,684	7,5009
33233	5,7473	-0,95536	-13,228	7,4893
33234	5,1213	-0,95383	-13,333	7,3947
33235	5,3348	-1,4305	-12,939	7,393
33236	5,3355	-0,47703	-12,939	7,3977
33237	-18,868	-0,97838	-12,069	10,031
33238	-18,198	-0,97485	-12,269	9,9433
33239	-18,412	-1,484	-11,872	10,105
33240	-18,417	-0,48961	-11,854	10,146
33241	6,5746	-0,95894	-13,796	7,6969
33242	5,9405	-0,95664	-13,914	7,6001
33243	6,1837	-1,4688	-13,513	7,5952
33244	6,159	-0,47833	-13,517	7,5973
33245	-19,765	-0,98082	-12,501	9,8002
33246	-19,093	-0,97733	-12,702	9,7635
33247	-19,311	-1,4845	-12,306	9,922
33248	-19,323	-0,48876	-12,282	9,9669
33249	7,4095	-0,96396	-14,348	7,916
33250	6,7693	-0,96108	-14,477	7,8213
33251	6,988	-1,4405	-14,075	7,8055
33252	6,9902	-0,48061	-14,076	7,8138
33253	-20,646	-0,98793	-12,954	9,4574
33254	-19,974	-0,98765	-13,156	9,4783
33255	-20,197	-1,4915	-12,749	9,637
33256	-20,207	-0,49206	-12,72	9,6841
33257	7,6041	-0,96632	-15,026	8,047
33258	8,2561	-0,96936	-14,884	8,1361
33259	7,8264	-1,4485	-14,618	8,0263
33260	7,8289	-0,48336	-14,619	8,0364
33261	-21,528	-0,99078	-13,42	8,9986
33262	-20,857	-0,98991	-13,611	9,089
33263	-21,08	-1,4991	-13,213	9,2357
33264	-21,087	-0,49587	-13,18	9,2864
33265	-2,9934	-0,97499	-16,623	7,8473
33266	-2,4031	-0,96839	-16,697	7,8347
33267	-2,5851	-1,4879	-16,317	7,724
33268	-2,6234	-0,48591	-16,318	7,7323
33269	5,3146	-0,95511	-14,019	7,5087
33270	4,6924	-0,95355	-14,121	7,4323
33271	4,9391	-1,4718	-13,727	7,4104
33272	4,9072	-0,4768	-13,727	7,4101
33273	-3,7704	-0,96048	-17,241	8,1046
33274	-3,1666	-0,97308	-17,325	8,0928
33275	-3,3464	-1,4864	-16,935	7,9728
33276	-3,3825	-0,48908	-16,937	7,983
33277	6,1352	-0,95878	-14,595	7,7288
33278	5,5134	-0,96548	-14,708	7,6528
33279	5,7505	-1,4725	-14,312	7,6219
33280	5,722	-0,47831	-14,312	7,6235
33281	-22,411	-0,9905	-13,892	8,4173
33282	-21,739	-0,99016	-14,087	8,5779
33283	-21,971	-1,4855	-13,654	8,7309
33284	-21,972	-0,49491	-13,654	8,7652
33285	6,9638	-0,96343	-15,156	7,9576
33286	6,327	-0,96077	-15,283	7,8843
33287	6,5464	-1,4402	-14,877	7,8428
33288	6,5484	-0,48047	-14,878	7,8511
33289	4,8293	-1,0478	45,575	27,04
33290	4,8542	-0,79922	44,575	27,936
33291	4,9889	-1,5729	44,984	27,523
33292	4,9009	-0,5365	45,118	27,49
33293	4,4447	-1,0384	44,997	35,23
33294	7,1595	-0,96545	-15,841	8,1182
33295	7,8033	-0,96822	-15,703	8,1843
33296	7,377	-1,4475	-15,433	8,0721
33297	7,3792	-0,48296	-15,434	8,082
33298	-23,294	-0,99215	-14,363	7,7078
33299	-22,62	-0,99105	-14,564	7,9453
33300	-22,852	-1,4866	-14,132	8,0848
33301	-22,852	-0,49559	-14,132	8,12
33302	-4,5598	-0,94526	-17,844	8,3658
33303	-3,9582	-0,94309	-17,947	8,3629
33304	-4,1322	-1,4645	-17,548	8,2344
33305	-4,1672	-0,4714	-17,549	8,2458
33306	-23,503	-0,99379	-15,028	7,1891
33307	-24,177	-0,99441	-14,83	6,86
33308	-23,738	-1,4876	-14,594	7,3121
33309	-23,738	-0,49656	-14,594	7,3486
33310	-5,352	-0,95323	-18,423	8,6164
33311	-4,74	-0,94773	-18,543	8,6237
33312	-4,9173	-1,4703	-18,139	8,4916
33313	-4,9523	-0,47386	-18,139	8,5037
33314	-6,1567	-0,95834	-18,991	8,8511
33315	-5,5376	-0,95572	-19,116	8,8687
33316	-5,7225	-1,4718	-18,712	8,7364
33317	-5,751	-0,47937	-18,71	8,7489
33318	-15,971	-0,97137	-12,209	9,7371
33319	-16,638	-0,96874	-12,026	9,8738
33320	-16,196	-1,4781	-11,822	9,8711
33321	-16,198	-0,48424	-11,805	9,9058
33322	-6,9714	-0,96058	-19,545	9,0595
33323	-6,3461	-0,95798	-19,682	9,0925
33324	-6,5358	-1,4712	-19,276	8,9614
33325	-6,5618	-0,47897	-19,273	8,974
33326	-15,519	-0,97384	-13,02	9,4746
33327	-16,19	-0,9717	-12,841	9,5849
33328	-15,749	-1,4482	-12,606	9,5916
33329	-15,748	-0,48713	-12,611	9,6169
33330	-7,7939	-0,97482	-20,088	9,2325
33331	-7,1637	-0,96503	-20,23	9,2823
33332	-7,3606	-1,4748	-19,822	9,1535
33333	-7,3811	-0,48161	-19,817	9,1658
33334	-15,732	-0,97721	-13,665	9,3454
33335	-15,065	-0,97728	-13,846	9,2597
33336	-15,293	-1,4582	-13,423	9,3529
33337	-15,291	-0,48672	-13,426	9,3768
33338	-29,534	-0,9776	-6,016	16,424
33339	-30,225	-0,99006	-5,8084	16,946
33340	-29,771	-1,48	-5,5921	17,104
33341	-29,824	-0,49371	-5,5989	17,041
33342	-6,9941e-002	-0,8629	51,656	16,775
33343	0,16715	-0,82413	51,17	16,518
33344	-0,17053	-1,295	51,294	16,415
33345	2,1245e-002	-1,1604	50,959	16,374
33346	-0,1215	-0,40636	51,258	17,035
33347	4,8912	-0,96392	-14,809	7,5794
33348	4,272	-0,96303	-14,908	7,5209
33349	4,5104	-1,4691	-14,516	7,4727
33350	4,4776	-0,47675	-14,515	7,473
33351	-29,02	-0,96967	-6,8631	15,059
33352	-29,715	-0,98047	-6,6699	15,444
33353	-29,257	-1,4623	-6,4443	15,804
33354	-29,278	-0,48389	-6,4633	15,756
33355	0,34574	-0,93188	51,977	16,862
33356	-4,1171e-003	-0,93554	52,493	17,695
33357	1,1888e-002	-1,3995	51,995	16,867
33358	3,8069e-002	-0,45654	52,052	17,38
33359	-16,858	-0,96907	-12,659	9,7166
33360	-17,532	-0,96973	-12,465	9,8181
33361	-17,08	-1,479	-12,265	9,8503
33362	-17,087	-0,4845	-12,247	9,8877
33363	0,58283	-0,8931	51,491	16,736
33364	0,7798	-0,88167	50,856	16,491
33365	0,47425	-1,3276	51,119	16,41
33366	0,30004	-1,1718	50,88	16,445
33367	0,49364	-0,41777	51,039	17,185
33368	-16,403	-0,97507	-13,487	9,4508
33369	-17,076	-0,97169	-13,296	9,5255
33370	-16,627	-1,4777	-13,087	9,5612
33371	-16,633	-0,48457	-13,07	9,5947
33372	-28,567	-0,98747	-7,6932	13,61
33373	-29,232	-0,98545	-7,5164	13,81
33374	-28,773	-1,4704	-7,298	14,303
33375	-28,755	-0,48577	-7,276	14,36
33376	-16,615	-0,9799	-14,129	9,2867
33377	-15,945	-0,98227	-14,323	9,2356
33378	-16,167	-1,4867	-13,921	9,3217
33379	-16,174	-0,4905	-13,9	9,3532
33380	1,1087	-0,96161	51,775	16,709
33381	0,80139	-0,96435	52,363	17,493
33382	0,70074	-1,3923	51,957	16,863
33383	0,78472	-0,47534	51,87	17,249
33384	-28,112	-0,99947	-8,5517	12,148
33385	-28,794	-1,002	-8,3562	12,223
33386	-28,323	-1,4855	-8,1306	12,845
33387	-28,362	-0,5017	-8,1041	12,922
33388	5,7052	-0,96747	-15,396	7,8124
33389	5,0875	-0,97429	-15,503	7,7549
33390	5,3275	-1,483	-15,109	7,6998
33391	5,2932	-0,48717	-15,108	7,7013
33392	4,4683	-0,97339	-15,601	7,6992
33393	3,8385	-0,96374	-15,702	7,658
33394	4,0853	-1,474	-15,306	7,5849
33395	4,0583	-0,48628	-15,303	7,5865
33396	-17,751	-0,97236	-13,102	9,6221
33397	-18,423	-0,9738	-12,903	9,6807
33398	-17,98	-1,453	-12,68	9,7644
33399	-17,982	-0,48523	-12,683	9,7947
33400	6,5227	-0,96279	-15,968	8,0499
33401	5,8956	-0,96823	-16,087	7,997
33402	6,1317	-1,4703	-15,687	7,9348
33403	6,1057	-0,4803	-15,688	7,9396
33404	5,2779	-0,97504	-16,193	7,9432
33405	4,6445	-0,96591	-16,303	7,9037
33406	4,8863	-1,4728	-15,904	7,8235
33407	4,8615	-0,48711	-15,905	7,8277
33408	-17,289	-0,97653	-13,938	9,3567
33409	-17,959	-0,97924	-13,753	9,3851
33410	-17,518	-1,4588	-13,519	9,4707
33411	-17,519	-0,48712	-13,522	9,4985
33412	6,7243	-0,97145	-16,652	8,2377
33413	7,3637	-0,97301	-16,521	8,2823
33414	6,9618	-1,4726	-16,246	8,1709
33415	6,9398	-0,48249	-16,248	8,178
33416	6,0972	-0,97689	-16,771	8,1889
33417	5,458	-0,96816	-16,891	8,1554
33418	5,7027	-1,4764	-16,487	8,0697
33419	5,6778	-0,48793	-16,488	8,0754
33420	-17,499	-0,98092	-14,588	9,1508
33421	-16,828	-0,98232	-14,784	9,1423
33422	-17,057	-1,4659	-14,351	9,2339
33423	-17,058	-0,48941	-14,353	9,2603
33424	6,2802	-0,9708	-17,466	8,4016
33425	6,9248	-0,97925	-17,336	8,4255
33426	6,5253	-1,4786	-17,057	8,3121
33427	6,5022	-0,48896	-17,06	8,3203
33428	4,0146	-0,95625	-16,403	7,8655
33429	3,3896	-0,95668	-16,494	7,8399
33430	3,6107	-1,4312	-16,101	7,7418
33431	3,6106	-0,47746	-16,102	7,7479
33432	1,3056	-0,95018	51,141	16,656
33433	1,5677	-0,95732	50,502	16,617
33434	1,0279	-1,4502	50,682	16,598
33435	0,63389	-1,2179	50,646	16,145
33436	1,1622	-0,46391	50,621	17,351
33437	4,8245	-0,95902	-17,	8,1195
33438	4,2081	-0,96623	-17,099	8,0975
33439	4,4177	-1,4354	-16,703	7,9922
33440	4,4186	-0,47879	-16,704	7,9999
33441	3,5831	-0,96666	-17,19	8,0736
33442	2,957	-0,96225	-17,274	8,0628
33443	3,1927	-1,4824	-16,896	7,9486
33444	3,1687	-0,47922	-16,885	7,9504
33445	1,9162	-0,97967	51,514	16,55
33446	1,6334	-0,978	52,151	17,166
33447	1,4651	-1,4622	51,692	16,727
33448	1,5491	-0,48627	51,624	17,179
33449	5,6409	-0,96208	-17,586	8,3721
33450	5,0221	-0,96993	-17,695	8,3571
33451	5,2291	-1,4398	-17,296	8,2475
33452	5,2304	-0,48023	-17,297	8,2567
33453	-19,302	-0,98415	-13,358	9,4454
33454	-18,631	-0,98069	-13,553	9,4393
33455	-18,861	-1,4635	-13,121	9,5826
33456	-18,863	-0,48857	-13,123	9,6131
33457	5,8398	-0,97178	-18,278	8,6076
33458	6,464	-0,96553	-18,16	8,6125
33459	6,0498	-1,4446	-17,874	8,4953
33460	6,0515	-0,48185	-17,875	8,5059
33461	-20,185	-0,98962	-13,813	9,1127
33462	-19,511	-0,99022	-14,018	9,1586
33463	-19,736	-1,496	-13,613	9,2849
33464	-19,744	-0,49558	-13,586	9,3278
33465	-27,639	-0,99426	-9,4252	10,79
33466	-28,311	-0,99703	-9,2342	10,716
33467	-27,861	-1,4992	-9,0067	11,386
33468	-27,868	-0,49777	-8,988	11,467
33469	-20,398	-0,98825	-14,466	8,7845
33470	-21,068	-0,98928	-14,278	8,6695
33471	-20,627	-1,4811	-14,033	8,9162
33472	-20,628	-0,49404	-14,034	8,9475
33473	-18,84	-0,98676	-14,213	9,1558
33474	-18,169	-0,98363	-14,403	9,1755
33475	-18,393	-1,4878	-14,003	9,279
33476	-18,399	-0,49212	-13,975	9,3179
33477	-27,185	-0,99163	-10,285	9,6538
33478	-27,856	-0,99518	-10,095	9,4577
33479	-27,414	-1,4882	-9,8543	10,159
33480	-27,417	-0,49649	-9,851	10,226
33481	-19,724	-0,98886	-14,67	8,8329
33482	-19,05	-0,98974	-14,872	8,9028
33483	-19,275	-1,4949	-14,465	9,0029
33484	-19,282	-0,49464	-14,437	9,043
33485	2,1782	-0,98681	50,875	16,829
33486	2,5062	-1,0049	50,167	16,794
33487	2,0041	-1,4847	50,419	17,003
33488	2,0389	-0,49341	50,368	17,771
33489	-20,605	-0,98939	-15,141	8,4028
33490	-19,936	-0,98877	-15,329	8,5367
33491	-20,166	-1,4816	-14,896	8,6397
33492	-20,167	-0,49422	-14,897	8,6693
33493	2,7716	-0,98478	51,227	16,368
33494	2,4792	-0,98858	51,882	16,733
33495	2,3085	-1,4877	51,388	16,532
33496	2,3784	-0,49339	51,35	17,05
33497	-15,278	-0,98234	-14,504	9,1551
33498	-14,613	-0,98104	-14,688	9,0929
33499	-14,839	-1,4683	-14,261	9,1615
33500	-14,837	-0,49057	-14,263	9,1842
33501	-21,276	-0,99041	-14,953	8,2867
33502	-21,948	-0,99071	-14,759	8,1059
33503	-21,507	-1,4854	-14,521	8,4075
33504	-21,508	-0,49524	-14,521	8,4394
33505	-16,157	-0,98469	-14,979	9,096
33506	-15,491	-0,98289	-15,165	9,0707
33507	-15,709	-1,4896	-14,761	9,1336
33508	-15,717	-0,49178	-14,739	9,162
33509	-20,811	-0,99033	-15,817	8,0582
33510	-21,483	-0,99098	-15,622	7,8617
33511	-21,043	-1,4852	-15,385	8,1507
33512	-21,043	-0,49517	-15,385	8,1805
33513	-22,155	-0,99127	-15,427	7,6807
33514	-22,829	-0,99269	-15,229	7,4256
33515	-22,387	-1,4863	-14,996	7,7876
33516	-22,387	-0,49546	-14,996	7,8202
33517	-18,379	-0,98661	-15,062	8,9255
33518	-17,709	-0,98427	-15,251	8,9666
33519	-17,938	-1,4725	-14,82	9,0547
33520	-17,939	-0,49151	-14,823	9,0814
33521	3,2011	-1,0514	49,276	18,136
33522	3,9952	-1,0655	47,922	20,257
33523	4,0467	-1,0418	48,444	18,124
33524	3,7842	-1,0128	48,876	18,001
33525	3,6152	-0,7935	48,269	20,18
33526	3,5784	-1,5028	48,469	19,508
33527	3,296	-0,5399	48,749	18,72
33528	3,2035	-1,0413	48,125	24,814
33529	-19,262	-0,98965	-15,531	8,609
33530	-18,589	-0,98943	-15,728	8,7003
33531	-18,814	-1,4938	-15,319	8,7772
33532	-18,821	-0,4951	-15,296	8,8115
33533	4,4057	-0,97713	-17,794	8,3373
33534	3,7745	-0,96693	-17,89	8,3307
33535	4,0171	-1,4832	-17,503	8,2109
33536	3,991	-0,48743	-17,495	8,2142
33537	-20,141	-0,98971	-16,005	8,1933
33538	-19,473	-0,98921	-16,193	8,3433
33539	-19,704	-1,4829	-15,76	8,4206
33540	-19,705	-0,49455	-15,761	8,4483
33541	5,221	-0,97963	-18,387	8,5952
33542	4,5981	-0,97908	-18,494	8,5975
33543	4,8365	-1,488	-18,096	8,4715
33544	4,8043	-0,4897	-18,097	8,4788
33545	-21,017	-0,99174	-16,487	7,6732
33546	-20,345	-0,99024	-16,682	7,8832
33547	-20,578	-1,4853	-16,249	7,9509
33548	-20,578	-0,49516	-16,249	7,9785
33549	5,4112	-0,9803	-19,085	8,8514
33550	6,0391	-0,98034	-18,967	8,8371
33551	5,6491	-1,4862	-18,681	8,7216
33552	5,6209	-0,48993	-18,682	8,7316
33553	-21,69	-0,99238	-16,291	7,4763
33554	-22,363	-0,99306	-16,093	7,2096
33555	-21,922	-1,4866	-15,859	7,5561
33556	-21,922	-0,49581	-15,859	7,5859
33557	3,0997	-1,0029	50,52	16,692
33558	3,4807	-0,99022	49,937	16,722
33559	3,0159	-1,4707	50,035	16,94
33560	2,9802	-0,51153	49,98	17,703
33561	-21,897	-0,99435	-16,96	7,0484
33562	-21,223	-0,99308	-17,157	7,3237
33563	-21,456	-1,4872	-16,725	7,3797
33564	-21,456	-0,49657	-16,725	7,407
33565	3,6199	-0,97846	50,957	15,984
33566	3,3456	-0,98752	51,587	16,174
33567	3,19	-1,4829	51,098	16,252
33568	3,2127	-0,49139	51,074	16,802
33569	-26,719	-0,99007	-11,154	8,7084
33570	-27,391	-0,99383	-10,965	8,4186
33571	-26,95	-1,4857	-10,723	9,1112
33572	-26,952	-0,49514	-10,72	9,1788
33573	-23,037	-0,99448	-15,896	6,955
33574	-23,71	-0,99571	-15,699	6,6161
33575	-23,271	-1,4881	-15,461	7,046
33576	-23,271	-0,49723	-15,461	7,0789
33577	-26,254	-0,99024	-12,016	7,9595
33578	-26,925	-0,99321	-11,831	7,6026
33579	-26,486	-1,4861	-11,591	8,2666
33580	-26,487	-0,49492	-11,588	8,3316
33581	-9,084	-0,97698	-19,792	9,1519
33582	-8,4325	-0,98438	-19,944	9,2006
33583	-8,6589	-1,4581	-19,525	9,0905
33584	-8,6607	-0,49117	-19,526	9,105
33585	-22,57	-0,99502	-16,763	6,7818
33586	-23,244	-0,99531	-16,565	6,4383
33587	-22,802	-1,497	-16,336	6,8436
33588	-22,804	-0,49725	-16,328	6,8757
33589	-9,2781	-0,98021	-20,473	9,3113
33590	-9,9294	-0,97903	-20,314	9,2398
33591	-9,4932	-1,4767	-20,059	9,2061
33592	-9,5097	-0,4858	-20,056	9,2204
33593	-25,788	-0,99102	-12,878	7,3717
33594	-26,459	-0,99374	-12,691	6,9748
33595	-26,021	-1,4877	-12,447	7,6129
33596	-26,021	-0,49531	-12,444	7,6722
33597	-8,6265	-0,98761	-20,625	9,3631
33598	-7,9854	-0,98533	-20,776	9,4339
33599	-8,1905	-1,4855	-20,365	9,3081
33600	-8,2144	-0,49321	-20,359	9,3207
33601	4,674	-1,0369	46,698	24,17
33602	5,4447	-1,0177	46,177	21,754
33603	4,7998	-1,5129	46,17	25,899
33604	4,7539	-0,51132	46,143	25,345
33605	4,3267	-1,0129	46,054	34,663
33606	-9,4695	-0,98946	-21,152	9,4424
33607	-8,8217	-0,98985	-21,31	9,5365
33608	-9,0321	-1,4893	-20,896	9,4143
33609	-9,0523	-0,49441	-20,889	9,4272
33610	4,6304	-1,0275	47,767	20,168
33611	5,1818	-1,0276	47,345	19,32
33612	4,1988	-0,77922	47,591	21,615
33613	4,4392	-1,5407	47,317	22,7
33614	4,5415	-0,52562	47,196	22,24
33615	4,0611	-1,0269	47,05	30,018
33616	-25,322	-0,99159	-13,746	6,9113
33617	-25,992	-0,99432	-13,558	6,4908
33618	-25,555	-1,4892	-13,315	7,0935
33619	-25,555	-0,49571	-13,312	7,1462
33620	-22,104	-0,99553	-17,629	6,6599
33621	-22,777	-0,9958	-17,432	6,3141
33622	-22,335	-1,4967	-17,201	6,6998
33623	-22,338	-0,49777	-17,194	6,7278
33624	4,4194	-0,97475	48,721	17,469
33625	5,1918	-0,84108	48,301	16,615
33626	4,5208	-1,4946	48,333	18,09
33627	4,2504	-0,75546	48,114	19,426
33628	4,4545	-0,50185	48,148	18,819
33629	-17,038	-0,98567	-15,447	8,9621
33630	-16,37	-0,9851	-15,64	8,9769
33631	-16,59	-1,4901	-15,233	9,0382
33632	-16,597	-0,49292	-15,211	9,0678
33633	3,1484	-0,96252	-17,975	8,3208
33634	2,5403	-0,96143	-18,048	8,3204
33635	2,7651	-1,4905	-17,69	8,1945
33636	2,7408	-0,48302	-17,662	8,1926
33637	-17,919	-0,98709	-15,918	8,7443
33638	-17,25	-0,986	-16,11	8,8049
33639	-17,478	-1,477	-15,679	8,8687
33640	-17,479	-0,49276	-15,68	8,8941
33641	4,0638	-0,95158	49,537	16,877
33642	4,4735	-0,94821	49,275	16,601
33643	4,1759	-1,3842	49,126	17,088
33644	3,9878	-0,72649	48,546	19,164
33645	4,0763	-0,47289	49,034	17,625
33646	-18,8	-0,98899	-16,391	8,4368
33647	-18,129	-0,98835	-16,586	8,5465
33648	-18,353	-1,4928	-16,174	8,602
33649	-18,36	-0,49433	-16,154	8,6322
33650	3,9669	-0,96887	-18,59	8,5925
33651	3,3457	-0,9579	-18,682	8,6011
33652	3,5805	-1,4714	-18,295	8,4623
33653	3,5515	-0,47949	-18,286	8,4666
33654	-19,677	-0,98974	-16,869	8,0345
33655	-19,01	-0,98916	-17,057	8,1988
33656	-19,241	-1,4837	-16,625	8,253
33657	-19,242	-0,49466	-16,625	8,2789
33658	4,7883	-0,97975	-19,192	8,8557
33659	4,1592	-0,96864	-19,298	8,8751
33660	4,4032	-1,4874	-18,897	8,7292
33661	4,372	-0,48938	-18,9	8,7393
33662	4,001	-0,96577	50,374	16,186
33663	4,232	-0,94359	49,926	16,272
33664	3,9735	-1,4066	49,975	16,34
33665	3,9112	-0,47869	49,906	17,171
33666	4,9677	-0,97121	-19,896	9,1316
33667	5,6038	-0,98253	-19,779	9,0987
33668	5,2128	-1,4852	-19,49	8,9829
33669	5,1847	-0,49037	-19,494	8,9955
33670	-20,551	-0,99158	-17,352	7,5343
33671	-19,88	-0,98999	-17,546	7,7554
33672	-20,112	-1,485	-17,114	7,8012
33673	-20,113	-0,49508	-17,114	7,8267
33674	4,3829	-0,96656	50,649	15,382
33675	4,1468	-0,97511	51,259	15,397
33676	4,0077	-1,4706	50,826	15,627
33677	4,0344	-0,48708	50,811	16,127
33678	-21,43	-0,99427	-17,826	6,9354
33679	-20,757	-0,99239	-18,022	7,2174
33680	-20,99	-1,487	-17,591	7,2525
33681	-20,99	-0,49651	-17,591	7,2772
33682	-10,121	-0,98828	-20,993	9,3681
33683	-10,776	-0,98665	-20,825	9,2714
33684	-10,336	-1,4867	-20,577	9,2676
33685	-10,354	-0,49323	-20,57	9,2813
33686	-22,31	-0,99577	-18,299	6,2359
33687	-21,637	-0,99552	-18,496	6,5819
33688	-21,868	-1,4974	-18,068	6,6027
33689	-21,871	-0,49776	-18,061	6,6275
33690	-9,6678	-0,98908	-21,835	9,583
33691	-10,323	-0,9842	-21,671	9,4635
33692	-9,8787	-1,4906	-21,419	9,4663
33693	-9,8992	-0,49505	-21,412	9,4789
33694	-0,48217	-0,95419	-16,177	7,5978
33695	-1,0914	-0,9762	-16,123	7,593
33696	-0,72913	-1,4836	-15,796	7,4855
33697	-0,75731	-0,48566	-15,808	7,4939
33698	2,7375	-0,95681	-18,756	8,6004
33699	1,9267	-0,95118	-18,168	8,3396
33700	2,1627	-0,95507	-18,842	8,6198
33701	2,3862	-1,4684	-18,492	8,4822
33702	2,3351	-0,4784	-18,433	8,4659
33703	0,10042	-0,94278	-16,895	7,8321
33704	-0,60374	-0,94428	-16,864	7,8243
33705	-0,20994	-1,4533	-16,52	7,7035
33706	-0,2197	-0,46853	-16,545	7,7172
33707	2,9467	-0,9575	-19,476	8,9048
33708	3,538	-0,95766	-19,39	8,8845
33709	3,1383	-1,4336	-19,08	8,745
33710	3,14	-0,47841	-19,079	8,7553
33711	1,3542	-0,93777	-18,311	8,3829
33712	0,96943	-0,94703	-17,574	8,0855
33713	1,4977	-1,4598	-17,926	8,2329
33714	1,5009	-0,47277	-17,849	8,211
33715	-24,853	-0,99373	-14,623	6,5554
33716	-25,526	-0,99489	-14,427	6,1272
33717	-25,089	-1,49	-14,183	6,6951
33718	-25,089	-0,49588	-14,18	6,7415
33719	1,5902	-0,94167	-18,985	8,6622
33720	2,3719	-0,95576	-19,562	8,9235
33721	1,7657	-0,93985	-19,648	8,9523
33722	2,1513	-1,4163	-19,231	8,7772
33723	1,9749	-0,47666	-19,244	8,7892
33724	0,74168	-0,89587	-18,635	8,5017
33725	1,0226	-0,91116	-19,038	8,6768
33726	1,2584	-1,396	-18,691	8,536
33727	1,1948	-0,465	-18,663	8,5274
33728	-24,384	-0,99633	-15,5	6,2891
33729	-25,056	-0,99658	-15,307	5,8555
33730	-24,616	-1,498	-15,071	6,385
33731	-24,62	-0,49785	-15,057	6,4304
33732	-14,826	-0,98158	-15,349	9,0138
33733	-14,157	-0,98109	-15,535	8,9751
33734	-14,388	-1,4712	-15,111	9,019
33735	-14,387	-0,49047	-15,112	9,0407
33736	0,35695	-0,90512	-17,898	8,2047
33737	-0,10406	-0,94494	-17,545	8,0651
33738	0,49272	-1,3518	-17,235	7,9547
33739	0,42054	-0,47425	-17,245	7,9635
33740	-15,703	-0,9833	-15,826	8,956
33741	-15,039	-0,98265	-16,01	8,9536
33742	-15,264	-1,4724	-15,585	8,9969
33743	-15,264	-0,49111	-15,586	9,0195
33744	0,28826	-0,89188	-18,813	8,5736
33745	-2,5362e-002	-0,89297	-18,627	8,495
33746	0,44195	-1,2945	-18,541	8,4564
33747	0,32799	-0,43086	-18,418	8,4162
33748	-16,581	-0,98542	-16,303	8,8235
33749	-15,911	-0,98469	-16,493	8,8604
33750	-16,142	-1,4757	-16,065	8,9028
33751	-16,142	-0,49218	-16,066	8,926
33752	-23,917	-0,99654	-16,368	6,1005
33753	-24,589	-0,99719	-16,175	5,6684
33754	-24,15	-1,4985	-15,939	6,1661
33755	-24,154	-0,49848	-15,925	6,2047
33756	0,56916	-0,90717	-19,216	8,7458
33757	0,1366	-0,91919	-19,31	8,7868
33758	0,34363	-1,3343	-19,089	8,7019
33759	0,3287	-0,46101	-19,077	8,6911
33760	2,5282	-0,96083	-20,267	9,2354
33761	3,1271	-0,95787	-20,188	9,2059
33762	2,7764	-1,3846	-19,863	9,0602
33763	2,7391	-0,47909	-19,873	9,0744
33764	1,1981	-0,90935	-19,7	8,9651
33765	0,65735	-0,91195	-19,779	8,9966
33766	0,90593	-1,4114	-19,416	8,8355
33767	0,85517	-0,44616	-19,356	8,8185
33768	-23,451	-0,99608	-17,235	5,971
33769	-24,122	-0,99676	-17,042	5,5439
33770	-23,683	-1,4977	-16,806	6,012
33771	-23,687	-0,49806	-16,792	6,0446
33772	1,922	-0,94492	-20,353	9,2638
33773	1,3211	-0,94491	-20,428	9,2949
33774	1,5937	-1,4435	-20,045	9,1208
33775	1,5411	-0,46319	-20,044	9,131
33776	-1,213	-0,9663	-16,811	7,8201
33777	-1,8155	-0,97303	-16,759	7,8235
33778	-1,4141	-1,4853	-16,442	7,7031
33779	-1,4451	-0,49055	-16,443	7,7097
33780	-22,984	-0,99605	-18,102	5,8902
33781	-23,655	-0,99761	-17,909	5,4702
33782	-23,216	-1,4974	-17,673	5,9105
33783	-23,221	-0,49803	-17,659	5,9381
33784	-0,80822	-0,94644	-17,514	8,0621
33785	-1,3918	-0,94641	-17,509	8,0723
33786	-0,95279	-1,4628	-17,19	7,9431
33787	-0,98739	-0,47575	-17,176	7,9457
33788	-14,37	-0,98216	-16,196	8,92
33789	-13,703	-0,98092	-16,382	8,9051
33790	-13,926	-1,4713	-15,958	8,9255
33791	-13,927	-0,49062	-15,958	8,9459
33792	2,6834	-0,96025	-20,977	9,5495
33793	2,0739	-0,97318	-21,055	9,5882
33794	2,3522	-1,4514	-20,653	9,4012
33795	2,2958	-0,48173	-20,668	9,4204
33796	-1,9944	-0,95314	-17,458	8,0771
33797	-2,5763	-0,96648	-17,398	8,0809
33798	-2,1635	-1,4749	-17,084	7,9496
33799	-2,2005	-0,48248	-17,084	7,958
33800	4,6139	-0,94439	50,2	15,511
33801	4,6417	-0,94022	49,663	15,983
33802	4,4683	-1,4085	49,966	15,794
33803	4,5186	-0,4649	49,898	16,22
33804	4,3386	-0,9601	-20,003	9,1525
33805	3,7183	-0,95803	-20,103	9,1854
33806	3,9346	-1,4364	-19,702	9,0224
33807	3,936	-0,47926	-19,702	9,0339
33808	-0,48637	-0,93279	-18,274	8,3532
33809	-1,0258	-0,94254	-18,221	8,3372
33810	-0,5893	-1,3819	-17,902	8,2057
33811	-0,62866	-0,47069	-17,845	8,1905
33812	4,521	-0,96173	-20,709	9,4449
33813	5,1484	-0,9635	-20,599	9,3972
33814	4,7396	-1,4416	-20,303	9,2795
33815	4,7411	-0,48084	-20,304	9,2924
33816	-0,17702	-0,92029	-19,124	8,7074
33817	-0,59446	-0,92465	-19,13	8,7105
33818	-0,31684	-1,3547	-18,685	8,5191
33819	-0,36802	-0,46211	-18,687	8,5271
33820	5,0429	-0,9487	50,221	14,741
33821	4,9175	-0,9673	50,886	14,494
33822	4,7027	-1,4081	50,477	15,068
33823	4,7934	-0,47949	50,448	15,311
33824	-1,6094	-0,94251	-18,216	8,3513
33825	-2,1804	-0,94181	-18,169	8,3495
33826	-1,7428	-1,4594	-17,847	8,2101
33827	-1,7959	-0,47065	-17,835	8,2148
33828	-0,30706	-0,92332	-19,865	9,0339
33829	0,22479	-0,92397	-19,873	9,0376
33830	-3,4291e-003	-1,3371	-19,535	8,8845
33831	-7,3408e-002	-0,45818	-19,508	8,8815
33832	-1,1339	-0,9344	-19,078	8,6946
33833	-1,7963	-0,94457	-18,945	8,6493
33834	-1,3447	-1,4544	-18,618	8,5025
33835	-1,4229	-0,47185	-18,598	8,505
33836	3,9008	-0,95966	-20,809	9,4782
33837	3,2823	-0,95729	-20,898	9,5203
33838	3,4986	-1,4346	-20,503	9,346
33839	3,5007	-0,47878	-20,504	9,3588
33840	-0,7245	-0,92769	-19,872	9,0391
33841	-1,2805	-0,94146	-19,824	9,0192
33842	-0,78265	-1,4133	-19,503	8,8752
33843	-0,96246	-0,46255	-19,475	8,8716
33844	4,0818	-0,96213	-21,51	9,7827
33845	4,7165	-0,9718	-21,408	9,722
33846	4,3321	-1,4712	-21,111	9,6055
33847	4,3009	-0,48089	-21,114	9,6203
33848	-17,46	-0,98726	-16,778	8,6101
33849	-16,789	-0,98654	-16,97	8,6905
33850	-17,02	-1,479	-16,54	8,731
33851	-17,02	-0,49324	-16,541	8,7549
33852	-22,517	-0,99603	-18,968	5,8502
33853	-23,188	-0,99672	-18,777	5,4375
33854	-22,749	-1,4971	-18,539	5,8532
33855	-22,754	-0,49802	-18,526	5,8766
33856	-18,339	-0,98852	-17,252	8,3107
33857	-17,668	-0,98783	-17,446	8,4378
33858	-17,899	-1,4817	-17,015	8,4755
33859	-17,9	-0,49402	-17,016	8,4995
33860	-0,36313	-0,93754	-20,575	9,3592
33861	-0,94928	-0,9402	-20,534	9,3399
33862	-0,59662	-1,399	-20,241	9,2012
33863	-0,6421	-0,46514	-20,199	9,1933
33864	-19,213	-0,98941	-17,734	7,9211
33865	-18,547	-0,98872	-17,921	8,0984
33866	-18,778	-1,4832	-17,489	8,1318
33867	-18,779	-0,4945	-17,489	8,1558
33868	0,78028	-0,94751	-20,506	9,326
33869	0,16872	-0,93819	-20,582	9,3618
33870	0,47078	-1,3285	-20,147	9,157
33871	0,44593	-0,46579	-20,223	9,2041
33872	-15,247	-0,98404	-16,677	8,8623
33873	-14,583	-0,98308	-16,865	8,8817
33874	-14,813	-1,4741	-16,433	8,9029
33875	-14,814	-0,49153	-16,434	8,9243
33876	-20,086	-0,99079	-18,216	7,4392
33877	-19,414	-0,98963	-18,411	7,67
33878	-19,647	-1,4844	-17,978	7,6962
33879	-19,647	-0,49491	-17,979	7,7196
33880	1,473	-0,97318	-21,13	9,6181
33881	0,83508	-0,96963	-21,196	9,6528
33882	1,1411	-1,4223	-20,775	9,4502
33883	1,0964	-0,48172	-20,828	9,488
33884	-16,118	-0,98581	-17,16	8,731
33885	-15,452	-0,9852	-17,351	8,7882
33886	-15,679	-1,4769	-16,92	8,8093
33887	-15,679	-0,49251	-16,921	8,8313
33888	-20,964	-0,99365	-18,692	6,8643
33889	-20,291	-0,9917	-18,887	7,1514
33890	-20,523	-1,4863	-18,456	7,1681
33891	-20,524	-0,49588	-18,456	7,1906
33892	-16,997	-0,98711	-17,638	8,521
33893	-16,329	-0,98673	-17,829	8,6197
33894	-16,557	-1,4796	-17,399	8,6398
33895	-16,557	-0,4933	-17,4	8,6622
33896	-21,844	-0,99578	-19,165	6,1965
33897	-21,17	-0,99521	-19,362	6,542
33898	-21,401	-1,4976	-18,934	6,5461
33899	-21,404	-0,49777	-18,927	6,5681
33900	-17,876	-0,98803	-18,115	8,2277
33901	-17,209	-0,98761	-18,305	8,3705
33902	-17,436	-1,4812	-17,877	8,3889
33903	-17,436	-0,49381	-17,877	8,4114
33904	-3,3544	-0,9557	-18,031	8,3522
33905	-2,7623	-0,95515	-18,11	8,3538
33906	-2,9665	-1,4212	-17,718	8,2167
33907	-2,9678	-0,484	-17,72	8,2251
33908	-18,748	-0,98893	-18,598	7,8487
33909	-18,083	-0,98828	-18,786	8,0383
33910	-18,315	-1,4822	-18,354	8,0529
33911	-18,315	-0,49422	-18,354	8,0751
33912	3,4633	-0,95976	-21,599	9,8242
33913	2,8355	-0,96114	-21,688	9,8788
33914	3,1036	-1,4606	-21,286	9,6882
33915	3,061	-0,47852	-21,293	9,7048
33916	2,226	-0,97408	-21,767	9,9166
33917	1,595	-0,99704	-21,828	9,9558
33918	1,8728	-1,4859	-21,433	9,7627
33919	1,8335	-0,49145	-21,461	9,7877
33920	3,6396	-0,96496	-22,307	10,145
33921	4,2764	-0,97195	-22,209	10,072
33922	3,9002	-1,4794	-21,912	9,9551
33923	3,8641	-0,48125	-21,911	9,9707
33924	-19,62	-0,99054	-19,082	7,383
33925	-18,948	-0,98931	-19,276	7,6228
33926	-19,181	-1,4837	-18,843	7,6313
33927	-19,181	-0,49472	-18,843	7,6527
33928	-22,05	-0,99594	-19,835	5,845
33929	-22,722	-0,9976	-19,642	5,4406
33930	-22,282	-1,497	-19,406	5,833
33931	-22,288	-0,49801	-19,394	5,8529
33932	0,22352	-0,9603	-21,272	9,6887
33933	-0,44073	-0,96272	-21,336	9,719
33934	-0,20509	-1,3763	-20,992	9,553
33935	-0,1221	-0,4724	-20,963	9,5513
33936	-20,498	-0,99326	-19,557	6,8297
33937	-19,825	-0,99111	-19,753	7,1211
33938	-20,057	-1,486	-19,321	7,1216
33939	-20,057	-0,49582	-19,321	7,142
33940	-4,1384	-0,94557	-18,647	8,6229
33941	-3,5409	-0,94427	-18,745	8,6341
33942	-3,7477	-1,4136	-18,344	8,49
33943	-3,7492	-0,4717	-18,346	8,4997
33944	-21,377	-0,99537	-20,032	6,1909
33945	-20,704	-0,99451	-20,228	6,5355
33946	-20,934	-1,4964	-19,8	6,5248
33947	-20,937	-0,49744	-19,793	6,5444
33948	-4,3152	-0,95162	-19,345	8,8994
33949	-4,9256	-0,95022	-19,236	8,8784
33950	-4,5259	-1,4202	-18,946	8,7537
33951	-4,5277	-0,47388	-18,947	8,7648
33952	-21,583	-0,99627	-20,703	5,87
33953	-22,255	-0,99747	-20,509	5,473
33954	-21,814	-1,4977	-20,274	5,8451
33955	-21,821	-0,49793	-20,261	5,8618
33956	0,95712	-0,99349	-21,894	9,9891
33957	0,27498	-0,98862	-21,964	10,027
33958	0,52462	-1,4822	-21,637	9,8638
33959	0,55327	-0,4879	-21,595	9,8558
33960	-2,9487	-0,94372	-18,824	8,6361
33961	-2,3673	-0,94387	-18,898	8,6489
33962	-2,5652	-1,4114	-18,502	8,4938
33963	-2,5649	-0,47115	-18,504	8,5031
33964	3,0119	-0,96634	-22,396	10,198
33965	2,3727	-0,97086	-22,479	10,259
33966	2,6079	-1,4448	-22,081	10,059
33967	2,6071	-0,48262	-22,085	10,077
33968	-3,7177	-0,95031	-19,444	8,9119
33969	-3,1242	-0,94664	-19,543	8,9381
33970	-3,2923	-1,4594	-19,139	8,7749
33971	-3,3325	-0,47257	-19,144	8,7886
33972	3,1993	-0,97062	-23,105	10,531
33973	3,8244	-0,9676	-23,017	10,451
33974	3,4178	-1,4491	-22,705	10,329
33975	3,4166	-0,48371	-22,708	10,346
33976	-3,8917	-0,95352	-20,152	9,209
33977	-4,4993	-0,95547	-20,039	9,1703
33978	-4,1052	-1,4252	-19,746	9,0449
33979	-4,1065	-0,47774	-19,748	9,0569
33980	1,7417	-0,99381	-22,54	10,297
33981	1,0866	-1,0068	-22,615	10,347
33982	1,2631	-1,5922	-22,131	10,099
33983	1,3329	-0,50558	-22,231	10,165
33984	-1,9429	-0,95163	-19,691	8,9735
33985	-2,5427	-0,94679	-19,617	8,9507
33986	-2,1696	-1,4175	-19,29	8,803
33987	-2,1696	-0,47272	-19,292	8,8134
33988	5,0707	-0,94454	49,684	15,283
33989	5,2459	-0,81455	48,854	15,667
33990	4,7516	-1,3829	49,422	16,113
33991	4,8388	-0,47532	49,303	16,386
33992	-13,252	-0,98227	-17,234	8,8804
33993	-13,916	-0,98184	-17,051	8,8718
33994	-13,479	-1,47	-16,806	8,8789
33995	-13,48	-0,4903	-16,807	8,8983
33996	-1,5053	-0,95398	-20,486	9,3234
33997	-2,0934	-0,96234	-20,412	9,291
33998	-1,7374	-1,4225	-20,09	9,1429
33999	-1,74	-0,47892	-20,095	9,1557
34000	-13,458	-0,9834	-17,902	8,8674
34001	-12,797	-0,98525	-18,091	8,8992
34002	-13,022	-1,471	-17,656	8,8762
34003	-13,024	-0,49197	-17,656	8,8946
34004	5,6196	-0,84553	49,641	14,17
34005	5,5792	-0,9526	50,375	13,598
34006	5,295	-1,3019	49,984	14,471
34007	5,3965	-0,46922	49,934	14,561
34008	-14,122	-0,98297	-17,719	8,8541
34009	-14,788	-0,98423	-17,539	8,8119
34010	-14,351	-1,4738	-17,296	8,8534
34011	-14,352	-0,49154	-17,296	8,8735
34012	2,5602	-0,97514	-23,187	10,59
34013	1,9226	-0,98374	-23,264	10,656
34014	2,1431	-1,4601	-22,867	10,45
34015	2,1383	-0,48823	-22,873	10,467
34016	-13,663	-0,98261	-18,571	8,8683
34017	-14,326	-0,98432	-18,39	8,8049
34018	-13,891	-1,4734	-18,142	8,8477
34019	-13,892	-0,49143	-18,142	8,8667
34020	-1,0269	-0,96538	-21,295	9,7004
34021	-1,6525	-0,95991	-21,21	9,6572
34022	-1,3489	-1,4616	-20,784	9,4561
34023	-1,2982	-0,47506	-20,897	9,5217
34024	2,7734	-0,98467	-23,909	10,942
34025	3,3945	-0,97709	-23,816	10,849
34026	3,0125	-1,4815	-23,511	10,728
34027	2,982	-0,48691	-23,502	10,743
34028	-0,38927	-0,99103	-22,028	10,057
34029	-1,1164	-0,98662	-22,043	10,06
34030	-0,78193	-1,492	-21,607	9,8483
34031	-0,75936	-0,49032	-21,709	9,9106
34032	-3,2982	-0,94985	-20,252	9,2358
34033	-2,6933	-0,95749	-20,338	9,2685
34034	-2,8724	-1,4634	-19,936	9,0931
34035	-2,9158	-0,47407	-19,943	9,1082
34036	0,40445	-1,0019	-22,684	10,383
34037	-0,38682	-0,98815	-22,841	10,466
34038	-4,4248e-002	-1,5238	-22,318	10,193
34039	-3,0828e-002	-0,50072	-22,377	10,245
34040	-4,071	-0,9566	-20,855	9,4979
34041	-3,454	-0,96578	-20,957	9,5463
34042	-3,6803	-1,4256	-20,559	9,3714
34043	-3,6806	-0,47578	-20,561	9,3847
34044	1,2675	-0,99673	-23,339	10,704
34045	0,62888	-0,99793	-23,396	10,748
34046	0,847	-1,6385	-22,913	10,493
34047	0,809	-0,50122	-23,016	10,563
34048	-13,001	-0,98446	-18,759	8,9044
34049	-12,343	-0,98602	-18,948	8,9595
34050	-12,556	-1,4899	-18,53	8,9172
34051	-12,573	-0,49327	-18,518	8,9337
34052	2,1359	-0,99327	-23,986	11,004
34053	1,5064	-0,99519	-24,061	11,076
34054	1,7461	-1,5143	-23,664	10,856
34055	1,7069	-0,49551	-23,656	10,873
34056	-15,663	-0,98613	-18,02	8,6804
34057	-14,992	-0,98558	-18,21	8,7589
34058	-15,224	-1,4776	-17,781	8,7585
34059	-15,225	-0,49269	-17,782	8,7792
34060	-13,205	-0,9858	-19,433	8,9218
34061	-13,871	-0,98408	-19,246	8,8362
34062	-13,432	-1,4723	-18,999	8,8818
34063	-13,434	-0,49118	-19,	8,9
34064	2,3681	-0,99719	-24,719	11,374
34065	2,9646	-0,98653	-24,631	11,278
34066	2,6006	-1,5023	-24,332	11,155
34067	2,5541	-0,49776	-24,308	11,165
34068	-5,727	-0,95535	-19,807	9,1127
34069	-5,1096	-0,95407	-19,93	9,1478
34070	-5,3214	-1,4276	-19,524	8,9994
34071	-5,3235	-0,47635	-19,525	9,0117
34072	-16,541	-0,98724	-18,496	8,4719
34073	-15,873	-0,98725	-18,687	8,5889
34074	-16,1	-1,4799	-18,258	8,5897
34075	-16,101	-0,49343	-18,258	8,6107
34076	-6,5384	-0,96243	-20,367	9,3179
34077	-5,9145	-0,9579	-20,499	9,3696
34078	-6,1282	-1,4355	-20,089	9,2207
34079	-6,1305	-0,47901	-20,09	9,2342
34080	-17,417	-0,98786	-18,976	8,1831
34081	-16,75	-0,98791	-19,165	8,3417
34082	-16,982	-1,4812	-18,733	8,3411
34083	-16,982	-0,4938	-18,733	8,3621
34084	-12,546	-0,98737	-19,621	8,9808
34085	-11,892	-0,98287	-19,801	9,0583
34086	-12,099	-1,4917	-19,388	8,9985
34087	-12,121	-0,49275	-19,38	9,0136
34088	-18,283	-0,98865	-19,463	7,8137
34089	-17,62	-0,98821	-19,651	8,0151
34090	-17,851	-1,4819	-19,218	8,0122
34091	-17,852	-0,49406	-19,218	8,0328
34092	-13,411	-0,98715	-20,105	8,9053
34093	-12,746	-0,99011	-20,295	9,0129
34094	-12,962	-1,4925	-19,879	8,9566
34095	-12,977	-0,49462	-19,864	8,9718
34096	-7,3552	-0,97554	-20,917	9,4862
34097	-6,7254	-0,97039	-21,058	9,5568
34098	-6,9229	-1,4739	-20,649	9,4107
34099	-6,9468	-0,48342	-20,645	9,4236
34100	-19,153	-0,98988	-19,947	7,3618
34101	-18,482	-0,98916	-20,141	7,6101
34102	-18,715	-1,4833	-19,708	7,6026
34103	-18,715	-0,49459	-19,708	7,6223
34104	-8,1805	-0,98757	-21,461	9,6096
34105	-7,5479	-0,97853	-21,608	9,7014
34106	-7,7439	-1,4893	-21,197	9,5592
34107	-7,7697	-0,49212	-21,192	9,5718
34108	-5,2971	-0,95662	-20,621	9,4065
34109	-4,6785	-0,95854	-20,741	9,4584
34110	-4,8913	-1,4297	-20,337	9,2944
34111	-4,893	-0,47772	-20,338	9,3079
34112	-9,0199	-0,98947	-21,994	9,679
34113	-8,3793	-0,98474	-22,149	9,7949
34114	-8,5805	-1,4921	-21,735	9,6573
34115	-8,6068	-0,49545	-21,729	9,6694
34116	-5,4826	-0,95834	-21,322	9,6809
34117	-6,1015	-0,96587	-21,191	9,6103
34118	-5,6717	-1,4665	-20,912	9,5158
34119	-5,6982	-0,4789	-20,912	9,5297
34120	-9,8693	-0,98689	-22,516	9,6884
34121	-9,2242	-0,98143	-22,681	9,8302
34122	-9,4265	-1,4896	-22,263	9,6983
34123	-9,4477	-0,49403	-22,257	9,7105
34124	-20,031	-0,99235	-20,424	6,8275
34125	-19,358	-0,9906	-20,621	7,1231
34126	-19,591	-1,4855	-20,186	7,1089
34127	-19,592	-0,49528	-20,186	7,1274
34128	-4,864	-0,96026	-21,442	9,7336
34129	-4,2479	-0,95932	-21,561	9,8016
34130	-4,458	-1,4344	-21,15	9,6205
34131	-4,459	-0,48081	-21,152	9,6348
34132	-20,91	-0,99541	-20,899	6,2149
34133	-20,237	-0,99372	-21,094	6,5584
34134	-20,47	-1,4884	-20,66	6,5351
34135	-20,47	-0,49706	-20,66	6,5521
34136	-5,0461	-0,96518	-22,142	10,021
34137	-5,6707	-0,96089	-22,021	9,9364
34138	-5,2651	-1,4372	-21,735	9,8421
34139	-5,2667	-0,47944	-21,736	9,8572
34140	-21,116	-0,99639	-21,571	5,9213
34141	-21,787	-0,99706	-21,379	5,5307
34142	-21,348	-1,4966	-21,141	5,8844
34143	-21,354	-0,49835	-21,129	5,8991
34144	-2,8491	-0,97342	-21,043	9,5791
34145	-2,2407	-0,96828	-21,136	9,6257
34146	-2,4321	-1,4836	-20,728	9,4352
34147	-2,4728	-0,48342	-20,744	9,4558
34148	-6,2896	-0,96842	-21,89	9,865
34149	-6,9181	-0,97338	-21,749	9,7736
34150	-6,4819	-1,4789	-21,477	9,7022
34151	-6,5066	-0,48697	-21,473	9,715
34152	-3,6309	-0,9685	-21,663	9,8499
34153	-3,0137	-0,97411	-21,762	9,9098
34154	-3,1969	-1,4928	-21,349	9,7153
34155	-3,2316	-0,49	-21,363	9,7351
34156	-2,4053	-0,96896	-21,855	9,9556
34157	-1,742	-0,98116	-21,958	10,017
34158	-1,9944	-1,4849	-21,526	9,8032
34159	-2,0133	-0,48485	-21,553	9,8305
34160	-4,43	-0,96424	-22,26	10,089
34161	-3,809	-0,96831	-22,369	10,167
34162	-3,9995	-1,4761	-21,964	9,9752
34163	-4,0345	-0,4785	-21,973	9,9935
34164	-3,1918	-0,97391	-22,467	10,226
34165	-2,5607	-0,97512	-22,567	10,297
34166	-2,7696	-1,4823	-22,159	10,093
34167	-2,8	-0,4841	-22,17	10,113
34168	-5,2315	-0,97053	-22,836	10,286
34169	-4,6164	-0,96515	-22,958	10,387
34170	-4,7997	-1,4788	-22,546	10,194
34171	-4,8278	-0,48574	-22,552	10,211
34172	-5,8562	-0,96624	-22,716	10,202
34173	-6,4859	-0,96494	-22,585	10,094
34174	-6,0727	-1,4432	-22,307	10,024
34175	-6,0747	-0,48145	-22,307	10,04
34176	-14,534	-0,98579	-19,065	8,7693
34177	-15,202	-0,98671	-18,877	8,6706
34178	-14,758	-1,478	-18,637	8,7507
34179	-14,759	-0,49289	-18,638	8,7702
34180	-5,4252	-0,96502	-23,54	10,566
34181	-6,0452	-0,97072	-23,408	10,44
34182	-5,6081	-1,4796	-23,126	10,375
34183	-5,6406	-0,48479	-23,128	10,389
34184	-14,744	-0,98697	-19,739	8,6978
34185	-14,077	-0,98543	-19,918	8,8165
34186	-14,307	-1,4778	-19,492	8,7795
34187	-14,308	-0,4929	-19,492	8,7979
34188	5,7947	-0,71553	48,811	14,694
34189	6,2077	-0,86093	49,255	13,248
34190	6,1686	-0,85634	49,812	12,787
34191	5,7973	-1,3131	49,307	14,072
34192	5,9224	-0,37631	49,34	13,987
34193	1,7387	-0,99911	-24,795	11,441
34194	1,8789	-1,0037	-25,571	11,853
34195	2,5464	-1,0008	-25,448	11,729
34196	2,1777	-1,4919	-25,12	11,587
34197	2,1714	-0,49942	-25,124	11,61
34198	-16,082	-0,98793	-19,356	8,4612
34199	-15,413	-0,98789	-19,55	8,5963
34200	-15,645	-1,481	-19,115	8,5785
34201	-15,645	-0,49382	-19,116	8,5982
34202	1,0657	-0,98978	-24,899	11,532
34203	0,8678	-0,9964	-24,118	11,115
34204	1,3157	-1,5021	-24,497	11,303
34205	1,3059	-0,49968	-24,467	11,308
34206	-16,953	-0,98825	-19,84	8,1754
34207	-16,288	-0,98849	-20,029	8,3487
34208	-16,518	-1,482	-19,596	8,3317
34209	-16,518	-0,49411	-19,596	8,3513
34210	6,1752	-0,83014	48,463	14,131
34211	5,7432	-0,84118	47,879	15,925
34212	5,6582	-1,4144	48,323	15,517
34213	5,5918	-0,33922	48,376	15,589
34214	-17,156	-0,98839	-20,516	8,0256
34215	-17,819	-0,98872	-20,328	7,8127
34216	-17,388	-1,4823	-20,083	8,0068
34217	-17,388	-0,49415	-20,083	8,026
34218	6,5882	-0,97553	48,907	12,678
34219	6,7725	-0,97737	49,423	11,693
34220	6,5048	-1,4483	49,167	12,594
34221	6,5463	-0,48462	49,245	12,575
34222	-15,619	-0,98845	-20,223	8,486
34223	-14,945	-0,98787	-20,415	8,6406
34224	-15,179	-1,4817	-19,985	8,6048
34225	-15,18	-0,49407	-19,985	8,6233
34226	6,7808	-0,99407	48,187	12,902
34227	7,0752	-0,98693	48,8	11,591
34228	6,5871	-1,5356	48,569	13,01
34229	6,7444	-0,49091	48,627	12,599
34230	-16,491	-0,98862	-20,705	8,2005
34231	-15,823	-0,9886	-20,896	8,3899
34232	-16,058	-1,483	-20,461	8,3554
34233	-16,058	-0,49438	-20,461	8,3739
34234	-14,279	-0,98634	-20,595	8,7617
34235	-13,619	-0,98467	-20,777	8,8989
34236	-13,845	-1,4764	-20,344	8,8454
34237	-13,846	-0,49253	-20,345	8,863
34238	-16,69	-0,98912	-21,383	8,0681
34239	-17,356	-0,98953	-21,193	7,8424
34240	-16,924	-1,4826	-20,948	8,0337
34241	-16,924	-0,49424	-20,948	8,0517
34242	-15,149	-0,98802	-21,088	8,5464
34243	-14,482	-0,98798	-21,275	8,7176
34244	-14,71	-1,4808	-20,845	8,6672
34245	-14,711	-0,49381	-20,845	8,6848
34246	-18,018	-0,98985	-21,006	7,6284
34247	-18,687	-0,98989	-20,814	7,3723
34248	-18,249	-1,4833	-20,573	7,6067
34249	-18,249	-0,49457	-20,574	7,6249
34250	-16,021	-0,98909	-21,574	8,2589
34251	-15,357	-0,988	-21,763	8,4626
34252	-15,586	-1,4824	-21,331	8,4147
34253	-15,586	-0,49421	-21,33	8,4321
34254	-3,9955	-0,96921	-23,066	10,464
34255	-3,3772	-0,97148	-23,164	10,551
34256	-3,5596	-1,4869	-22,76	10,348
34257	-3,5917	-0,4898	-22,772	10,368
34258	-16,888	-0,98961	-22,06	7,9019
34259	-16,226	-0,9886	-22,248	8,1387
34260	-16,445	-1,4923	-21,827	8,0945
34261	-16,458	-0,49488	-21,815	8,1083
34262	-4,8101	-0,95963	-23,662	10,666
34263	-4,1959	-0,95913	-23,77	10,777
34264	-4,4076	-1,4378	-23,369	10,574
34265	-4,4073	-0,47941	-23,369	10,591
34266	-17,554	-0,99002	-21,87	7,6752
34267	-18,222	-0,9906	-21,679	7,411
34268	-17,785	-1,4839	-21,438	7,6403
34269	-17,785	-0,49529	-21,438	7,6571
34270	1,2059	-0,99441	-25,675	11,941
34271	1,3899	-1,0483	-26,564	12,435
34272	2,0124	-1,0089	-26,332	12,244
34273	1,5727	-1,5262	-25,965	12,079
34274	1,5863	-0,50432	-26,019	12,132
34275	-5,6163	-0,96209	-24,241	10,817
34276	-4,9993	-0,95978	-24,366	10,958
34277	-5,2113	-1,4399	-23,955	10,752
34278	-5,2128	-0,48023	-23,955	10,769
34279	0,44541	-0,9724	-25,022	11,609
34280	0,53006	-0,97841	-25,743	12,007
34281	0,81284	-1,4726	-25,365	11,785
34282	0,85673	-0,4901	-25,319	11,78
34283	-17,757	-0,99052	-22,544	7,4763
34284	-17,088	-0,99039	-22,737	7,7492
34285	-17,315	-1,4928	-22,312	7,7026
34286	-17,32	-0,49473	-22,304	7,7173
34287	-18,891	-0,99064	-21,488	7,1543
34288	-19,564	-0,99198	-21,291	6,8545
34289	-19,123	-1,4855	-21,055	7,1267
34290	-19,124	-0,49532	-21,055	7,1436
34291	6,3488	-1,0051	47,603	14,701
34292	5,9525	-1,0083	46,823	16,94
34293	5,7798	-1,5219	47,512	16,452
34294	5,776	-0,50196	47,468	16,09
34295	-18,425	-0,9911	-22,353	7,2116
34296	-19,097	-0,99182	-22,157	6,9076
34297	-18,657	-1,4855	-21,921	7,1721
34298	-18,657	-0,49532	-21,921	7,1875
34299	-0,16239	-0,98414	-23,552	10,825
34300	0,24749	-0,97901	-24,241	11,196
34301	0,43106	-1,496	-23,824	10,967
34302	0,42967	-0,49671	-23,769	10,957
34303	-1,1139	-0,98374	-22,856	10,469
34304	-1,8975	-0,98733	-22,67	10,357
34305	-1,4761	-1,4835	-22,372	10,217
34306	-1,4734	-0,49631	-22,376	10,235
34307	-18,631	-0,99228	-23,023	6,9844
34308	-17,959	-0,99236	-23,219	7,2928
34309	-18,188	-1,4933	-22,791	7,2428
34310	-18,191	-0,49579	-22,787	7,2564
34311	-0,74353	-0,95384	-23,91	11,017
34312	-1,323	-0,95974	-23,585	10,827
34313	-0,76806	-1,3248	-23,299	10,696
34314	-0,75213	-0,48743	-23,309	10,718
34315	7,1312	-1,0032	47,299	12,995
34316	7,411	-1,0051	47,963	11,61
34317	6,9102	-1,5189	47,769	13,02
34318	6,906	-0,50316	47,753	12,933
34319	-11,435	-0,98354	-20,653	9,194
34320	-12,092	-0,98562	-20,475	9,0936
34321	-11,648	-1,4872	-20,236	9,116
34322	-11,667	-0,49012	-20,23	9,1305
34323	-0,33364	-0,94871	-24,599	11,381
34324	-0,13077	-0,95225	-25,101	11,659
34325	7,285e-002	-1,4024	-24,658	11,414
34326	0,10212	-0,4823	-24,656	11,432
34327	-10,979	-0,98257	-21,504	9,3645
34328	-11,632	-0,98839	-21,33	9,2419
34329	-11,184	-1,4918	-21,089	9,2712
34330	-11,209	-0,49342	-21,074	9,2828
34331	-7,7468	-0,9757	-22,297	9,8881
34332	-7,1144	-0,9699	-22,444	10,002
34333	-7,309	-1,4784	-22,03	9,8432
34334	-7,3343	-0,48641	-22,026	9,856
34335	-10,525	-0,98201	-22,352	9,5674
34336	-11,182	-0,98141	-22,18	9,4216
34337	-10,736	-1,4847	-21,935	9,4575
34338	-10,754	-0,48915	-21,929	9,4702
34339	-7,9413	-0,97466	-22,989	10,085
34340	-8,5836	-0,9767	-22,837	9,9471
34341	-8,142	-1,4825	-22,573	9,9316
34342	-8,166	-0,4893	-22,57	9,9443
34343	-0,73828	-0,92791	-24,79	11,482
34344	-1,1483	-0,93353	-24,576	11,351
34345	-0,65303	-1,3045	-24,446	11,293
34346	-0,73997	-0,46641	-24,368	11,268
34347	-10,726	-0,98331	-23,028	9,6334
34348	-10,073	-0,98179	-23,2	9,8015
34349	-10,295	-1,4702	-22,773	9,6727
34350	-10,297	-0,49286	-22,774	9,6889
34351	-2,1066	-0,96333	-23,399	10,719
34352	-2,7462	-0,9727	-23,264	10,62
34353	-2,2947	-1,4979	-22,962	10,49
34354	-2,3215	-0,49102	-22,964	10,507
34355	-7,3089	-0,96885	-23,137	10,2
34356	-6,675	-0,96942	-23,277	10,332
34357	-6,895	-1,4491	-22,863	10,156
34358	-6,8971	-0,48349	-22,864	10,173
34359	-0,53541	-0,93145	-25,292	11,757
34360	-1,0026	-0,93053	-25,258	11,725
34361	-0,64342	-1,3169	-25,067	11,63
34362	-0,75406	-0,4615	-25,068	11,644
34363	-19,771	-0,99316	-21,96	6,6075
34364	-20,443	-0,9947	-21,766	6,2649
34365	-20,003	-1,4882	-21,526	6,5723
34366	-20,004	-0,49666	-21,526	6,5877
34367	-4,6131e-002	-0,95826	-25,822	12,055
34368	-0,6089	-0,94277	-25,819	12,044
34369	-0,27218	-1,3874	-25,433	11,829
34370	-0,25733	-0,46995	-25,437	11,856
34371	-7,4997	-0,97	-23,831	10,408
34372	-8,1409	-0,97234	-23,68	10,247
34373	-7,7189	-1,4548	-23,41	10,235
34374	-7,7208	-0,48536	-23,411	10,252
34375	0,71409	-1,0323	-26,631	12,495
34376	-0,12403	-0,97032	-26,536	12,457
34377	0,28241	-1,4575	-26,123	12,218
34378	0,28542	-0,48831	-26,154	12,258
34379	-12,955	-0,98764	-20,967	9,0091
34380	-12,289	-0,99046	-21,152	9,1389
34381	-12,505	-1,4926	-20,733	9,0659
34382	-12,521	-0,49549	-20,722	9,0799
34383	-6,8657	-0,97057	-23,971	10,54
34384	-6,2363	-0,96779	-24,109	10,692
34385	-6,424	-1,4807	-23,694	10,505
34386	-6,4557	-0,48593	-23,691	10,517
34387	-13,822	-0,98632	-21,458	8,8569
34388	-13,163	-0,98418	-21,641	9,0144
34389	-13,391	-1,4756	-21,209	8,9443
34390	-13,392	-0,49215	-21,21	8,9612
34391	1,1028	-1,0223	-27,531	13,013
34392	0,52342	-1,0256	-27,433	12,96
34393	1,5894	-1,0471	-27,314	12,839
34394	1,0663	-1,5445	-27,135	12,77
34395	1,0493	-0,54398	-27,07	12,763
34396	-7,0606	-0,96849	-24,668	10,759
34397	-7,6944	-0,97101	-24,522	10,578
34398	-7,2511	-1,4786	-24,252	10,576
34399	-7,2786	-0,48464	-24,251	10,589
34400	-6,4312	-0,96571	-24,806	10,91
34401	-5,8016	-0,96764	-24,937	11,08
34402	-6,0177	-1,4442	-24,526	10,875
34403	-6,0198	-0,48186	-24,526	10,894
34404	0,92973	-0,95835	-28,458	13,588
34405	0,5775	-0,95863	-28,299	13,499
34406	1,3171	-0,95039	-28,136	13,35
34407	0,97027	-1,4017	-27,945	13,256
34408	0,88239	-0,47827	-28,037	13,348
34409	-6,6203	-0,96683	-25,505	11,141
34410	-7,2574	-0,96968	-25,359	10,936
34411	-6,8404	-1,45	-25,086	10,936
34412	-6,8426	-0,48385	-25,086	10,955
34413	-19,304	-0,99299	-22,827	6,6803
34414	-19,977	-0,99444	-22,632	6,3379
34415	-19,537	-1,4882	-22,393	6,6343
34416	-19,537	-0,4965	-22,393	6,6482
34417	-1,7278	-0,93943	-24,25	11,167
34418	-2,3287	-0,95395	-24,092	11,05
34419	-1,8634	-1,4583	-23,823	10,936
34420	-1,899	-0,47232	-23,776	10,929
34421	-19,509	-0,99438	-23,5	6,432
34422	-18,837	-0,99236	-23,694	6,7742
34423	-19,067	-1,4945	-23,266	6,7187
34424	-19,07	-0,49649	-23,26	6,7312
34425	0,55065	-0,95983	-29,176	14,062
34426	1,0731	-0,93012	-29,127	13,995
34427	0,83457	-1,4122	-28,996	13,925
34428	0,82287	-0,48008	-28,96	13,933
34429	-14,69	-0,98795	-21,95	8,6353
34430	-14,023	-0,98797	-22,137	8,8246
34431	-14,241	-1,4905	-21,716	8,7617
34432	-14,254	-0,49417	-21,706	8,7756
34433	-12,497	-0,987	-21,826	9,1462
34434	-11,835	-0,98723	-22,005	9,2971
34435	-12,048	-1,4915	-21,588	9,2092
34436	-12,067	-0,49497	-21,579	9,2219
34437	-15,562	-0,98751	-22,437	8,3434
34438	-14,895	-0,98728	-22,626	8,5636
34439	-15,126	-1,4811	-22,196	8,5011
34440	-15,127	-0,49378	-22,195	8,5174
34441	-20,649	-0,99598	-22,438	5,9953
34442	-21,32	-0,99677	-22,247	5,6114
34443	-20,881	-1,4962	-22,008	5,9487
34444	-20,887	-0,49804	-21,996	5,9611
34445	-16,426	-0,98938	-22,925	7,9867
34446	-15,762	-0,98787	-23,113	8,2367
34447	-15,997	-1,4809	-22,679	8,1754
34448	-15,997	-0,49372	-22,678	8,191
34449	-13,364	-0,98583	-22,32	8,9837
34450	-12,704	-0,98407	-22,501	9,1618
34451	-12,933	-1,4755	-22,071	9,0761
34452	-12,934	-0,49203	-22,072	9,0925
34453	-20,182	-0,99582	-23,304	6,09
34454	-20,853	-0,99669	-23,114	5,7116
34455	-20,414	-1,4959	-22,875	6,0339
34456	-20,42	-0,49794	-22,864	6,0447
34457	-14,228	-0,9873	-22,813	8,754
34458	-13,565	-0,98631	-23,001	8,9612
34459	-13,78	-1,4898	-22,578	8,885
34460	-13,797	-0,4938	-22,566	8,8967
34461	-19,717	-0,99427	-24,168	6,2027
34462	-20,387	-0,99722	-23,979	5,8298
34463	-19,948	-1,4959	-23,741	6,1388
34464	-19,954	-0,49789	-23,731	6,1479
34465	-15,094	-0,98765	-23,302	8,4576
34466	-14,432	-0,9865	-23,489	8,6922
34467	-14,648	-1,4906	-23,069	8,6213
34468	-14,661	-0,4935	-23,058	8,6329
34469	-17,29	-0,99223	-23,411	7,566
34470	-16,623	-0,99017	-23,603	7,8474
34471	-16,853	-1,4831	-23,171	7,789
34472	-16,853	-0,49566	-23,171	7,8033
34473	-15,959	-0,98867	-23,791	8,0978
34474	-15,298	-0,98725	-23,978	8,3591
34475	-15,515	-1,4903	-23,556	8,2923
34476	-15,53	-0,49415	-23,545	8,302
34477	-1,4126	-0,93614	-25,044	11,598
34478	-1,9691	-0,9435	-24,927	11,5
34479	-1,5842	-1,387	-24,624	11,361
34480	-1,5938	-0,46712	-24,61	11,372
34481	-18,165	-0,99243	-23,889	7,0825
34482	-17,492	-0,99151	-24,085	7,3958
34483	-17,723	-1,4859	-23,654	7,3356
34484	-17,724	-0,49657	-23,654	7,3483
34485	-1,0761	-0,94185	-25,785	12,014
34486	-1,6361	-0,94065	-25,707	11,936
34487	-1,2019	-1,4389	-25,427	11,806
34488	-1,2885	-0,46903	-25,409	11,813
34489	-18,37	-0,99158	-24,56	6,8874
34490	-19,044	-0,99224	-24,363	6,5442
34491	-18,603	-1,4873	-24,127	6,823
34492	-18,603	-0,49586	-24,127	6,8342
34493	-16,825	-0,98946	-24,276	7,6772
34494	-16,159	-0,98879	-24,467	7,9676
34495	-16,384	-1,4913	-24,042	7,9002
34496	-16,389	-0,49452	-24,035	7,9123
34497	-2,9682	-0,96331	-23,958	10,955
34498	-3,5777	-0,9614	-23,868	10,862
34499	-3,1726	-1,4448	-23,566	10,746
34500	-3,1676	-0,48168	-23,564	10,763
34501	-8,7832	-0,97438	-23,527	10,108
34502	-9,4279	-0,97633	-23,365	9,944
34503	-8,9833	-1,4803	-23,109	9,9618
34504	-9,0054	-0,4874	-23,105	9,974
34505	-3,1684	-0,96064	-24,666	11,278
34506	-2,57	-0,95801	-24,769	11,387
34507	-2,7654	-1,4411	-24,358	11,157
34508	-2,7657	-0,48163	-24,352	11,174
34509	-8,98	-0,97554	-24,214	10,231
34510	-8,3356	-0,97336	-24,371	10,418
34511	-8,5593	-1,4599	-23,949	10,251
34512	-8,5609	-0,48698	-23,949	10,268
34513	-3,7778	-0,95873	-24,576	11,188
34514	-4,3852	-0,95927	-24,474	11,067
34515	-3,9861	-1,4382	-24,172	10,971
34516	-3,9845	-0,47972	-24,171	10,989
34517	-17,698	-0,99065	-24,755	7,2004
34518	-17,027	-0,98994	-24,95	7,5185
34519	-17,255	-1,4926	-24,523	7,4499
34520	-17,259	-0,49494	-24,519	7,4609
34521	-3,9685	-0,958	-25,285	11,493
34522	-3,3718	-0,95536	-25,386	11,625
34523	-3,5313	-1,4709	-24,975	11,396
34524	-3,5711	-0,47901	-24,981	11,415
34525	-12,042	-0,9843	-22,68	9,3142
34526	-11,383	-0,98271	-22,856	9,4864
34527	-11,591	-1,4883	-22,44	9,3844
34528	-11,611	-0,49226	-22,433	9,396
34529	-18,575	-0,99303	-25,233	6,6739
34530	-17,902	-0,99121	-25,427	7,0179
34531	-18,133	-1,4938	-24,999	6,9459
34532	-18,136	-0,49571	-24,994	6,9558
34533	-12,905	-0,98455	-23,182	9,1403
34534	-12,247	-0,98345	-23,358	9,3384
34535	-12,473	-1,475	-22,932	9,2391
34536	-12,474	-0,49204	-22,932	9,255
34537	-19,25	-0,9937	-25,035	6,3316
34538	-19,921	-0,9956	-24,843	5,9626
34539	-19,482	-1,4946	-24,605	6,2603
34540	-19,485	-0,49638	-24,598	6,2695
34541	-13,769	-0,98552	-23,677	8,9
34542	-13,107	-0,98453	-23,86	9,1254
34543	-13,336	-1,4768	-23,434	9,0322
34544	-13,336	-0,49251	-23,434	9,0476
34545	-11,588	-0,98186	-23,534	9,5114
34546	-10,93	-0,98051	-23,708	9,706
34547	-11,155	-1,4707	-23,282	9,5846
34548	-11,156	-0,49045	-23,282	9,6008
34549	-14,636	-0,9861	-24,165	8,594
34550	-13,969	-0,98564	-24,353	8,8471
34551	-14,201	-1,4786	-23,922	8,7586
34552	-14,201	-0,493	-23,921	8,7734
34553	-0,6868	-0,95483	-26,534	12,448
34554	-1,2576	-0,94766	-26,472	12,381
34555	-0,83384	-1,4528	-26,158	12,222
34556	-0,89065	-0,47283	-26,16	12,246
34557	-14,84	-0,98591	-24,841	8,5035
34558	-15,499	-0,98737	-24,654	8,2289
34559	-15,071	-1,4791	-24,408	8,4206
34560	-15,071	-0,4931	-24,408	8,4343
34561	-12,45	-0,98343	-24,036	9,3239
34562	-11,791	-0,98281	-24,214	9,5435
34563	-12,02	-1,4737	-23,785	9,429
34564	-12,021	-0,49141	-23,785	9,4448
34565	-10,277	-0,97899	-23,88	9,8746
34566	-9,6247	-0,97748	-24,052	10,067
34567	-9,8489	-1,4659	-23,624	9,9217
34568	-9,8503	-0,48893	-23,625	9,9381
34569	-13,307	-0,98465	-24,535	9,0727
34570	-12,65	-0,98409	-24,716	9,3163
34571	-12,878	-1,4759	-24,287	9,2097
34572	-12,878	-0,49202	-24,287	9,2248
34573	-10,477	-0,98022	-24,562	9,9554
34574	-11,133	-0,98147	-24,388	9,7383
34575	-10,704	-1,47	-24,135	9,8184
34576	-10,705	-0,49007	-24,135	9,8346
34577	-14,172	-0,98545	-25,028	8,7565
34578	-13,508	-0,98511	-25,215	9,0258
34579	-13,736	-1,4776	-24,784	8,9268
34580	-13,736	-0,49264	-24,784	8,9411
34581	-18,781	-0,99512	-25,907	6,475
34582	-19,452	-0,99608	-25,716	6,1093
34583	-19,013	-1,496	-25,476	6,3977
34584	-19,016	-0,49732	-25,469	6,4054
34585	-15,038	-0,98591	-25,519	8,3824
34586	-14,377	-0,98542	-25,705	8,6716
34587	-14,608	-1,4783	-25,273	8,578
34588	-14,609	-0,49281	-25,273	8,5911
34589	-9,8249	-0,9787	-24,735	10,147
34590	-9,176	-0,97663	-24,901	10,362
34591	-9,3975	-1,4645	-24,48	10,203
34592	-9,3991	-0,48855	-24,48	10,22
34593	-15,697	-0,98737	-25,332	8,1081
34594	-16,361	-0,98927	-25,141	7,8086
34595	-15,924	-1,4805	-24,9	8,0307
34596	-15,924	-0,49427	-24,901	8,0431
34597	-10,027	-0,97994	-25,417	10,234
34598	-10,677	-0,98155	-25,245	9,9944
34599	-10,249	-1,4694	-24,99	10,083
34600	-10,251	-0,49015	-24,99	10,099
34601	-4,5758	-0,95854	-25,183	11,375
34602	-5,1846	-0,96533	-25,062	11,219
34603	-4,7497	-1,4738	-24,768	11,156
34604	-4,7858	-0,47955	-24,777	11,175
34605	-15,896	-0,98718	-26,01	7,9591
34606	-15,234	-0,98594	-26,198	8,2686
34607	-15,466	-1,4789	-25,765	8,1796
34608	-15,467	-0,4931	-25,765	8,1911
34609	-16,56	-0,98908	-25,819	7,6602
34610	-17,232	-0,9905	-25,622	7,3353
34611	-16,793	-1,4831	-25,384	7,5816
34612	-16,794	-0,495	-25,384	7,5922
34613	-4,7671	-0,95934	-25,884	11,648
34614	-4,1608	-0,95704	-25,998	11,816
34615	-4,3295	-1,4693	-25,583	11,584
34616	-4,3658	-0,47899	-25,59	11,603
34617	-16,763	-0,98938	-26,491	7,4873
34618	-16,093	-0,98787	-26,686	7,8187
34619	-16,324	-1,4814	-26,255	7,7331
34620	-16,325	-0,49409	-26,255	7,7427
34621	-5,3758	-0,96613	-25,763	11,496
34622	-5,9906	-0,96876	-25,635	11,309
34623	-5,5845	-1,4463	-25,351	11,276
34624	-5,5865	-0,48578	-25,351	11,296
34625	-0,3147	-0,96359	-27,338	12,929
34626	-0,86733	-0,96084	-27,266	12,86
34627	-0,49246	-1,4555	-26,836	12,618
34628	-0,45401	-0,48201	-26,886	12,676
34629	-5,5676	-0,96274	-26,467	11,736
34630	-4,9546	-0,96085	-26,594	11,942
34631	-5,1667	-1,4401	-26,178	11,704
34632	-5,1683	-0,48035	-26,179	11,726
34633	-6,1824	-0,96537	-26,339	11,553
34634	-6,8088	-0,97083	-26,195	11,329
34635	-6,3698	-1,4758	-25,919	11,338
34636	-6,3979	-0,48298	-25,923	11,354
34637	-7,8912	-0,9722	-25,213	10,758
34638	-8,5315	-0,97445	-25,058	10,548
34639	-8,0865	-1,4791	-24,795	10,582
34640	-8,1102	-0,48637	-24,794	10,594
34641	-6,3722	-0,96723	-27,035	11,752
34642	-5,7483	-0,96496	-27,173	11,997
34643	-5,9335	-1,4749	-26,751	11,766
34644	-5,9669	-0,48239	-26,755	11,781
34645	-1,8523e-003	-0,96194	-28,201	13,461
34646	-0,52519	-0,96174	-28,099	13,378
34647	-0,15051	-1,4855	-27,82	13,214
34648	-0,13992	-0,48158	-27,718	13,181
34649	6,7348	-1,0065	46,519	15,24
34650	6,5564	-1,0225	45,753	16,835
34651	6,1558	-1,4895	46,311	17,306
34652	6,1161	-0,50639	46,261	16,982
34653	0,19841	-0,96011	-29,017	13,98
34654	-0,23329	-0,94841	-28,956	13,928
34655	0,22514	-1,4158	-28,632	13,719
34656	9,0904e-002	-0,48036	-28,611	13,738
34657	7,6054	-1,0111	46,373	13,057
34658	7,8475	-1,008	47,059	11,64
34659	7,3307	-1,5242	46,829	13,127
34660	7,3039	-0,50009	46,822	12,985
34661	1,3046e-002	-0,93293	-29,77	14,481
34662	0,53634	-0,96099	-29,743	14,444
34663	0,26725	-1,3878	-29,442	14,242
34664	0,26973	-0,47975	-29,429	14,272
34665	-17,436	-0,9908	-26,294	7,1635
34666	-18,108	-0,9933	-26,101	6,8178
34667	-17,668	-1,4859	-25,86	7,0844
34668	-17,669	-0,4955	-25,861	7,0933
34669	7,427	-1,0271	45,607	14,651
34670	7,2804	-1,0275	44,889	15,948
34671	6,9459	-1,4151	45,252	16,508
34672	6,9939	-0,51614	45,339	15,958
34673	-17,641	-0,993	-26,968	6,9746
34674	-16,969	-0,99038	-27,161	7,3229
34675	-17,201	-1,4852	-26,727	7,2376
34676	-17,202	-0,49529	-26,728	7,2455
34677	-18,314	-0,9955	-26,775	6,6305
34678	-18,985	-0,99654	-26,584	6,2678
34679	-18,546	-1,4962	-26,344	6,5478
34680	-18,549	-0,4978	-26,337	6,5543
34681	8,1326	-1,0269	45,479	13,09
34682	8,336	-1,0159	46,161	11,782
34683	7,9007	-1,5189	45,914	13,06
34684	7,8412	-0,51098	45,924	13,012
34685	-8,0902	-0,97356	-25,899	10,893
34686	-7,446	-0,97368	-26,05	11,127
34687	-7,6702	-1,4562	-25,631	10,928
34688	-7,6722	-0,48583	-25,632	10,947
34689	-17,847	-0,99538	-27,642	6,7965
34690	-18,518	-0,99644	-27,452	6,436
34691	-18,079	-1,496	-27,211	6,7094
34692	-18,082	-0,49771	-27,204	6,7147
34693	-2,7734	-0,95273	-25,489	11,729
34694	-2,1926	-0,948	-25,59	11,843
34695	-2,3803	-1,4102	-25,184	11,607
34696	-2,389	-0,47638	-25,179	11,625
34697	-8,7305	-0,97581	-25,744	10,685
34698	-9,3778	-0,97787	-25,583	10,447
34699	-8,928	-1,4821	-25,326	10,518
34700	-8,9528	-0,48808	-25,322	10,528
34701	-3,5642	-0,9544	-26,099	11,944
34702	-2,9743	-0,95071	-26,204	12,088
34703	-3,1683	-1,4246	-25,792	11,843
34704	-3,1725	-0,47636	-25,792	11,864
34705	-8,9281	-0,97727	-26,433	10,778
34706	-8,2801	-0,97651	-26,589	11,041
34707	-8,5063	-1,4621	-26,166	10,849
34708	-8,5081	-0,48773	-26,167	10,867
34709	7,986	-1,0273	44,761	14,386
34710	7,823	-1,0152	44,049	15,507
34711	7,5892	-1,5235	44,491	15,669
34712	7,5602	-0,51133	44,475	15,637
34713	-11,991	-0,98348	-24,894	9,5358
34714	-11,332	-0,9828	-25,071	9,7778
34715	-11,561	-1,4737	-24,641	9,649
34716	-11,562	-0,4914	-24,642	9,6647
34717	8,6688	-1,0217	44,605	13,052
34718	8,8574	-1,0208	45,296	11,868
34719	8,4312	-1,5293	45,041	13,055
34720	8,404	-0,51596	45,048	13,012
34721	-1,8175	-0,94646	-26,393	12,307
34722	-2,3935	-0,94598	-26,305	12,197
34723	-2,0036	-1,3966	-25,992	12,064
34724	-2,013	-0,47162	-25,995	12,087
34725	-9,5754	-0,97933	-26,272	10,542
34726	-10,225	-0,98098	-26,103	10,278
34727	-9,8012	-1,4683	-25,844	10,375
34728	-9,8027	-0,48979	-25,845	10,392
34729	-1,4381	-0,95367	-27,204	12,799
34730	-2,0095	-0,95041	-27,121	12,686
34731	-1,6299	-1,4043	-26,792	12,537
34732	-1,63	-0,47484	-26,8	12,566
34733	-9,1216	-0,97881	-27,122	10,88
34734	-9,7734	-0,98053	-26,96	10,59
34735	-9,3466	-1,4676	-26,698	10,699
34736	-9,3481	-0,48954	-26,699	10,716
34737	-1,0778	-0,95899	-28,027	13,315
34738	-1,634	-0,95681	-27,947	13,203
34739	-1,2397	-1,4142	-27,576	13,021
34740	-1,2491	-0,47883	-27,599	13,062
34741	-6,9986	-0,97269	-26,891	11,531
34742	-7,6358	-0,97663	-26,739	11,272
34743	-7,1918	-1,4824	-26,47	11,323
34744	-7,222	-0,48785	-26,471	11,335
34745	-0,75663	-0,94821	-28,854	13,852
34746	-1,2625	-0,96038	-28,778	13,753
34747	-0,91266	-1,4492	-28,515	13,607
34748	-0,93582	-0,48016	-28,431	13,592
34749	-7,1909	-0,97165	-27,585	11,685
34750	-6,555	-0,97202	-27,733	11,969
34751	-6,7754	-1,4531	-27,313	11,736
34752	-6,7776	-0,48484	-27,314	11,757
34753	-7,8281	-0,97559	-27,433	11,43
34754	-8,4735	-0,97805	-27,278	11,14
34755	-8,025	-1,4829	-27,014	11,232
34756	-8,0523	-0,48878	-27,011	11,241
34757	-0,41865	-0,92123	-29,709	14,434
34758	-0,92748	-0,95363	-29,609	14,324
34759	-0,64637	-1,4515	-29,267	14,11
34760	-0,60962	-0,46805	-29,268	14,15
34761	-8,0182	-0,97575	-28,126	11,537
34762	-7,3791	-0,97395	-28,28	11,854
34763	-7,6037	-1,46	-27,856	11,626
34764	-7,6055	-0,48681	-27,857	11,647
34765	-0,50452	-0,93518	-30,455	14,944
34766	3,1608e-002	-0,93464	-30,483	14,981
34767	-0,2352	-1,4428	-30,103	14,696
34768	-0,22769	-0,45317	-30,15	14,772
34769	-12,85	-0,98455	-25,395	9,269
34770	-12,193	-0,98415	-25,576	9,5332
34771	-12,42	-1,4759	-25,145	9,4138
34772	-12,421	-0,49208	-25,145	9,4287
34773	-8,6636	-0,97821	-27,971	11,252
34774	-9,3176	-0,97996	-27,81	10,932
34775	-8,8934	-1,4668	-27,545	11,051
34776	-8,895	-0,48927	-27,546	11,069
34777	-13,713	-0,98508	-25,891	8,9403
34778	-13,052	-0,98483	-26,075	9,2264
34779	-13,28	-1,4772	-25,645	9,1159
34780	-13,28	-0,49248	-25,645	9,1298
34781	-8,205	-0,97812	-28,821	11,657
34782	-8,8508	-0,97916	-28,658	11,31
34783	-8,4308	-1,466	-28,396	11,44
34784	-8,4322	-0,48894	-28,396	11,46
34785	-14,574	-0,98545	-26,384	8,557
34786	-13,915	-0,98502	-26,57	8,8609
34787	-14,146	-1,4777	-26,138	8,757
34788	-14,146	-0,49261	-26,137	8,7695
34789	-4,3484	-0,95854	-26,708	12,106
34790	-3,7505	-0,95666	-26,824	12,289
34791	-3,9544	-1,4342	-26,408	12,037
34792	-3,9564	-0,47805	-26,409	12,061
34793	-15,432	-0,98663	-26,874	8,1271
34794	-14,77	-0,98552	-27,063	8,4482
34795	-15,002	-1,4782	-26,631	8,3506
34796	-15,002	-0,49285	-26,631	8,3613
34797	-5,1353	-0,96307	-27,3	12,199
34798	-4,5303	-0,96161	-27,43	12,424
34799	-4,7395	-1,4404	-27,008	12,166
34800	-4,7409	-0,4805	-27,009	12,191
34801	-16,298	-0,98887	-27,356	7,6529
34802	-15,632	-0,98742	-27,55	7,9903
34803	-15,86	-1,4806	-27,117	7,8989
34804	-15,861	-0,49378	-27,117	7,9076
34805	-5,9311	-0,96976	-27,872	12,21
34806	-5,3087	-0,97026	-28,012	12,48
34807	-5,497	-1,4738	-27,586	12,228
34808	-5,5296	-0,48257	-27,592	12,245
34809	-17,174	-0,99277	-27,835	7,1429
34810	-16,503	-0,99074	-28,028	7,494
34811	-16,734	-1,4845	-27,594	7,4039
34812	-16,735	-0,49509	-27,594	7,4107
34813	-10,875	-0,98259	-25,931	10,04
34814	-11,534	-0,98348	-25,753	9,7745
34815	-11,102	-1,4736	-25,5	9,8973
34816	-11,103	-0,4914	-25,501	9,913
34817	-17,38	-0,99526	-28,509	6,9715
34818	-18,051	-0,9964	-28,319	6,6124
34819	-17,612	-1,4959	-28,078	6,8807
34820	-17,615	-0,49768	-28,072	6,8848
34821	-10,422	-0,98218	-26,791	10,328
34822	-11,079	-0,98309	-26,615	10,039
34823	-10,645	-1,4728	-26,361	10,173
34824	-10,646	-0,49119	-26,361	10,189
34825	-6,7432	-0,97432	-28,428	12,133
34826	-6,1086	-0,97618	-28,577	12,446
34827	-6,3299	-1,4556	-28,153	12,19
34828	-6,3317	-0,48719	-28,155	12,214
34829	-2,5855	-0,94992	-27,033	12,581
34830	-3,1607	-0,95296	-26,929	12,429
34831	-2,7702	-1,4197	-26,615	12,32
34832	-2,7762	-0,47435	-26,617	12,345
34833	-9,9694	-0,98168	-27,648	10,645
34834	-10,627	-0,98276	-27,473	10,329
34835	-10,198	-1,4724	-27,22	10,474
34836	-10,199	-0,49099	-27,22	10,49
34837	-2,2054	-0,95355	-27,864	13,097
34838	-2,7601	-0,95288	-27,764	12,946
34839	-2,3923	-1,4221	-27,446	12,823
34840	-2,3948	-0,47557	-27,449	12,853
34841	-9,5049	-0,9809	-28,497	10,995
34842	-10,164	-0,98228	-28,333	10,652
34843	-9,739	-1,4712	-28,074	10,806
34844	-9,7402	-0,49069	-28,075	10,823
34845	-7,5658	-0,97631	-28,975	11,969
34846	-6,9289	-0,97575	-29,131	12,317
34847	-7,1512	-1,4606	-28,704	12,068
34848	-7,1526	-0,48714	-28,705	12,091
34849	-1,8187	-0,9582	-28,698	13,648
34850	-2,261	-0,9627	-28,573	13,498
34851	-1,9978	-1,4079	-28,294	13,368
34852	-2,016	-0,47798	-28,279	13,385
34853	-8,396	-0,9794	-29,512	11,718
34854	-7,7523	-0,97962	-29,676	12,098
34855	-7,9769	-1,4665	-29,245	11,861
34856	-7,9777	-0,48917	-29,247	11,883
34857	-1,4334	-0,9658	-29,534	14,232
34858	-1,9724	-0,96295	-29,443	14,078
34859	-1,5776	-1,4314	-29,191	13,975
34860	-1,6356	-0,48022	-29,124	13,961
34861	8,5058	-1,0096	43,893	14,17
34862	8,3329	-0,99775	43,203	15,061
34863	8,0833	-1,5022	43,614	15,324
34864	8,078	-0,50384	43,624	15,301
34865	-1,0133	-0,96759	-30,355	14,838
34866	-1,5704	-0,97265	-30,283	14,698
34867	-1,2799	-1,4572	-29,935	14,503
34868	-1,2462	-0,48558	-29,961	14,564
34869	9,1832	-1,0035	43,717	12,987
34870	9,3732	-1,0072	44,406	11,971
34871	8,9472	-1,5108	44,159	13,022
34872	8,9336	-0,50575	44,161	13,02
34873	-3,9324	-0,95973	-27,546	12,602
34874	-3,3353	-0,95592	-27,66	12,8
34875	-3,5422	-1,4343	-27,24	12,527
34876	-3,5451	-0,47861	-27,241	12,554
34877	-9,0419	-0,98045	-29,349	11,376
34878	-9,6913	-0,98138	-29,183	11,007
34879	-9,2684	-1,47	-28,92	11,173
34880	-9,2695	-0,49022	-28,92	11,191
34881	-4,7036	-0,9688	-28,142	12,7
34882	-4,1062	-0,96285	-28,276	12,947
34883	-4,3178	-1,442	-27,849	12,666
34884	-4,3196	-0,48112	-27,85	12,693
34885	-9,2346	-0,98123	-30,037	11,385
34886	-8,5856	-0,98244	-30,205	11,788
34887	-8,8137	-1,47	-29,777	11,567
34888	-8,8143	-0,49023	-29,777	11,586
34889	-1,0932	-0,95189	-31,115	15,369
34890	-0,52303	-0,97065	-31,14	15,454
34891	-0,78973	-1,4726	-30,759	15,132
34892	-0,78792	-0,48201	-30,776	15,195
34893	-11,738	-0,98398	-26,437	9,7752
34894	-12,394	-0,98443	-26,255	9,4896
34895	-11,964	-1,476	-26,006	9,6435
34896	-11,964	-0,49208	-26,006	9,6582
34897	-5,4862	-0,97668	-28,718	12,711
34898	-4,8689	-0,97691	-28,862	13,008
34899	-5,0525	-1,4809	-28,428	12,732
34900	-5,0949	-0,48769	-28,436	12,75
34901	-11,283	-0,98367	-27,297	10,042
34902	-11,937	-0,98401	-27,12	9,7356
34903	-11,51	-1,4755	-26,868	9,8977
34904	-11,511	-0,4919	-26,868	9,9124
34905	-12,594	-0,98446	-26,938	9,4515
34906	-13,254	-0,98477	-26,753	9,1459
34907	-12,824	-1,4769	-26,504	9,328
34908	-12,825	-0,49235	-26,504	9,3416
34909	-10,822	-0,98337	-28,158	10,339
34910	-11,48	-0,98383	-27,976	10,005
34911	-11,055	-1,475	-27,726	10,177
34912	-11,056	-0,49177	-27,726	10,192
34913	-12,134	-0,98417	-27,799	9,6999
34914	-12,793	-0,9843	-27,619	9,3747
34915	-12,362	-1,4761	-27,371	9,5662
34916	-12,363	-0,49211	-27,371	9,5796
34917	-13,453	-0,98461	-27,434	9,0707
34918	-14,111	-0,98509	-27,249	8,7509
34919	-13,684	-1,4771	-27,002	8,9568
34920	-13,684	-0,49241	-27,002	8,9688
34921	-10,351	-0,98276	-29,018	10,667
34922	-11,014	-0,98369	-28,843	10,304
34923	-10,587	-1,4742	-28,59	10,49
34924	-10,588	-0,4916	-28,59	10,506
34925	-11,673	-0,98415	-28,662	9,9722
34926	-12,333	-0,98422	-28,478	9,6235
34927	-11,905	-1,476	-28,227	9,8248
34928	-11,905	-0,49206	-28,227	9,8381
34929	-12,992	-0,98436	-28,298	9,3005
34930	-13,648	-0,98471	-28,114	8,9636
34931	-13,222	-1,4764	-27,866	9,1769
34932	-13,223	-0,49219	-27,866	9,1884
34933	-10,539	-0,98304	-29,698	10,632
34934	-9,884	-0,98216	-29,871	11,02
34935	-10,112	-1,4728	-29,446	10,834
34936	-10,113	-0,49116	-29,446	10,85
34937	-11,203	-0,98397	-29,523	10,273
34938	-11,865	-0,98439	-29,344	9,8986
34939	-11,44	-1,476	-29,096	10,111
34940	-11,44	-0,49209	-29,096	10,124
34941	-12,525	-0,98446	-29,161	9,5526
34942	-13,185	-0,98463	-28,978	9,1946
34943	-12,761	-1,4764	-28,73	9,4165
34944	-12,761	-0,49216	-28,73	9,4278
34945	-11,396	-0,98417	-30,203	10,195
34946	-10,734	-0,98359	-30,378	10,596
34947	-10,964	-1,4751	-29,95	10,426
34948	-10,965	-0,49188	-29,95	10,439
34949	-12,058	-0,98459	-30,023	9,8244
34950	-12,717	-0,98485	-29,841	9,4458
34951	-12,289	-1,4768	-29,591	9,6812
34952	-12,289	-0,4923	-29,591	9,6924
34953	-14,97	-0,98632	-27,739	8,31
34954	-14,306	-0,98519	-27,929	8,6454
34955	-14,538	-1,4777	-27,495	8,5393
34956	-14,539	-0,49268	-27,496	8,5493
34957	-11,596	-0,9844	-30,884	10,113
34958	-12,255	-0,98481	-30,705	9,7107
34959	-11,827	-1,4767	-30,455	9,9602
34960	-11,827	-0,49228	-30,455	9,9713
34961	-15,836	-0,98929	-28,222	7,8297
34962	-15,166	-0,98717	-28,416	8,1783
34963	-15,401	-1,4802	-27,982	8,0769
34964	-15,402	-0,49364	-27,982	8,0847
34965	-6,2943	-0,9776	-29,28	12,624
34966	-5,658	-0,98146	-29,433	12,971
34967	-5,8839	-1,459	-29,003	12,688
34968	-5,8854	-0,48899	-29,006	12,715
34969	-16,708	-0,99323	-28,702	7,3205
34970	-16,038	-0,99125	-28,895	7,6757
34971	-16,269	-1,485	-28,461	7,5812
34972	-16,27	-0,49565	-28,462	7,5869
34973	-7,1153	-0,97906	-29,832	12,44
34974	-6,4725	-0,9804	-29,991	12,828
34975	-6,7028	-1,4638	-29,556	12,55
34976	-6,7038	-0,48861	-29,558	12,576
34977	-16,913	-0,99513	-29,376	7,1536
34978	-17,584	-0,99631	-29,187	6,795
34979	-17,145	-1,4959	-28,946	7,0601
34980	-17,148	-0,49758	-28,939	7,063
34981	-7,2968	-0,98309	-30,538	12,583
34982	-7,9418	-0,98265	-30,37	12,162
34983	-7,5266	-1,4698	-30,104	12,32
34984	-7,5268	-0,49044	-30,106	12,344
34985	-13,842	-0,98498	-28,794	8,8597
34986	-14,502	-0,98605	-28,605	8,512
34987	-14,074	-1,4771	-28,362	8,7454
34988	-14,074	-0,49251	-28,362	8,7548
34989	-10,079	-0,98271	-30,551	10,98
34990	-9,4277	-0,98371	-30,725	11,397
34991	-9,6544	-1,4725	-30,295	11,196
34992	-9,6549	-0,491	-30,296	11,213
34993	-13,377	-0,98501	-29,658	9,0902
34994	-14,04	-0,98592	-29,47	8,725
34995	-13,609	-1,477	-29,226	8,9683
34996	-13,609	-0,49246	-29,226	8,9772
34997	-14,7	-0,98699	-29,281	8,3793
34998	-15,367	-0,98914	-29,089	8,0223
34999	-14,928	-1,4798	-28,849	8,2755
35000	-14,929	-0,49353	-28,849	8,2825
35001	-10,933	-0,98383	-31,06	10,51
35002	-10,278	-0,98362	-31,236	10,936
35003	-10,502	-1,4747	-30,806	10,758
35004	-10,502	-0,49171	-30,806	10,772
35005	-12,914	-0,98507	-30,523	9,3351
35006	-13,571	-0,98595	-30,335	8,9556
35007	-13,144	-1,4773	-30,09	9,2066
35008	-13,145	-0,49254	-30,09	9,2152
35009	-14,234	-0,98686	-30,147	8,5928
35010	-14,904	-0,98902	-29,955	8,2223
35011	-14,47	-1,4796	-29,713	8,4795
35012	-14,471	-0,49345	-29,714	8,4857
35013	-11,788	-0,98448	-31,566	9,9954
35014	-11,134	-0,98418	-31,745	10,42
35015	-11,364	-1,4761	-31,314	10,259
35016	-11,364	-0,49212	-31,314	10,27
35017	-12,448	-0,98488	-31,387	9,5963
35018	-13,111	-0,98582	-31,2	9,1938
35019	-12,683	-1,4773	-30,955	9,4582
35020	-12,683	-0,49252	-30,955	9,4664
35021	-13,769	-0,98671	-31,013	8,8171
35022	-14,435	-0,98886	-30,821	8,4354
35023	-13,997	-1,4795	-30,58	8,7029
35024	-13,998	-0,49341	-30,58	8,7085
35025	-16,242	-0,99315	-29,569	7,5065
35026	-15,571	-0,99117	-29,762	7,8675
35027	-15,802	-1,4847	-29,328	7,7689
35028	-15,803	-0,49561	-29,328	7,7736
35029	-12,641	-0,98545	-32,066	9,4503
35030	-11,985	-0,9846	-32,251	9,8686
35031	-12,212	-1,4769	-31,819	9,7294
35032	-12,213	-0,49236	-31,819	9,7375
35033	-13,304	-0,98638	-31,879	9,0508
35034	-13,971	-0,98797	-31,687	8,6539
35035	-13,538	-1,4793	-31,445	8,9285
35036	-13,54	-0,4933	-31,445	8,9336
35037	-16,446	-0,99517	-30,243	7,3411
35038	-17,117	-0,99627	-30,054	6,9818
35039	-16,678	-1,496	-29,813	7,2457
35040	-16,681	-0,49755	-29,806	7,2475
35041	-13,502	-0,98748	-32,553	8,8819
35042	-12,839	-0,98602	-32,744	9,2928
35043	-13,068	-1,4785	-32,312	9,1708
35044	-13,069	-0,49308	-32,313	9,1754
35045	-15,775	-0,99318	-30,436	7,6997
35046	-15,105	-0,99101	-30,628	8,0674
35047	-15,335	-1,4846	-30,194	7,9657
35048	-15,337	-0,49556	-30,195	7,9695
35049	9,0104	-0,99166	43,028	13,873
35050	8,8211	-0,98647	42,336	14,577
35051	8,587	-1,4748	42,774	14,81
35052	8,5878	-0,49391	42,781	14,831
35053	-15,979	-0,99518	-31,111	7,5323
35054	-16,65	-0,99635	-30,922	7,171
35055	-16,211	-1,4966	-30,681	7,4358
35056	-16,214	-0,49762	-30,673	7,4365
35057	9,6754	-0,99404	42,839	12,848
35058	9,8637	-0,99794	43,529	12,027
35059	9,4343	-1,4899	43,275	12,94
35060	9,4359	-0,49775	43,278	12,936
35061	-2,8157	-0,96202	-28,473	13,35
35062	-3,5091	-0,95904	-28,391	13,138
35063	-3,1325	-1,4332	-28,08	13,054
35064	-3,1352	-0,47731	-28,081	13,083
35065	-14,637	-0,99013	-31,495	8,2749
35066	-15,309	-0,993	-31,303	7,8975
35067	-14,869	-1,4843	-31,061	8,1695
35068	-14,87	-0,49545	-31,061	8,1724
35069	-2,9912	-0,9667	-29,219	13,72
35070	-2,4148	-0,96745	-29,318	13,933
35071	-2,5309	-1,4403	-28,902	13,639
35072	-2,6279	-0,48472	-28,901	13,655
35073	-3,6846	-0,96371	-29,137	13,517
35074	-4,2715	-0,97095	-28,997	13,248
35075	-3,8905	-1,4436	-28,701	13,208
35076	-3,8929	-0,48173	-28,703	13,24
35077	-14,84	-0,99211	-32,17	8,1
35078	-14,169	-0,98907	-32,361	8,4878
35079	-14,401	-1,4831	-31,927	8,3805
35080	-14,402	-0,49468	-31,928	8,3827
35081	-15,512	-0,99499	-31,978	7,7252
35082	-16,183	-0,99628	-31,789	7,3604
35083	-15,744	-1,4961	-31,548	7,6286
35084	-15,748	-0,49755	-31,541	7,6283
35085	-3,8432	-0,97107	-29,866	13,849
35086	-3,2607	-0,96356	-30,003	14,136
35087	-3,4733	-1,4439	-29,57	13,804
35088	-3,4764	-0,48198	-29,571	13,838
35089	-4,4301	-0,97832	-29,726	13,587
35090	-5,0408	-0,98169	-29,577	13,261
35091	-4,6129	-1,4848	-29,284	13,283
35092	-4,658	-0,48922	-29,295	13,304
35093	-15,046	-0,99417	-32,844	7,9175
35094	-15,716	-0,99614	-32,656	7,548
35095	-15,277	-1,4958	-32,415	7,8223
35096	-15,281	-0,49744	-32,408	7,821
35097	-4,5932	-0,98184	-30,45	13,869
35098	-3,989	-0,97573	-30,606	14,228
35099	-4,1798	-1,4836	-30,156	13,887
35100	-4,2179	-0,48909	-30,167	13,915
35101	-5,2039	-0,98522	-30,302	13,552
35102	-5,8363	-0,98426	-30,143	13,168
35103	-5,4032	-1,4887	-29,86	13,247
35104	-5,4405	-0,49247	-29,869	13,266
35105	-2,1095	-0,96981	-30,192	14,55
35106	-2,6842	-0,96431	-30,102	14,337
35107	-2,4219	-1,4614	-29,798	14,21
35108	-2,3326	-0,48274	-29,78	14,257
35109	-5,3754	-0,98587	-31,023	13,773
35110	-4,7437	-0,98466	-31,19	14,204
35111	-4,952	-1,4901	-30,735	13,855
35112	-4,9821	-0,49275	-30,745	13,882
35113	-2,2304	-0,9745	-30,946	15,01
35114	-1,6503	-0,95695	-31,042	15,234
35115	-1,9558	-1,4776	-30,517	14,79
35116	-1,897	-0,48707	-30,628	14,915
35117	-2,8051	-0,969	-30,856	14,806
35118	-3,4065	-0,96821	-30,743	14,506
35119	-3,0403	-1,4415	-30,434	14,442
35120	-3,045	-0,48158	-30,435	14,484
35121	-6,654	-0,98444	-30,696	12,963
35122	-6,0079	-0,98491	-30,865	13,398
35123	-6,2415	-1,4706	-30,42	13,087
35124	-6,2424	-0,49179	-30,423	13,116
35125	-2,9143	-0,97949	-31,586	15,226
35126	-2,3096	-0,96513	-31,706	15,548
35127	-2,5715	-1,4784	-31,27	15,132
35128	-2,5686	-0,48742	-31,287	15,195
35129	-7,4803	-0,98686	-31,233	12,653
35130	-6,8287	-0,98804	-31,407	13,122
35131	-7,0669	-1,476	-30,967	12,827
35132	-7,0668	-0,49265	-30,97	12,855
35133	-8,1253	-0,98642	-31,065	12,24
35134	-8,7787	-0,98492	-30,894	11,795
35135	-8,3283	-1,4893	-30,635	12,012
35136	-8,3582	-0,49221	-30,633	12,017
35137	-6,1826	-0,98851	-31,575	13,548
35138	-5,5295	-0,98965	-31,751	14,04
35139	-5,7735	-1,4765	-31,303	13,687
35140	-5,7745	-0,49312	-31,306	13,721
35141	-8,3245	-0,98739	-31,757	12,239
35142	-7,6565	-0,99044	-31,929	12,738
35143	-7,8657	-1,492	-31,496	12,486
35144	-7,8993	-0,49421	-31,499	12,489
35145	-8,9779	-0,98588	-31,586	11,801
35146	-9,6272	-0,98462	-31,41	11,349
35147	-9,1997	-1,4752	-31,157	11,588
35148	-9,1994	-0,49271	-31,158	11,606
35149	-3,5157	-0,9787	-31,473	14,937
35150	-4,1396	-0,97854	-31,345	14,552
35151	-3,7638	-1,4572	-31,047	14,552
35152	-3,7681	-0,48663	-31,05	14,594
35153	-9,1788	-0,98584	-32,277	11,743
35154	-8,517	-0,98831	-32,45	12,246
35155	-8,7565	-1,4785	-32,016	12,002
35156	-8,7553	-0,49318	-32,017	12,023
35157	-3,004	-0,97838	-32,331	15,732
35158	-3,629	-0,98856	-32,198	15,309
35159	-3,2537	-1,4858	-31,887	15,29
35160	-3,268	-0,49207	-31,911	15,352
35161	-9,828	-0,98458	-32,102	11,297
35162	-10,479	-0,98398	-31,921	10,841
35163	-10,054	-1,4753	-31,665	11,105
35164	-10,054	-0,49192	-31,666	11,12
35165	-1,7295	-0,94758	-31,802	15,764
35166	-1,1325	-0,9538	-31,844	15,937
35167	-1,4012	-1,4627	-31,457	15,567
35168	-1,4051	-0,46988	-31,47	15,632
35169	-10,024	-0,98492	-32,789	11,193
35170	-9,368	-0,98643	-32,967	11,688
35171	-9,6032	-1,4775	-32,537	11,477
35172	-9,6023	-0,49267	-32,538	11,494
35173	-10,675	-0,98432	-32,609	10,742
35174	-11,331	-0,9843	-32,43	10,289
35175	-10,905	-1,476	-32,177	10,573
35176	-10,905	-0,49206	-32,177	10,585
35177	-4,2529	-0,9884	-32,071	14,936
35178	-4,8977	-0,98844	-31,918	14,458
35179	-4,508	-1,4721	-31,636	14,534
35180	-4,511	-0,49191	-31,64	14,577
35181	-10,869	-0,98456	-33,295	10,6
35182	-10,214	-0,98493	-33,473	11,082
35183	-10,447	-1,4765	-33,041	10,903
35184	-10,446	-0,49225	-33,041	10,915
35185	-11,525	-0,98454	-33,116	10,151
35186	-12,184	-0,98518	-32,93	9,7077
35187	-11,758	-1,4765	-32,683	10,003
35188	-11,758	-0,49224	-32,683	10,011
35189	-14,375	-0,99112	-33,036	8,3026
35190	-13,706	-0,9888	-33,226	8,7005
35191	-13,934	-1,4823	-32,794	8,5949
35192	-13,935	-0,49439	-32,794	8,5963
35193	-11,72	-0,98533	-33,795	9,9785
35194	-11,06	-0,98479	-33,981	10,446
35195	-11,292	-1,4767	-33,549	10,294
35196	-11,293	-0,4923	-33,55	10,302
35197	-12,378	-0,98597	-33,608	9,5389
35198	-13,044	-0,98734	-33,417	9,1084
35199	-12,609	-1,4782	-33,176	9,4126
35200	-12,61	-0,49294	-33,176	9,4169
35201	-14,581	-0,99337	-33,711	8,1077
35202	-15,25	-0,99537	-33,523	7,7312
35203	-14,812	-1,4949	-33,281	8,0143
35204	-14,815	-0,49673	-33,274	8,0123
35205	-12,579	-0,98726	-34,283	9,3413
35206	-11,913	-0,98624	-34,474	9,7914
35207	-12,146	-1,4784	-34,039	9,6631
35208	-12,146	-0,49303	-34,04	9,6671
35209	-2,3994	-0,96401	-32,451	16,042
35210	-1,7743	-0,96915	-32,511	16,329
35211	-2,0496	-1,4655	-32,11	15,904
35212	-2,054	-0,4777	-32,134	15,983
35213	-13,245	-0,98863	-34,092	8,9139
35214	-13,913	-0,99104	-33,901	8,5028
35215	-13,477	-1,4821	-33,659	8,8058
35216	-13,478	-0,4944	-33,659	8,8068
35217	9,4862	-0,98885	42,147	13,547
35218	9,2613	-0,99279	41,473	14,117
35219	9,0501	-1,4722	41,893	14,343
35220	9,0544	-0,49256	41,891	14,371
35221	-13,447	-0,99156	-34,769	8,703
35222	-12,779	-0,98941	-34,959	9,1289
35223	-13,011	-1,482	-34,526	9,0218
35224	-13,012	-0,49423	-34,526	9,0225
35225	-7,005	-0,99161	-32,103	13,199
35226	-6,3417	-0,99338	-32,281	13,731
35227	-6,5912	-1,4841	-31,84	13,396
35228	-6,5907	-0,49539	-31,844	13,429
35229	10,143	-0,99503	41,967	12,649
35230	10,345	-0,99517	42,649	12,009
35231	9,914	-1,4865	42,404	12,758
35232	9,9179	-0,49629	42,403	12,762
35233	-14,115	-0,99397	-34,578	8,2946
35234	-14,784	-0,99523	-34,39	7,9089
35235	-14,346	-1,4947	-34,148	8,2036
35236	-14,349	-0,49664	-34,141	8,2014
35237	-7,8489	-0,99135	-32,622	12,737
35238	-7,1747	-0,99494	-32,799	13,295
35239	-7,3921	-1,495	-32,361	13,01
35240	-7,4273	-0,49623	-32,363	13,013
35241	-3,0991	-0,98285	-33,087	16,188
35242	-2,457	-0,97052	-33,171	16,611
35243	-2,7317	-1,4842	-32,739	16,12
35244	-2,7448	-0,48631	-32,767	16,2
35245	-8,7061	-0,9889	-33,139	12,183
35246	-8,0398	-0,99199	-33,312	12,737
35247	-8,2805	-1,484	-32,881	12,473
35248	-8,2786	-0,49513	-32,882	12,496
35249	-13,649	-0,99464	-35,446	8,4766
35250	-14,317	-0,9959	-35,259	8,0793
35251	-13,88	-1,4953	-35,016	8,3885
35252	-13,882	-0,49733	-35,009	8,3864
35253	-3,7241	-0,99304	-32,954	15,78
35254	-4,3789	-0,99807	-32,8	15,24
35255	-3,9801	-1,5021	-32,493	15,31
35256	-4,0003	-0,4965	-32,515	15,364
35257	-9,5582	-0,98644	-33,651	11,572
35258	-8,8996	-0,98849	-33,826	12,109
35259	-9,1353	-1,4801	-33,396	11,885
35260	-9,1337	-0,49377	-33,396	11,904
35261	-5,6885	-0,99453	-32,456	14,211
35262	-5,0238	-0,9981	-32,648	14,776
35263	-5,2835	-1,4858	-32,19	14,365
35264	-5,2844	-0,49653	-32,195	14,408
35265	-10,405	-0,98516	-34,159	10,924
35266	-9,7481	-0,98579	-34,336	11,44
35267	-9,9835	-1,4776	-33,905	11,252
35268	-9,9827	-0,49267	-33,905	11,265
35269	9,9181	-0,99897	41,292	13,213
35270	9,6753	-1,0087	40,624	13,65
35271	9,4672	-1,4941	41,063	13,881
35272	9,4682	-0,50023	41,054	13,913
35273	-11,253	-0,9857	-34,66	10,255
35274	-10,594	-0,9852	-34,846	10,748
35275	-10,828	-1,4772	-34,413	10,593
35276	-10,828	-0,49249	-34,413	10,6
35277	10,593	-1,0015	41,095	12,408
35278	10,802	-0,99821	41,778	11,93
35279	10,368	-1,4945	41,535	12,54
35280	10,368	-0,49874	41,531	12,546
35281	-12,112	-0,98839	-35,15	9,5759
35282	-11,446	-0,98667	-35,339	10,045
35283	-11,678	-1,479	-34,907	9,918
35284	-11,679	-0,49321	-34,907	9,9215
35285	10,35	-1,0112	40,426	12,838
35286	10,112	-1,0194	39,762	13,153
35287	9,8867	-1,5196	40,202	13,399
35288	9,8824	-0,5085	40,194	13,428
35289	-12,981	-0,99248	-35,636	8,8999
35290	-12,312	-0,98986	-35,825	9,3407
35291	-12,545	-1,4832	-35,392	9,2365
35292	-12,546	-0,49518	-35,393	9,2369
35293	-3,8374	-0,99497	-33,682	16,139
35294	-3,1441	-0,99118	-33,827	16,754
35295	-3,4417	-1,4991	-33,369	16,198
35296	-3,4534	-0,49655	-33,408	16,282
35297	11,047	-1,0079	40,224	12,116
35298	11,264	-1,0031	40,903	11,772
35299	10,819	-1,5067	40,663	12,271
35300	10,818	-0,50274	40,659	12,271
35301	-13,181	-0,99475	-36,313	8,6524
35302	-13,85	-0,99591	-36,126	8,2413
35303	-13,413	-1,4952	-35,883	8,5676
35304	-13,415	-0,49731	-35,876	8,5657
35305	-6,5114	-0,99671	-32,976	13,815
35306	-5,8403	-0,99849	-33,159	14,42
35307	-6,068	-1,5006	-32,712	14,057
35308	-6,0942	-0,498	-32,719	14,078
35309	-0,6627	-0,98092	-39,515	25,226
35310	-1,544e-002	-0,9597	-39,477	25,335
35311	0,25201	-1,0124	-39,94	25,492
35312	-0,63969	-1,0065	-40,028	25,104
35313	-0,31216	-1,4489	-39,817	25,048
35314	-0,18666	-0,72884	-40,038	25,965
35315	-0,35058	-0,47666	-39,85	23,916
35316	-7,3656	-0,99558	-33,489	13,285
35317	-6,69	-0,99834	-33,671	13,91
35318	-6,9069	-1,4985	-33,232	13,597
35319	-6,9301	-0,49871	-33,235	13,61
35320	-1,264	-0,99791	-38,889	24,131
35321	-1,1224	-1,0144	-39,423	25,231
35322	-0,58656	-0,99194	-38,888	24,611
35323	-0,96288	-1,5951	-39,109	24,978
35324	-0,93751	-0,50427	-39,173	24,065
35325	-8,2333	-0,99159	-33,999	12,655
35326	-7,5629	-0,99484	-34,171	13,269
35327	-7,8035	-1,489	-33,742	12,983
35328	-7,8011	-0,49687	-33,742	13,009
35329	-4,4922	-1,	-33,528	15,616
35330	-5,1755	-1,0021	-33,351	14,97
35331	-4,7613	-1,4994	-33,094	15,155
35332	-4,7631	-0,50157	-33,1	15,206
35333	10,591	-1,0205	38,891	12,629
35334	10,808	-1,016	39,56	12,423
35335	10,346	-1,528	39,334	12,885
35336	10,341	-0,51088	39,33	12,904
35337	-9,0895	-0,98785	-34,512	11,972
35338	-8,4336	-0,98961	-34,686	12,553
35339	-8,6675	-1,4829	-34,256	12,319
35340	-8,6656	-0,49473	-34,256	12,338
35341	11,299	-1,015	38,682	11,984
35342	11,094	-1,0155	38,008	12,117
35343	10,845	-1,5259	38,452	12,358
35344	10,84	-0,50961	38,452	12,37
35345	-9,9367	-0,98584	-35,023	11,259
35346	-9,2798	-0,98626	-35,199	11,811
35347	-9,5145	-1,4787	-34,768	11,619
35348	-9,5135	-0,49312	-34,767	11,632
35349	-4,6516	-0,99522	-34,227	15,826
35350	-3,9154	-0,9958	-34,39	16,602
35351	-4,2064	-1,5042	-33,948	16,048
35352	-4,2128	-0,49842	-33,984	16,126
35353	-10,786	-0,98617	-35,524	10,533
35354	-10,125	-0,98555	-35,71	11,052
35355	-10,36	-1,4779	-35,278	10,898
35356	-10,36	-0,49272	-35,278	10,904
35357	11,516	-1,0105	39,35	11,785
35358	11,729	-1,0062	40,029	11,552
35359	11,278	-1,5129	39,791	11,959
35360	11,275	-0,50513	39,789	11,956
35361	-11,645	-0,98814	-36,015	9,8065
35362	-10,977	-0,98715	-36,204	10,294
35363	-11,212	-1,4796	-35,77	10,17
35364	-11,212	-0,49346	-35,771	10,173
35365	11,997	-1,0095	38,473	11,432
35366	12,204	-1,0066	39,15	11,282
35367	11,76	-1,5136	38,913	11,61
35368	11,757	-0,50542	38,912	11,605
35369	11,792	-1,0099	37,799	11,557
35370	11,593	-1,0089	37,12	11,642
35371	11,353	-1,5171	37,562	11,863
35372	11,349	-0,50585	37,563	11,87
35373	12,482	-1,0062	37,592	11,069
35374	12,684	-1,005	38,274	10,976
35375	12,239	-1,5098	38,033	11,254
35376	12,238	-0,50407	38,034	11,247
35377	-5,3349	-0,99729	-34,05	15,2
35378	-6,0189	-1,0001	-33,855	14,5
35379	-5,5835	-1,5054	-33,605	14,777
35380	-5,5817	-0,5005	-33,609	14,823
35381	-12,513	-0,99213	-36,502	9,0908
35382	-11,84	-0,98967	-36,691	9,5484
35383	-12,077	-1,4833	-36,258	9,4458
35384	-12,078	-0,49468	-36,258	9,4454
35385	-1,9568	-0,99033	-38,24	22,387
35386	-1,8759	-1,0092	-39,146	23,774
35387	-1,2836	-0,98314	-38,227	23,064
35388	-1,6249	-1,5062	-38,542	23,525
35389	-1,6535	-0,49364	-38,572	22,85
35390	-5,5317	-0,9917	-34,75	15,269
35391	-4,8067	-0,99393	-34,985	16,14
35392	-5,0609	-1,497	-34,487	15,614
35393	-5,061	-0,4968	-34,516	15,679
35394	-6,2158	-0,99454	-34,555	14,587
35395	-6,8874	-0,99761	-34,354	13,882
35396	-6,4479	-1,5002	-34,104	14,22
35397	-6,4446	-0,49963	-34,104	14,259
35398	-2,6404	-0,99103	-37,507	20,61
35399	-2,6668	-0,99612	-38,276	21,259
35400	-1,9824	-0,98806	-37,54	21,372
35401	-2,3224	-1,5064	-37,86	21,608
35402	-2,3505	-0,49669	-37,899	21,278
35403	-5,798	-0,98374	-35,459	15,285
35404	-6,4307	-0,99167	-35,235	14,522
35405	-5,9492	-1,4874	-34,999	14,965
35406	-5,9814	-0,49491	-34,979	14,965
35407	-3,2904	-0,98544	-36,734	19,001
35408	-3,2979	-0,98588	-37,471	19,528
35409	-2,6292	-0,98736	-36,776	19,748
35410	-2,9708	-1,478	-37,116	19,82
35411	-2,9693	-0,49433	-37,116	19,727
35412	-12,713	-0,99482	-37,179	8,8201
35413	-13,383	-0,9961	-36,993	8,3945
35414	-12,945	-1,495	-36,749	8,7398
35415	-12,948	-0,49744	-36,742	8,7378
35416	-4,0715	-0,98824	-35,912	17,459
35417	-3,9058	-0,97423	-36,693	18,088
35418	-3,2863	-0,98371	-35,999	18,306
35419	-3,6326	-1,4626	-36,325	18,245
35420	-3,6154	-0,49111	-36,322	18,275
35421	-1,7343	-1,0257	-39,68	24,836
35422	-1,0994	-1,04	-39,936	25,038
35423	-1,3532	-1,591	-39,577	25,124
35424	-1,3695	-0,51014	-39,652	24,092
35425	-5,073	-0,98597	-35,694	16,128
35426	-4,6151	-0,97891	-35,968	16,809
35427	-4,0705	-0,99451	-35,148	16,885
35428	-4,5096	-1,4469	-35,494	16,69
35429	-4,5315	-0,49713	-35,472	16,705
35430	-7,7632	-0,99286	-34,859	13,158
35431	-7,1023	-0,99474	-35,034	13,832
35432	-7,3277	-1,4919	-34,602	13,535
35433	-7,3248	-0,49797	-34,601	13,565
35434	-6,0434	-0,97924	-36,134	15,152
35435	-5,4425	-0,97245	-36,359	15,975
35436	-5,6165	-1,4696	-35,921	15,619
35437	-5,6112	-0,48884	-35,883	15,649
35438	-8,6238	-0,98803	-35,374	12,386
35439	-7,9718	-0,98855	-35,55	13,018
35440	-8,2034	-1,4832	-35,118	12,774
35441	-8,2016	-0,49488	-35,117	12,793
35442	-4,4493	-0,9649	-36,748	17,452
35443	-4,9846	-0,96539	-36,633	16,637
35444	-4,706	-1,44	-36,471	16,962
35445	-4,6987	-0,48178	-36,463	16,99
35446	-9,4682	-0,98598	-35,887	11,599
35447	-8,8124	-0,98556	-36,067	12,189
35448	-9,0467	-1,4789	-35,632	11,995
35449	-9,046	-0,49314	-35,632	12,006
35450	12,283	-1,0051	36,913	11,146
35451	12,08	-1,0038	36,232	11,206
35452	11,843	-1,5084	36,673	11,412
35453	11,84	-0,50301	36,675	11,417
35454	-10,316	-0,98653	-36,39	10,808
35455	-9,6529	-0,98548	-36,575	11,354
35456	-9,8901	-1,4782	-36,142	11,203
35457	-9,8904	-0,49283	-36,142	11,207
35458	-6,6761	-0,98717	-35,91	14,406
35459	-7,3109	-0,99044	-35,725	13,68
35460	-6,8813	-1,487	-35,472	14,11
35461	-6,8798	-0,49677	-35,467	14,137
35462	-11,171	-0,98868	-36,881	10,033
35463	-10,503	-0,98754	-37,069	10,535
35464	-10,741	-1,4804	-36,637	10,417
35465	-10,742	-0,4937	-36,637	10,417
35466	12,962	-1,0025	36,711	10,706
35467	13,164	-1,0027	37,391	10,648
35468	12,727	-1,5048	37,149	10,886
35469	12,726	-0,5021	37,15	10,881
35470	-12,04	-0,99237	-37,368	9,2756
35471	-11,367	-0,99012	-37,556	9,7432
35472	-11,6	-1,4842	-37,124	9,6528
35473	-11,601	-0,49498	-37,124	9,6508
35474	-6,8778	-0,98093	-36,611	14,217
35475	-6,2615	-0,97323	-36,81	15,014
35476	-6,4696	-1,4646	-36,359	14,7
35477	-6,4724	-0,4904	-36,353	14,712
35478	-7,5126	-0,9842	-36,427	13,503
35479	-8,1604	-0,98609	-36,244	12,813
35480	-7,7428	-1,4792	-35,987	13,251
35481	-7,742	-0,49367	-35,984	13,266
35482	-3,9133	-0,97466	-37,43	18,647
35483	-4,5278	-0,96209	-37,36	17,568
35484	-4,2655	-1,4112	-37,047	17,922
35485	-4,2	-0,48312	-37,034	17,955
35486	-7,6949	-0,98161	-37,122	13,252
35487	-7,0561	-0,97758	-37,317	14,006
35488	-7,2811	-1,4684	-36,872	13,757
35489	-7,2832	-0,49053	-36,87	13,757
35490	-3,3243	-0,99097	-38,24	20,224
35491	-3,9697	-0,99091	-38,137	18,894
35492	-3,6874	-1,482	-37,767	19,323
35493	-3,6265	-0,49154	-37,826	19,268
35494	-12,245	-0,99466	-38,045	8,9776
35495	-12,915	-0,99607	-37,86	8,5386
35496	-12,476	-1,4945	-37,615	8,9031
35497	-12,48	-0,49738	-37,609	8,9004
35498	-2,5859	-1,015	-39,182	22,67
35499	-3,3606	-1,0144	-38,97	20,608
35500	-3,0057	-1,5877	-38,575	21,315
35501	-3,0222	-0,49943	-38,654	20,861
35502	-8,3427	-0,98349	-36,939	12,57
35503	-8,9971	-0,98507	-36,755	11,939
35504	-8,5787	-1,4767	-36,505	12,378
35505	-8,5788	-0,49242	-36,503	12,383
35506	-2,6652	-1,0296	-39,822	23,245
35507	-1,9822	-1,0223	-40,134	24,48
35508	-2,2063	-1,531	-39,719	24,042
35509	-2,2413	-0,51555	-39,622	22,995
35510	-8,5208	-0,98337	-37,624	12,275
35511	-7,8658	-0,98125	-37,816	12,957
35512	-8,1052	-1,4716	-37,375	12,769
35513	-8,1065	-0,49108	-37,375	12,759
35514	-9,8396	-0,98649	-37,254	11,077
35515	-9,1752	-0,98495	-37,441	11,648
35516	-9,4146	-1,4772	-37,007	11,506
35517	-9,4153	-0,49265	-37,007	11,504
35518	12,759	-1,0012	36,031	10,757
35519	12,557	-1,	35,351	10,799
35520	12,322	-1,501	35,788	10,994
35521	12,32	-0,50081	35,79	10,998
35522	-10,699	-0,98897	-37,745	10,243
35523	-10,029	-0,98772	-37,931	10,757
35524	-10,263	-1,4808	-37,5	10,657
35525	-10,264	-0,49384	-37,501	10,651
35526	13,435	-0,99991	35,833	10,347
35527	13,637	-1,0004	36,514	10,309
35528	13,199	-1,5005	36,271	10,527
35529	13,199	-0,50042	36,272	10,524
35530	-11,572	-0,99241	-38,233	9,4432
35531	-10,9	-0,99017	-38,42	9,9152
35532	-11,133	-1,4848	-37,988	9,8373
35533	-11,134	-0,49513	-37,989	9,8317
35534	-9,3646	-0,98617	-38,117	11,326
35535	-8,6961	-0,98451	-38,306	11,925
35536	-8,9336	-1,4758	-37,873	11,801
35537	-8,935	-0,4923	-37,874	11,785
35538	-11,78	-0,99259	-38,904	9,1223
35539	-12,447	-0,99589	-38,726	8,6748
35540	-12,007	-1,4937	-38,481	9,0563
35541	-12,013	-0,49727	-38,473	9,0514
35542	-10,231	-0,98892	-38,606	10,427
35543	-9,5559	-0,98774	-38,793	10,951
35544	-9,7931	-1,4808	-38,36	10,869
35545	-9,7943	-0,49388	-38,361	10,852
35546	-5,6606	-0,96644	-37,035	15,819
35547	-5,0631	-0,96258	-37,245	16,773
35548	-5,2924	-1,4502	-36,809	16,308
35549	-5,2936	-0,48361	-36,795	16,305
35550	-11,109	-0,99036	-39,091	9,5927
35551	-10,435	-0,98982	-39,282	10,062
35552	-10,666	-1,4847	-38,851	10,001
35553	-10,667	-0,49504	-38,852	9,9883
35554	-6,4399	-0,96988	-37,516	14,791
35555	-5,8085	-0,96399	-37,71	15,728
35556	-6,0515	-1,4669	-37,296	15,358
35557	-6,0506	-0,48283	-37,267	15,337
35558	13,232	-0,99869	35,153	10,381
35559	13,029	-0,99799	34,474	10,415
35560	12,793	-1,4967	34,912	10,601
35561	12,793	-0,4992	34,913	10,605
35562	-4,5842	-0,97834	-38,067	17,848
35563	-5,211	-0,96014	-37,92	16,663
35564	-4,9576	-1,4311	-37,721	17,117
35565	-4,8556	-0,47897	-37,686	17,201
35566	-6,584	-0,97465	-38,215	14,561
35567	-7,2271	-0,97723	-38,01	13,703
35568	-6,825	-1,4568	-37,763	14,287
35569	-6,8291	-0,48705	-37,764	14,252
35570	-4,006	-1,0143	-38,867	19,318
35571	-4,5224	-0,98192	-38,874	18,134
35572	-4,4971	-1,5109	-38,414	18,216
35573	-4,3089	-0,49936	-38,469	18,347
35574	-5,9526	-0,96877	-38,409	15,485
35575	-5,1491	-0,96372	-38,727	16,971
35576	-5,6368	-1,4623	-38,185	16,052
35577	-5,5738	-0,48117	-38,166	16,079
35578	13,908	-0,99891	34,955	9,99
35579	14,11	-0,99934	35,634	9,9617
35580	13,671	-1,4982	35,394	10,168
35581	13,672	-0,49949	35,394	10,167
35582	-6,7367	-0,97879	-38,903	14,205
35583	-6,0752	-0,98119	-39,113	15,236
35584	-6,3182	-1,4289	-38,621	14,941
35585	-6,3388	-0,4876	-38,665	14,813
35586	-3,4399	-1,029	-39,61	21,251
35587	-3,989	-1,0419	-39,474	19,588
35588	-3,6796	-1,6112	-39,337	20,448
35589	-3,7137	-0,51495	-39,309	19,828
35590	-7,3799	-0,98137	-38,698	13,353
35591	-8,0412	-0,98239	-38,498	12,603
35592	-7,6228	-1,469	-38,255	13,174
35593	-7,6251	-0,49018	-38,256	13,133
35594	-3,569	-1,0434	-40,373	21,445
35595	-2,9178	-1,0256	-40,482	23,141
35596	-3,1224	-1,527	-39,899	22,343
35597	-3,1715	-0,51401	-40,065	21,381
35598	-11,32	-0,9901	-39,759	9,2539
35599	-11,983	-0,99372	-39,587	8,8046
35600	-11,55	-1,4888	-39,331	9,1934
35601	-11,55	-0,49531	-39,331	9,188
35602	-7,5576	-0,98424	-39,375	12,924
35603	-6,8815	-0,98585	-39,584	13,791
35604	-7,0969	-1,4755	-39,15	13,657
35605	-7,1346	-0,49119	-39,14	13,501
35606	-8,2189	-0,98526	-39,174	12,177
35607	-8,8874	-0,98608	-38,982	11,549
35608	-8,4558	-1,4756	-38,738	12,078
35609	-8,4573	-0,49222	-38,739	12,035
35610	-4,5054	-1,0095	-39,481	18,428
35611	-5,2718	-0,97614	-39,43	16,701
35612	-4,7466	-1,5076	-39,224	17,931
35613	-4,8903	-0,48255	-39,179	17,322
35614	13,705	-0,99821	34,276	10,016
35615	13,502	-0,99766	33,597	10,048
35616	13,266	-1,4969	34,034	10,225
35617	13,266	-0,49879	34,035	10,231
35618	-8,4119	-0,98712	-39,843	11,744
35619	-7,7333	-0,98751	-40,045	12,424
35620	-7,9798	-1,4775	-39,608	12,334
35621	-7,9805	-0,49304	-39,61	12,247
35622	14,381	-0,99883	34,078	9,6381
35623	14,583	-0,99918	34,756	9,6117
35624	14,144	-1,4986	34,516	9,8123
35625	14,145	-0,49942	34,516	9,8138
35626	-4,1181	-1,0563	-40,237	19,829
35627	-4,7675	-1,0331	-40,05	17,848
35628	-4,2509	-1,5601	-39,653	19,287
35629	-4,3813	-0,52692	-39,8	18,455
35630	-9,0804	-0,98794	-39,65	11,117
35631	-9,76	-0,98864	-39,468	10,585
35632	-9,3165	-1,4808	-39,224	11,057
35633	-9,3176	-0,49386	-39,225	11,021
35634	14,178	-0,99828	33,398	9,6622
35635	13,975	-0,99784	32,719	9,6969
35636	13,739	-1,4972	33,157	9,8658
35637	13,738	-0,49887	33,158	9,8728
35638	-9,288	-0,98869	-40,315	10,717
35639	-8,6081	-0,98879	-40,501	11,253
35640	-8,8242	-1,4815	-40,092	11,233
35641	-8,8433	-0,49407	-40,076	11,151
35642	14,854	-0,99889	33,2	9,2935
35643	15,056	-0,99909	33,88	9,2638
35644	14,617	-1,4987	33,639	9,463
35645	14,622	-0,49941	33,641	9,4642
35646	-4,3713	-1,0469	-41,091	19,36
35647	-3,7366	-1,0303	-41,279	21,996
35648	-3,9654	-1,5754	-40,824	20,487
35649	-3,9528	-0,52942	-40,84	19,87
35650	-10,646	-0,98956	-39,95	9,7224
35651	-9,9676	-0,98939	-40,133	10,186
35652	-10,202	-1,4841	-39,712	10,14
35653	-10,203	-0,49478	-39,712	10,113
35654	-6,22	-0,98825	-39,794	14,815
35655	-5,5338	-0,99977	-39,998	16,16
35656	-5,824	-1,4728	-39,585	15,694
35657	-5,8116	-0,49359	-39,56	15,466
35658	-10,862	-0,98936	-40,613	9,3729
35659	-11,523	-0,99298	-40,445	8,9315
35660	-11,087	-1,4877	-40,191	9,3228
35661	-11,089	-0,49478	-40,188	9,3098
35662	14,651	-0,99845	32,521	9,3209
35663	14,448	-0,99796	31,842	9,3622
35664	14,211	-1,4964	32,28	9,5232
35665	14,211	-0,49897	32,281	9,5309
35666	-10,184	-0,9892	-40,796	9,836
35667	-9,5028	-0,98929	-40,976	10,284
35668	-9,7325	-1,4837	-40,555	10,261
35669	-9,7327	-0,49462	-40,555	10,214
35670	-7,0573	-0,98913	-40,254	13,289
35671	-6,3659	-0,99397	-40,472	14,338
35672	-6,6296	-1,4805	-40,024	14,114
35673	-6,6283	-0,49466	-40,028	13,907
35674	-10,401	-0,98933	-41,459	9,4868
35675	-11,065	-0,99273	-41,3	9,0624
35676	-10,631	-1,4873	-41,042	9,4408
35677	-10,634	-0,49458	-41,037	9,4154
35678	15,328	-0,99897	32,322	8,9584
35679	15,531	-0,99918	33,001	8,9198
35680	15,09	-1,4989	32,761	9,1222
35681	15,095	-0,49948	32,763	9,1252
35682	-7,9295	-0,98919	-40,703	11,933
35683	-7,238	-0,99114	-40,91	12,708
35684	-7,458	-1,4827	-40,499	12,646
35685	-7,4838	-0,49447	-40,477	12,457
35686	-5,6797	-1,0055	-40,677	15,673
35687	-5,0206	-1,0236	-40,904	17,429
35688	-5,2495	-1,5186	-40,468	16,886
35689	-5,2597	-0,50618	-40,448	16,411
35690	-8,8228	-0,9894	-41,162	10,82
35691	-8,1385	-0,98994	-41,346	11,377
35692	-8,3732	-1,4835	-40,925	11,357
35693	-8,3728	-0,49472	-40,926	11,243
35694	-6,5466	-0,99598	-41,128	13,756
35695	-5,8279	-0,99749	-41,366	15,197
35696	-6,0864	-1,4976	-40,942	14,785
35697	-6,1035	-0,4993	-40,917	14,413
35698	-9,7198	-0,98942	-41,64	9,9347
35699	-9,0444	-0,98937	-41,815	10,358
35700	-9,2729	-1,4839	-41,398	10,354
35701	-9,2728	-0,49468	-41,398	10,277
35702	-5,1688	-1,0156	-41,592	16,941
35703	-4,5379	-1,0281	-41,959	19,694
35704	-4,8262	-1,6342	-41,408	17,966
35705	-4,7521	-0,51745	-41,392	17,68
35706	-9,9362	-0,9896	-42,304	9,595
35707	-10,598	-0,993	-42,15	9,2095
35708	-10,163	-1,4876	-41,888	9,5618
35709	-10,167	-0,49475	-41,881	9,5198
35710	-7,447	-0,9919	-41,553	12,153
35711	-6,7552	-0,98915	-41,78	13,07
35712	-6,9916	-1,4889	-41,34	12,948
35713	-6,9898	-0,49667	-41,339	12,711
35714	15,124	-0,99848	31,643	8,9929
35715	14,92	-0,99795	30,965	9,0436
35716	14,684	-1,4977	31,403	9,1957
35717	14,684	-0,49899	31,403	9,2048
35718	-8,3601	-0,98991	-42,	10,916
35719	-7,6709	-0,98802	-42,209	11,508
35720	-7,9051	-1,4851	-41,767	11,497
35721	-7,9043	-0,49522	-41,767	11,329
35722	-6,0364	-0,99067	-42,018	14,514
35723	-5,2105	-1,0614	-42,272	17,041
35724	-5,5533	-1,489	-41,823	15,821
35725	-5,5522	-0,49819	-41,814	15,457
35726	-9,2608	-0,98955	-42,48	10,018
35727	-8,576	-0,98886	-42,67	10,421
35728	-8,8159	-1,484	-42,233	10,429
35729	-8,8159	-0,49469	-42,233	10,321
35730	15,8	-0,99895	31,444	8,6348
35731	16,004	-0,99917	32,123	8,5851
35732	15,563	-1,499	31,883	8,792
35733	15,568	-0,49949	31,885	8,7965
35734	-9,4755	-0,98921	-43,153	9,6854
35735	-10,134	-0,99319	-43,002	9,3619
35736	-9,7021	-1,4879	-42,736	9,6695
35737	-9,7056	-0,49486	-42,727	9,6069
35738	15,597	-0,99842	30,766	8,6791
35739	15,393	-0,99789	30,087	8,7414
35740	15,157	-1,4975	30,526	8,8848
35741	15,156	-0,49896	30,526	8,8949
35742	-6,9791	-0,98527	-42,436	12,429
35743	-6,3081	-0,9788	-42,655	13,553
35744	-6,4858	-1,4795	-42,261	13,403
35745	-6,522	-0,49248	-42,206	13,06
35746	16,273	-0,99884	30,567	8,324
35747	16,476	-0,99914	31,245	8,2612
35748	16,036	-1,4988	31,006	8,4738
35749	16,04	-0,49946	31,007	8,4798
35750	16,069	-0,99831	29,888	8,3805
35751	15,865	-0,99788	29,21	8,4561
35752	15,628	-1,4964	29,649	8,5911
35753	15,629	-0,49894	29,649	8,6015
35754	-7,8869	-0,98697	-42,879	11,015
35755	-7,2216	-0,98554	-43,061	11,669
35756	-7,3986	-1,4767	-42,687	11,673
35757	-7,4477	-0,4928	-42,633	11,438
35758	-4,8763	-1,0662	-43,105	18,571
35759	-5,4822	-1,0495	-42,909	16,11
35760	-4,5796	-1,0738	-42,639	19,873
35761	-4,9713	-1,4668	-42,736	17,871
35762	-5,0117	-0,56317	-42,706	17,534
35763	-8,7908	-0,98853	-43,343	10,089
35764	-8,1177	-0,98775	-43,516	10,472
35765	-8,3066	-1,4824	-43,139	10,508
35766	-8,349	-0,49417	-43,091	10,358
35767	16,746	-0,99868	29,689	8,0275
35768	16,949	-0,99905	30,367	7,9495
35769	16,512	-1,4979	30,128	8,1679
35770	16,513	-0,49937	30,129	8,1766
35771	-5,2933	-0,93365	-43,628	16,787
35772	-4,7461	-0,99022	-43,604	19,946
35773	-4,9821	-1,4063	-43,554	18,175
35774	-5,0853	-1,4856	-43,91	17,273
35775	-4,9614	-0,50299	-43,521	18,327
35776	-6,5506	-0,97906	-43,279	12,808
35777	-5,8992	-0,91698	-43,432	14,289
35778	-6,0675	-1,455	-43,161	13,876
35779	-6,1113	-0,48632	-43,071	13,649
35780	16,542	-0,99825	29,011	8,0979
35781	16,338	-0,99791	28,333	8,1883
35782	16,101	-1,4964	28,771	8,3142
35783	16,101	-0,49895	28,771	8,3253
35784	-7,4525	-0,98632	-43,698	11,131
35785	-6,7757	-0,97576	-43,859	11,95
35786	-6,9397	-1,4743	-43,504	11,9
35787	-7,0056	-0,49274	-43,471	11,627
35788	-9,0178	-0,98762	-43,997	9,743
35789	-9,6717	-0,99255	-43,859	9,5057
35790	-9,2411	-1,4864	-43,59	9,7532
35791	-9,2453	-0,49436	-43,579	9,6731
35792	-8,3448	-0,98684	-44,17	10,128
35793	-7,6584	-0,98392	-44,351	10,492
35794	-7,8546	-1,4803	-43,959	10,554
35795	-7,8993	-0,49358	-43,924	10,399
35796	17,219	-0,99867	28,811	7,7466
35797	17,422	-0,99898	29,489	7,6519
35798	16,984	-1,4979	29,25	7,8788
35799	16,985	-0,4993	29,25	7,8883
35800	-6,1243	-0,91368	-44,011	13,464
35801	-5,3611	-0,92109	-44,301	15,766
35802	-5,7455	-1,3657	-43,704	14,664
35803	-5,4949	-1,4132	-44,059	15,231
35804	-5,6698	-0,43066	-43,876	14,723
35805	-8,5522	-0,98748	-44,855	9,7324
35806	-9,2148	-0,99105	-44,704	9,607
35807	-8,7819	-1,4856	-44,435	9,7897
35808	-8,7903	-0,49326	-44,416	9,6979
35809	-6,9816	-0,97336	-44,512	11,331
35810	-6,2816	-0,97866	-44,712	12,223
35811	-6,5319	-1,425	-44,091	12,331
35812	-6,5306	-0,48302	-44,279	12,062
35813	17,014	-0,99833	28,133	7,8324
35814	16,81	-0,99796	27,455	7,9388
35815	16,574	-1,4965	27,894	8,0551
35816	16,574	-0,49896	27,894	8,067
35817	-7,8658	-0,98455	-45,036	10,104
35818	-7,2058	-0,97984	-45,173	10,459
35819	-7,4185	-1,4557	-44,776	10,531
35820	-7,427	-0,49034	-44,764	10,414
35821	17,691	-0,99882	27,933	7,4822
35822	17,894	-0,99906	28,611	7,3695
35823	17,457	-1,498	28,372	7,6057
35824	17,457	-0,49937	28,372	7,6159
35825	17,487	-0,99844	27,255	7,5847
35826	17,284	-0,99801	26,577	7,7079
35827	17,047	-1,498	27,017	7,8142
35828	17,046	-0,49899	27,016	7,8273
35829	-8,1144	-0,98107	-45,676	9,6272
35830	-8,7489	-0,99133	-45,569	9,6095
35831	-8,3129	-1,4886	-45,305	9,7334
35832	-8,3309	-0,49422	-45,268	9,6475
35833	18,164	-0,99895	27,055	7,2354
35834	18,367	-0,99919	27,732	7,1036
35835	17,929	-1,4981	27,494	7,3497
35836	17,929	-0,49945	27,494	7,3606
35837	17,961	-0,99851	26,377	7,3553
35838	17,756	-0,99823	25,7	7,4977
35839	17,52	-1,4981	26,139	7,5933
35840	17,52	-0,49901	26,138	7,6066
35841	-7,4543	-0,97635	-45,813	9,9892
35842	-6,5058	-0,98514	-45,374	11,4
35843	-6,7961	-0,96701	-45,972	10,306
35844	-6,9654	-1,4681	-45,651	10,409
35845	-6,994	-0,4895	-45,57	10,401
35846	-7,7141	-0,96278	-46,452	9,4256
35847	-8,325	-0,98248	-46,37	9,475
35848	-7,8872	-1,4781	-46,108	9,5642
35849	-7,9147	-0,48685	-46,057	9,4967
35850	-5,8253	-0,98734	-45,682	12,165
35851	-5,5185	-0,98607	-45,002	14,755
35852	-5,9868	-1,4867	-45,204	12,43
35853	-6,0147	-0,49564	-45,173	12,359
35854	18,636	-0,99901	26,177	7,0071
35855	18,838	-0,99918	26,855	6,8552
35856	18,401	-1,4982	26,616	7,1118
35857	18,402	-0,4995	26,616	7,1233
35858	18,432	-0,99873	25,499	7,1469
35859	18,228	-0,99854	24,822	7,3092
35860	17,991	-1,4973	25,261	7,394
35861	17,992	-0,49922	25,261	7,4079
35862	-7,0559	-0,95343	-46,61	9,7453
35863	-6,1156	-0,96921	-46,28	11,085
35864	-6,405	-0,9612	-46,847	9,9291
35865	-6,5521	-1,4706	-46,493	10,147
35866	-6,5983	-0,47751	-46,373	10,186
35867	-7,3249	-0,93533	-47,227	9,1752
35868	-7,9032	-0,96873	-47,186	9,1941
35869	-7,4544	-1,4635	-46,949	9,2913
35870	-7,5135	-0,47592	-46,847	9,2897
35871	-5,4497	-0,99315	-46,656	11,498
35872	-5,1762	-0,98771	-46,097	13,906
35873	-5,6295	-1,4846	-46,239	11,969
35874	-5,6345	-0,49171	-46,102	12,281
35875	19,108	-0,99902	25,299	6,7984
35876	19,311	-0,99922	25,977	6,6245
35877	18,874	-1,4984	25,738	6,8928
35878	18,874	-0,49951	25,738	6,905
35879	-6,674	-0,9431	-47,464	9,3446
35880	-6,035	-0,95125	-47,677	9,4365
35881	-5,7392	-0,98514	-47,223	10,288
35882	-6,1663	-1,4251	-47,42	9,6193
35883	-6,2404	-0,48369	-47,217	9,8078
35884	-6,8847	-0,95422	-48,041	8,8246
35885	-7,4855	-0,95778	-47,964	8,8932
35886	-7,0783	-1,514	-47,736	8,9909
35887	-7,1363	-0,45941	-47,607	9,0543
35888	18,904	-0,99883	24,622	6,9587
35889	18,701	-0,99863	23,944	7,1425
35890	18,464	-1,4977	24,383	7,2155
35891	18,464	-0,49932	24,383	7,2302
35892	-5,8698	-0,97794	-48,315	8,9044
35893	-6,2456	-0,96238	-48,254	8,8839
35894	-5,4791	-0,94663	-48,028	9,3745
35895	-5,7279	-1,5363	-48,078	9,2251
35896	-5,9317	-0,46756	-47,94	9,331
35897	19,581	-0,99904	24,421	6,6102
35898	19,784	-0,99931	25,098	6,4127
35899	19,346	-1,4985	24,861	6,6941
35900	19,346	-0,49951	24,86	6,7068
35901	-6,0656	-1,0394	-48,834	8,4091
35902	-5,6148	-0,98486	-48,679	8,5667
35903	-5,7877	-1,4485	-48,633	8,6054
35904	-5,8598	-0,51038	-48,557	8,7313
35905	-6,4414	-1,0239	-48,773	8,4207
35906	-6,9987	-0,99726	-48,781	8,4467
35907	-6,5248	-1,8045	-48,611	8,5157
35908	-6,695	-0,49481	-48,381	8,731
35909	-5,224	-0,95354	-48,391	9,1196
35910	-5,1833	-0,98051	-47,574	10,351
35911	-4,541	-1,0222	-48,105	9,5351
35912	-4,8749	-1,5804	-48,125	9,5291
35913	-4,8338	-1,4835	-48,466	9,0703
35914	-5,1059	-0,47906	-47,927	9,9051
35915	19,377	-0,99883	23,744	6,7926
35916	19,173	-0,99854	23,067	6,9996
35917	18,937	-1,4977	23,505	7,0601
35918	18,937	-0,49931	23,506	7,0756
35919	-5,9884	-0,97022	-49,323	8,0185
35920	-6,5428	-1,0232	-49,428	7,9911
35921	-6,1551	-1,5142	-49,161	8,1562
35922	-6,2692	-0,52906	-49,011	8,3596
35923	20,055	-0,99882	23,542	6,4431
35924	20,257	-0,9993	24,22	6,2213
35925	19,818	-1,4985	23,982	6,5163
35926	19,819	-0,49952	23,981	6,5298
35927	19,851	-0,99853	22,865	6,6492
35928	19,646	-0,99878	22,19	6,8821
35929	19,409	-1,4974	22,628	6,9291
35930	19,41	-0,49923	22,628	6,9456
35931	-5,5376	-0,91564	-49,167	8,198
35932	-5,0582	-0,88483	-49,019	8,233
35933	-5,1993	-1,3997	-48,822	8,4464
35934	-4,9579	-1,4789	-48,834	8,4811
35935	-5,2861	-0,47448	-48,75	8,6473
35936	-4,816	-0,99975	-47,06	12,133
35937	-5,2154	-1,5077	-47,177	11,042
35938	-5,2799	-0,50145	-47,003	11,364
35939	-5,4249	-0,89798	-49,858	7,602
35940	-5,9644	-0,92533	-49,99	7,5907
35941	-5,7221	-1,4047	-49,671	7,7386
35942	-5,727	-0,44116	-49,575	7,9302
35943	20,528	-0,99876	22,664	6,3001
35944	20,731	-0,9991	23,341	6,0505
35945	20,292	-1,4982	23,104	6,3603
35946	20,293	-0,4993	23,103	6,3747
35947	-3,8311	-0,48685	-49,421	7,6862
35948	-3,3962	-0,63882	-49,215	7,7333
35949	-3,7346	-0,80721	-48,6	9,0338
35950	-3,2229	-0,7102	-48,704	8,4762
35951	-4,0273	-1,2686	-48,96	8,1809
35952	-3,5175	-0,26412	-48,966	8,3482
35953	-2,8809	-0,76453	-48,651	7,8295
35954	-4,9456	-0,86716	-49,71	7,6691
35955	-4,4718	-0,63308	-49,555	7,6624
35956	-4,3752	-0,95344	-48,734	8,7915
35957	-4,7163	-1,2366	-49,315	7,9144
35958	-4,668	-1,4148	-49,094	8,2401
35959	-4,7078	-0,41035	-49,204	8,0913
35960	20,322	-0,999	21,988	6,5326
35961	20,119	-0,99854	21,312	6,792
35962	19,882	-1,4994	21,752	6,8243
35963	19,882	-0,49955	21,751	6,8421
35964	-4,7993	-0,74851	-50,36	7,2132
35965	-5,3719	-0,94434	-50,579	7,1901
35966	-5,1573	-1,2931	-50,224	7,2892
35967	-5,136	-0,45682	-50,103	7,5176
35968	-4,3255	-0,51442	-50,205	7,236
35969	-3,8461	-0,64555	-50,009	7,1246
35970	-4,1214	-1,2351	-49,856	7,3382
35971	-4,3714	-1,2272	-49,37	7,9722
35972	-4,1638	-0,22273	-49,781	7,5168
35973	20,999	-0,99892	21,787	6,1829
35974	21,202	-0,99923	22,464	5,9039
35975	20,762	-1,4994	22,227	6,2304
35976	20,764	-0,49946	22,225	6,2453
35977	-4,1633	-0,77553	-50,836	6,8523
35978	-4,7026	-0,77584	-51,063	6,8883
35979	-4,4043	-1,3513	-50,652	6,9563
35980	-4,5166	-0,29169	-50,573	7,1426
35981	20,795	-0,99845	21,111	6,4423
35982	20,591	-0,99877	20,435	6,7315
35983	20,355	-1,4994	20,874	6,748
35984	20,355	-0,499	20,873	6,7672
35985	-3,4112	-0,79752	-49,804	7,0825
35986	-2,9346	-0,92049	-49,431	6,9174
35987	-3,6437	-0,91779	-48,804	8,6101
35988	-3,132	-0,82077	-48,908	8,0888
35989	-3,9365	-1,3791	-49,164	7,7541
35990	-3,274	-0,3747	-49,527	7,2771
35991	21,471	-0,99888	20,909	6,092
35992	21,674	-0,99917	21,586	5,7811
35993	21,234	-1,4997	21,349	6,125
35994	21,236	-0,49946	21,347	6,1413
35995	-3,6839	-0,90666	-50,64	6,7657
35996	-3,1507	-0,91065	-50,313	6,5779
35997	-3,5941	-1,4123	-50,123	6,9627
35998	-4,0423	-1,4272	-49,549	7,6331
35999	-3,6017	-0,42282	-50,238	6,9738
36000	21,267	-0,99919	20,234	6,3815
36001	21,064	-0,99945	19,559	6,7034
36002	20,827	-1,5003	19,998	6,7025
36003	20,828	-0,49977	19,997	6,7233
36004	-3,467	-0,97731	-51,291	6,4957
36005	-4,0205	-0,97951	-51,551	6,5827
36006	-3,8449	-1,4798	-51,116	6,6403
36007	-3,8885	-0,48384	-51,106	6,7499
36008	21,944	-0,99886	20,031	6,0308
36009	22,147	-0,99924	20,708	5,6844
36010	21,707	-1,4997	20,471	6,0476
36011	21,709	-0,49942	20,469	6,0658
36012	21,74	-0,99911	19,356	6,3532
36013	21,537	-0,9982	18,681	6,7116
36014	21,3	-1,4998	19,121	6,6909
36015	21,3	-0,49968	19,119	6,7137
36016	-2,6974	-0,99121	-51,705	6,234
36017	-2,9338	-0,98131	-50,963	6,321
36018	-3,2445	-0,99001	-51,961	6,3332
36019	-3,0632	-1,4967	-51,487	6,3343
36020	-3,1479	-0,49348	-51,492	6,4575
36021	-2,0523	-0,99019	-52,112	6,0855
36022	-2,0034	-0,98864	-51,455	6,0021
36023	-2,4642	-0,99331	-52,351	6,1574
36024	-2,223	-1,5147	-51,787	6,1083
36025	-2,368	-0,49773	-51,907	6,2352
36026	-2,2398	-0,97874	-50,714	6,096
36027	-2,6741	-1,0336	-49,94	6,4567
36028	-2,8717	-1,4985	-50,371	6,3717
36029	-3,676	-1,4923	-49,673	7,2088
36030	-2,7408	-0,48783	-50,539	6,4336
36031	-1,5085	-0,98389	-52,222	5,9908
36032	-1,8085	-0,99231	-52,646	6,063
36033	-1,7017	-1,4978	-52,302	6,027
36034	-1,8366	-0,49246	-52,308	6,1214
36035	22,416	-0,99875	19,154	6,0027
36036	22,62	-0,99932	19,83	5,6171
36037	22,18	-1,4997	19,594	6,0014
36038	22,181	-0,49944	19,591	6,0218
36039	22,213	-0,99784	18,478	6,3616
36040	22,009	-0,99679	17,803	6,7603
36041	21,773	-1,4986	18,243	6,7173
36042	21,773	-0,49853	18,241	6,7426
36043	-1,4596	-0,98234	-51,566	5,9241
36044	-1,1578	-0,98563	-50,954	5,6831
36045	-1,6323	-0,99057	-50,341	5,5594
36046	-1,748	-1,4296	-50,825	5,8988
36047	-1,6959	-0,49091	-50,991	5,9588
36048	-0,85216	-0,97803	-52,07	5,8963
36049	-1,1272	-0,98166	-52,62	5,9922
36050	-1,1206	-1,4412	-52,168	5,9243
36051	-1,2948	-0,49143	-52,119	6,0331
36052	22,889	-0,9986	18,276	6,012
36053	23,092	-0,99901	18,952	5,5825
36054	22,652	-1,4994	18,716	5,9899
36055	22,654	-0,49931	18,713	6,013
36056	-0,15608	-0,9783	-50,907	5,4492
36057	-0,55029	-0,98132	-51,458	5,6829
36058	-0,5947	-0,99205	-50,401	4,9238
36059	-0,63509	-1,4986	-50,949	5,5421
36060	-0,62026	-0,49473	-50,918	5,5613
36061	22,686	-0,99754	17,601	6,4111
36062	22,482	-0,99649	16,927	6,8538
36063	22,245	-1,4973	17,366	6,7863
36064	22,246	-0,49826	17,364	6,8144
36065	0,36313	-0,96635	-51,417	5,6305
36066	0,77841	-0,94825	-50,948	5,5561
36067	0,40582	-0,97857	-50,38	4,798
36068	0,36449	-1,3946	-50,869	5,3868
36069	0,30811	-0,48358	-50,896	5,4619
36070	-3,1091e-002	-0,96937	-51,968	5,8463
36071	-0,32828	-0,97957	-52,537	5,9266
36072	-0,364	-1,4628	-52,064	5,8473
36073	-0,48032	-0,4866	-51,998	5,9398
36074	1,2725	-0,91073	-50,591	5,4832
36075	1,6855	-0,91284	-50,206	5,6805
36076	0,89986	-0,94104	-50,023	4,7003
36077	1,33	-1,3257	-50,23	5,3718
36078	1,3744	-1,2187	-50,149	5,2902
36079	1,2897	-0,93438	-49,759	4,858
36080	1,2845	-0,44605	-50,008	5,0286
36081	1,3556	-0,94755	-49,462	4,7948
36082	23,362	-0,99869	17,399	6,0642
36083	23,565	-0,99898	18,074	5,5853
36084	23,125	-1,499	17,838	6,0183
36085	23,126	-0,49929	17,835	6,0446
36086	0,88139	-0,96051	-51,94	5,8878
36087	0,57842	-0,97523	-52,482	5,9346
36088	0,51003	-1,4278	-52,007	5,8699
36089	0,41814	-0,48277	-51,937	5,9347
36090	23,158	-0,99764	16,726	6,507
36091	22,954	-0,99564	16,052	7,
36092	22,718	-1,4964	16,491	6,9031
36093	22,718	-0,49824	16,489	6,9345
36094	1,2967	-0,94241	-51,471	5,8396
36095	1,6342	-0,93727	-51,018	5,8301
36096	1,2376	-1,3399	-50,973	5,709
36097	1,2049	-0,46468	-50,942	5,7203
36098	23,834	-0,99839	16,521	6,1669
36099	24,038	-0,99922	17,197	5,6317
36100	23,597	-1,499	16,96	6,0925
36101	23,598	-0,4994	16,957	6,1228
36102	23,63	-0,9964	15,848	6,6595
36103	23,426	-0,99373	15,177	7,2081
36104	23,19	-1,4951	15,615	7,0774
36105	23,19	-0,49741	15,613	7,1122
36106	1,6798	-0,92095	-51,904	6,0052
36107	1,4671	-0,96741	-52,433	6,0083
36108	1,3533	-1,4513	-52,086	5,9622
36109	1,294	-0,47774	-51,916	6,0187
36110	2,2871	-0,95256	-51,064	6,0691
36111	2,0174	-0,91581	-51,451	6,0156
36112	2,0472	-0,93939	-50,634	6,0479
36113	1,9873	-1,3884	-51,078	5,9719
36114	1,9441	-0,4726	-50,962	5,972
36115	24,306	-0,9969	15,64	6,3322
36116	24,51	-0,99857	16,318	5,7309
36117	24,07	-1,4982	16,082	6,2216
36118	24,07	-0,49899	16,079	6,2565
36119	2,6925	-0,96631	-51,357	6,2323
36120	2,7502	-1,0387	-50,667	6,3683
36121	2,507	-1,44	-51,058	6,1347
36122	2,5556	-0,47996	-51,074	6,2895
36123	2,4228	-0,92956	-51,745	6,1571
36124	2,2111	-0,92472	-52,288	6,1137
36125	2,0464	-1,4168	-51,914	6,068
36126	2,015	-0,44321	-51,864	6,1546
36127	2,5104	-1,0255	-50,237	6,3056
36128	2,1705	-0,96508	-49,865	6,2028
36129	1,2891	-0,96178	-50,046	5,0796
36130	2,0588	-1,3909	-50,258	6,0297
36131	1,7637	-1,2394	-50,172	5,7198
36132	1,679	-0,95512	-49,782	5,1992
36133	2,1236	-0,46679	-50,147	6,0861
36134	24,102	-0,99423	14,969	6,8797
36135	23,897	-0,99122	14,304	7,4874
36136	23,661	-1,4935	14,739	7,3181
36137	23,662	-0,49632	14,737	7,3564
36138	3,1641	-0,99051	-51,443	6,3956
36139	3,0398	-0,97851	-52,046	6,2793
36140	2,8513	-1,4725	-51,659	6,2637
36141	2,7923	-0,48635	-51,676	6,334
36142	24,778	-0,99482	14,759	6,5709
36143	24,983	-0,99746	15,437	5,8952
36144	24,542	-1,4933	15,198	6,4208
36145	24,543	-0,49791	15,198	6,4585
36146	3,2218	-1,0629	-50,753	6,5042
36147	3,1304	-1,1026	-50,057	6,7992
36148	2,8643	-1,5345	-50,361	6,4698
36149	2,9813	-0,55869	-50,41	6,5801
36150	24,574	-0,99181	14,094	7,1764
36151	24,368	-0,98824	13,434	7,8506
36152	24,133	-1,4901	13,867	7,6356
36153	24,133	-0,4949	13,864	7,6783
36154	3,8276	-1,0082	-51,018	6,6929
36155	3,7733	-0,98854	-51,648	6,5011
36156	3,5062	-1,5234	-51,275	6,5233
36157	3,5326	-0,50416	-51,268	6,6285
36158	25,252	-0,99239	13,887	6,8904
36159	25,455	-0,9962	14,559	6,1366
36160	25,014	-1,4905	14,319	6,6968
36161	25,014	-0,49691	14,319	6,7399
36162	25,047	-0,98882	13,228	7,5608
36163	24,839	-0,98404	12,573	8,311
36164	24,603	-1,4855	12,997	8,0465
36165	24,603	-0,49335	12,999	8,0891
36166	3,7362	-1,048	-50,321	6,881
36167	4,5124	-1,0115	-50,503	7,0858
36168	4,4779	-1,0064	-51,189	6,7736
36169	4,1575	-1,5393	-50,804	6,8325
36170	4,1941	-0,50406	-50,738	6,9832
36171	3,6252	-1,057	-49,621	7,4304
36172	2,7904	-1,0422	-49,685	6,4718
36173	3,3637	-1,6469	-50,064	6,9721
36174	3,442	-0,54394	-49,923	7,1503
36175	25,725	-0,98924	13,02	7,3143
36176	25,929	-0,99435	13,687	6,4688
36177	25,489	-1,4867	13,454	7,0572
36178	25,49	-0,49548	13,454	7,1062
36179	25,517	-0,98446	12,366	8,0587
36180	25,31	-0,97888	11,72	8,8866
36181	25,072	-1,4692	12,142	8,5594
36182	25,074	-0,4907	12,146	8,6011
36183	4,4014	-1,0205	-49,803	7,5004
36184	5,244	-1,0187	-50,	7,47
36185	5,198	-1,009	-50,655	7,1405
36186	4,8777	-1,5365	-50,28	7,3066
36187	4,8728	-0,50744	-50,169	7,4717
36188	4,4935	-1,0253	-49,049	8,1447
36189	3,4941	-0,95746	-49,177	7,7203
36190	3,9092	-1,5029	-49,423	7,7458
36191	4,0409	-0,5131	-49,332	7,9886
36192	26,196	-0,98545	12,154	7,8705
36193	26,402	-0,99216	12,817	6,92
36194	25,959	-1,4822	12,583	7,5445
36195	25,96	-0,49376	12,586	7,5974
36196	5,3361	-1,0235	-49,246	8,1604
36197	5,9071	-1,0294	-49,639	7,7792
36198	5,9122	-1,003	-50,158	7,4664
36199	5,5406	-1,5076	-49,697	7,6713
36200	5,5803	-0,51128	-49,712	7,7898
36201	25,989	-0,97987	11,508	8,6899
36202	25,78	-0,97372	10,87	9,6053
36203	25,544	-1,4614	11,29	9,2004
36204	25,546	-0,48819	11,294	9,2412
36205	5,7174	-1,0253	-48,793	8,4329
36206	5,3206	-1,0196	-48,006	9,4529
36207	4,4437	-1,0187	-48,393	9,2483
36208	4,966	-1,606	-48,797	8,64
36209	5,0366	-0,51221	-48,615	8,9755
36210	26,668	-0,98103	11,3	8,5699
36211	26,874	-0,9895	11,948	7,5214
36212	26,43	-1,477	11,719	8,1719
36213	26,432	-0,49169	11,722	8,2286
36214	6,2884	-1,0312	-49,186	8,1801
36215	6,482	-1,0279	-49,731	7,7795
36216	6,2149	-1,5629	-49,504	7,9009
36217	6,1965	-0,51812	-49,47	8,0419
36218	5,4951	-1,0146	-46,876	11,161
36219	5,5396	-1,0125	-46,155	12,155
36220	5,0374	-1,0141	-46,342	13,586
36221	5,5329	-1,5576	-46,384	11,842
36222	5,3569	-0,50713	-46,414	12,222
36223	5,7166	-1,0397	-44,773	14,161
36224	5,5144	-0,99809	-44,176	15,186
36225	5,1281	-1,0431	-44,028	17,323
36226	5,1691	-1,0359	-44,919	15,964
36227	5,2165	-1,5524	-44,484	16,391
36228	5,0498	-0,78512	-44,413	17,902
36229	5,2306	-0,53409	-44,521	16,316
36230	6,5451	-1,029	-48,409	8,6697
36231	6,8269	-1,018	-49,061	8,2695
36232	6,3986	-1,5926	-48,976	8,3492
36233	6,3613	-0,51311	-48,808	8,5518
36234	6,0268	-1,014	-46,866	10,218
36235	6,1483	-1,0233	-47,622	9,5399
36236	4,919	-1,0169	-47,217	11,386
36237	5,7515	-1,5468	-47,348	10,071
36238	5,6867	-0,50744	-47,382	10,152
36239	26,459	-0,97488	10,662	9,4722
36240	26,255	-0,96852	10,03	10,477
36241	26,011	-1,4534	10,441	10,002
36242	26,013	-0,48554	10,445	10,037
36243	5,8753	-1,011	-45,435	12,402
36244	6,0713	-1,012	-46,144	11,35
36245	5,3278	-1,0072	-45,58	14,396
36246	5,7786	-1,4999	-45,767	12,2
36247	5,6865	-0,5054	-45,848	12,361
36248	27,138	-0,97636	10,451	9,4474
36249	27,345	-0,98579	11,095	8,2856
36250	26,903	-1,4713	10,873	8,9466
36251	26,904	-0,48934	10,878	9,0046
36252	6,4929	-1,013	-45,327	11,51
36253	6,2885	-1,0081	-44,61	12,358
36254	6,0786	-1,5068	-44,992	12,525
36255	6,0568	-0,50557	-45,017	12,549
36256	26,935	-0,97	9,8189	10,433
36257	26,738	-0,96369	9,1962	11,523
36258	26,495	-1,4458	9,6107	10,95
36259	26,497	-0,48298	9,6148	10,976
36260	6,689	-1,014	-46,036	10,388
36261	6,8625	-1,0197	-46,772	9,7989
36262	6,5199	-1,4136	-46,479	10,241
36263	6,4614	-0,50659	-46,486	10,319
36264	6,984	-1,029	-47,527	9,0676
36265	7,2197	-1,0181	-48,216	8,756
36266	6,7751	-1,5273	-47,966	8,8842
36267	6,7066	-0,51585	-47,957	8,9662
36268	27,608	-0,972	9,6015	10,523
36269	27,815	-0,98283	10,234	9,2704
36270	27,371	-1,4658	10,015	9,9358
36271	27,372	-0,48702	10,023	9,9893
36272	7,3426	-1,0161	-45,914	10,01
36273	7,1394	-1,0124	-45,19	10,513
36274	6,9057	-1,5229	-45,621	10,496
36275	6,9144	-0,50745	-45,627	10,434
36276	27,411	-0,9657	8,9788	11,586
36277	27,214	-0,95934	8,3597	12,76
36278	26,975	-1,4391	8,7738	12,105
36279	26,978	-0,48071	8,7777	12,111
36280	7,5162	-1,0218	-46,649	9,3908
36281	7,7225	-1,0164	-47,357	9,1219
36282	7,3019	-1,5085	-47,082	9,2793
36283	7,2614	-0,51315	-47,098	9,2613
36284	28,083	-0,9681	8,7585	11,785
36285	28,287	-0,97946	9,3822	10,473
36286	27,843	-1,4609	9,1683	11,116
36287	27,844	-0,48498	9,1799	11,156
36288	27,886	-0,96174	8,1394	12,922
36289	27,692	-0,95571	7,5282	14,142
36290	27,447	-1,4331	7,9381	13,439
36291	27,45	-0,47862	7,9417	13,42
36292	8,0031	-1,0151	-45,765	9,6317
36293	8,2172	-1,0114	-46,477	9,4565
36294	7,7829	-1,5146	-46,21	9,5556
36295	7,7709	-0,50867	-46,201	9,5
36296	28,566	-0,9646	7,9142	13,208
36297	28,763	-0,97712	8,5292	11,905
36298	28,32	-1,4565	8,3242	12,482
36299	28,321	-0,48312	8,3371	12,503
36300	28,372	-0,95857	7,3031	14,38
36301	28,171	-0,9578	6,7054	15,579
36302	27,932	-1,4295	7,1147	14,876
36303	27,934	-0,47709	7,1147	14,832
36304	8,4666	-1,0111	-44,899	9,756
36305	7,7998	-1,0115	-45,04	10,154
36306	8,6854	-1,0085	-45,607	9,6195
36307	8,2413	-1,5134	-45,336	9,7479
36308	8,2352	-0,50647	-45,328	9,6611
36309	29,043	-0,96449	7,0603	14,712
36310	29,245	-0,97564	7,6728	13,522
36311	28,808	-1,4532	7,4774	13,981
36312	28,81	-0,48148	7,4914	13,978
36313	28,843	-0,96372	6,4627	15,864
36314	28,635	-0,97352	5,9257	16,885
36315	28,407	-1,4367	6,3032	16,312
36316	28,409	-0,48071	6,296	16,258
36317	8,934	-1,007	-44,044	9,7725
36318	8,2582	-1,0092	-44,183	10,183
36319	9,1492	-1,0058	-44,736	9,6256
36320	8,7032	-1,51	-44,473	9,8133
36321	8,6979	-0,50461	-44,469	9,7244
36322	29,481	-0,97913	6,1846	16,176
36323	29,713	-0,97852	6,803	15,221
36324	29,276	-1,461	6,612	15,514
36325	29,277	-0,48301	6,6293	15,477
36326	9,4105	-1,0022	-43,196	9,7131
36327	8,7298	-1,0042	-43,337	10,136
36328	9,6207	-1,0032	-43,888	9,5283
36329	9,175	-1,5041	-43,621	9,7847
36330	9,1701	-0,50238	-43,619	9,701
36331	28,912	-0,98987	5,0261	18,403
36332	29,273	-0,98893	5,6476	17,171
36333	28,847	-1,5015	5,528	17,532
36334	28,871	-0,4928	5,537	17,457
36335	28,438	-1,0196	4,2222	21,746
36336	29,517	-0,99714	4,6679	18,697
36337	29,238	-0,99288	4,0485	19,787
36338	28,998	-1,5161	4,4721	19,402
36339	28,975	-0,49707	4,4642	19,398
36340	29,878	-0,9962	5,2894	17,441
36341	30,149	-0,99342	5,9048	16,806
36342	29,702	-1,49	5,7109	16,955
36343	29,696	-0,49613	5,7372	16,872
36344	28,296	-1,0235	3,5215	23,558
36345	27,456	-0,76899	4,1474	24,695
36346	27,887	-1,4904	3,9211	24,471
36347	27,047	-1,0422	4,4179	23,759
36348	27,923	-0,52254	3,8794	23,872
36349	27,594	-1,0244	3,6189	29,249
36350	9,8932	-0,99708	-42,347	9,6123
36351	9,219	-0,99863	-42,496	10,044
36352	10,097	-0,99987	-43,033	9,3795
36353	9,6545	-1,4979	-42,774	9,69
36354	9,6509	-0,49985	-42,773	9,6278
36355	30,287	-1,0003	4,4054	18,509
36356	30,568	-0,99991	5,0174	17,995
36357	30,091	-1,5003	4,8101	18,086
36358	30,072	-0,50007	4,839	18,032
36359	29,096	-0,99673	3,3477	22,032
36360	28,9	-1,0213	2,6655	23,21
36361	28,631	-1,5304	3,0748	23,92
36362	28,625	-0,50092	3,0807	23,94
36363	28,337	-1,0031	2,873	26,682
36364	30,008	-0,99604	3,7861	19,758
36365	29,716	-1,0163	3,1332	20,693
36366	29,517	-1,5731	3,5812	20,435
36367	29,514	-0,49581	3,6003	20,509
36368	10,371	-0,99254	-41,499	9,4975
36369	9,7066	-0,99311	-41,652	9,9414
36370	10,574	-0,99646	-42,177	9,2199
36371	10,138	-1,4916	-41,92	9,5718
36372	10,135	-0,49723	-41,921	9,53
36373	29,52	-1,0409	2,4509	22,273
36374	29,292	-1,0436	1,7922	22,765
36375	28,989	-1,5936	2,1929	23,712
36376	29,108	-0,5204	2,2048	23,706
36377	28,833	-1,0228	2,0461	24,12
36378	30,684	-1,0113	3,5318	19,475
36379	31,001	-1,001	4,1516	19,068
36380	30,519	-1,5011	3,959	19,109
36381	30,487	-0,50023	3,984	19,135
36382	10,838	-0,98979	-40,648	9,3808
36383	10,177	-0,99034	-40,807	9,8385
36384	11,046	-0,99395	-41,321	9,0707
36385	10,607	-1,4871	-41,077	9,4494
36386	10,606	-0,49531	-41,077	9,4246
36387	30,393	-1,0315	2,8789	20,654
36388	30,096	-1,0311	2,2187	21,329
36389	29,81	-1,6323	2,727	21,339
36390	29,925	-0,52047	2,6917	21,528
36391	29,868	-1,0339	1,5601	22,122
36392	29,571	-1,0259	0,87011	22,265
36393	29,374	-1,6314	1,3441	22,521
36394	29,435	-0,52323	1,2941	23,236
36395	29,173	-1,026	1,1519	21,917
36396	31,002	-0,9994	2,6631	20,231
36397	31,368	-1,0109	3,2847	19,945
36398	30,902	-1,5085	3,0991	19,962
36399	30,856	-0,51105	3,1074	20,179
36400	11,306	-0,99112	-39,781	9,2584
36401	10,642	-0,98713	-39,957	9,7232
36402	11,511	-0,9929	-40,46	8,9364
36403	11,072	-1,4855	-40,216	9,3279
36404	11,071	-0,49449	-40,218	9,3153
36405	30,706	-0,99903	2,0029	21,139
36406	30,401	-1,0005	1,2891	21,542
36407	30,319	-1,5793	1,7682	21,659
36408	30,255	-0,51067	1,7828	22,129
36409	30,104	-0,99254	0,59915	21,976
36410	29,688	-0,99179	-5,1217e-002	22,096
36411	29,674	-1,6199	0,57898	22,197
36412	29,633	-0,50268	0,35082	22,924
36413	29,34	-1,0057	0,194	21,002
36414	31,282	-0,99311	1,7638	20,599
36415	31,645	-0,98632	2,4192	20,39
36416	31,222	-1,5045	2,2734	20,492
36417	31,137	-0,48836	2,2344	20,882
36418	30,978	-0,99461	1,05	21,285
36419	30,596	-0,97377	0,39009	21,621
36420	30,571	-1,5565	0,79857	21,693
36421	30,489	-0,48986	0,86563	22,315
36422	11,773	-0,99368	-38,914	9,1256
36423	11,108	-0,98917	-39,094	9,592
36424	11,979	-0,99482	-39,588	8,8075
36425	11,54	-1,4875	-39,348	9,1971
36426	11,539	-0,49663	-39,35	9,1917
36427	31,579	-0,98502	0,86849	20,726
36428	31,905	-0,99923	1,4905	20,621
36429	31,469	-1,5198	1,3718	20,797
36430	31,394	-0,50475	1,3297	21,162
36431	30,18	-0,97302	-0,26028	21,905
36432	29,651	-0,99464	-0,97569	22,096
36433	29,701	-1,4783	-0,61486	22,204
36434	29,677	-0,48911	-0,5177	22,889
36435	29,289	-0,99185	-0,7274	21,646
36436	12,232	-0,99236	-38,06	8,9835
36437	11,568	-0,99284	-38,235	9,446
36438	12,442	-0,99544	-38,726	8,6783
36439	12,004	-1,4882	-38,485	9,0576
36440	12,002	-0,49705	-38,487	9,0565
36441	14,958	-0,95073	-2,3413	12,349
36442	15,574	-0,95611	-2,0086	12,782
36443	15,103	-1,3946	-1,9195	12,494
36444	15,14	-0,93999	-1,4522	12,574
36445	15,07	-0,47651	-1,912	12,529
36446	31,198	-0,96419	0,20854	21,208
36447	30,64	-0,92758	-0,42046	21,595
36448	30,724	-1,4458	-0,11997	21,579
36449	30,636	-0,48391	5,3121e-002	22,223
36450	14,693	-0,95586	-3,1774	12,037
36451	15,336	-0,95041	-2,8666	12,486
36452	14,84	-1,3964	-2,7444	12,2
36453	14,845	-0,47422	-2,7705	12,25
36454	30,112	-0,9492	-1,1359	21,935
36455	29,564	-0,93004	-1,979	21,932
36456	29,203	-1,0107	-2,2093	22,175
36457	29,876	-0,92554	-1,7121	21,884
36458	29,385	-0,71721	-1,6853	22,877
36459	29,964	-1,1415	-1,4481	21,951
36460	29,526	-1,4285	-1,5124	22,447
36461	29,727	-0,50553	-1,2883	22,681
36462	29,074	-1,008	-1,6598	23,711
36463	31,674	-0,94667	3,4452e-002	20,754
36464	32,128	-0,97649	0,60617	20,681
36465	31,704	-1,4917	0,28531	20,773
36466	31,624	-0,48027	0,48967	21,18
36467	12,694	-0,99146	-37,202	8,8286
36468	12,023	-0,98975	-37,389	9,2839
36469	12,904	-0,99392	-37,869	8,5444
36470	12,466	-1,4934	-37,627	8,9079
36471	12,46	-0,49532	-37,637	8,909
36472	31,117	-0,91006	-0,59455	21,22
36473	30,742	-0,88094	-1,1157	21,421
36474	30,608	-1,2963	-0,89376	21,653
36475	30,469	-1,0796	-1,1265	21,534
36476	30,69	-0,44367	-0,69325	22,058
36477	16,55	-0,95757	-2,1905	13,341
36478	15,952	-0,95579	-2,5338	12,9
36479	16,076	-1,4362	-2,1078	13,045
36480	16,15	-0,96143	-1,6303	13,167
36481	16,077	-0,47959	-2,1051	13,114
36482	13,159	-0,99264	-36,333	8,6641
36483	12,49	-0,99182	-36,526	9,1029
36484	13,372	-0,99495	-37,	8,4002
36485	12,933	-1,4947	-36,76	8,746
36486	12,929	-0,49614	-36,767	8,7465
36487	17,514	-0,95699	-2,377	13,875
36488	16,92	-0,95507	-2,72	13,441
36489	17,023	-1,432	-2,2744	13,591
36490	17,108	-0,94772	-1,8217	13,714
36491	17,022	-0,47798	-2,2759	13,661
36492	31,654	-0,88633	-0,70236	20,764
36493	32,077	-0,95026	-0,2202	20,698
36494	31,577	-1,4339	-0,35528	20,809
36495	31,619	-0,46639	-0,32135	21,174
36496	18,495	-0,96522	-2,586	14,418
36497	17,901	-0,95815	-2,9224	13,971
36498	18,004	-1,434	-2,4733	14,123
36499	18,088	-0,95038	-2,0449	14,229
36500	18,007	-0,47902	-2,4782	14,198
36501	14,422	-0,95591	-4,005	11,695
36502	15,061	-0,95655	-3,6997	12,131
36503	14,548	-1,4429	-3,6011	11,863
36504	14,562	-0,48164	-3,5945	11,908
36505	13,627	-0,99485	-35,463	8,4881
36506	12,955	-0,99506	-35,654	8,9146
36507	13,835	-0,9953	-36,133	8,2504
36508	13,391	-1,4916	-35,899	8,5797
36509	13,389	-0,4965	-35,9	8,5798
36510	14,782	-0,95842	-4,5455	11,756
36511	14,15	-0,94912	-4,8301	11,347
36512	14,257	-1,4781	-4,4578	11,492
36513	14,304	-0,47426	-4,4256	11,565
36514	18,87	-0,96919	-3,1312	14,518
36515	19,403	-0,96558	-2,8475	15,015
36516	18,992	-1,4526	-2,6713	14,685
36517	19,074	-0,96917	-2,2418	14,701
36518	18,997	-0,48621	-2,6747	14,746
36519	15,703	-0,9511	-3,3888	12,564
36520	16,322	-0,95329	-3,0634	13,022
36521	15,825	-1,4269	-2,9647	12,732
36522	15,827	-0,4762	-2,9626	12,79
36523	29,16	-0,92971	-2,7309	22,748
36524	29,833	-0,84451	-2,2337	21,762
36525	29,838	-0,89874	-2,6889	21,427
36526	29,582	-1,3241	-2,5216	21,94
36527	29,342	-0,63619	-2,2068	22,628
36528	29,37	-0,42451	-2,455	22,706
36529	15,421	-0,95906	-4,2402	12,176
36530	16,072	-0,95094	-3,9239	12,647
36531	15,543	-1,4695	-3,8444	12,353
36532	15,58	-0,47491	-3,8151	12,43
36533	15,748	-0,96696	-4,7833	12,2
36534	15,102	-0,96912	-5,0809	11,758
36535	15,227	-1,4835	-4,6928	11,932
36536	15,281	-0,48416	-4,6607	12,018
36537	14,1	-0,99615	-34,593	8,3022
36538	13,427	-0,99769	-34,784	8,7142
36539	14,311	-0,99715	-35,259	8,0833
36540	13,865	-1,4935	-35,028	8,3964
36541	13,863	-0,49835	-35,028	8,3961
36542	16,691	-0,95313	-3,5984	13,084
36543	17,306	-0,95623	-3,2654	13,564
36544	16,777	-1,4668	-3,1922	13,244
36545	16,818	-0,47709	-3,1642	13,34
36546	28,441	-0,99978	-3,3813	23,375
36547	29,18	-0,99332	-3,2938	21,864
36548	28,98	-0,71688	-2,4371	23,004
36549	28,829	-1,4423	-2,9291	23,417
36550	28,722	-0,5052	-3,0226	23,792
36551	28,395	-1,0074	-2,8082	26,606
36552	16,399	-0,95884	-4,4669	12,651
36553	17,025	-0,95922	-4,1501	13,13
36554	16,505	-1,4725	-4,0657	12,835
36555	16,564	-0,47604	-4,0327	12,938
36556	27,627	-1,0417	-4,1994	23,432
36557	28,555	-0,98773	-4,0669	21,718
36558	28,106	-1,552	-3,8991	23,439
36559	28,04	-0,49458	-3,808	23,603
36560	27,677	-0,99651	-3,5477	29,002
36561	30,506	-0,85728	-1,6919	21,296
36562	30,369	-0,88221	-2,1725	21,174
36563	30,301	-1,1866	-1,9485	21,373
36564	29,653	-0,63169	-1,9399	22,451
36565	30,233	-1,0559	-1,7028	21,464
36566	30,06	-0,42001	-1,834	22,087
36567	16,709	-0,96541	-5,0261	12,64
36568	16,091	-0,95882	-5,3211	12,193
36569	16,2	-1,4728	-4,9247	12,382
36570	16,254	-0,4828	-4,8967	12,473
36571	17,64	-0,96232	-3,8171	13,582
36572	18,276	-0,96212	-3,4676	14,108
36573	17,753	-1,467	-3,3931	13,781
36574	17,795	-0,47914	-3,3666	13,879
36575	14,568	-0,99695	-33,726	8,1141
36576	13,895	-0,99778	-33,918	8,512
36577	14,776	-0,99649	-34,396	7,9133
36578	14,336	-1,4977	-34,157	8,2084
36579	14,332	-0,4978	-34,162	8,2096
36580	17,334	-0,96579	-4,7092	13,095
36581	17,97	-0,96155	-4,3806	13,623
36582	17,45	-1,474	-4,2923	13,313
36583	17,505	-0,48318	-4,261	13,419
36584	18,606	-0,96135	-4,0311	14,109
36585	19,187	-0,9683	-3,7102	14,687
36586	18,753	-1,4459	-3,5715	14,37
36587	18,757	-0,48298	-3,5686	14,433
36588	17,663	-0,95882	-5,2783	13,073
36589	17,036	-0,95881	-5,5815	12,589
36590	17,148	-1,4682	-5,1733	12,808
36591	17,201	-0,48261	-5,1452	12,906
36592	20,222	-0,99633	-3,2108	15,846
36593	19,719	-0,96469	-3,4265	15,131
36594	20,003	-1,4641	-2,9869	15,516
36595	20,429	-0,72948	-2,8282	16,078
36596	20,096	-1,0202	-2,5338	15,352
36597	19,921	-0,47937	-2,8967	15,43
36598	21,076	-1,0404	-3,4423	17,516
36599	20,552	-1,0014	-3,7687	16,103
36600	20,658	-1,4997	-3,2604	16,45
36601	20,829	-0,76706	-3,0377	16,612
36602	20,496	-1,0578	-2,7434	15,862
36603	20,743	-0,51696	-3,2832	16,621
36604	18,299	-0,95458	-4,9497	13,568
36605	18,9	-0,95518	-4,6261	14,149
36606	18,454	-1,4331	-4,497	13,865
36607	18,455	-0,47837	-4,4937	13,926
36608	15,032	-0,9955	-32,863	7,9244
36609	14,362	-0,9987	-33,052	8,3088
36610	15,243	-0,99787	-33,528	7,7352
36611	14,804	-1,4994	-33,289	8,0182
36612	14,798	-0,49916	-33,296	8,02
36613	18,589	-0,95057	-5,548	13,492
36614	17,977	-0,95197	-5,8503	12,973
36615	18,143	-1,4279	-5,4072	13,274
36616	18,143	-0,47621	-5,4056	13,332
36617	15,498	-0,99461	-31,997	7,7314
36618	14,823	-0,99325	-32,194	8,1081
36619	15,706	-0,99521	-32,666	7,553
36620	15,265	-1,4915	-32,432	7,8275
36621	15,262	-0,49634	-32,434	7,8294
36622	21,931	-1,0077	-3,7205	19,938
36623	21,406	-1,0058	-3,9508	17,777
36624	21,283	-0,77351	-3,0597	17,817
36625	21,489	-1,5167	-3,403	18,636
36626	20,95	-1,0642	-2,7653	17,019
36627	21,57	-0,52341	-3,4743	18,903
36628	21,767	-1,0237	-3,0569	20,165
36629	22,811	-0,97305	-4,1804	22,619
36630	22,215	-0,96549	-4,3902	19,796
36631	22,361	-1,4706	-4,0013	21,449
36632	22,372	-0,4843	-3,9497	21,524
36633	22,528	-0,98486	-3,6332	23,586
36634	23,75	-0,9746	-4,5205	24,862
36635	23,127	-0,93102	-4,7401	21,979
36636	23,29	-1,4731	-4,4162	24,057
36637	23,301	-0,48875	-4,3727	24,204
36638	23,434	-0,98959	-4,0613	27,214
36639	15,968	-0,99597	-31,127	7,5371
36640	15,296	-0,99569	-31,32	7,9036
36641	16,176	-0,99734	-31,795	7,3638
36642	15,735	-1,4932	-31,561	7,6324
36643	15,732	-0,49827	-31,563	7,6351
36644	24,797	-0,99496	-4,8097	25,226
36645	24,02	-0,93135	-5,0222	23,238
36646	24,217	-1,4637	-4,6964	25,668
36647	24,233	-0,48585	-4,6437	25,789
36648	24,362	-0,98696	-4,3138	30,033
36649	31,279	-0,85721	-1,2235	20,953
36650	30,949	-0,8831	-1,611	21,076
36651	30,874	-1,1905	-1,4286	21,091
36652	30,594	-1,0732	-1,4279	21,376
36653	30,858	-0,43728	-1,3237	21,613
36654	16,435	-0,99622	-30,259	7,3459
36655	15,763	-0,99391	-30,456	7,7051
36656	16,642	-0,99664	-30,928	7,1746
36657	16,204	-1,4972	-30,69	7,4391
36658	16,2	-0,4977	-30,697	7,4429
36659	26,277	-1,0562	-4,7798	23,877
36660	25,635	-1,0145	-5,2106	23,146
36661	25,023	-0,97243	-5,3331	22,608
36662	25,793	-0,76564	-4,8024	25,421
36663	25,405	-1,4893	-4,9565	25,202
36664	25,276	-0,50911	-4,8951	25,176
36665	25,431	-1,0105	-4,4668	30,712
36666	27,019	-1,058	-5,0224	21,702
36667	27,803	-1,0375	-4,9304	20,906
36668	26,686	-0,80362	-4,6199	24,645
36669	27,064	-1,779	-4,5869	24,047
36670	27,323	-0,5471	-4,5456	22,792
36671	26,793	-1,0488	-4,1693	30,069
36672	16,896	-0,99446	-29,398	7,1612
36673	16,23	-0,99659	-29,585	7,5118
36674	17,109	-0,99741	-30,061	6,9856
36675	16,67	-1,4979	-29,822	7,2491
36676	16,662	-0,49852	-29,832	7,2561
36677	31,622	-0,88328	-1,4132	20,611
36678	32,093	-0,89871	-0,9975	20,65
36679	31,676	-1,3169	-1,0064	20,623
36680	31,69	-0,41993	-1,0299	21,039
36681	19,481	-0,96213	-4,3051	14,67
36682	20,049	-0,96976	-3,9844	15,453
36683	19,641	-1,4477	-3,8315	15,022
36684	19,64	-0,48532	-3,8245	15,065
36685	17,363	-0,9944	-28,531	6,979
36686	16,69	-0,99225	-28,727	7,3287
36687	17,569	-0,99467	-29,201	6,8018
36688	17,131	-1,4958	-28,961	7,0662
36689	17,123	-0,49594	-28,971	7,0741
36690	19,19	-0,95118	-5,2245	14,028
36691	19,753	-0,9606	-4,9164	14,689
36692	19,348	-1,4265	-4,7644	14,408
36693	19,346	-0,47681	-4,7585	14,452
36694	31,292	-0,90917	-1,8007	20,777
36695	30,812	-0,90802	-2,0915	20,822
36696	31,069	-1,3465	-1,8044	20,84
36697	30,986	-0,44582	-1,778	21,261
36698	26,377	-1,0163	-5,4531	20,562
36699	25,691	-0,97649	-5,7233	20,187
36700	25,806	-1,4294	-5,4295	21,561
36701	26,045	-0,76188	-5,0506	23,574
36702	25,909	-0,50535	-5,267	21,907
36703	31,406	-0,89283	-2,1815	20,417
36704	31,991	-0,95081	-1,8243	20,485
36705	31,575	-1,4869	-1,8039	20,56
36706	31,519	-0,46334	-1,8125	20,877
36707	30,927	-0,89168	-2,4724	20,613
36708	30,375	-0,93643	-2,6278	20,747
36709	30,683	-1,3823	-2,2987	20,859
36710	30,549	-0,4622	-2,3169	21,224
36711	17,836	-0,99631	-27,657	6,8009
36712	17,164	-0,9968	-27,851	7,147
36713	18,043	-0,99742	-28,326	6,6161
36714	17,604	-1,4974	-28,088	6,884
36715	17,596	-0,49846	-28,097	6,8926
36716	19,452	-0,95441	-5,8515	13,875
36717	18,877	-0,94867	-6,1429	13,323
36718	19,037	-1,4214	-5,6928	13,681
36719	19,034	-0,47436	-5,6904	13,732
36720	31,084	-0,88567	-2,9389	20,037
36721	31,722	-0,91539	-2,6379	20,26
36722	31,285	-1,4888	-2,5014	20,331
36723	31,259	-0,42948	-2,5664	20,588
36724	20,32	-0,96823	-4,5957	15,384
36725	20,881	-0,96679	-4,2772	16,529
36726	20,451	-1,4677	-4,1399	15,894
36727	20,488	-0,48444	-4,1026	15,963
36728	18,304	-0,99587	-26,79	6,6344
36729	17,632	-0,99661	-26,984	6,9782
36730	18,511	-0,99701	-27,459	6,4393
36731	18,072	-1,4965	-27,221	6,7123
36732	18,064	-0,49784	-27,23	6,7219
36733	30,532	-0,93042	-3,0943	20,287
36734	29,858	-0,96235	-3,2518	20,426
36735	30,228	-1,4805	-2,909	20,544
36736	30,114	-0,47423	-2,8861	21,006
36737	18,771	-0,99607	-25,922	6,4785
36738	18,099	-0,99643	-26,117	6,8209
36739	18,981	-0,99681	-26,589	6,2697
36740	18,54	-1,4976	-26,352	6,55
36741	18,532	-0,49802	-26,363	6,5609
36742	30,71	-0,94681	-3,6614	19,365
36743	31,389	-0,94656	-3,4292	19,832
36744	30,946	-1,5249	-3,2727	19,824
36745	30,909	-0,45619	-3,3114	19,94
36746	20,015	-0,96383	-5,5434	14,478
36747	20,58	-0,94053	-5,2092	15,335
36748	20,133	-1,4662	-5,1034	14,915
36749	20,171	-0,48379	-5,0592	15,021
36750	19,238	-0,99584	-25,056	6,3352
36751	18,566	-0,99509	-25,25	6,6767
36752	19,446	-0,9975	-25,723	6,112
36753	19,007	-1,4968	-25,486	6,4
36754	18,999	-0,49805	-25,495	6,4114
36755	21,141	-0,93908	-4,8907	16,366
36756	21,69	-0,96354	-4,6204	17,813
36757	21,256	-1,4691	-4,472	17,101
36758	21,298	-0,48234	-4,4298	17,179
36759	20,283	-0,972	-6,1646	14,24
36760	19,732	-0,95313	-6,4635	13,63
36761	19,835	-1,461	-6,0472	13,999
36762	19,879	-0,48004	-6,0046	14,104
36763	27,192	-0,98747	-5,6044	19,104
36764	26,573	-0,98365	-5,8708	18,78
36765	26,758	-1,4721	-5,5542	19,804
36766	26,536	-0,76746	-5,045	22,953
36767	26,842	-0,51094	-5,4123	19,887
36768	20,849	-0,9487	-5,8304	15,027
36769	21,398	-0,89968	-5,4758	16,075
36770	20,97	-1,4324	-5,3979	15,625
36771	20,996	-0,45674	-5,3395	15,724
36772	19,7	-0,99388	-24,195	6,2078
36773	19,032	-0,99458	-24,384	6,5475
36774	19,912	-0,99706	-24,857	5,9654
36775	19,473	-1,4966	-24,619	6,2631
36776	19,466	-0,49779	-24,628	6,2752
36777	21,087	-0,97844	-6,4218	14,62
36778	20,612	-0,95015	-6,8081	13,897
36779	20,655	-1,4837	-6,3651	14,346
36780	20,704	-0,49196	-6,3018	14,473
36781	22,531	-0,92347	-4,9499	19,17
36782	21,947	-0,92413	-5,2056	17,426
36783	22,088	-1,4663	-4,8394	18,452
36784	22,112	-0,48119	-4,7828	18,551
36785	20,167	-0,99357	-23,328	6,0947
36786	19,494	-0,99196	-23,523	6,4363
36787	20,377	-0,99485	-23,993	5,8328
36788	19,93	-1,4907	-23,768	6,1444
36789	19,929	-0,49609	-23,767	6,1558
36790	27,975	-0,96696	-5,5124	18,231
36791	27,314	-0,94418	-6,195	17,225
36792	27,957	-0,94811	-6,0403	17,232
36793	27,407	-1,3248	-5,8413	18,161
36794	27,558	-0,47653	-5,7871	17,988
36795	22,769	-0,91881	-5,5113	18,39
36796	23,397	-0,88777	-5,2418	20,207
36797	22,956	-1,4203	-5,1847	19,653
36798	22,963	-0,44227	-5,0962	19,838
36799	20,639	-0,99496	-22,455	5,9978
36800	19,966	-0,99481	-22,65	6,3403
36801	20,849	-0,99624	-23,12	5,713
36802	20,407	-1,4962	-22,885	6,036
36803	20,401	-0,49748	-22,894	6,05
36804	22,185	-0,91948	-5,7669	16,696
36805	21,635	-0,92942	-6,0672	15,593
36806	21,784	-1,5303	-5,691	16,326
36807	21,794	-0,44294	-5,6075	16,45
36808	30,037	-0,97874	-3,819	19,672
36809	29,294	-0,98126	-3,9794	19,889
36810	29,607	-1,4945	-3,6014	20,334
36811	29,554	-0,48812	-3,6208	20,397
36812	22,309	-0,97225	-6,2557	16,081
36813	22,994	-0,91486	-6,049	17,144
36814	22,59	-1,4513	-5,9494	16,974
36815	22,589	-0,47654	-5,9247	16,961
36816	21,759	-0,98219	-6,5559	15,02
36817	21,391	-0,92291	-7,0048	14,193
36818	21,467	-1,6097	-6,6038	14,723
36819	21,487	-0,48648	-6,5193	14,853
36820	30,278	-0,9856	-4,406	18,503
36821	30,988	-0,98586	-4,1941	19,001
36822	30,527	-1,4804	-3,995	19,043
36823	30,497	-0,49062	-4,0332	19,049
36824	21,892	-0,997	-6,9376	14,622
36825	22,478	-0,92829	-6,6818	15,392
36826	22,113	-1,4662	-6,7361	15,052
36827	22,141	-0,49571	-6,6274	15,233
36828	28,73	-0,98358	-4,798	18,87
36829	29,535	-0,98813	-4,5665	18,85
36830	29,01	-1,3787	-4,3701	19,618
36831	29,031	-0,49315	-4,3341	19,583
36832	24,247	-0,90881	-5,5456	20,345
36833	23,622	-0,88382	-5,7795	18,971
36834	23,848	-1,3998	-5,4866	20,288
36835	23,832	-0,4455	-5,3873	20,504
36836	29,029	-0,97482	-5,4696	17,577
36837	28,416	-0,96201	-5,7915	17,243
36838	28,477	-1,392	-5,3378	18,143
36839	28,484	-0,49043	-5,1644	18,41
36840	25,079	-0,93446	-5,8458	19,603
36841	24,435	-0,91937	-6,0883	18,65
36842	24,717	-1,393	-5,7212	20,203
36843	24,666	-0,46332	-5,6796	20,089
36844	22,058	-0,96563	-7,4345	14,02
36845	21,524	-0,93772	-7,3864	13,838
36846	21,793	-1,4194	-7,3278	14,048
36847	21,836	-0,50129	-7,3175	14,079
36848	23,163	-0,8709	-6,4751	16,458
36849	23,81	-0,89438	-6,3222	17,23
36850	23,458	-1,2621	-6,2149	17,343
36851	23,412	-0,43832	-6,1716	17,306
36852	25,886	-0,94385	-6,141	18,36
36853	25,261	-0,93384	-6,3718	17,842
36854	25,498	-1,4	-5,9683	19,279
36855	25,496	-0,47114	-5,9612	18,995
36856	29,834	-0,97938	-5,2382	17,493
36857	30,538	-0,99313	-5,0025	17,993
36858	30,047	-1,484	-4,8095	18,096
36859	30,044	-0,49498	-4,8106	18,072
36860	26,695	-0,94036	-6,4615	16,905
36861	26,051	-0,93746	-6,6747	16,639
36862	26,264	-1,4411	-6,2627	17,75
36863	26,286	-0,47271	-6,2605	17,562
36864	29,43	-0,97375	-6,0957	16,298
36865	30,1	-0,98135	-5,8697	16,801
36866	29,609	-1,4752	-5,6869	16,968
36867	29,623	-0,48439	-5,6459	16,955
36868	27,534	-0,94186	-6,813	15,634
36869	26,89	-0,93598	-7,0154	15,447
36870	27,054	-1,3559	-6,6194	16,337
36871	27,125	-0,46765	-6,6025	16,171
36872	22,645	-0,89692	-7,1787	14,773
36873	23,308	-0,88185	-7,0122	15,317
36874	22,845	-1,3255	-6,8115	15,493
36875	22,936	-0,43258	-6,8609	15,415
36876	23,955	-0,90533	-6,8593	16,115
36877	24,617	-0,91876	-6,6142	16,835
36878	24,247	-1,3183	-6,5226	17,078
36879	24,205	-0,45606	-6,4704	17,07
36880	22,726	-0,91766	-7,7792	13,828
36881	22,004	-0,90037	-7,8599	13,52
36882	22,333	-1,3143	-7,5651	13,995
36883	22,309	-0,46434	-7,6228	13,909
36884	23,389	-0,90259	-7,6127	14,376
36885	24,109	-0,91236	-7,4161	14,834
36886	23,93	-1,363	-7,1723	15,369
36887	23,693	-0,44927	-7,2583	15,035
36888	21,106	-0,99493	-21,587	5,923
36889	20,434	-0,99496	-21,782	6,2665
36890	21,316	-0,99622	-22,252	5,6124
36891	20,875	-1,4964	-22,017	5,95
36892	20,868	-0,49747	-22,027	5,9651
36893	28,817	-0,96094	-6,4175	15,926
36894	28,177	-0,94579	-6,6583	15,656
36895	28,397	-1,3691	-6,3607	16,159
36896	28,422	-0,47158	-6,2458	16,31
36897	21,573	-0,99487	-20,72	5,8713
36898	20,9	-0,99331	-20,916	6,216
36899	21,784	-0,9962	-21,385	5,5315
36900	21,343	-1,4969	-21,149	5,8856
36901	21,336	-0,49746	-21,16	5,9019
36902	29,036	-0,97395	-6,9371	14,928
36903	29,688	-0,98559	-6,7164	15,358
36904	29,215	-1,478	-6,5407	15,626
36905	29,252	-0,48936	-6,4872	15,716
36906	23,547	-0,93276	-8,1553	13,474
36907	22,61	-0,89285	-8,2235	13,263
36908	23,12	-1,3861	-8,2018	13,37
36909	23,072	-0,45331	-7,997	13,646
36910	25,425	-0,92744	-6,9055	16,093
36911	24,771	-0,92579	-7,1711	15,57
36912	24,981	-1,345	-6,7281	16,67
36913	25,018	-0,4627	-6,7622	16,432
36914	28,396	-0,9588	-7,1778	14,613
36915	27,741	-0,95161	-7,4041	14,364
36916	27,996	-1,4319	-7,0736	14,955
36917	27,966	-0,47421	-6,9884	15,064
36918	22,041	-0,99474	-19,853	5,8457
36919	21,367	-0,99324	-20,049	6,1916
36920	22,251	-0,99614	-20,517	5,473
36921	21,809	-1,4963	-20,282	5,8457
36922	21,803	-0,49741	-20,292	5,8633
36923	26,246	-0,93308	-7,2286	15,159
36924	25,566	-0,96206	-7,6254	14,545
36925	25,796	-1,4292	-6,9798	15,933
36926	25,829	-0,46474	-7,0729	15,546
36927	28,604	-0,96764	-7,7869	13,428
36928	29,273	-0,98016	-7,5538	13,746
36929	28,833	-1,4633	-7,355	14,206
36930	28,835	-0,48459	-7,3584	14,206
36931	22,508	-0,99448	-18,985	5,8502
36932	21,834	-0,99303	-19,181	6,1966
36933	22,718	-0,99604	-19,649	5,4402
36934	22,277	-1,4961	-19,415	5,8337
36935	22,271	-0,49732	-19,425	5,8528
36936	24,912	-0,9604	-7,8909	14,005
36937	24,267	-0,94253	-7,9587	13,941
36938	24,593	-1,3944	-7,4808	14,851
36939	24,504	-0,46309	-7,5854	14,56
36940	27,097	-0,94573	-7,6065	14,147
36941	26,426	-0,94155	-7,8167	13,951
36942	26,595	-1,3829	-7,2373	15,099
36943	26,663	-0,46834	-7,4081	14,613
36944	25,746	-0,97053	-8,2135	13,33
36945	25,064	-0,97273	-8,454	13,071
36946	25,395	-1,4313	-7,9858	13,854
36947	25,324	-0,49731	-8,06	13,651
36948	27,949	-0,96044	-8,0132	13,133
36949	27,283	-0,9527	-8,2125	12,998
36950	27,59	-1,4696	-7,864	13,505
36951	27,516	-0,47739	-7,7974	13,66
36952	24,419	-0,95486	-8,5218	12,988
36953	23,596	-0,95719	-8,6517	12,851
36954	23,97	-1,4215	-8,4912	13,047
36955	23,986	-0,47944	-8,353	13,246
36956	28,139	-0,96774	-8,642	11,968
36957	28,809	-0,97833	-8,4156	12,105
36958	28,369	-1,4553	-8,2104	12,677
36959	28,372	-0,48305	-8,2153	12,707
36960	26,613	-0,94852	-8,4227	12,778
36961	25,937	-0,94907	-8,6716	12,575
36962	26,159	-1,3746	-7,9532	13,77
36963	26,187	-0,47322	-8,2552	13,168
36964	22,975	-0,99407	-18,118	5,8895
36965	22,301	-0,99266	-18,314	6,2355
36966	23,186	-0,99586	-18,782	5,4372
36967	22,744	-1,4958	-18,547	5,8536
36968	22,738	-0,49716	-18,558	5,8746
36969	25,254	-0,95127	-8,9121	12,308
36970	24,575	-0,95581	-9,1311	12,158
36971	24,784	-1,4124	-8,7421	12,635
36972	24,827	-0,47541	-8,7265	12,659
36973	27,473	-0,96	-8,8413	11,792
36974	26,802	-0,95501	-9,0423	11,745
36975	27,179	-1,4381	-8,5484	12,429
36976	27,043	-0,4753	-8,6365	12,324
36977	23,442	-0,99346	-17,251	5,9696
36978	22,768	-0,99202	-17,447	6,3132
36979	23,653	-0,9956	-17,914	5,4692
36980	23,211	-1,4958	-17,679	5,911
36981	23,206	-0,49691	-17,691	5,9341
36982	26,127	-0,95556	-9,2912	11,529
36983	25,453	-0,95724	-9,5259	11,431
36984	25,62	-1,3893	-9,1014	11,958
36985	25,696	-0,47585	-9,1122	11,933
36986	27,668	-0,97089	-9,497	10,659
36987	28,342	-0,98041	-9,2755	10,63
36988	27,895	-1,4753	-9,0553	11,277
36989	27,905	-0,48469	-9,0687	11,314
36990	26,997	-0,96591	-9,698	10,581
36991	26,326	-0,96387	-9,91	10,613
36992	26,531	-1,4502	-9,4577	11,154
36993	26,565	-0,4797	-9,489	11,134
36994	23,91	-0,99264	-16,384	6,0976
36995	23,236	-0,99201	-16,581	6,4357
36996	24,12	-0,9952	-17,047	5,5429
36997	23,678	-1,4946	-16,812	6,0123
36998	23,673	-0,49655	-16,823	6,0381
36999	27,194	-0,97404	-10,352	9,5474
37000	27,868	-0,98269	-10,141	9,3765
37001	27,424	-1,4764	-9,9088	10,07
37002	27,431	-0,4862	-9,9253	10,1
37003	24,377	-0,9916	-15,518	6,2834
37004	23,703	-0,991	-15,716	6,611
37005	24,585	-0,99511	-16,183	5,6669
37006	24,145	-1,4936	-15,946	6,1655
37007	24,141	-0,49609	-15,957	6,1948
37008	26,721	-0,97759	-11,207	8,637
37009	26,523	-0,97201	-10,564	9,558
37010	27,396	-0,98435	-10,999	8,3666
37011	26,952	-1,4774	-10,768	9,0444
37012	26,957	-0,48784	-10,779	9,0925
37013	24,845	-0,99029	-14,653	6,5396
37014	24,171	-0,98833	-14,852	6,8492
37015	25,053	-0,99408	-15,317	5,8519
37016	24,613	-1,4928	-15,08	6,3821
37017	24,609	-0,49551	-15,09	6,4159
37018	26,25	-0,98248	-12,065	7,9066
37019	26,048	-0,97615	-11,415	8,7464
37020	26,925	-0,98674	-11,86	7,5673
37021	26,482	-1,4822	-11,627	8,2244
37022	26,484	-0,48975	-11,636	8,2747
37023	25,313	-0,98867	-13,788	6,8823
37024	24,639	-0,98639	-13,987	7,1669
37025	25,523	-0,99309	-14,447	6,1137
37026	25,076	-1,4843	-14,223	6,673
37027	25,076	-0,49478	-14,224	6,7156
37028	25,781	-0,98662	-12,925	7,3302
37029	25,108	-0,98404	-13,127	7,5732
37030	25,991	-0,99196	-13,581	6,4718
37031	25,548	-1,4891	-13,351	7,0662
37032	25,544	-0,49389	-13,358	7,1121
37033	25,577	-0,98118	-12,269	8,0926
37034	26,459	-0,99043	-12,716	6,9488
37035	26,012	-1,4784	-12,492	7,5717
37036	26,012	-0,49274	-12,494	7,6266
37037	25,85	-0,97057	-10,772	9,6814
37038	25,653	-0,96555	-10,145	10,507
37039	26,087	-1,4495	-10,346	10,084
37040	26,088	-0,48417	-10,349	10,121
37041	25,375	-0,97485	-11,619	8,9421
37042	25,174	-0,97041	-10,983	9,6919
37043	25,606	-1,4741	-11,184	9,2778
37044	25,612	-0,48641	-11,194	9,3083
37045	24,904	-0,97859	-12,472	8,3424
37046	24,699	-0,97792	-11,828	9,0236
37047	25,137	-1,4628	-12,042	8,6022
37048	25,138	-0,48844	-12,045	8,6438
37049	24,434	-0,98176	-13,326	7,8626
37050	24,231	-0,9775	-12,677	8,4803
37051	24,668	-1,4825	-12,893	8,0676
37052	24,669	-0,49015	-12,899	8,1059
37053	23,965	-0,98443	-14,187	7,4796
37054	23,76	-0,9851	-13,529	8,0443
37055	24,2	-1,489	-13,75	7,6412
37056	24,199	-0,49161	-13,753	7,6794
37057	23,497	-0,98774	-15,05	7,1788
37058	23,292	-0,98372	-14,391	7,6912
37059	23,732	-1,4882	-14,615	7,301
37060	23,732	-0,49282	-14,62	7,3346
37061	23,03	-0,99037	-15,913	6,9502
37062	22,825	-0,98601	-15,249	7,4172
37063	23,261	-1,4809	-15,477	7,0431
37064	23,262	-0,49491	-15,478	7,074
37065	22,562	-0,99058	-16,777	6,7798
37066	22,357	-0,98775	-16,108	7,2061
37067	22,794	-1,4832	-16,342	6,8447
37068	22,796	-0,49546	-16,344	6,8727
37069	22,095	-0,99061	-17,643	6,6592
37070	21,89	-0,98853	-16,972	7,0468
37071	22,331	-1,4927	-17,206	6,7003
37072	22,328	-0,49512	-17,21	6,7263
37073	21,628	-0,9912	-18,51	6,5816
37074	21,423	-0,98983	-17,839	6,9344
37075	21,861	-1,4859	-18,076	6,6035
37076	21,862	-0,4955	-18,077	6,6265
37077	21,161	-0,99153	-19,377	6,5421
37078	20,957	-0,99077	-18,705	6,8637
37079	21,394	-1,4867	-18,943	6,5467
37080	21,395	-0,4957	-18,944	6,5675
37081	20,694	-0,99168	-20,244	6,536
37082	20,49	-0,99141	-19,572	6,8295
37083	20,928	-1,4873	-19,811	6,5254
37084	20,928	-0,49583	-19,811	6,5442
37085	20,228	-0,99334	-21,111	6,5593
37086	20,023	-0,99167	-20,438	6,8279
37087	20,463	-1,4947	-20,674	6,535
37088	20,461	-0,49585	-20,678	6,5524
37089	19,761	-0,99481	-21,977	6,609
37090	19,556	-0,99391	-21,305	6,8554
37091	19,997	-1,4967	-21,54	6,5726
37092	19,994	-0,49748	-21,544	6,5884
37093	19,294	-0,9932	-22,845	6,6822
37094	19,089	-0,99394	-22,172	6,9091
37095	19,529	-1,4959	-22,408	6,6352
37096	19,527	-0,49732	-22,412	6,6495
37097	18,827	-0,99267	-23,713	6,7766
37098	18,623	-0,99191	-23,038	6,9861
37099	19,06	-1,4876	-23,279	6,72
37100	19,06	-0,49587	-23,279	6,7328
37101	18,36	-0,99384	-24,579	6,89
37102	18,155	-0,99292	-23,905	7,0849
37103	18,593	-1,4885	-24,146	6,8249
37104	18,593	-0,49679	-24,146	6,8365
37105	17,893	-0,99545	-25,445	7,0204
37106	17,688	-0,99396	-24,772	7,203
37107	18,127	-1,4887	-25,013	6,9476
37108	18,127	-0,49704	-25,013	6,958
37109	17,427	-0,99717	-26,311	7,1662
37110	17,222	-0,99561	-25,638	7,3386
37111	17,662	-1,498	-25,875	7,0859
37112	17,66	-0,49841	-25,879	7,0959
37113	16,959	-0,99711	-27,178	7,3261
37114	16,755	-0,99499	-26,505	7,4905
37115	17,195	-1,4994	-26,741	7,2393
37116	17,193	-0,49877	-26,746	7,2483
37117	16,491	-0,99464	-28,047	7,4988
37118	16,289	-0,99455	-27,371	7,6566
37119	16,727	-1,497	-27,61	7,4064
37120	16,726	-0,49834	-27,614	7,414
37121	16,024	-0,99438	-28,914	7,6817
37122	15,82	-0,9926	-28,239	7,8368
37123	16,26	-1,4964	-28,477	7,5847
37124	16,258	-0,4963	-28,483	7,5917
37125	15,558	-0,99428	-29,782	7,8735
37126	15,355	-0,99459	-29,104	8,028
37127	15,793	-1,4973	-29,343	7,7726
37128	15,792	-0,49807	-29,348	7,7785
37129	15,09	-0,99363	-30,649	8,0743
37130	14,887	-0,99316	-29,973	8,2308
37131	15,326	-1,4959	-30,213	7,9697
37132	15,324	-0,49621	-30,218	7,9749
37133	14,62	-0,99433	-31,518	8,2831
37134	14,419	-0,99489	-30,839	8,4437
37135	14,856	-1,4902	-31,083	8,1753
37136	14,856	-0,49742	-31,083	8,1793
37137	14,153	-0,99645	-32,383	8,4953
37138	13,948	-0,99468	-31,708	8,6663
37139	14,39	-1,4975	-31,947	8,3857
37140	14,384	-0,49691	-31,954	8,3914
37141	13,69	-0,99952	-33,244	8,7093
37142	13,484	-1,0001	-32,568	8,8917
37143	13,925	-1,5003	-32,809	8,5988
37144	13,921	-0,49954	-32,816	8,603
37145	13,223	-0,99932	-34,109	8,9267
37146	13,018	-1,0004	-33,432	9,1239
37147	13,459	-1,5013	-33,674	8,8155
37148	13,455	-0,49998	-33,682	8,8193
37149	12,755	-0,9979	-34,975	9,1433
37150	12,548	-0,99619	-34,301	9,3614
37151	12,992	-1,5003	-34,539	9,0333
37152	12,988	-0,49934	-34,548	9,0364
37153	12,287	-0,99424	-35,847	9,3558
37154	12,085	-0,99694	-35,161	9,5944
37155	12,525	-1,4976	-35,405	9,2487
37156	12,521	-0,49856	-35,414	9,2516
37157	11,819	-0,99012	-36,713	9,5603
37158	11,615	-0,99069	-36,032	9,8265
37159	12,056	-1,4939	-36,277	9,4585
37160	12,051	-0,49568	-36,286	9,4608
37161	11,359	-0,99023	-37,564	9,7484
37162	11,154	-0,98955	-36,884	10,046
37163	11,591	-1,4921	-37,134	9,6573
37164	11,586	-0,49444	-37,141	9,6592
37165	7,5914	-1,0096	-44,325	10,573
37166	6,935	-1,0076	-44,473	11,413
37167	7,3585	-1,5328	-44,707	10,64
37168	7,3586	-0,50498	-44,749	10,512
37169	10,903	-0,98833	-38,416	9,9139
37170	10,698	-0,9894	-37,733	10,246
37171	11,128	-1,4806	-37,99	9,8406
37172	11,13	-0,4958	-37,99	9,8343
37173	8,0539	-1,0064	-43,476	10,544
37174	7,3921	-1,0056	-43,624	11,25
37175	7,8214	-1,5111	-43,935	10,608
37176	7,8184	-0,50458	-43,898	10,474
37177	10,444	-0,98518	-39,27	10,058
37178	10,242	-0,98672	-38,586	10,423
37179	10,673	-1,488	-38,846	9,9976
37180	10,675	-0,49253	-38,844	9,9836
37181	8,5383	-1,0006	-42,636	10,466
37182	7,8643	-1,0017	-42,763	11,095
37183	8,2901	-1,503	-43,051	10,557
37184	8,2895	-0,50179	-43,054	10,42
37185	9,9804	-0,98768	-40,116	10,181
37186	9,7831	-0,98796	-39,433	10,576
37187	10,21	-1,4889	-39,701	10,136
37188	10,214	-0,49264	-39,697	10,109
37189	9,0324	-0,99467	-41,801	10,373
37190	8,3632	-0,99515	-41,932	10,938
37191	8,7873	-1,4941	-42,215	10,458
37192	8,787	-0,49879	-42,219	10,347
37193	9,5124	-0,99091	-40,959	10,283
37194	8,8509	-0,98908	-41,097	10,82
37195	9,2774	-1,4852	-41,379	10,357
37196	9,2777	-0,49588	-41,382	10,279
37197	9,3187	-0,98914	-40,266	10,707
37198	9,7503	-1,4804	-40,539	10,253
37199	9,7512	-0,49503	-40,541	10,205
37200	6,7356	-1,0036	-43,772	12,066
37201	6,0863	-0,96658	-44,013	13,484
37202	6,4684	-1,5453	-44,202	12,361
37203	6,4832	-0,50257	-44,18	12,165
37204	7,2024	-1,0009	-42,911	11,794
37205	6,5375	-1,0048	-43,051	12,99
37206	7,0385	-1,4965	-43,405	11,788
37207	6,9541	-0,50099	-43,338	11,798
37208	7,6892	-0,99625	-42,059	11,565
37209	7,028	-0,99574	-42,185	12,458
37210	7,4487	-1,5008	-42,477	11,712
37211	7,4391	-0,49989	-42,472	11,53
37212	8,1817	-0,98956	-41,228	11,385
37213	7,5175	-0,98743	-41,352	12,148
37214	7,938	-1,4853	-41,641	11,523
37215	7,9393	-0,49636	-41,645	11,351
37216	8,6572	-0,9873	-40,404	11,245
37217	8,0008	-0,98209	-40,53	11,923
37218	8,4228	-1,4766	-40,807	11,358
37219	8,4242	-0,4932	-40,811	11,245
37220	9,1214	-0,98942	-39,583	11,103
37221	8,4629	-0,98519	-39,724	11,734
37222	8,8809	-1,4895	-40,019	11,205
37223	8,897	-0,4941	-39,994	11,133
37224	9,5806	-0,9895	-38,748	10,942
37225	8,9255	-0,98671	-38,901	11,535
37226	9,3472	-1,4905	-39,182	11,043
37227	9,3549	-0,49532	-39,166	11,007
37228	10,036	-0,98778	-37,903	10,758
37229	9,3784	-0,98638	-38,068	11,325
37230	9,8056	-1,4902	-38,335	10,864
37231	9,8126	-0,49418	-38,326	10,845
37232	10,493	-0,98871	-37,054	10,547
37233	9,8323	-0,98583	-37,223	11,09
37234	10,259	-1,4744	-37,482	10,664
37235	10,261	-0,4936	-37,482	10,657
37236	10,95	-0,99013	-36,203	10,315
37237	10,289	-0,9892	-36,372	10,834
37238	10,725	-1,4921	-36,628	10,432
37239	10,716	-0,49511	-36,631	10,439
37240	11,414	-0,99339	-35,346	10,068
37241	10,746	-0,99055	-35,522	10,565
37242	11,186	-1,4938	-35,774	10,19
37243	11,179	-0,49501	-35,777	10,197
37244	11,877	-0,99523	-34,487	9,8156
37245	11,21	-0,99491	-34,663	10,287
37246	11,652	-1,4976	-34,912	9,9364
37247	11,643	-0,49837	-34,919	9,9464
37248	12,343	-0,99723	-33,624	9,5617
37249	11,667	-0,99272	-33,81	10,015
37250	12,115	-1,499	-34,053	9,6834
37251	12,107	-0,49685	-34,059	9,6933
37252	12,813	-1,001	-32,756	9,3093
37253	12,141	-1,0002	-32,941	9,736
37254	12,584	-1,5039	-33,186	9,4288
37255	12,577	-0,50037	-33,191	9,438
37256	13,279	-0,99836	-31,893	9,0657
37257	12,607	-1,001	-32,077	9,4707
37258	13,05	-1,5044	-32,322	9,1814
37259	13,044	-0,50058	-32,327	9,19
37260	13,746	-0,99524	-31,029	8,8296
37261	13,067	-0,99562	-31,218	9,2194
37262	13,516	-1,5	-31,459	8,9413
37263	13,511	-0,49777	-31,462	8,9497
37264	14,215	-0,99442	-30,162	8,6026
37265	13,543	-0,99717	-30,35	8,971
37266	13,982	-1,4917	-30,596	8,7108
37267	13,981	-0,49747	-30,596	8,7175
37268	14,684	-0,99346	-29,296	8,3875
37269	14,012	-0,99622	-29,485	8,7398
37270	14,451	-1,4902	-29,729	8,4892
37271	14,45	-0,49695	-29,729	8,4965
37272	15,151	-0,99281	-28,429	8,1851
37273	14,479	-0,99485	-28,62	8,5232
37274	14,918	-1,489	-28,862	8,28
37275	14,918	-0,49651	-28,862	8,288
37276	15,618	-0,99251	-27,563	7,9963
37277	14,945	-0,9932	-27,756	8,3216
37278	15,385	-1,4885	-27,996	8,084
37279	15,385	-0,4963	-27,996	8,0927
37280	16,084	-0,99244	-26,698	7,8223
37281	15,412	-0,99293	-26,89	8,1357
37282	15,852	-1,4883	-27,13	7,9021
37283	15,852	-0,49621	-27,129	7,9115
37284	16,55	-0,99343	-25,832	7,6639
37285	15,877	-0,99292	-26,026	7,9667
37286	16,318	-1,496	-26,263	7,7351
37287	16,317	-0,49623	-26,264	7,7457
37288	17,017	-0,99412	-24,965	7,5219
37289	16,344	-0,99392	-25,159	7,8149
37290	16,785	-1,4968	-25,396	7,5843
37291	16,784	-0,4972	-25,397	7,5957
37292	17,484	-0,99305	-24,098	7,3982
37293	16,811	-0,99357	-24,293	7,6821
37294	17,251	-1,4891	-24,531	7,451
37295	17,251	-0,49692	-24,531	7,4634
37296	17,952	-0,99216	-23,23	7,2945
37297	17,278	-0,99261	-23,426	7,5695
37298	17,718	-1,4882	-23,663	7,3366
37299	17,718	-0,49613	-23,663	7,35
37300	18,417	-0,99264	-22,365	7,2129
37301	17,745	-0,9923	-22,56	7,4793
37302	18,185	-1,4879	-22,797	7,2432
37303	18,185	-0,49603	-22,797	7,2578
37304	18,883	-0,99304	-21,5	7,1552
37305	18,21	-0,99267	-21,696	7,4132
37306	18,651	-1,4883	-21,932	7,1727
37307	18,651	-0,49661	-21,932	7,1885
37308	19,351	-0,99224	-20,633	7,1235
37309	18,677	-0,99236	-20,83	7,3732
37310	19,118	-1,488	-21,066	7,127
37311	19,118	-0,49642	-21,066	7,1442
37312	19,818	-0,9914	-19,765	7,1209
37313	19,144	-0,99163	-19,963	7,3619
37314	19,585	-1,4874	-20,198	7,1087
37315	19,585	-0,49582	-20,198	7,1276
37316	20,285	-0,99066	-18,899	7,1505
37317	19,611	-0,99087	-19,098	7,3824
37318	20,052	-1,4863	-19,332	7,1211
37319	20,052	-0,49559	-19,332	7,1416
37320	20,752	-0,98941	-18,034	7,2161
37321	20,079	-0,9887	-18,232	7,4373
37322	20,518	-1,4843	-18,465	7,1675
37323	20,518	-0,49507	-18,466	7,1897
37324	21,218	-0,98775	-17,168	7,3219
37325	20,547	-0,98821	-17,368	7,5306
37326	20,984	-1,4817	-17,599	7,2519
37327	20,985	-0,49434	-17,601	7,2758
37328	21,684	-0,9857	-16,303	7,4732
37329	21,014	-0,9846	-16,507	7,6667
37330	21,453	-1,4898	-16,734	7,3776
37331	21,452	-0,49341	-16,735	7,4048
37332	22,151	-0,98338	-15,444	7,6737
37333	21,48	-0,98179	-15,644	7,8531
37334	21,915	-1,4747	-15,87	7,5544
37335	21,917	-0,49229	-15,872	7,5824
37336	22,619	-0,982	-14,589	7,9306
37337	21,948	-0,97898	-14,791	8,0888
37338	22,384	-1,471	-15,014	7,7795
37339	22,386	-0,49109	-15,016	7,8097
37340	23,087	-0,9844	-13,734	8,2572
37341	22,415	-0,97744	-13,939	8,3877
37342	22,853	-1,4847	-14,154	8,0701
37343	22,853	-0,4909	-14,157	8,104
37344	23,557	-0,98085	-12,88	8,6641
37345	22,882	-0,98784	-13,084	8,7631
37346	23,321	-1,4911	-13,295	8,4375
37347	23,322	-0,4935	-13,305	8,4669
37348	24,026	-0,97683	-12,033	9,1643
37349	23,35	-0,98066	-12,237	9,2208
37350	23,79	-1,4786	-12,445	8,8888
37351	23,792	-0,48735	-12,455	8,9175
37352	24,498	-0,97349	-11,191	9,7774
37353	23,819	-0,97376	-11,401	9,775
37354	24,26	-1,4598	-11,608	9,4351
37355	24,261	-0,48948	-11,61	9,4689
37356	24,977	-0,96539	-10,356	10,523
37357	24,293	-0,96715	-10,567	10,453
37358	24,736	-1,45	-10,769	10,112
37359	24,737	-0,48401	-10,772	10,14
37360	24,774	-0,96178	-9,745	11,276
37361	25,216	-1,4415	-9,9367	10,942
37362	25,217	-0,48139	-9,9402	10,951
37363	14,47	-0,95982	-5,3655	11,362
37364	13,827	-0,95114	-5,6354	10,973
37365	13,951	-1,4724	-5,2636	11,123
37366	13,996	-0,47486	-5,2345	11,192
37367	15,445	-0,96097	-5,6187	11,767
37368	14,792	-0,96241	-5,9007	11,351
37369	14,964	-1,4349	-5,4888	11,556
37370	14,964	-0,48496	-5,4904	11,596
37371	16,418	-0,95221	-5,8765	12,162
37372	15,774	-0,95433	-6,1631	11,733
37373	15,947	-1,4271	-5,7394	11,964
37374	15,947	-0,47601	-5,741	12,009
37375	17,35	-0,95197	-6,1535	12,515
37376	16,717	-0,95478	-6,4422	12,076
37377	16,889	-1,4281	-6,0109	12,332
37378	16,889	-0,4762	-6,012	12,381
37379	20,917	-0,89462	-7,3911	13,523
37380	21,469	-0,87246	-7,8119	13,327
37381	21,31	-1,4334	-7,5209	13,574
37382	21,306	-0,43643	-7,4828	13,643
37383	18,265	-0,95007	-6,4452	12,836
37384	17,642	-0,95326	-6,7309	12,383
37385	17,812	-1,4268	-6,2946	12,669
37386	17,81	-0,47576	-6,2949	12,72
37387	20,061	-0,93128	-7,107	13,328
37388	20,406	-0,92675	-7,6819	13,038
37389	20,453	-1,4211	-7,3446	13,332
37390	20,527	-0,45819	-7,2994	13,45
37391	19,158	-0,94739	-6,755	13,114
37392	19,465	-0,94569	-7,3555	12,865
37393	19,54	-1,4454	-6,9676	13,164
37394	19,611	-0,47309	-6,9145	13,285
37395	18,548	-0,95065	-7,0348	12,645
37396	18,723	-1,4213	-6,596	12,977
37397	18,72	-0,4743	-6,5955	13,025
37398	14,15	-0,95373	-6,1706	10,973
37399	13,471	-0,95548	-6,4421	10,59
37400	13,659	-1,4276	-6,0338	10,783
37401	13,659	-0,47629	-6,0363	10,81
37402	23,752	-0,95814	-9,2611	12,008
37403	24,09	-0,96354	-9,9558	11,208
37404	24,306	-1,4769	-9,5187	11,666
37405	24,332	-0,48039	-9,5498	11,634
37406	15,12	-0,95576	-6,445	11,331
37407	14,456	-0,95882	-6,7218	10,941
37408	14,64	-1,4304	-6,3015	11,149
37409	14,64	-0,47745	-6,3049	11,183
37410	22,658	-0,91728	-8,7199	12,625
37411	23,038	-0,96345	-9,4412	11,894
37412	23,262	-1,4942	-9,0885	12,27
37413	23,304	-0,47774	-9,0536	12,317
37414	16,072	-0,95689	-6,7287	11,663
37415	15,413	-0,96207	-7,0108	11,266
37416	15,534	-1,4695	-6,62	11,45
37417	15,6	-0,47831	-6,5851	11,533
37418	21,888	-0,87557	-8,3042	12,951
37419	21,987	-0,90491	-8,8676	12,416
37420	22,274	-1,4408	-8,6025	12,721
37421	22,319	-0,43954	-8,6131	12,731
37422	17,01	-0,95607	-7,0196	11,963
37423	16,341	-0,96367	-7,3129	11,551
37424	16,471	-1,4693	-6,9122	11,76
37425	16,545	-0,47857	-6,8723	11,854
37426	20,958	-0,9046	-8,1027	12,861
37427	21,344	-0,91479	-8,6639	12,484
37428	21,776	-1,3878	-8,1362	13,1
37429	21,551	-0,43603	-8,2391	12,954
37430	17,925	-0,95384	-7,3204	12,215
37431	17,272	-0,95553	-7,6069	11,808
37432	17,477	-1,4303	-7,1642	12,092
37433	17,474	-0,4775	-7,1668	12,136
37434	19,81	-0,94116	-7,9305	12,595
37435	20,166	-0,94242	-8,4789	12,321
37436	20,261	-1,359	-8,0563	12,66
37437	20,297	-0,46857	-8,0877	12,691
37438	18,856	-0,94894	-7,6353	12,421
37439	19,184	-0,94481	-8,1917	12,209
37440	19,332	-1,4336	-7,8175	12,492
37441	19,336	-0,4726	-7,7965	12,55
37442	18,206	-0,94963	-7,897	12,028
37443	18,332	-1,4261	-7,5001	12,284
37444	18,388	-0,47634	-7,4713	12,368
37445	13,777	-0,96057	-6,9932	10,568
37446	13,102	-0,96186	-7,256	10,216
37447	13,292	-1,4344	-6,8414	10,399
37448	13,292	-0,47919	-6,8455	10,425
37449	14,749	-0,96513	-7,2875	10,888
37450	14,077	-0,9687	-7,5607	10,527
37451	14,272	-1,4409	-7,1327	10,729
37452	14,272	-0,48138	-7,1386	10,759
37453	15,681	-0,96885	-7,595	11,168
37454	15,031	-0,97637	-7,8728	10,812
37455	15,226	-1,447	-7,4288	11,034
37456	15,225	-0,48375	-7,4365	11,066
37457	16,604	-0,96314	-7,9003	11,413
37458	15,942	-0,9765	-8,2033	11,046
37459	16,075	-1,4801	-7,79	11,245
37460	16,153	-0,4851	-7,7446	11,333
37461	17,554	-0,95132	-8,1835	11,638
37462	16,887	-0,95767	-8,4892	11,272
37463	17,016	-1,4696	-8,065	11,495
37464	17,091	-0,47804	-8,0383	11,572
37465	18,534	-0,9455	-8,4534	11,832
37466	17,862	-0,94542	-8,7277	11,484
37467	18,027	-1,4053	-8,3395	11,726
37468	18,043	-0,47328	-8,3142	11,781
37469	19,539	-0,94607	-8,7401	11,952
37470	18,883	-0,93658	-8,9678	11,65
37471	19,033	-1,4254	-8,5955	11,895
37472	19,032	-0,47222	-8,5868	11,946
37473	20,551	-0,95261	-9,0401	11,968
37474	19,867	-0,94382	-9,2714	11,692
37475	20,026	-1,3591	-8,8789	11,991
37476	20,046	-0,47385	-8,8934	12,016
37477	21,443	-0,94413	-9,2272	11,973
37478	20,742	-0,96413	-9,5073	11,672
37479	21,241	-1,3792	-9,223	11,94
37480	21,056	-0,47876	-9,1868	11,982
37481	22,367	-0,95109	-9,5888	11,684
37482	21,698	-0,94144	-9,8066	11,52
37483	21,914	-1,4086	-9,2717	11,987
37484	21,925	-0,46537	-9,4021	11,895
37485	23,377	-0,96886	-10,136	11,091
37486	22,696	-0,96867	-10,339	11,018
37487	22,927	-1,4522	-9,927	11,371
37488	22,926	-0,48571	-9,9283	11,39
37489	23,614	-0,96743	-10,776	10,451
37490	23,842	-1,468	-10,344	10,811
37491	23,849	-0,48315	-10,362	10,816
37492	13,402	-0,96999	-7,8235	10,184
37493	12,72	-0,96899	-8,0806	9,8596
37494	12,92	-1,4443	-7,6588	10,034
37495	12,923	-0,48267	-7,6642	10,059
37496	14,359	-0,97994	-8,146	10,462
37497	13,653	-0,98332	-8,4173	10,122
37498	13,832	-1,4808	-8,	10,297
37499	13,882	-0,48732	-7,9829	10,35
37500	15,292	-0,98402	-8,4811	10,703
37501	14,593	-0,99151	-8,7617	10,367
37502	14,768	-1,4912	-8,3366	10,553
37503	14,836	-0,49262	-8,3092	10,619
37504	16,225	-0,97103	-8,7922	10,92
37505	15,553	-0,99828	-9,1021	10,588
37506	15,673	-1,4866	-8,6932	10,76
37507	15,776	-0,4914	-8,6162	10,86
37508	17,195	-0,95177	-9,0333	11,132
37509	16,518	-0,96831	-9,4653	10,757
37510	16,599	-1,4307	-8,9526	10,977
37511	16,704	-0,47963	-8,9272	11,056
37512	18,211	-0,93651	-9,2421	11,314
37513	17,573	-0,93176	-9,4913	11,04
37514	17,737	-1,3655	-9,1475	11,229
37515	17,687	-0,47214	-9,1354	11,261
37516	19,211	-0,93434	-9,4991	11,4
37517	18,613	-0,916	-9,7118	11,175
37518	18,71	-1,405	-9,3215	11,394
37519	18,735	-0,46437	-9,3488	11,423
37520	20,058	-0,95534	-9,7386	11,403
37521	19,508	-0,93987	-10,038	11,148
37522	19,669	-1,4238	-9,6068	11,423
37523	19,705	-0,46997	-9,6547	11,436
37524	20,997	-0,96143	-10,087	11,229
37525	20,322	-0,96517	-10,307	11,066
37526	20,601	-1,4437	-9,9244	11,332
37527	20,545	-0,48537	-9,9163	11,369
37528	22,934	-0,96724	-10,979	10,38
37529	23,143	-0,97759	-11,604	9,8316
37530	23,373	-1,474	-11,171	10,123
37531	23,379	-0,48428	-11,191	10,136
37532	22,027	-0,95902	-10,556	10,859
37533	21,357	-0,95359	-10,772	10,763
37534	21,562	-1,4399	-10,313	11,083
37535	21,576	-0,47606	-10,36	11,081
37536	22,255	-0,97364	-11,18	10,364
37537	22,48	-1,4732	-10,745	10,664
37538	22,489	-0,48295	-10,767	10,676
37539	22,464	-0,98399	-11,806	9,8169
37540	22,675	-0,98765	-12,44	9,3197
37541	22,905	-1,4869	-12,003	9,5581
37542	22,91	-0,49331	-12,023	9,5763
37543	21,585	-0,96821	-11,396	10,272
37544	21,792	-0,98235	-12,014	9,8381
37545	22,016	-1,4816	-11,574	10,087
37546	22,026	-0,49068	-11,597	10,103
37547	20,683	-0,95733	-10,993	10,607
37548	20,925	-0,95479	-11,617	10,219
37549	21,13	-1,459	-11,176	10,472
37550	21,148	-0,47753	-11,199	10,49
37551	19,772	-0,9497	-10,607	10,824
37552	20,022	-0,94883	-11,204	10,505
37553	20,204	-1,4504	-10,776	10,746
37554	20,239	-0,4798	-10,801	10,77
37555	18,91	-0,92154	-10,251	10,93
37556	19,143	-0,9263	-10,815	10,675
37557	19,297	-1,429	-10,419	10,888
37558	19,353	-0,4699	-10,435	10,923
37559	17,976	-0,91125	-9,961	10,909
37560	18,314	-0,89849	-10,418	10,766
37561	18,415	-1,4027	-10,081	10,934
37562	18,492	-0,45163	-10,075	10,99
37563	17,478	-0,92263	-10,18	10,711
37564	16,896	-0,9483	-9,9233	10,681
37565	17,479	-1,347	-9,8735	10,834
37566	17,459	-0,45962	-9,8473	10,877
37567	17,816	-0,90987	-10,638	10,575
37568	17,264	-0,93484	-10,725	10,45
37569	17,458	-1,3399	-10,492	10,568
37570	17,49	-0,46301	-10,506	10,601
37571	18,547	-0,90325	-10,983	10,515
37572	17,926	-0,91319	-11,128	10,39
37573	18,099	-1,3383	-10,791	10,548
37574	18,135	-0,44686	-10,762	10,598
37575	22,003	-0,98601	-12,648	9,3431
37576	22,209	-0,98089	-13,29	8,8932
37577	22,44	-1,4907	-12,849	9,0879
37578	22,444	-0,49434	-12,866	9,1106
37579	19,392	-0,92542	-11,412	10,362
37580	18,74	-0,92105	-11,596	10,261
37581	18,936	-1,415	-11,174	10,46
37582	18,958	-0,4564	-11,203	10,483
37583	21,132	-0,96894	-12,234	9,7897
37584	21,334	-0,97475	-12,86	9,3974
37585	21,56	-1,4836	-12,416	9,6029
37586	21,568	-0,49167	-12,44	9,6206
37587	20,264	-0,94629	-11,828	10,123
37588	19,595	-0,94944	-12,018	10,07
37589	19,801	-1,4442	-11,6	10,269
37590	19,827	-0,46903	-11,622	10,291
37591	20,467	-0,95767	-12,444	9,7822
37592	20,685	-1,4611	-12,007	9,9881
37593	20,701	-0,47727	-12,034	10,006
37594	21,541	-0,96962	-13,501	8,9496
37595	21,743	-0,97443	-14,142	8,5456
37596	21,976	-1,4783	-13,705	8,6989
37597	21,977	-0,48654	-13,717	8,7259
37598	20,668	-0,96348	-13,07	9,393
37599	20,871	-0,97357	-13,703	9,0382
37600	21,102	-1,4724	-13,269	9,1995
37601	21,105	-0,48308	-13,286	9,2231
37602	19,797	-0,96081	-12,634	9,7324
37603	20,	-0,96241	-13,272	9,4194
37604	20,228	-1,4625	-12,837	9,5875
37605	20,235	-0,48041	-12,858	9,6097
37606	18,942	-0,94506	-12,202	9,973
37607	19,131	-0,95957	-12,829	9,7061
37608	19,363	-1,4185	-12,414	9,869
37609	19,366	-0,48041	-12,422	9,8984
37610	18,119	-0,93099	-11,741	10,139
37611	18,283	-0,94127	-12,381	9,9023
37612	18,503	-1,421	-11,993	10,058
37613	18,522	-0,46465	-11,988	10,093
37614	17,374	-0,93816	-11,215	10,265
37615	17,464	-0,94484	-11,874	10,042
37616	17,784	-1,3629	-11,446	10,228
37617	17,717	-0,46634	-11,511	10,228
37618	12,971	-0,98231	-8,6743	9,8066
37619	12,301	-0,975	-8,9178	9,5172
37620	12,485	-1,4855	-8,4984	9,6711
37621	12,518	-0,48632	-8,4969	9,7041
37622	16,683	-0,96051	-10,468	10,406
37623	16,736	-0,96061	-11,289	10,146
37624	16,896	-1,4203	-10,838	10,323
37625	17,003	-0,47183	-10,921	10,347
37626	13,887	-0,99488	-9,033	10,038
37627	13,22	-0,99312	-9,282	9,7514
37628	13,388	-1,4967	-8,8618	9,9053
37629	13,444	-0,49599	-8,8499	9,9529
37630	15,846	-0,99556	-9,7752	10,44
37631	15,987	-0,98255	-10,53	10,24
37632	16,287	-1,5164	-10,063	10,458
37633	16,334	-0,48868	-9,9994	10,531
37634	14,855	-1,0058	-9,3827	10,264
37635	14,144	-1,0052	-9,6498	9,9663
37636	14,3	-1,5032	-9,2361	10,121
37637	14,392	-0,49889	-9,181	10,196
37638	15,083	-1,0085	-10,037	10,149
37639	15,262	-1,5061	-9,5999	10,326
37640	15,359	-0,50688	-9,5511	10,401
37641	12,55	-0,98581	-9,5254	9,47
37642	11,852	-0,97842	-9,7592	9,201
37643	12,046	-1,4908	-9,3286	9,3421
37644	12,084	-0,48868	-9,3386	9,3708
37645	13,477	-1,0035	-9,8987	9,6883
37646	12,771	-0,99496	-10,145	9,4204
37647	12,955	-1,4991	-9,7231	9,5593
37648	13,016	-0,49712	-9,7122	9,603
37649	14,372	-1,0079	-10,304	9,862
37650	13,658	-1,0087	-10,547	9,6055
37651	13,868	-1,511	-10,114	9,758
37652	13,938	-0,50634	-10,085	9,8107
37653	15,223	-0,99545	-10,792	9,9606
37654	14,546	-1,0123	-10,978	9,7517
37655	14,75	-1,5068	-10,553	9,9044
37656	14,833	-0,50158	-10,491	9,9703
37657	16,04	-0,98265	-11,352	9,9803
37658	15,367	-0,99413	-11,512	9,8107
37659	15,597	-1,4872	-11,071	9,9725
37660	15,651	-0,49387	-11,021	10,027
37661	16,826	-0,96729	-11,948	9,9228
37662	16,173	-0,98787	-12,071	9,8062
37663	16,424	-1,4732	-11,63	9,9667
37664	16,431	-0,48878	-11,636	9,9976
37665	17,628	-0,95513	-12,514	9,8069
37666	16,972	-0,96912	-12,652	9,7287
37667	17,202	-1,4541	-12,228	9,8755
37668	17,212	-0,47851	-12,254	9,8982
37669	18,472	-0,95578	-13,009	9,6391
37670	17,803	-0,96207	-13,178	9,5971
37671	18,044	-1,4509	-12,743	9,743
37672	18,045	-0,47662	-12,774	9,7625
37673	19,334	-0,96116	-13,467	9,3964
37674	18,663	-0,96363	-13,652	9,3999
37675	18,899	-1,4322	-13,237	9,5333
37676	18,899	-0,47916	-13,243	9,5618
37677	21,073	-0,97838	-14,343	8,6356
37678	21,276	-0,97739	-14,991	8,2679
37679	21,509	-1,4809	-14,559	8,3868
37680	21,509	-0,48789	-14,567	8,4149
37681	20,202	-0,9725	-13,905	9,067
37682	19,533	-0,96725	-14,104	9,1196
37683	19,764	-1,4692	-13,673	9,2538
37684	19,768	-0,482	-13,691	9,2773
37685	20,403	-0,98427	-14,542	8,7478
37686	20,635	-1,4812	-14,11	8,8764
37687	20,637	-0,49049	-14,123	8,9016
37688	20,606	-0,98328	-15,19	8,3814
37689	20,81	-0,98069	-15,847	8,0459
37690	21,043	-1,4837	-15,411	8,1382
37691	21,043	-0,48951	-15,415	8,1667
37692	19,733	-0,97902	-14,741	8,8027
37693	19,936	-0,98697	-15,39	8,5121
37694	20,169	-1,4868	-14,957	8,6128
37695	20,17	-0,49378	-14,968	8,6378
37696	18,862	-0,96972	-14,289	9,1259
37697	19,064	-0,9734	-14,941	8,8756
37698	19,296	-1,4754	-14,505	8,984
37699	19,297	-0,48525	-14,517	9,0094
37700	17,994	-0,96991	-13,821	9,3611
37701	18,197	-0,97299	-14,481	9,1479
37702	18,429	-1,4504	-14,057	9,2572
37703	18,427	-0,48447	-14,061	9,2855
37704	17,146	-0,97606	-13,316	9,5217
37705	17,329	-0,97597	-14,001	9,338
37706	17,567	-1,4523	-13,577	9,4525
37707	17,562	-0,48544	-13,582	9,4798
37708	16,319	-0,98971	-12,775	9,615
37709	16,485	-0,98501	-13,482	9,4572
37710	16,716	-1,484	-13,039	9,5813
37711	16,727	-0,49062	-13,055	9,6057
37712	15,5	-0,99935	-12,232	9,6422
37713	15,657	-0,99842	-12,941	9,5089
37714	15,89	-1,4947	-12,498	9,637
37715	15,907	-0,49909	-12,5	9,6666
37716	14,689	-1,0109	-11,699	9,6091
37717	14,834	-1,0049	-12,414	9,4953
37718	15,103	-1,5133	-11,955	9,6378
37719	15,099	-0,50026	-11,951	9,6639
37720	12,073	-0,98758	-10,378	9,1593
37721	11,373	-0,97967	-10,593	8,9206
37722	11,586	-1,4878	-10,164	9,0426
37723	11,62	-0,48974	-10,18	9,0691
37724	13,832	-1,013	-11,221	9,5049
37725	14,006	-1,0133	-11,902	9,4244
37726	14,282	-1,5284	-11,436	9,5734
37727	14,285	-0,51069	-11,434	9,5989
37728	12,953	-1,0002	-10,792	9,347
37729	12,269	-0,99464	-11,013	9,1212
37730	12,519	-1,4893	-10,573	9,2588
37731	12,526	-0,49784	-10,577	9,2801
37732	13,131	-1,0049	-11,449	9,2884
37733	13,342	-1,5111	-11,019	9,4138
37734	13,399	-0,50234	-10,997	9,4558
37735	11,569	-0,98673	-11,228	8,8902
37736	10,873	-0,97939	-11,425	8,681
37737	11,12	-1,466	-11,004	8,7904
37738	11,126	-0,48993	-11,007	8,8068
37739	12,448	-0,99933	-11,67	9,0711
37740	11,754	-0,99164	-11,878	8,8725
37741	11,975	-1,4993	-11,45	8,9735
37742	12,013	-0,4968	-11,448	9,0021
37743	13,305	-1,0052	-12,13	9,217
37744	12,619	-1,0015	-12,335	9,0378
37745	12,878	-1,5037	-11,891	9,1498
37746	12,883	-0,50253	-11,891	9,1713
37747	14,15	-1,0073	-12,617	9,3188
37748	13,469	-1,0036	-12,815	9,165
37749	13,701	-1,5108	-12,377	9,268
37750	13,733	-0,50263	-12,364	9,2991
37751	14,99	-1,004	-13,124	9,3686
37752	14,316	-1,0051	-13,312	9,2469
37753	14,574	-1,5104	-12,869	9,3527
37754	14,573	-0,50464	-12,865	9,3773
37755	15,823	-0,99373	-13,648	9,3561
37756	15,156	-0,99774	-13,824	9,2723
37757	15,409	-1,4955	-13,384	9,3729
37758	15,405	-0,49933	-13,381	9,3983
37759	16,668	-0,98492	-14,167	9,2776
37760	16,001	-0,99103	-14,339	9,2344
37761	16,231	-1,4929	-13,9	9,3295
37762	16,24	-0,4944	-13,913	9,3535
37763	20,14	-0,98438	-16,047	8,1779
37764	20,343	-0,98506	-16,707	7,8747
37765	20,577	-1,4868	-16,27	7,9425
37766	20,577	-0,49119	-16,278	7,9674
37767	17,531	-0,97904	-14,661	9,1284
37768	16,86	-0,98642	-14,84	9,1279
37769	17,093	-1,4836	-14,406	9,2186
37770	17,097	-0,49052	-14,421	9,2417
37771	19,267	-0,98134	-15,591	8,5872
37772	19,469	-0,98441	-16,245	8,3263
37773	19,703	-1,4859	-15,809	8,4027
37774	19,703	-0,49319	-15,817	8,428
37775	18,399	-0,97667	-15,133	8,9006
37776	17,732	-0,97958	-15,326	8,9437
37777	17,962	-1,4819	-14,885	9,0327
37778	17,966	-0,48852	-14,901	9,0551
37779	18,597	-0,98107	-15,787	8,6806
37780	18,831	-1,4824	-15,351	8,7631
37781	18,832	-0,48815	-15,365	8,7861
37782	19,672	-0,98509	-16,905	8,0244
37783	19,874	-0,98751	-17,567	7,751
37784	20,105	-1,4776	-17,133	7,7973
37785	20,105	-0,49388	-17,135	7,8219
37786	18,799	-0,98413	-16,442	8,4219
37787	19,	-0,98431	-17,104	8,188
37788	19,236	-1,4719	-16,672	8,2392
37789	19,236	-0,49122	-16,675	8,2644
37790	17,93	-0,98398	-15,98	8,7266
37791	18,125	-0,9862	-16,637	8,5341
37792	18,364	-1,4727	-16,209	8,5896
37793	18,363	-0,49291	-16,211	8,615
37794	17,06	-0,98696	-15,506	8,9467
37795	17,256	-0,98514	-16,174	8,7897
37796	17,493	-1,4865	-15,737	8,8525
37797	17,497	-0,49106	-15,752	8,874
37798	16,193	-0,99253	-15,012	9,0889
37799	16,384	-0,98958	-15,697	8,9654
37800	16,62	-1,4948	-15,25	9,0332
37801	16,623	-0,4959	-15,267	9,0548
37802	15,334	-0,99503	-14,515	9,1559
37803	15,52	-0,99215	-15,197	9,066
37804	15,757	-1,4966	-14,759	9,1347
37805	15,762	-0,49663	-14,77	9,1574
37806	14,483	-0,99891	-14,012	9,1572
37807	14,661	-0,99475	-14,698	9,0951
37808	14,907	-1,4935	-14,267	9,1659
37809	14,906	-0,4984	-14,265	9,1896
37810	13,635	-1,0014	-13,51	9,1007
37811	13,809	-0,9979	-14,196	9,0623
37812	14,059	-1,4993	-13,762	9,1371
37813	14,06	-0,50051	-13,759	9,1596
37814	11,058	-0,98431	-12,075	8,6707
37815	10,372	-0,978	-12,259	8,4906
37816	10,615	-1,4653	-11,841	8,5726
37817	10,62	-0,48946	-11,843	8,5884
37818	12,782	-0,99988	-13,019	8,994
37819	12,957	-0,99823	-13,697	8,9759
37820	13,208	-1,5003	-13,264	9,0538
37821	13,211	-0,50094	-13,26	9,0749
37822	11,925	-0,99378	-12,543	8,8475
37823	11,238	-0,98755	-12,733	8,6792
37824	11,491	-1,4813	-12,306	8,7622
37825	11,496	-0,49484	-12,307	8,7797
37826	12,098	-0,9947	-13,211	8,8443
37827	12,35	-1,4937	-12,78	8,9247
37828	12,354	-0,49894	-12,778	8,9441
37829	10,553	-0,98125	-12,917	8,5064
37830	9,8774	-0,97615	-13,088	8,3538
37831	10,12	-1,4631	-12,673	8,4102
37832	10,125	-0,48853	-12,674	8,4244
37833	11,412	-0,98847	-13,402	8,6838
37834	10,735	-0,98412	-13,579	8,5441
37835	10,976	-1,4754	-13,159	8,5971
37836	10,98	-0,49271	-13,16	8,6131
37837	12,273	-0,99306	-13,889	8,8339
37838	11,597	-0,98922	-14,07	8,7125
37839	11,839	-1,4849	-13,646	8,7633
37840	11,843	-0,49576	-13,644	8,7811
37841	13,131	-0,99469	-14,384	8,9446
37842	12,457	-0,99216	-14,564	8,8469
37843	12,7	-1,49	-14,136	8,8959
37844	12,703	-0,49729	-14,134	8,9152
37845	13,988	-0,99374	-14,882	9,0065
37846	13,313	-0,99262	-15,063	8,9368
37847	13,557	-1,4907	-14,636	8,9837
37848	13,558	-0,49739	-14,633	9,0044
37849	14,847	-0,99187	-15,38	9,0105
37850	14,172	-0,99121	-15,562	8,9735
37851	14,418	-1,4881	-15,133	9,0185
37852	14,418	-0,49635	-15,131	9,0404
37853	15,711	-0,98921	-15,881	8,947
37854	15,032	-0,98974	-16,06	8,9479
37855	15,278	-1,4849	-15,636	8,9899
37856	15,277	-0,49553	-15,634	9,0128
37857	19,201	-0,98673	-17,766	7,916
37858	19,404	-0,98891	-18,431	7,6682
37859	19,637	-1,4805	-17,997	7,6942
37860	19,638	-0,49363	-17,998	7,7171
37861	16,58	-0,98776	-16,365	8,8122
37862	15,902	-0,98729	-16,555	8,8519
37863	16,146	-1,48	-16,134	8,8905
37864	16,145	-0,49368	-16,134	8,9142
37865	18,326	-0,98638	-17,299	8,3024
37866	18,524	-0,98776	-17,961	8,0954
37867	18,763	-1,4778	-17,531	8,1248
37868	18,763	-0,4931	-17,533	8,1483
37869	17,452	-0,98736	-16,83	8,6001
37870	16,776	-0,98746	-17,025	8,6822
37871	17,017	-1,4911	-16,586	8,7217
37872	17,015	-0,49407	-16,599	8,7433
37873	17,649	-0,98712	-17,495	8,4312
37874	17,888	-1,477	-17,061	8,4668
37875	17,887	-0,49329	-17,063	8,4906
37876	18,728	-0,98994	-18,625	7,849
37877	18,937	-0,9911	-19,295	7,6225
37878	19,17	-1,4851	-18,862	7,6306
37879	19,17	-0,49528	-18,863	7,652
37880	17,847	-0,9885	-18,157	8,2263
37881	18,05	-0,99012	-18,827	8,0399
37882	18,285	-1,4829	-18,386	8,0543
37883	18,285	-0,49466	-18,388	8,0762
37884	16,973	-0,98723	-17,69	8,5161
37885	17,173	-0,98848	-18,357	8,3695
37886	17,41	-1,4806	-17,925	8,3851
37887	17,41	-0,49383	-17,926	8,4073
37888	16,098	-0,987	-17,215	8,7254
37889	16,298	-0,98729	-17,881	8,6172
37890	16,537	-1,4797	-17,454	8,6339
37891	16,537	-0,49339	-17,455	8,6563
37892	15,223	-0,98782	-16,734	8,8571
37893	15,422	-0,98712	-17,4	8,7858
37894	15,66	-1,4804	-16,976	8,8039
37895	15,66	-0,49361	-16,975	8,8259
37896	14,356	-0,98907	-16,242	8,9162
37897	14,552	-0,98866	-16,914	8,8788
37898	14,786	-1,482	-16,493	8,8977
37899	14,786	-0,49421	-16,492	8,9191
37900	10,06	-0,97903	-13,75	8,3985
37901	9,3866	-0,97441	-13,913	8,2702
37902	9,6308	-1,4821	-13,494	8,3006
37903	9,6302	-0,48762	-13,501	8,313
37904	13,497	-0,99009	-15,742	8,9099
37905	13,686	-0,98855	-16,417	8,9031
37906	13,926	-1,4836	-15,994	8,9231
37907	13,926	-0,49486	-15,992	8,9436
37908	10,92	-0,98486	-14,247	8,58
37909	10,246	-0,98094	-14,418	8,4656
37910	10,484	-1,4712	-13,999	8,4917
37911	10,487	-0,49141	-13,999	8,5065
37912	12,639	-0,9901	-15,243	8,8458
37913	12,823	-0,98898	-15,921	8,8649
37914	13,066	-1,4848	-15,494	8,8864
37915	13,067	-0,49523	-15,492	8,9056
37916	11,781	-0,98833	-14,745	8,7327
37917	11,105	-0,98517	-14,921	8,6368
37918	11,348	-1,4953	-14,494	8,6612
37919	11,351	-0,49345	-14,496	8,6778
37920	11,965	-0,98804	-15,422	8,7733
37921	12,209	-1,4832	-14,995	8,7962
37922	12,21	-0,49487	-14,994	8,8141
37923	9,5727	-0,97632	-14,581	8,3443
37924	8,9131	-0,97279	-14,737	8,2421
37925	9,1401	-1,4586	-14,325	8,2435
37926	9,143	-0,48679	-14,325	8,2558
37927	10,431	-0,98125	-15,092	8,5296
37928	9,7693	-0,9778	-15,255	8,4416
37929	9,9996	-1,4668	-14,837	8,4408
37930	10,002	-0,48953	-14,837	8,4547
37931	11,289	-0,98489	-15,598	8,6844
37932	10,628	-0,9849	-15,766	8,615
37933	10,869	-1,4919	-15,342	8,6139
37934	10,86	-0,49171	-15,346	8,6279
37935	12,149	-0,98693	-16,1	8,7989
37936	11,479	-0,98486	-16,276	8,7517
37937	11,717	-1,4782	-15,851	8,7488
37938	11,719	-0,49317	-15,85	8,7658
37939	13,013	-0,98744	-16,596	8,8639
37940	12,345	-0,98644	-16,774	8,8433
37941	12,578	-1,4804	-16,351	8,8401
37942	12,579	-0,49375	-16,35	8,8582
37943	13,883	-0,98814	-17,089	8,8705
37944	13,21	-0,98665	-17,27	8,8802
37945	13,446	-1,4806	-16,844	8,8775
37946	13,446	-0,49369	-16,843	8,8967
37947	14,752	-0,98797	-17,58	8,8116
37948	14,082	-0,98767	-17,762	8,8547
37949	14,326	-1,4926	-17,33	8,8524
37950	14,315	-0,49445	-17,338	8,8726
37951	15,622	-0,98741	-18,066	8,6809
37952	14,952	-0,98715	-18,252	8,7603
37953	15,184	-1,4803	-17,824	8,7588
37954	15,185	-0,49351	-17,825	8,7795
37955	16,499	-0,98854	-18,548	8,4732
37956	15,828	-0,98811	-18,736	8,5917
37957	16,06	-1,4813	-18,307	8,5904
37958	16,06	-0,4939	-18,307	8,6113
37959	18,259	-0,99128	-19,497	7,8149
37960	18,47	-0,99175	-20,16	7,6108
37961	18,704	-1,4873	-19,728	7,6026
37962	18,704	-0,49582	-19,728	7,6225
37963	17,376	-0,9901	-19,027	8,1852
37964	16,704	-0,98959	-19,218	8,3455
37965	16,937	-1,4832	-18,787	8,3433
37966	16,937	-0,49465	-18,788	8,3641
37967	17,581	-0,9911	-19,698	8,019
37968	17,815	-1,4859	-19,266	8,0145
37969	17,815	-0,49546	-19,267	8,0348
37970	17,792	-0,99158	-20,361	7,8162
37971	18,004	-0,992	-21,025	7,6306
37972	18,237	-1,4878	-20,593	7,6077
37973	18,237	-0,49594	-20,593	7,6261
37974	16,909	-0,99058	-19,888	8,1811
37975	17,114	-0,99144	-20,56	8,0331
37976	17,347	-1,4866	-20,129	8,0128
37977	17,348	-0,49564	-20,129	8,0318
37978	16,033	-0,98915	-19,407	8,4665
37979	16,239	-0,9918	-20,077	8,3561
37980	16,47	-1,4843	-19,647	8,3375
37981	16,47	-0,49494	-19,648	8,3568
37982	15,158	-0,98785	-18,922	8,6743
37983	15,365	-0,99087	-19,593	8,6024
37984	15,595	-1,4822	-19,165	8,5834
37985	15,595	-0,49421	-19,165	8,603
37986	14,282	-0,98685	-18,434	8,8073
37987	14,488	-0,98753	-19,108	8,7737
37988	14,719	-1,4805	-18,679	8,7532
37989	14,72	-0,49364	-18,679	8,7728
37990	13,409	-0,98618	-17,943	8,869
37991	13,615	-0,98643	-18,617	8,8719
37992	13,859	-1,4918	-18,184	8,8488
37993	13,845	-0,49321	-18,189	8,8688
37994	9,1098	-0,97427	-15,41	8,3459
37995	8,4553	-0,97126	-15,561	8,2676
37996	8,6808	-1,4566	-15,149	8,2437
37997	8,6833	-0,486	-15,149	8,2554
37998	12,543	-0,98565	-17,448	8,865
37999	12,746	-0,98549	-18,123	8,9015
38000	12,973	-1,4784	-17,697	8,8774
38001	12,974	-0,49296	-17,697	8,8957
38002	9,9661	-0,98145	-15,928	8,5336
38003	9,3103	-0,98063	-16,086	8,4702
38004	9,5499	-1,4842	-15,669	8,446
38005	9,5363	-0,48826	-15,672	8,4573
38006	11,676	-0,98438	-16,95	8,8021
38007	11,882	-0,98647	-17,623	8,8684
38008	12,122	-1,4871	-17,195	8,843
38009	12,108	-0,49269	-17,201	8,86
38010	10,818	-0,98488	-16,443	8,6887
38011	10,159	-0,9821	-16,608	8,6439
38012	10,407	-1,4914	-16,183	8,6187
38013	10,391	-0,49318	-16,187	8,6318
38014	11,008	-0,9822	-17,122	8,7796
38015	11,238	-1,4736	-16,702	8,7527
38016	11,24	-0,49169	-16,701	8,7689
38017	8,6558	-0,97763	-16,237	8,3979
38018	8,0075	-0,97578	-16,383	8,3431
38019	8,2252	-1,4544	-15,973	8,2944
38020	8,2274	-0,48526	-15,973	8,3058
38021	9,5031	-0,98129	-16,766	8,5866
38022	8,8493	-0,9787	-16,919	8,5467
38023	9,1004	-1,4909	-16,502	8,4998
38024	9,0768	-0,49237	-16,504	8,51
38025	10,35	-0,97943	-17,286	8,7407
38026	9,691	-0,97699	-17,446	8,7196
38027	9,9433	-1,4873	-17,027	8,6715
38028	9,9219	-0,48892	-17,03	8,6845
38029	11,214	-0,98429	-17,795	8,8513
38030	10,549	-0,98026	-17,966	8,8534
38031	10,775	-1,4703	-17,543	8,804
38032	10,777	-0,49051	-17,543	8,8196
38033	12,085	-0,98631	-18,298	8,9098
38034	11,42	-0,98494	-18,47	8,9369
38035	11,665	-1,4906	-18,044	8,89
38036	11,648	-0,49378	-18,052	8,9072
38037	12,952	-0,98574	-18,797	8,9086
38038	12,289	-0,9882	-18,973	8,9638
38039	12,517	-1,477	-18,549	8,9199
38040	12,517	-0,49253	-18,549	8,9374
38041	13,821	-0,9871	-19,291	8,8418
38042	13,158	-0,98967	-19,47	8,9277
38043	13,404	-1,4943	-19,04	8,885
38044	13,386	-0,49321	-19,045	8,9049
38045	17,325	-0,99186	-21,225	7,8486
38046	17,538	-0,99233	-21,891	7,6791
38047	17,771	-1,488	-21,458	7,6428
38048	17,771	-0,49606	-21,458	7,6598
38049	14,696	-0,99055	-19,779	8,7046
38050	14,026	-0,98967	-19,964	8,8242
38051	14,274	-1,4956	-19,531	8,7832
38052	14,257	-0,49389	-19,536	8,8042
38053	16,444	-0,99266	-20,749	8,2097
38054	16,647	-0,99182	-21,423	8,0782
38055	16,88	-1,487	-20,991	8,0431
38056	16,88	-0,4958	-20,992	8,0609
38057	15,571	-0,99352	-20,264	8,4941
38058	14,903	-0,99459	-20,45	8,648
38059	15,145	-1,4973	-20,016	8,6099
38060	15,132	-0,49666	-20,023	8,6309
38061	15,773	-0,99219	-20,938	8,4004
38062	16,016	-1,4962	-20,501	8,363
38063	16,006	-0,49686	-20,508	8,3834
38064	16,859	-0,99229	-22,089	7,9096
38065	17,071	-0,99275	-22,756	7,754
38066	17,304	-1,4886	-22,323	7,7053
38067	17,304	-0,49627	-22,323	7,7211
38068	15,975	-0,99134	-21,612	8,2703
38069	16,179	-0,99224	-22,286	8,152
38070	16,413	-1,4876	-21,854	8,1034
38071	16,413	-0,49602	-21,855	8,1199
38072	15,104	-0,99326	-21,124	8,5561
38073	15,305	-0,99148	-21,8	8,476
38074	15,547	-1,4947	-21,365	8,4234
38075	15,537	-0,49533	-21,369	8,4437
38076	14,233	-0,99371	-20,635	8,77
38077	14,435	-0,99382	-21,31	8,7279
38078	14,682	-1,4987	-20,876	8,6724
38079	14,665	-0,49793	-20,881	8,6938
38080	13,362	-0,99224	-20,143	8,9131
38081	13,563	-0,99248	-20,819	8,9098
38082	13,809	-1,4958	-20,389	8,8517
38083	13,791	-0,49578	-20,393	8,8726
38084	12,495	-0,99213	-19,646	8,9866
38085	12,695	-0,99229	-20,322	9,021
38086	12,947	-1,4992	-19,893	8,959
38087	12,925	-0,49646	-19,897	8,9793
38088	11,624	-0,98683	-19,146	8,9953
38089	11,824	-0,98784	-19,823	9,0655
38090	12,076	-1,4952	-19,396	9,0006
38091	12,056	-0,49567	-19,4	9,0193
38092	10,754	-0,98091	-18,642	8,9439
38093	10,958	-0,98372	-19,316	9,0459
38094	11,205	-1,4889	-18,892	8,9789
38095	11,188	-0,49116	-18,895	8,9956
38096	8,2009	-0,97685	-17,066	8,4977
38097	7,5641	-0,98081	-17,204	8,4654
38098	7,806	-1,4857	-16,794	8,3965
38099	7,7789	-0,49052	-16,799	8,4056
38100	9,8904	-0,97782	-18,126	8,8376
38101	10,094	-0,97914	-18,807	8,9692
38102	10,319	-1,4681	-18,389	8,9
38103	10,321	-0,48975	-18,389	8,9152
38104	9,0372	-0,9744	-17,6	8,6855
38105	8,391	-0,97222	-17,752	8,6695
38106	8,6416	-1,4852	-17,335	8,5991
38107	8,6142	-0,48633	-17,338	8,6099
38108	9,236	-0,97575	-18,281	8,84
38109	9,4584	-1,463	-17,862	8,7678
38110	9,4602	-0,48807	-17,863	8,7822
38111	7,7542	-0,97618	-17,89	8,6423
38112	7,1086	-0,97397	-18,03	8,632
38113	7,3565	-1,4838	-17,617	8,5404
38114	7,3327	-0,49029	-17,619	8,5502
38115	8,5898	-0,97357	-18,432	8,829
38116	7,9425	-0,97151	-18,58	8,8353
38117	8,1898	-1,4816	-18,164	8,7428
38118	8,1677	-0,48589	-18,166	8,7547
38119	9,4398	-0,97707	-18,962	8,9762
38120	8,7856	-0,97513	-19,118	9,0025
38121	9,0101	-1,4621	-18,699	8,9099
38122	9,0118	-0,48768	-18,699	8,9242
38123	10,299	-0,98195	-19,481	9,0755
38124	9,6359	-0,97854	-19,644	9,1244
38125	9,8868	-1,4863	-19,221	9,0344
38126	9,8678	-0,48939	-19,224	9,0501
38127	11,158	-0,98473	-19,993	9,1199
38128	10,495	-0,9833	-20,161	9,1937
38129	10,749	-1,4926	-19,735	9,1061
38130	10,727	-0,49257	-19,739	9,1238
38131	12,025	-0,988	-20,499	9,1031
38132	11,355	-0,98428	-20,674	9,2049
38133	11,61	-1,4935	-20,245	9,1205
38134	11,588	-0,49217	-20,249	9,1396
38135	12,897	-0,99253	-20,998	9,0203
38136	12,233	-0,99434	-21,174	9,1492
38137	12,481	-1,499	-20,746	9,0702
38138	12,455	-0,49583	-20,753	9,0915
38139	16,392	-0,9927	-22,953	7,9971
38140	16,605	-0,99312	-23,622	7,8534
38141	16,838	-1,4892	-23,189	7,7932
38142	16,838	-0,49648	-23,189	7,8079
38143	13,765	-0,99259	-21,494	8,8697
38144	13,094	-0,99083	-21,677	9,0301
38145	13,343	-1,4963	-21,244	8,9543
38146	13,328	-0,4967	-21,249	8,9748
38147	15,509	-0,99238	-22,474	8,3587
38148	15,712	-0,99261	-23,15	8,2526
38149	15,945	-1,4882	-22,717	8,1912
38150	15,946	-0,49623	-22,718	8,2067
38151	14,636	-0,99205	-21,985	8,6493
38152	13,966	-0,99066	-22,172	8,8399
38153	14,199	-1,4851	-21,742	8,772
38154	14,199	-0,49589	-21,742	8,7889
38155	14,84	-0,99272	-22,66	8,5797
38156	15,071	-1,4867	-22,231	8,5163
38157	15,072	-0,49616	-22,231	8,5325
38158	15,925	-0,99303	-23,818	8,1092
38159	16,138	-0,99336	-24,487	7,9753
38160	16,371	-1,4897	-24,054	7,9045
38161	16,371	-0,49665	-24,054	7,9181
38162	15,043	-0,99295	-23,336	8,4742
38163	15,245	-0,99284	-24,013	8,3782
38164	15,478	-1,4887	-23,581	8,3049
38165	15,478	-0,49638	-23,581	8,3195
38166	14,17	-0,99133	-22,847	8,7714
38167	14,375	-0,99364	-23,521	8,711
38168	14,617	-1,4968	-23,086	8,631
38169	14,605	-0,49657	-23,091	8,6503
38170	13,294	-0,98889	-22,355	9,0019
38171	13,502	-0,99207	-23,03	8,9797
38172	13,746	-1,4963	-22,596	8,8946
38173	13,732	-0,49477	-22,603	8,9149
38174	12,431	-0,99263	-21,853	9,1612
38175	12,63	-0,99137	-22,532	9,1808
38176	12,876	-1,4965	-22,099	9,09
38177	12,856	-0,49412	-22,107	9,1115
38178	11,564	-0,99062	-21,349	9,2535
38179	11,772	-0,99547	-22,026	9,3107
38180	12,017	-1,5008	-21,596	9,2148
38181	11,997	-0,49851	-21,603	9,2357
38182	10,692	-0,98284	-20,842	9,2818
38183	10,9	-0,98881	-21,52	9,3771
38184	11,146	-1,4947	-21,093	9,2761
38185	11,123	-0,49211	-21,099	9,2963
38186	9,8328	-0,97989	-20,324	9,2462
38187	10,039	-0,98562	-21,004	9,3769
38188	10,282	-1,4892	-20,58	9,2721
38189	10,262	-0,49073	-20,585	9,2903
38190	7,2969	-0,9693	-18,719	8,8295
38191	6,6633	-0,97409	-18,849	8,839
38192	6,8747	-1,4498	-18,444	8,7264
38193	6,8766	-0,48368	-18,445	8,7385
38194	8,9816	-0,9766	-19,8	9,1547
38195	9,1846	-0,98287	-20,48	9,3164
38196	9,4024	-1,4665	-20,063	9,2096
38197	9,4039	-0,48915	-20,064	9,2248
38198	8,1383	-0,97307	-19,265	9,013
38199	7,5003	-0,97797	-19,403	9,0396
38200	7,7155	-1,4557	-18,993	8,9275
38201	7,7173	-0,48562	-18,994	8,9408
38202	8,3382	-0,97884	-19,948	9,2021
38203	8,5576	-1,4613	-19,536	9,0921
38204	8,5593	-0,48745	-19,537	9,1065
38205	6,8667	-0,98276	-19,532	9,0522
38206	6,2316	-0,98257	-19,661	9,0821
38207	6,4681	-1,4832	-19,251	8,9507
38208	6,4389	-0,49041	-19,257	8,9636
38209	7,7002	-0,98374	-20,086	9,2317
38210	7,062	-0,98608	-20,223	9,2798
38211	7,2986	-1,4857	-19,81	9,1487
38212	7,2724	-0,49235	-19,816	9,1639
38213	8,5412	-0,9851	-20,628	9,3667
38214	7,8936	-0,98424	-20,775	9,4367
38215	8,1321	-1,4867	-20,358	9,3073
38216	8,1102	-0,49139	-20,364	9,3238
38217	9,3912	-0,9886	-21,159	9,4497
38218	8,7332	-0,9824	-21,317	9,5445
38219	8,9793	-1,4899	-20,893	9,4164
38220	8,9586	-0,49371	-20,899	9,4346
38221	10,247	-0,99158	-21,682	9,4745
38222	9,5866	-0,98746	-21,845	9,5941
38223	9,8318	-1,4939	-21,419	9,4707
38224	9,8112	-0,49489	-21,426	9,4903
38225	11,107	-0,99365	-22,197	9,4362
38226	10,439	-0,98858	-22,369	9,5839
38227	10,691	-1,498	-21,937	9,4639
38228	10,671	-0,49669	-21,944	9,4846
38229	11,971	-0,99421	-22,705	9,3318
38230	11,302	-0,99021	-22,882	9,5065
38231	11,547	-1,4952	-22,449	9,3937
38232	11,534	-0,49696	-22,455	9,4137
38233	15,458	-0,99318	-24,682	8,2443
38234	15,672	-0,99341	-25,353	8,1183
38235	15,905	-1,49	-24,92	8,0376
38236	15,905	-0,49672	-24,92	8,0503
38237	12,838	-0,99456	-23,206	9,1596
38238	12,168	-0,99137	-23,387	9,3615
38239	12,414	-1,497	-22,953	9,255
38240	12,402	-0,49725	-22,962	9,2748
38241	14,576	-0,99353	-24,198	8,6153
38242	14,778	-0,99295	-24,877	8,5276
38243	15,011	-1,489	-24,445	8,4429
38244	15,011	-0,49646	-24,445	8,4567
38245	13,707	-0,99438	-23,704	8,92
38246	13,035	-0,99204	-23,887	9,149
38247	13,281	-1,4966	-23,452	9,0488
38248	13,27	-0,49731	-23,46	9,068
38249	13,907	-0,99266	-24,384	8,8693
38250	14,149	-1,4954	-23,948	8,7764
38251	14,14	-0,49707	-23,954	8,7944
38252	14,991	-0,99319	-25,547	8,4011
38253	15,205	-0,99342	-26,219	8,2811
38254	15,439	-1,4899	-25,786	8,191
38255	15,439	-0,4967	-25,786	8,2029
38256	14,108	-0,99209	-25,063	8,7814
38257	14,316	-0,99311	-25,739	8,6972
38258	14,544	-1,489	-25,308	8,604
38259	14,544	-0,49649	-25,309	8,617
38260	13,235	-0,99033	-24,567	9,0985
38261	13,439	-0,99129	-25,248	9,0528
38262	13,671	-1,4862	-24,816	8,951
38263	13,672	-0,49559	-24,817	8,9652
38264	12,364	-0,98886	-24,068	9,3514
38265	12,569	-0,99077	-24,746	9,3452
38266	12,797	-1,4839	-24,318	9,2374
38267	12,798	-0,49474	-24,318	9,2525
38268	11,498	-0,98737	-23,565	9,5371
38269	11,701	-0,98866	-24,244	9,5724
38270	11,93	-1,482	-23,817	9,4563
38271	11,931	-0,49412	-23,817	9,4722
38272	10,634	-0,98514	-23,055	9,6556
38273	10,834	-0,98619	-23,74	9,7334
38274	11,065	-1,4791	-23,312	9,6086
38275	11,066	-0,49325	-23,312	9,6248
38276	6,4269	-0,98589	-20,352	9,3121
38277	5,7844	-0,97481	-20,481	9,3625
38278	6,0279	-1,4857	-20,07	9,2123
38279	6,002	-0,49216	-20,073	9,2263
38280	9,7789	-0,98447	-22,532	9,7053
38281	9,975	-0,98335	-23,22	9,8239
38282	10,2	-1,4747	-22,797	9,6933
38283	10,202	-0,49189	-22,797	9,7097
38284	7,2554	-0,98657	-20,913	9,4872
38285	6,6055	-0,9785	-21,052	9,5578
38286	6,859	-1,4927	-20,633	9,4065
38287	6,8286	-0,49373	-20,638	9,4226
38288	8,9286	-0,98127	-22,003	9,6909
38289	9,1269	-0,98363	-22,689	9,8458
38290	9,3706	-1,4903	-22,264	9,7056
38291	9,3498	-0,49257	-22,271	9,7261
38292	8,0857	-0,98154	-21,465	9,6167
38293	7,4456	-0,98496	-21,607	9,7068
38294	7,6833	-1,4873	-21,189	9,5596
38295	7,6632	-0,49285	-21,194	9,577
38296	8,2739	-0,97717	-22,159	9,8082
38297	8,4996	-1,4653	-21,738	9,6651
38298	8,5012	-0,48869	-21,739	9,6809
38299	5,963	-0,96743	-21,182	9,6101
38300	5,3439	-0,97357	-21,297	9,6738
38301	5,5539	-1,4469	-20,893	9,5101
38302	5,5556	-0,48266	-20,893	9,524
38303	6,7957	-0,97689	-21,746	9,779
38304	6,1494	-0,96919	-21,884	9,8698
38305	6,3971	-1,4772	-21,464	9,7012
38306	6,3703	-0,48478	-21,47	9,719
38307	7,6338	-0,9806	-22,301	9,8997
38308	6,9978	-0,98434	-22,437	10,009
38309	7,2357	-1,4851	-22,021	9,8454
38310	7,2132	-0,49212	-22,026	9,8647
38311	8,4722	-0,97953	-22,845	9,9642
38312	7,8229	-0,97653	-22,996	10,102
38313	8,045	-1,4646	-22,579	9,9444
38314	8,0465	-0,48848	-22,579	9,9607
38315	9,323	-0,98251	-23,377	9,9652
38316	8,6695	-0,98088	-23,532	10,129
38317	8,9131	-1,4861	-23,107	9,9722
38318	8,8952	-0,49105	-23,113	9,9932
38319	10,175	-0,9844	-23,905	9,9022
38320	9,5155	-0,98242	-24,066	10,094
38321	9,7467	-1,4733	-23,642	9,9461
38322	9,7483	-0,49146	-23,643	9,9626
38323	11,037	-0,98748	-24,419	9,7689
38324	10,371	-0,98552	-24,588	9,9882
38325	10,601	-1,4779	-24,167	9,8495
38326	10,603	-0,49294	-24,167	9,8657
38327	14,53	-0,99333	-26,41	8,5762
38328	14,739	-0,99362	-27,084	8,4625
38329	14,973	-1,4899	-26,651	8,3634
38330	14,972	-0,49672	-26,651	8,3746
38331	11,905	-0,99056	-24,923	9,5661
38332	11,241	-0,98992	-25,097	9,8097
38333	11,485	-1,4931	-24,666	9,6748
38334	11,473	-0,49454	-24,675	9,6954
38335	13,647	-0,99231	-25,925	8,9679
38336	13,854	-0,99346	-26,6	8,8881
38337	14,096	-1,4971	-26,163	8,7786
38338	14,087	-0,49661	-26,169	8,7948
38339	12,773	-0,99173	-25,427	9,2991
38340	12,104	-0,9908	-25,605	9,5675
38341	12,351	-1,4953	-25,17	9,4395
38342	12,339	-0,49603	-25,179	9,4594
38343	12,972	-0,99159	-26,109	9,2603
38344	13,218	-1,495	-25,672	9,141
38345	13,206	-0,4957	-25,68	9,1598
38346	14,063	-0,99375	-27,274	8,7731
38347	14,273	-0,99523	-27,947	8,6615
38348	14,506	-1,4903	-27,517	8,5541
38349	14,506	-0,4969	-27,517	8,5646
38350	13,179	-0,99274	-26,785	9,1795
38351	13,39	-0,99542	-27,46	9,1005
38352	13,62	-1,4901	-27,032	8,9861
38353	13,621	-0,49685	-27,032	8,9981
38354	12,303	-0,99067	-26,286	9,5278
38355	12,506	-0,99198	-26,969	9,4911
38356	12,737	-1,4869	-26,536	9,3662
38357	12,737	-0,49589	-26,537	9,3797
38358	11,44	-0,99015	-25,779	9,8104
38359	11,639	-0,98971	-26,467	9,8165
38360	11,868	-1,4838	-26,035	9,6819
38361	11,869	-0,49477	-26,035	9,6968
38362	10,576	-0,98796	-25,266	10,028
38363	10,78	-0,99067	-25,95	10,076
38364	11,025	-1,4941	-25,519	9,9254
38365	11,01	-0,49538	-25,526	9,9473
38366	9,7114	-0,98354	-24,749	10,179
38367	9,9116	-0,98488	-25,434	10,271
38368	10,139	-1,4767	-25,008	10,118
38369	10,14	-0,49258	-25,009	10,134
38370	8,862	-0,98079	-24,221	10,258
38371	9,0557	-0,98118	-24,91	10,394
38372	9,2812	-1,4719	-24,489	10,233
38373	9,2828	-0,49096	-24,489	10,249
38374	8,0203	-0,97788	-23,683	10,268
38375	8,2111	-0,97886	-24,379	10,446
38376	8,4384	-1,4679	-23,957	10,275
38377	8,4399	-0,48983	-23,957	10,293
38378	5,5303	-0,97533	-22,	9,9343
38379	4,9112	-0,98161	-22,106	10,012
38380	5,1545	-1,4879	-21,703	9,8326
38381	5,1217	-0,49091	-21,706	9,8495
38382	7,1869	-0,98028	-23,133	10,212
38383	7,3723	-0,97563	-23,83	10,427
38384	7,5978	-1,4631	-23,413	10,253
38385	7,5994	-0,48805	-23,413	10,269
38386	6,3515	-0,97664	-22,575	10,101
38387	5,7172	-0,97597	-22,7	10,206
38388	5,9593	-1,482	-22,291	10,025
38389	5,9285	-0,48442	-22,298	10,045
38390	6,5432	-0,97807	-23,269	10,344
38391	6,7924	-1,4892	-22,852	10,162
38392	6,7658	-0,49223	-22,858	10,184
38393	5,0981	-0,98226	-22,807	10,283
38394	4,4612	-0,97458	-22,919	10,38
38395	4,7142	-1,4882	-22,515	10,185
38396	4,6822	-0,4907	-22,514	10,202
38397	5,9089	-0,9774	-23,394	10,449
38398	5,277	-0,97591	-23,514	10,57
38399	5,5274	-1,4882	-23,104	10,373
38400	5,4962	-0,49156	-23,107	10,394
38401	6,7286	-0,97342	-23,967	10,558
38402	6,0889	-0,97136	-24,098	10,709
38403	6,3402	-1,4843	-23,683	10,511
38404	6,3118	-0,48584	-23,686	10,533
38405	7,5631	-0,97661	-24,526	10,605
38406	6,9176	-0,97464	-24,666	10,785
38407	7,1436	-1,4618	-24,247	10,593
38408	7,1453	-0,48758	-24,248	10,611
38409	8,4048	-0,97925	-25,067	10,581
38410	7,7559	-0,97796	-25,217	10,79
38411	7,9794	-1,4662	-24,804	10,608
38412	7,9809	-0,48903	-24,804	10,625
38413	13,6	-0,9969	-28,133	8,9872
38414	13,807	-0,99761	-28,809	8,8776
38415	14,046	-1,5016	-28,374	8,7591
38416	14,04	-0,49833	-28,379	8,7721
38417	9,2559	-0,98252	-25,594	10,485
38418	8,5967	-0,98018	-25,754	10,725
38419	8,8286	-1,4702	-25,332	10,546
38420	8,8302	-0,49022	-25,332	10,563
38421	12,717	-0,99465	-27,645	9,4105
38422	12,926	-0,99685	-28,32	9,3335
38423	13,169	-1,5009	-27,884	9,2027
38424	13,157	-0,49857	-27,892	9,2205
38425	10,116	-0,98759	-26,117	10,317
38426	9,4501	-0,9841	-26,284	10,586
38427	9,6814	-1,4759	-25,858	10,416
38428	9,683	-0,49231	-25,859	10,432
38429	11,842	-0,99102	-27,15	9,7782
38430	12,047	-0,99419	-27,827	9,7419
38431	12,273	-1,4875	-27,4	9,6078
38432	12,274	-0,49608	-27,401	9,6209
38433	10,979	-0,99022	-26,637	10,08
38434	10,311	-0,9889	-26,803	10,373
38435	10,562	-1,4939	-26,373	10,205
38436	10,544	-0,49529	-26,38	10,229
38437	11,18	-0,99211	-27,322	10,089
38438	11,409	-1,4842	-26,898	9,942
38439	11,41	-0,49494	-26,898	9,9567
38440	13,133	-0,99755	-28,996	9,2218
38441	13,339	-0,99898	-29,672	9,1107
38442	13,58	-1,5031	-29,238	8,9836
38443	13,573	-0,49927	-29,244	8,9965
38444	12,256	-0,99638	-28,502	9,6628
38445	12,458	-0,99681	-29,182	9,5887
38446	12,702	-1,5012	-28,748	9,4469
38447	12,688	-0,49828	-28,755	9,4656
38448	11,385	-0,99528	-27,999	10,05
38449	11,58	-0,99406	-28,686	10,02
38450	11,832	-1,5007	-28,249	9,861
38451	11,811	-0,49811	-28,255	9,885
38452	10,512	-0,99079	-27,488	10,379
38453	10,719	-0,99469	-28,172	10,388
38454	10,967	-1,4999	-27,742	10,219
38455	10,946	-0,49717	-27,748	10,244
38456	9,6456	-0,98541	-26,969	10,64
38457	9,8498	-0,98864	-27,655	10,696
38458	10,095	-1,4921	-27,227	10,516
38459	10,074	-0,49361	-27,23	10,541
38460	8,7909	-0,98176	-26,443	10,825
38461	8,9892	-0,98264	-27,132	10,931
38462	9,2152	-1,4739	-26,709	10,747
38463	9,2172	-0,49179	-26,709	10,764
38464	4,6401	-0,96823	-23,626	10,666
38465	4,0196	-0,97407	-23,728	10,772
38466	4,2327	-1,4508	-23,325	10,566
38467	4,2321	-0,48388	-23,326	10,584
38468	7,9478	-0,9789	-25,904	10,933
38469	8,1402	-0,97905	-26,598	11,088
38470	8,3629	-1,4688	-26,177	10,895
38471	8,3647	-0,48996	-26,177	10,913
38472	5,457	-0,96987	-24,218	10,829
38473	4,8347	-0,97579	-24,331	10,963
38474	5,0476	-1,4522	-23,925	10,757
38475	5,0481	-0,48435	-23,925	10,775
38476	7,1104	-0,97599	-25,358	10,969
38477	7,3042	-0,97729	-26,047	11,164
38478	7,5285	-1,465	-25,633	10,964
38479	7,5301	-0,48893	-25,633	10,983
38480	6,278	-0,97258	-24,798	10,933
38481	5,647	-0,97477	-24,919	11,098
38482	5,8647	-1,4558	-24,511	10,893
38483	5,866	-0,48551	-24,511	10,911
38484	6,4639	-0,9736	-25,495	11,171
38485	6,6884	-1,4601	-25,085	10,966
38486	6,6899	-0,48706	-25,085	10,985
38487	4,2142	-0,98162	-24,433	11,066
38488	3,5857	-0,97895	-24,538	11,189
38489	3,8335	-1,4853	-24,134	10,967
38490	3,7998	-0,49019	-24,131	10,987
38491	5,0247	-0,98069	-25,031	11,23
38492	4,4013	-0,98726	-25,146	11,381
38493	4,6505	-1,491	-24,741	11,157
38494	4,6122	-0,49144	-24,74	11,181
38495	5,833	-0,97579	-25,616	11,333
38496	5,1973	-0,97534	-25,738	11,518
38497	5,4551	-1,485	-25,327	11,288
38498	5,4219	-0,48925	-25,33	11,316
38499	6,6577	-0,97489	-26,185	11,363
38500	6,011	-0,97293	-26,32	11,587
38501	6,2367	-1,4588	-25,905	11,364
38502	6,2379	-0,48654	-25,906	11,384
38503	7,4967	-0,97744	-26,741	11,316
38504	6,8519	-0,97551	-26,88	11,571
38505	7,1027	-1,4843	-26,463	11,346
38506	7,0733	-0,48836	-26,47	11,377
38507	8,3385	-0,97993	-27,287	11,192
38508	7,6909	-0,97726	-27,435	11,48
38509	7,914	-1,466	-27,019	11,27
38510	7,9158	-0,48909	-27,019	11,29
38511	9,1934	-0,98588	-27,817	10,985
38512	8,5345	-0,98046	-27,976	11,306
38513	8,759	-1,471	-27,555	11,106
38514	8,7612	-0,49085	-27,554	11,124
38515	10,056	-0,99255	-28,339	10,702
38516	9,3985	-0,99047	-28,504	11,045
38517	9,6422	-1,4938	-28,078	10,849
38518	9,6182	-0,49503	-28,084	10,878
38519	10,914	-0,99347	-28,86	10,355
38520	10,257	-0,99459	-29,026	10,715
38521	10,503	-1,499	-28,597	10,532
38522	10,484	-0,49752	-28,605	10,558
38523	12,664	-0,99824	-29,858	9,475
38524	12,864	-0,99756	-30,539	9,3638
38525	13,112	-1,5042	-30,102	9,2243
38526	13,099	-0,49971	-30,107	9,2406
38527	11,782	-0,99449	-29,366	9,9434
38528	11,105	-0,99123	-29,548	10,327
38529	11,339	-1,487	-29,119	10,165
38530	11,34	-0,49595	-29,12	10,178
38531	11,989	-0,99719	-30,043	9,8635
38532	12,233	-1,5011	-29,61	9,712
38533	12,219	-0,49853	-29,615	9,731
38534	12,19	-0,9965	-30,723	9,7492
38535	12,396	-0,99822	-31,402	9,6276
38536	12,637	-1,502	-30,969	9,485
38537	12,623	-0,49785	-30,974	9,5018
38538	11,313	-0,99393	-30,224	10,243
38539	11,523	-0,99675	-30,902	10,157
38540	11,766	-1,5007	-30,471	9,996
38541	11,751	-0,49865	-30,476	10,017
38542	10,449	-0,99235	-29,715	10,683
38543	10,641	-0,98938	-30,404	10,652
38544	10,868	-1,4844	-29,976	10,481
38545	10,87	-0,49528	-29,976	10,494
38546	9,5991	-0,99251	-29,191	11,054
38547	9,7953	-0,99221	-29,879	11,07
38548	10,043	-1,497	-29,452	10,87
38549	10,015	-0,49707	-29,455	10,902
38550	8,7396	-0,98506	-28,663	11,362
38551	8,9454	-0,99062	-29,351	11,425
38552	9,1928	-1,4951	-28,926	11,21
38553	9,1594	-0,49544	-28,932	11,246
38554	7,887	-0,97779	-28,125	11,59
38555	8,0889	-0,98149	-28,817	11,708
38556	8,3331	-1,4846	-28,394	11,482
38557	8,3079	-0,48962	-28,398	11,514
38558	3,7728	-0,98459	-25,251	11,5
38559	3,1428	-0,99013	-25,36	11,636
38560	3,4019	-1,4927	-24,955	11,399
38561	3,3643	-0,48877	-24,947	11,42
38562	7,0461	-0,97533	-27,574	11,731
38563	7,2526	-0,9817	-28,267	11,899
38564	7,4644	-1,4637	-27,853	11,677
38565	7,4661	-0,48818	-27,852	11,698
38566	4,574	-0,98191	-25,852	11,666
38567	3,9545	-0,99287	-25,969	11,833
38568	4,2117	-1,4986	-25,56	11,59
38569	4,1689	-0,49582	-25,555	11,616
38570	6,2052	-0,97354	-27,015	11,792
38571	6,4141	-0,98011	-27,708	12,007
38572	6,6251	-1,4609	-27,296	11,777
38573	6,6262	-0,48715	-27,296	11,798
38574	5,3754	-0,97248	-26,442	11,769
38575	4,7418	-0,97408	-26,556	11,97
38576	4,9676	-1,4574	-26,148	11,73
38577	4,9667	-0,48609	-26,149	11,753
38578	5,5742	-0,97734	-27,141	12,031
38579	5,7838	-1,4586	-26,734	11,798
38580	5,7842	-0,48639	-26,735	11,82
38581	3,3245	-0,99841	-26,078	11,965
38582	2,6799	-1,0059	-26,209	12,123
38583	2,9485	-1,5094	-25,786	11,864
38584	2,904	-0,50136	-25,777	11,886
38585	4,1223	-0,98504	-26,673	12,133
38586	3,4944	-0,99157	-26,797	12,32
38587	3,7546	-1,4999	-26,387	12,059
38588	3,7095	-0,49705	-26,379	12,086
38589	4,9406	-0,97894	-27,256	12,227
38590	4,3051	-0,97705	-27,381	12,454
38591	4,5199	-1,4623	-26,963	12,195
38592	4,517	-0,48799	-26,964	12,22
38593	5,783	-0,98391	-27,834	12,241
38594	5,135	-0,97808	-27,964	12,511
38595	5,394	-1,4887	-27,55	12,243
38596	5,3534	-0,49095	-27,55	12,278
38597	6,6205	-0,98649	-28,401	12,169
38598	5,9728	-0,97855	-28,533	12,479
38599	6,2251	-1,4898	-28,122	12,215
38600	6,1911	-0,49296	-28,122	12,251
38601	11,729	-0,99847	-31,581	10,032
38602	11,935	-1,0002	-32,262	9,9008
38603	12,176	-1,5048	-31,829	9,7517
38604	12,161	-0,50037	-31,834	9,7696
38605	7,4545	-0,9854	-28,958	12,013
38606	6,8244	-0,98876	-29,097	12,351
38607	7,0603	-1,4902	-28,682	12,099
38608	7,0272	-0,49353	-28,685	12,137
38609	10,85	-0,9922	-31,082	10,562
38610	11,058	-0,99558	-31,761	10,469
38611	11,3	-1,4993	-31,331	10,299
38612	11,283	-0,4981	-31,337	10,321
38613	8,2947	-0,98705	-29,504	11,766
38614	7,6567	-0,98787	-29,653	12,139
38615	7,8946	-1,4887	-29,233	11,897
38616	7,8646	-0,49187	-29,235	11,933
38617	9,9873	-0,98924	-30,568	11,034
38618	10,18	-0,98671	-31,257	10,999
38619	10,408	-1,4805	-30,831	10,816
38620	10,411	-0,4941	-30,831	10,829
38621	9,1416	-0,99032	-30,04	11,436
38622	8,497	-0,99026	-30,196	11,835
38623	8,7401	-1,4936	-29,773	11,605
38624	8,7058	-0,49518	-29,78	11,644
38625	9,327	-0,98538	-30,733	11,458
38626	9,5819	-1,4929	-30,304	11,238
38627	9,5555	-0,49514	-30,309	11,272
38628	11,264	-0,99727	-32,442	10,334
38629	11,464	-0,99566	-33,127	10,193
38630	11,71	-1,5036	-32,692	10,034
38631	11,693	-0,4998	-32,697	10,054
38632	10,388	-0,99009	-31,937	10,901
38633	10,586	-0,99116	-32,623	10,804
38634	10,837	-1,4976	-32,19	10,618
38635	10,817	-0,49748	-32,196	10,644
38636	9,5198	-0,98284	-31,422	11,418
38637	9,7221	-0,98373	-32,108	11,369
38638	9,9467	-1,4758	-31,683	11,176
38639	9,9495	-0,49261	-31,683	11,189
38640	8,6824	-0,98531	-30,889	11,852
38641	8,8687	-0,97885	-31,584	11,872
38642	9,0873	-1,4685	-31,16	11,657
38643	9,0901	-0,49023	-31,16	11,675
38644	7,8591	-0,99108	-30,345	12,201
38645	8,0512	-0,98692	-31,043	12,28
38646	8,2898	-1,4917	-30,622	12,032
38647	8,2628	-0,49508	-30,622	12,07
38648	7,0265	-0,99124	-29,792	12,471
38649	7,2275	-0,99151	-30,492	12,607
38650	7,4579	-1,4913	-30,073	12,347
38651	7,425	-0,496	-30,076	12,389
38652	6,1766	-0,98083	-29,229	12,653
38653	6,4003	-0,99095	-29,929	12,841
38654	6,6292	-1,4944	-29,515	12,569
38655	6,5958	-0,49524	-29,515	12,611
38656	5,3247	-0,97272	-28,663	12,743
38657	5,5394	-0,96913	-29,355	12,987
38658	5,7814	-1,4839	-28,948	12,706
38659	5,7437	-0,48559	-28,946	12,746
38660	2,8498	-0,99907	-26,928	12,473
38661	2,2118	-1,0077	-27,082	12,654
38662	2,4827	-1,536	-26,687	12,391
38663	2,4058	-0,50455	-26,629	12,396
38664	4,4995	-0,97619	-28,089	12,732
38665	4,7051	-0,97125	-28,801	13,033
38666	4,951	-1,4865	-28,378	12,742
38667	4,9058	-0,48713	-28,38	12,784
38668	3,6772	-0,98359	-27,505	12,635
38669	3,0481	-0,99501	-27,643	12,844
38670	3,3052	-1,4966	-27,196	12,545
38671	3,249	-0,49452	-27,206	12,589
38672	3,8896	-0,98327	-28,228	12,977
38673	4,0928	-1,4675	-27,795	12,694
38674	4,089	-0,48907	-27,794	12,722
38675	2,4101	-1,0037	-27,797	13,018
38676	1,8037	-0,97529	-27,919	13,181
38677	1,9073	-1,5143	-27,522	12,928
38678	1,9643	-0,50316	-27,486	12,93
38679	3,2605	-0,9947	-28,366	13,178
38680	2,5877	-0,97951	-28,513	13,416
38681	2,8979	-1,5042	-28,081	13,101
38682	2,8261	-0,50049	-28,053	13,126
38683	4,0952	-0,97833	-28,94	13,271
38684	3,4066	-0,94514	-29,199	13,631
38685	3,7326	-1,5033	-28,651	13,223
38686	3,6598	-0,49421	-28,648	13,272
38687	4,9197	-0,96766	-29,494	13,269
38688	4,3464	-0,96396	-29,653	13,583
38689	4,5437	-1,4814	-29,222	13,277
38690	4,4941	-0,48412	-29,211	13,321
38691	5,7631	-0,97925	-30,055	13,166
38692	5,1505	-0,96232	-30,182	13,522
38693	5,3675	-1,4846	-29,768	13,223
38694	5,3352	-0,48354	-29,764	13,267
38695	6,6013	-0,99122	-30,629	12,968
38696	5,981	-0,9771	-30,77	13,375
38697	6,2008	-1,4916	-30,348	13,08
38698	6,1788	-0,49571	-30,347	13,121
38699	7,4196	-0,98735	-31,19	12,677
38700	6,7952	-0,98171	-31,34	13,121
38701	7,022	-1,4912	-30,913	12,836
38702	7,0018	-0,49551	-30,916	12,876
38703	10,787	-0,98955	-33,308	10,659
38704	11,	-0,9924	-33,986	10,49
38705	11,242	-1,4979	-33,554	10,33
38706	11,227	-0,49586	-33,56	10,348
38707	8,2375	-0,98046	-31,737	12,293
38708	7,6081	-0,97979	-31,894	12,762
38709	7,8406	-1,4853	-31,466	12,495
38710	7,8204	-0,49184	-31,469	12,533
38711	9,9205	-0,98481	-32,794	11,266
38712	10,129	-0,98996	-33,477	11,146
38713	10,368	-1,4925	-33,049	10,959
38714	10,346	-0,49369	-33,055	10,987
38715	9,071	-0,97974	-32,27	11,817
38716	8,4223	-0,97564	-32,436	12,311
38717	8,6443	-1,464	-32,008	12,077
38718	8,6472	-0,48862	-32,007	12,095
38719	9,274	-0,98381	-32,958	11,756
38720	9,5113	-1,4855	-32,531	11,542
38721	9,4947	-0,49112	-32,533	11,57
38722	10,342	-0,99282	-34,155	10,972
38723	10,543	-0,99208	-34,839	10,788
38724	10,782	-1,4962	-34,409	10,628
38725	10,77	-0,49654	-34,413	10,645
38726	9,4823	-0,98897	-33,641	11,63
38727	9,6827	-0,99135	-34,326	11,493
38728	9,9205	-1,4941	-33,9	11,301
38729	9,9051	-0,49628	-33,903	11,325
38730	8,6253	-0,97971	-33,124	12,243
38731	8,8274	-0,98491	-33,809	12,166
38732	9,0631	-1,4869	-33,383	11,94
38733	9,0443	-0,49269	-33,385	11,972
38734	7,7929	-0,97497	-32,592	12,772
38735	7,9784	-0,97236	-33,29	12,782
38736	8,2135	-1,4783	-32,86	12,52
38737	8,1974	-0,48702	-32,864	12,555
38738	6,9837	-0,97415	-32,044	13,197
38739	7,1694	-0,97128	-32,752	13,287
38740	7,3957	-1,4799	-32,316	12,997
38741	7,3796	-0,48795	-32,322	13,038
38742	6,175	-0,96759	-31,48	13,518
38743	6,3627	-0,96769	-32,201	13,69
38744	6,5852	-1,4823	-31,759	13,373
38745	6,5775	-0,4862	-31,767	13,412
38746	5,3684	-0,96016	-30,897	13,721
38747	5,5784	-0,95993	-31,627	13,957
38748	5,7815	-1,4833	-31,184	13,634
38749	5,7709	-0,48139	-31,194	13,678
38750	4,5771	-0,95861	-30,342	13,826
38751	4,7956	-0,95247	-31,029	14,097
38752	4,984	-1,4816	-30,598	13,776
38753	4,9658	-0,47877	-30,6	13,821
38754	1,9814	-0,95114	-28,635	13,573
38755	1,4605	-0,92216	-28,805	13,76
38756	1,6158	-1,5812	-28,215	13,364
38757	1,6223	-0,47212	-28,317	13,458
38758	3,6578	-0,93077	-29,913	13,931
38759	4,0768	-0,94851	-30,477	14,123
38760	4,2018	-1,4801	-30,071	13,838
38761	4,1571	-0,47984	-30,03	13,87
38762	2,7337	-0,92994	-29,347	13,861
38763	2,0799	-0,94211	-29,35	14,012
38764	2,3991	-1,5272	-28,949	13,691
38765	2,3682	-0,47902	-28,92	13,717
38766	3,1937	-0,93495	-30,152	14,239
38767	2,7447	-0,91955	-30,066	14,314
38768	3,2256	-1,4066	-29,71	13,953
38769	3,1352	-0,45093	-29,659	13,987
38770	3,6128	-0,9527	-30,717	14,418
38771	3,1259	-0,95679	-30,858	14,698
38772	3,2679	-1,4192	-30,572	14,447
38773	3,2931	-0,48403	-30,558	14,475
38774	4,2952	-0,94237	-31,165	14,384
38775	3,7715	-0,93539	-31,324	14,736
38776	3,9205	-1,466	-30,865	14,38
38777	3,9651	-0,46867	-30,871	14,407
38778	5,0056	-0,95224	-31,759	14,32
38779	4,4429	-0,94447	-31,904	14,737
38780	4,613	-1,467	-31,433	14,378
38781	4,6254	-0,4737	-31,459	14,421
38782	9,8832	-0,99061	-35,009	11,304
38783	10,084	-0,98962	-35,691	11,088
38784	10,317	-1,4912	-35,267	10,933
38785	10,307	-0,49554	-35,268	10,948
38786	5,7661	-0,96003	-32,348	14,117
38787	5,1875	-0,95525	-32,502	14,6
38788	5,3732	-1,4778	-32,029	14,234
38789	5,3858	-0,47855	-32,059	14,284
38790	9,0278	-0,98729	-34,494	12,023
38791	9,2242	-0,98697	-35,178	11,861
38792	9,4589	-1,4893	-34,754	11,666
38793	9,4445	-0,49507	-34,754	11,69
38794	6,5484	-0,96482	-32,91	13,769
38795	5,941	-0,96142	-33,073	14,311
38796	6,1433	-1,4425	-32,636	13,979
38797	6,1464	-0,48149	-32,636	14,012
38798	8,1805	-0,97756	-33,976	12,697
38799	8,3694	-0,9786	-34,663	12,609
38800	8,5937	-1,4658	-34,237	12,379
38801	8,597	-0,49222	-34,237	12,395
38802	7,3549	-0,96867	-33,45	13,288
38803	6,7354	-0,96544	-33,616	13,858
38804	6,9479	-1,4484	-33,184	13,554
38805	6,9505	-0,48333	-33,184	13,582
38806	7,5401	-0,96944	-34,146	13,285
38807	7,7566	-1,4541	-33,717	13,018
38808	7,7594	-0,48535	-33,716	13,041
38809	9,4253	-0,98598	-35,86	11,639
38810	9,6281	-0,98631	-36,541	11,381
38811	9,8591	-1,4884	-36,119	11,233
38812	9,853	-0,49408	-36,117	11,243
38813	8,5658	-0,97828	-35,348	12,44
38814	8,7657	-0,97903	-36,027	12,236
38815	8,9972	-1,4833	-35,607	12,041
38816	8,9891	-0,4919	-35,605	12,06
38817	7,7289	-0,97047	-34,833	13,188
38818	7,9132	-0,97155	-35,519	13,075
38819	8,1408	-1,4743	-35,09	12,831
38820	8,1371	-0,48638	-35,091	12,853
38821	6,9205	-0,96621	-34,312	13,844
38822	7,0956	-0,96775	-35,01	13,834
38823	7,3112	-1,4701	-34,565	13,544
38824	7,3207	-0,48409	-34,575	13,564
38825	6,128	-0,96204	-33,779	14,386
38826	6,2992	-0,96404	-34,483	14,487
38827	6,5184	-1,4448	-34,049	14,142
38828	6,5207	-0,48211	-34,049	14,177
38829	5,3624	-0,95664	-33,227	14,781
38830	5,5191	-0,95805	-33,942	14,996
38831	5,7325	-1,4378	-33,509	14,624
38832	5,7357	-0,47993	-33,509	14,66
38833	4,6248	-0,94748	-32,647	15,003
38834	4,7719	-0,94898	-33,377	15,328
38835	4,9415	-1,4556	-32,88	14,921
38836	4,9891	-0,47671	-32,945	14,971
38837	3,9192	-0,93748	-32,063	15,079
38838	4,0494	-0,93921	-32,788	15,48
38839	4,2464	-1,3999	-32,263	15,025
38840	4,2654	-0,47077	-32,359	15,116
38841	3,2847	-0,93948	-31,465	15,007
38842	3,3701	-0,93433	-32,202	15,471
38843	3,5723	-1,3967	-31,711	15,027
38844	3,5752	-0,46671	-31,788	15,132
38845	2,6768	-0,94139	-30,772	14,771
38846	2,7572	-0,94953	-31,563	15,298
38847	2,9804	-1,3739	-31,091	14,872
38848	2,9137	-0,47276	-31,112	14,962
38849	1,559	-0,91313	-29,52	14,195
38850	1,0588	-0,93127	-29,695	14,377
38851	1,2764	-1,4405	-29,317	14,087
38852	1,2986	-0,45003	-29,293	14,11
38853	2,0909	-0,93172	-30,069	14,461
38854	2,141	-0,93228	-30,869	15,002
38855	2,3816	-1,3656	-30,404	14,616
38856	2,3623	-0,46863	-30,391	14,646
38857	1,5933	-0,91793	-30,229	14,675
38858	1,8525	-1,4645	-29,842	14,349
38859	1,8195	-0,46309	-29,747	14,333
38860	1,0931	-0,93607	-30,404	14,854
38861	0,5549	-0,96271	-30,455	14,945
38862	0,8131	-1,4724	-30,094	14,657
38863	0,81668	-0,48124	-30,12	14,718
38864	1,6435	-0,91848	-31,029	15,211
38865	1,1093	-0,9149	-31,112	15,377
38866	1,3765	-1,4533	-30,724	15,033
38867	1,3672	-0,45483	-30,712	15,073
38868	2,2214	-0,94042	-31,66	15,52
38869	1,6784	-0,93614	-31,755	15,757
38870	1,8891	-1,4585	-31,374	15,397
38871	1,9198	-0,46365	-31,346	15,421
38872	2,8427	-0,94438	-32,3	15,751
38873	2,2851	-0,94771	-32,395	16,072
38874	2,5434	-1,4876	-32,041	15,682
38875	2,531	-0,47677	-31,998	15,714
38876	3,5003	-0,93606	-32,927	15,859
38877	2,9284	-0,93437	-33,04	16,282
38878	3,1585	-1,3978	-32,676	15,881
38879	3,1623	-0,46762	-32,627	15,892
38880	4,1964	-0,94071	-33,519	15,788
38881	3,6051	-0,93871	-33,648	16,325
38882	3,8085	-1,3539	-33,247	15,886
38883	3,844	-0,46844	-33,236	15,919
38884	4,9286	-0,95039	-34,092	15,527
38885	4,3246	-0,94844	-34,242	16,166
38886	4,5428	-1,4037	-33,806	15,715
38887	4,559	-0,47227	-33,819	15,754
38888	5,6903	-0,96005	-34,646	15,081
38889	5,0692	-0,95841	-34,81	15,79
38890	5,2999	-1,4381	-34,382	15,348
38891	5,3025	-0,47812	-34,383	15,398
38892	6,4743	-0,96559	-35,181	14,465
38893	5,8361	-0,96796	-35,347	15,209
38894	6,0399	-1,4533	-34,877	14,827
38895	6,0781	-0,48192	-34,917	14,846
38896	7,2799	-0,96883	-35,696	13,711
38897	6,6398	-0,96869	-35,871	14,443
38898	6,8693	-1,4501	-35,443	14,118
38899	6,8705	-0,48366	-35,444	14,142
38900	8,9686	-0,97936	-36,708	11,972
38901	9,1742	-0,98443	-37,387	11,66
38902	9,3953	-1,4687	-36,965	11,531
38903	9,3981	-0,49223	-36,964	11,527
38904	8,1132	-0,97231	-36,198	12,863
38905	7,4607	-0,97828	-36,372	13,561
38906	7,6838	-1,4705	-35,949	13,311
38907	7,6894	-0,48517	-35,947	13,321
38908	8,3171	-0,97289	-36,867	12,605
38909	8,5343	-1,4595	-36,45	12,427
38910	8,537	-0,48713	-36,45	12,43
38911	8,5227	-0,97795	-37,547	12,287
38912	8,7234	-0,98359	-38,221	11,919
38913	8,9439	-1,486	-37,821	11,803
38914	8,9546	-0,4922	-37,803	11,783
38915	7,6646	-0,97886	-37,041	13,294
38916	7,8665	-0,97448	-37,699	12,977
38917	8,088	-1,4775	-37,303	12,798
38918	8,0972	-0,48575	-37,285	12,783
38919	6,8205	-0,97814	-36,548	14,282
38920	7,0024	-0,9796	-37,206	14,079
38921	7,2238	-1,4854	-36,808	13,827
38922	7,2397	-0,49311	-36,798	13,81
38923	6,0016	-0,97106	-36,037	15,171
38924	6,1642	-0,97314	-36,726	15,134
38925	6,365	-1,4717	-36,295	14,81
38926	6,409	-0,48503	-36,298	14,78
38927	5,215	-0,96632	-35,511	15,899
38928	5,3371	-0,97984	-36,199	16,063
38929	5,5861	-1,4355	-35,756	15,604
38930	5,5995	-0,48604	-35,781	15,623
38931	4,4652	-0,95646	-34,96	16,408
38932	4,5727	-0,96329	-35,656	16,731
38933	4,8426	-1,4381	-35,26	16,213
38934	4,8359	-0,48029	-35,245	16,259
38935	3,7332	-0,94644	-34,372	16,683
38936	3,8386	-0,95452	-35,09	17,142
38937	4,0942	-1,4233	-34,721	16,635
38938	4,0945	-0,47617	-34,675	16,661
38939	3,0332	-0,93703	-33,761	16,732
38940	3,121	-0,94431	-34,484	17,287
38941	3,364	-1,4011	-34,045	16,751
38942	3,3802	-0,47028	-34,081	16,823
38943	0,57117	-0,94153	-31,163	15,466
38944	1,3097e-002	-0,97011	-31,168	15,49
38945	0,28327	-1,4755	-30,807	15,199
38946	0,2913	-0,48147	-30,839	15,274
38947	2,3708	-0,9377	-33,135	16,59
38948	2,4384	-0,9368	-33,854	17,191
38949	2,718	-1,4598	-33,471	16,691
38950	2,7011	-0,46675	-33,465	16,767
38951	1,1443	-0,93256	-31,838	15,919
38952	0,57835	-0,92275	-31,883	16,038
38953	0,85539	-1,4536	-31,51	15,691
38954	0,85525	-0,46007	-31,525	15,761
38955	1,7421	-0,94344	-32,491	16,301
38956	1,789	-0,95251	-33,208	16,91
38957	2,0651	-1,4752	-32,831	16,464
38958	2,0525	-0,47095	-32,825	16,534
38959	1,1707	-0,96475	-32,545	16,506
38960	1,4487	-1,4835	-32,174	16,115
38961	1,4403	-0,47249	-32,174	16,18
38962	-3,2222	-0,99202	-34,535	17,196
38963	-3,2853	-0,98998	-35,234	17,761
38964	-3,6035	-1,499	-34,808	17,124
38965	-3,5993	-0,49738	-34,856	17,23
38966	-2,502	-0,97885	-33,911	17,162
38967	-2,5392	-0,98955	-34,615	17,798
38968	-2,8448	-1,4963	-34,203	17,212
38969	-2,8348	-0,49464	-34,246	17,33
38970	-0,56229	-0,97257	-31,869	16,018
38971	2,028e-002	-0,95133	-31,887	16,062
38972	-0,26605	-1,4781	-31,515	15,741
38973	-0,26506	-0,48864	-31,546	15,823
38974	-1,8319	-0,97566	-33,231	16,886
38975	-1,8637	-0,96604	-33,964	17,562
38976	-2,1628	-1,4831	-33,546	17,025
38977	-2,1691	-0,48421	-33,575	17,124
38978	-1,1773	-0,97537	-32,553	16,494
38979	-0,57142	-0,95099	-32,605	16,647
38980	-0,86064	-1,4785	-32,205	16,248
38981	-0,86427	-0,48392	-32,232	16,337
38982	-1,1993	-0,9659	-33,284	17,152
38983	-1,4936	-1,4872	-32,875	16,686
38984	-1,4989	-0,49145	-32,903	16,781
38985	1,1147e-002	-0,92975	-32,623	16,689
38986	0,6048	-0,95494	-32,59	16,621
38987	0,3071	-1,4664	-32,24	16,331
38988	0,30936	-0,46269	-32,271	16,426
38989	-2,6022	-0,98751	-35,315	18,338
38990	-2,625	-0,98562	-36,041	19,084
38991	-2,9595	-1,4817	-35,656	18,395
38992	-2,9639	-0,4926	-35,653	18,44
38993	-0,59342	-0,94151	-33,337	17,3
38994	2,2268e-002	-0,95991	-33,327	17,33
38995	-0,28125	-1,4683	-32,962	16,967
38996	-0,28298	-0,46706	-32,992	17,072
38997	-1,9009	-0,97674	-34,669	18,181
38998	-1,9258	-0,98826	-35,363	18,924
38999	-2,2444	-1,4971	-34,97	18,3
39000	-2,2453	-0,49491	-35,	18,405
39001	-1,231	-0,95628	-34,018	17,817
39002	-0,59565	-0,96967	-34,025	17,983
39003	-0,90357	-1,4784	-33,651	17,538
39004	-0,90386	-0,47445	-33,682	17,653
39005	-1,2459	-0,97598	-34,708	18,544
39006	-1,5585	-1,4857	-34,323	18,007
39007	-1,5582	-0,48183	-34,354	18,124
39008	0,61592	-0,98511	-33,294	17,264
39009	1,2176	-0,97383	-33,262	17,106
39010	0,91031	-1,489	-32,93	16,864
39011	0,90575	-0,49226	-32,944	16,952
39012	2,0036e-002	-0,98807	-34,016	18,012
39013	0,64448	-0,97528	-34,007	17,945
39014	0,32943	-1,4897	-33,658	17,624
39015	0,33124	-0,49285	-33,682	17,733
39016	-0,61053	-0,98938	-34,716	18,702
39017	3,5733e-002	-0,97214	-34,732	18,783
39018	-0,28692	-1,4968	-34,363	18,36
39019	-0,28325	-0,49523	-34,391	18,479
39020	-1,9486	-0,98637	-36,09	19,645
39021	-1,9712	-0,98439	-36,809	20,545
39022	-2,2843	-1,4743	-36,436	19,848
39023	-2,289	-0,49303	-36,436	19,831
39024	-1,2709	-0,9875	-35,402	19,271
39025	-0,60918	-0,98517	-35,424	19,542
39026	-0,93396	-1,4944	-35,053	19,021
39027	-0,93132	-0,49415	-35,08	19,132
39028	-1,2786	-0,97828	-36,115	20,166
39029	-1,6031	-1,4635	-35,752	19,559
39030	-1,6093	-0,49335	-35,755	19,605
39031	-1,3013	-0,9763	-36,835	21,04
39032	-1,3092	-0,98086	-37,528	22,073
39033	-1,6511	-1,4843	-37,152	21,392
39034	-1,6534	-0,49137	-37,182	21,264
39035	-0,61693	-0,97596	-36,137	20,424
39036	-0,61344	-0,97085	-36,848	21,436
39037	-0,94645	-1,4542	-36,491	20,894
39038	-0,95066	-0,48494	-36,494	20,853
39039	3,7081e-002	-0,96794	-35,44	19,62
39040	5,014e-002	-0,97577	-36,14	20,52
39041	-0,28643	-1,4893	-35,774	20,068
39042	-0,28187	-0,49102	-35,802	20,145
39043	0,66018	-0,95934	-34,724	18,72
39044	0,68965	-0,95562	-35,434	19,515
39045	0,35597	-1,4829	-35,074	19,167
39046	0,36222	-0,47691	-35,106	19,284
39047	1,2462	-0,964	-33,976	17,794
39048	1,8567	-0,95161	-33,926	17,497
39049	1,54	-1,4835	-33,599	17,314
39050	1,5321	-0,48157	-33,611	17,41
39051	1,2907	-0,96694	-34,684	18,474
39052	0,9647	-1,4855	-34,345	18,225
39053	0,96662	-0,48243	-34,37	18,339
39054	-0,62138	-0,97541	-37,541	22,449
39055	-0,6062	-0,97717	-38,226	23,55
39056	-0,96213	-1,4627	-37,879	23,083
39057	-0,96411	-0,48949	-37,878	22,63
39058	5,3624e-002	-0,97066	-36,851	21,528
39059	6,9958e-002	-0,97326	-37,56	22,6
39060	-0,27595	-1,4552	-37,205	22,227
39061	-0,27777	-0,48591	-37,208	22,013
39062	1,9011	-0,95455	-34,635	18,19
39063	2,5262	-0,94408	-34,576	17,725
39064	2,1838	-1,408	-34,259	17,652
39065	2,1849	-0,47005	-34,262	17,736
39066	0,70271	-0,96346	-36,133	20,422
39067	0,72585	-0,97351	-36,828	21,338
39068	0,38119	-1,4819	-36,478	21,057
39069	0,38579	-0,48475	-36,505	21,046
39070	1,3201	-0,96322	-35,394	19,281
39071	1,9651	-0,96152	-35,351	18,833
39072	1,6233	-1,4282	-35,028	18,717
39073	1,6233	-0,4845	-35,032	18,798
39074	1,3647	-0,95883	-36,113	20,069
39075	1,0178	-1,4764	-35,754	19,854
39076	1,0226	-0,47871	-35,787	19,935
39077	2,5902	-0,95105	-35,292	18,391
39078	3,2263	-0,95239	-35,202	17,721
39079	2,8682	-1,4184	-34,895	17,788
39080	2,87	-0,47403	-34,899	17,862
39081	8,5134e-002	-0,97503	-38,245	23,701
39082	6,0701e-002	-0,97072	-38,849	24,743
39083	-0,27576	-1,4866	-38,548	24,513
39084	-0,24742	-0,48768	-38,578	23,817
39085	2,0097	-0,95714	-36,07	19,645
39086	2,6668	-0,9579	-35,995	18,929
39087	2,3095	-1,4276	-35,682	18,984
39088	2,3104	-0,47702	-35,686	19,04
39089	0,74219	-0,97611	-37,537	22,422
39090	0,74442	-0,98039	-38,233	23,502
39091	0,41749	-1,4594	-37,909	23,401
39092	0,41769	-0,48735	-37,912	22,907
39093	1,3878	-0,96888	-36,808	21,004
39094	2,0621	-0,96312	-36,762	20,322
39095	1,7032	-1,4729	-36,424	20,339
39096	1,709	-0,48012	-36,453	20,347
39097	1,4184	-0,97441	-37,495	21,86
39098	1,0609	-1,4816	-37,149	21,834
39099	1,0687	-0,48876	-37,176	21,675
39100	0,71999	-0,97608	-38,837	24,537
39101	0,63627	-1,0188	-39,583	25,374
39102	0,28811	-1,4695	-39,263	25,328
39103	0,1976	-0,73523	-39,682	25,735
39104	0,416	-0,48305	-39,241	24,078
39105	1,4206	-0,97869	-38,19	22,959
39106	1,4241	-0,98145	-38,869	24,007
39107	1,0934	-1,47	-38,571	24,138
39108	1,0913	-0,49304	-38,572	23,398
39109	2,0926	-0,96865	-37,449	21,211
39110	2,1257	-0,96929	-38,126	21,908
39111	1,7724	-1,4542	-37,825	22,255
39112	1,77	-0,48565	-37,827	21,886
39113	2,7192	-0,96388	-36,687	19,64
39114	2,7746	-0,9668	-37,362	20,167
39115	2,4057	-1,478	-37,051	20,456
39116	2,4153	-0,483	-37,07	20,36
39117	3,3029	-0,95924	-35,904	18,289
39118	3,9461	-0,96136	-35,786	17,44
39119	3,5803	-1,4314	-35,5	17,662
39120	3,5826	-0,47835	-35,504	17,718
39121	3,3934	-0,96648	-36,599	18,674
39122	3,0195	-1,4731	-36,287	18,928
39123	3,0232	-0,48088	-36,303	18,952
39124	8,0671	-0,98012	-38,373	12,605
39125	8,267	-0,98247	-39,042	12,168
39126	8,4905	-1,4841	-38,654	12,064
39127	8,5068	-0,49139	-38,631	12,016
39128	7,2043	-0,97521	-37,863	13,754
39129	7,4114	-0,97415	-38,505	13,362
39130	7,6277	-1,4821	-38,138	13,194
39131	7,6434	-0,48873	-38,109	13,146
39132	6,3461	-0,97459	-37,384	14,918
39133	6,5283	-0,97178	-38,001	14,666
39134	6,7616	-1,4906	-37,643	14,38
39135	6,7728	-0,48649	-37,615	14,34
39136	4,6948	-0,97681	-36,344	16,871
39137	4,0366	-0,9686	-36,481	17,857
39138	4,3192	-1,4667	-36,097	17,272
39139	4,3179	-0,483	-36,078	17,277
39140	5,4998	-0,98191	-36,887	16,005
39141	5,6469	-0,98005	-37,553	15,967
39142	5,8791	-1,5275	-37,189	15,594
39143	5,9194	-0,48811	-37,154	15,511
39144	4,7995	-0,98898	-37,037	17,102
39145	5,0417	-1,471	-36,668	16,615
39146	5,0888	-0,49381	-36,629	16,539
39147	5,8881	-0,96781	-43,292	14,35
39148	5,2807	-0,97301	-43,684	16,852
39149	5,7183	-1,4088	-43,686	14,642
39150	5,2025	-0,71503	-44,069	17,279
39151	5,5948	-0,464	-43,728	15,014
39152	6,3631	-0,99966	-42,325	13,64
39153	5,7218	-0,98226	-42,486	15,261
39154	6,0877	-1,4929	-42,746	14,136
39155	6,1092	-0,50381	-42,753	13,819
39156	7,8065	-0,97998	-39,85	12,412
39157	7,6113	-0,9765	-39,175	12,921
39158	8,0266	-1,4832	-39,482	12,327
39159	8,0429	-0,49108	-39,444	12,241
39160	6,8563	-0,98692	-41,479	13,039
39161	6,2172	-0,9728	-41,612	14,198
39162	6,5917	-1,4914	-41,914	13,38
39163	6,6169	-0,49585	-41,898	13,038
39164	7,3366	-0,97996	-40,654	12,686
39165	6,6687	-0,97184	-40,752	13,702
39166	7,069	-1,4755	-41,129	12,926
39167	7,0957	-0,49107	-41,06	12,697
39168	7,148	-0,97012	-39,973	13,259
39169	7,5739	-1,4638	-40,244	12,6
39170	7,5774	-0,48889	-40,248	12,45
39171	6,7354	-0,97072	-38,643	14,264
39172	6,9529	-0,96664	-39,298	13,771
39173	7,1851	-1,4533	-38,899	13,597
39174	7,187	-0,48542	-38,898	13,511
39175	5,829	-0,97724	-38,17	15,697
39176	6,0705	-0,96037	-38,759	15,289
39177	6,2819	-1,4531	-38,393	15,037
39178	6,2837	-0,4853	-38,387	14,944
39179	4,9466	-0,98711	-37,703	17,036
39180	5,0589	-0,97286	-38,439	17,086
39181	5,3579	-1,5556	-37,981	16,531
39182	5,372	-0,49194	-37,97	16,4
39183	4,1413	-0,98077	-37,174	18,056
39184	4,2071	-0,97782	-37,847	18,416
39185	4,4883	-1,4968	-37,449	17,781
39186	4,5334	-0,49517	-37,467	17,645
39187	3,4488	-0,9694	-37,275	19,24
39188	3,7484	-1,4782	-36,883	18,533
39189	3,7636	-0,48559	-36,895	18,49
39190	6,4801	-0,962	-40,07	14,278
39191	6,288	-0,9563	-39,414	14,785
39192	6,7217	-1,4378	-39,685	14,068
39193	6,7285	-0,48122	-39,686	13,886
39194	5,8595	-0,94664	-40,119	15,393
39195	6,0295	-0,95772	-40,885	14,863
39196	6,2479	-1,4355	-40,545	14,606
39197	6,2416	-0,48077	-40,444	14,38
39198	5,6674	-0,94094	-39,463	15,912
39199	5,3003	-0,95599	-39,028	16,655
39200	5,8488	-1,4095	-39,139	15,699
39201	5,8572	-0,47508	-39,131	15,5
39202	3,5146	-0,96645	-37,947	19,559
39203	2,8077	-0,96744	-38,039	20,905
39204	3,1192	-1,4777	-37,643	20,148
39205	3,1426	-0,4838	-37,668	19,923
39206	5,1465	-0,92178	-39,684	16,948
39207	5,2671	-0,93511	-40,256	16,682
39208	5,4867	-1,3706	-39,919	16,336
39209	5,4775	-0,46586	-39,794	16,032
39210	4,3194	-0,96356	-38,583	18,426
39211	3,5437	-0,95767	-38,613	20,087
39212	3,8963	-1,4375	-38,25	19,305
39213	3,8953	-0,48264	-38,24	19,025
39214	4,7795	-0,93684	-39,25	17,707
39215	4,5532	-0,91321	-39,821	18,357
39216	4,7741	-1,3693	-39,579	17,928
39217	4,8155	-0,45592	-39,575	17,435
39218	4,2593	-0,9428	-39,224	18,899
39219	4,766	-1,4867	-38,922	17,84
39220	4,701	-0,48092	-38,88	17,664
39221	5,437	-0,94619	-41,022	16,139
39222	5,5759	-0,9554	-41,772	15,812
39223	5,8378	-1,3392	-41,356	15,232
39224	5,8208	-0,47695	-41,313	14,894
39225	4,6738	-0,92653	-40,392	18,068
39226	4,8159	-0,94884	-41,12	18,058
39227	5,0374	-1,3239	-40,74	17,308
39228	5,0567	-0,46924	-40,718	16,819
39229	4,033	-0,91917	-39,795	19,545
39230	4,0886	-0,92183	-40,425	19,967
39231	4,2996	-1,3557	-40,045	19,206
39232	4,2909	-0,45729	-40,067	18,694
39233	2,8368	-0,95866	-38,705	21,388
39234	2,1293	-0,97205	-38,804	22,989
39235	2,4646	-1,4745	-38,41	22,07
39236	2,4814	-0,48364	-38,424	21,592
39237	3,4837	-0,93691	-39,255	20,532
39238	3,4779	-0,92492	-39,925	21,322
39239	3,7953	-1,4741	-39,582	20,278
39240	3,7752	-0,46189	-39,524	19,719
39241	2,8414	-0,96662	-39,373	22,323
39242	3,1756	-1,4677	-38,983	21,309
39243	3,1922	-0,47502	-38,985	20,724
39244	2,1338	-0,98001	-39,472	23,887
39245	1,3404	-1,0241	-39,615	24,802
39246	1,7555	-1,4823	-39,176	24,335
39247	1,7952	-0,48841	-39,19	23,229
39248	2,8355	-0,95463	-40,044	23,086
39249	2,1657	-0,98414	-40,115	24,251
39250	2,4902	-1,4533	-39,739	23,577
39251	2,506	-0,4916	-39,763	22,558
39252	3,5334	-0,92757	-40,555	21,71
39253	2,9384	-0,95265	-40,683	23,302
39254	3,2017	-1,45	-40,299	22,34
39255	3,1805	-0,46303	-40,327	21,565
39256	4,2306	-0,94414	-41,152	19,912
39257	3,6481	-0,95713	-41,225	22,138
39258	3,9149	-1,4403	-40,828	20,671
39259	3,8862	-0,46454	-40,782	20,018
39260	4,9547	-0,95805	-41,871	17,712
39261	4,3178	-0,97048	-41,957	20,691
39262	4,6025	-1,4324	-41,537	18,809
39263	4,575	-0,4796	-41,522	18,395
39264	5,1144	-0,98746	-42,877	17,613
39265	5,3263	-1,4018	-42,236	16,438
39266	5,336	-0,47845	-42,186	16,106
39267	3,0531	-0,98221	-41,353	23,895
39268	2,7022	-1,4861	-41,035	23,514
39269	2,2686	-0,98215	-40,754	24,66
39270	2,6847	-0,48961	-41,078	24,69
39271	2,4853	-0,99074	-41,374	24,623
39272	3,7354	-0,98347	-42,029	22,987
39273	3,4236	-1,4869	-41,661	23,004
39274	3,4033	-0,49259	-41,712	24,27
39275	3,2027	-0,99401	-42,008	26,442
39276	3,0727	-1,9908	-41,343	22,546
39277	2,2979	-1,9985	-40,778	22,97
39278	2,7158	-2,4975	-41,025	22,774
39279	2,9656	-1,9835	-40,651	22,359
39280	2,4905	-1,9974	-41,37	23,914
39281	1,8643	-1,4946	-40,498	24,147
39282	1,3723	-1,0282	-40,258	25,328
39283	1,8593	-0,49254	-40,499	24,883
39284	1,6307	-0,99338	-40,865	22,377
39285	4,0755	-1,4796	-42,394	22,091
39286	4,4775	-0,99989	-42,963	20,578
39287	4,0837	-0,49088	-42,392	22,647
39288	3,802	-0,99217	-42,768	26,71
39289	3,7638	-1,983	-42,025	21,931
39290	3,4585	-2,4928	-41,649	22,318
39291	3,6903	-1,97	-41,264	21,354
39292	3,2159	-1,9954	-42,001	25,83
39293	1,3336	-2,0004	-40,293	23,526
39294	1,8886	-2,5043	-40,526	23,19
39295	2,1887	-1,9637	-40,121	23,28
39296	1,6534	-2,0027	-40,893	21,446
39297	0,8416	-1,534	-40,053	24,779
39298	1,2024e-002	-1,0655	-40,135	25,043
39299	0,46505	-0,78789	-40,145	25,989
39300	1,054	-0,53571	-40,049	25,15
39301	0,69457	-1,0363	-40,538	20,976
39302	4,4006	-1,978	-42,981	20,473
39303	4,1205	-2,4849	-42,389	21,375
39304	4,3602	-1,9415	-41,974	20,068
39305	3,8163	-1,99	-42,769	26,253
39306	4,8026	-1,4983	-43,55	19,37
39307	4,9355	-1,0108	-44,426	17,279
39308	4,8162	-0,76004	-43,921	19,432
39309	4,837	-0,50901	-43,242	19,116
39310	4,3893	-1,0106	-43,79	24,173
39311	0,77767	-2,4976	-40,056	23,932
39312	-1,0261e-002	-2,0095	-40,153	23,41
39313	1,2567	-1,9922	-39,614	24,11
39314	0,49344	-1,9848	-39,733	24,663
39315	0,27743	-1,9705	-39,931	24,201
39316	0,63118	-1,9988	-40,545	19,904
39317	4,7764	-2,4699	-43,469	19,188
39318	4,769	-2,0151	-44,309	18,382
39319	5,2402	-1,9341	-43,553	17,105
39320	5,0145	-1,9127	-42,909	17,926
39321	4,891	-2,0076	-44,006	18,288
39322	4,2974	-1,9909	-43,805	24,634
39323	1,3327	-3,0016	-40,289	23,541
39324	0,83582	-3,4614	-40,038	24,81
39325	-2,3075e-002	-3,0125	-40,155	23,345
39326	1,2463	-3,0005	-39,61	24,143
39327	0,30651	-3,0123	-39,869	24,369
39328	0,47737	-3,0101	-39,725	24,66
39329	0,62831	-2,9995	-40,541	19,924
39330	4,4963	-2,9768	-42,877	19,755
39331	4,8428	-3,4342	-43,262	18,815
39332	4,9414	-2,968	-44,217	17,228
39333	5,109	-2,9607	-43,796	17,143
39334	5,2052	-2,9322	-42,674	17,086
39335	5,2817	-3,0529	-43,354	16,728
39336	4,3627	-2,9821	-43,707	23,931
39337	2,3065	-3,0033	-40,772	22,962
39338	1,8616	-3,5081	-40,493	24,144
39339	2,1791	-3,0041	-40,131	23,298
39340	1,6533	-3,0027	-40,893	21,438
39341	3,8152	-2,9947	-42,012	21,595
39342	4,1504	-3,495	-42,353	21,384
39343	4,459	-2,9824	-41,918	19,567
39344	3,8459	-2,9974	-42,761	25,913
39345	3,1016	-2,9995	-41,331	22,455
39346	2,7262	-3,5068	-41,025	23,51
39347	3,0133	-3,0379	-40,625	22,289
39348	2,4972	-3,0018	-41,363	23,89
39349	3,4792	-3,5015	-41,641	22,752
39350	3,7881	-3,029	-41,238	21,049
39351	3,2364	-2,9995	-41,995	25,691
39352	19,359	-4,0422	7,4232	12,716
39353	18,739	-4,0326	7,7315	12,256
39354	19,203	-3,559	7,8856	12,341
39355	19,599	-4,0407	8,0611	12,368
39356	19,015	-4,0286	8,3712	11,98
39357	19,198	-4,5178	7,8944	12,374
39358	19,685	-4,0514	6,4757	13,541
39359	19,093	-4,0458	6,7922	13,003
39360	19,526	-3,5786	6,9493	13,114
39361	19,941	-4,054	7,1001	13,22
39362	19,521	-4,5244	6,952	13,156
39363	20,023	-4,0519	5,5247	14,468
39364	19,43	-4,0502	5,8487	13,819
39365	19,854	-3,5842	6,0008	14,
39366	20,258	-4,0595	6,1524	14,184
39367	19,849	-4,527	5,9994	14,041
39368	20,353	-4,0422	4,574	15,449
39369	19,768	-4,0464	4,9024	14,687
39370	20,2	-3,58	5,0558	14,997
39371	20,605	-4,0555	5,2148	15,323
39372	20,197	-4,5249	5,05	15,026
39373	20,642	-3,9807	3,4726	16,199
39374	20,044	-4,0284	3,9566	15,493
39375	20,468	-3,5313	4,0757	15,992
39376	20,896	-4,0311	4,2602	16,573
39377	20,509	-4,5173	4,0981	16,016
39378	20,237	-3,9785	2,8799	15,943
39379	20,385	-3,9423	2,3763	15,956
39380	20,568	-3,9849	1,9407	15,625
39381	20,709	-4,2133	2,3706	16,27
39382	20,738	-3,4665	2,7975	16,629
39383	21,209	-3,969	3,1781	17,925
39384	20,82	-4,4633	2,995	16,913
39385	21,116	-3,9627	2,3514	17,193
39386	17,839	-4,0315	7,3962	12,074
39387	18,472	-4,0363	7,1005	12,515
39388	18,25	-3,5229	7,5362	12,168
39389	18,111	-4,0289	8,0212	11,858
39390	18,297	-4,5148	7,5652	12,215
39391	17,576	-4,0351	6,7737	12,272
39392	16,96	-4,0393	7,061	11,858
39393	17,337	-3,5213	7,2285	11,937
39394	17,21	-4,032	7,6669	11,688
39395	17,413	-4,5167	7,2226	12,019
39396	18,209	-4,0398	6,4781	12,736
39397	18,838	-4,0446	6,1652	13,241
39398	18,667	-3,5665	6,6304	12,873
39399	18,664	-4,5215	6,6324	12,922
39400	17,941	-4,0414	5,8679	12,899
39401	17,315	-4,0425	6,1754	12,434
39402	17,698	-3,5258	6,3347	12,538
39403	17,77	-4,5184	6,3223	12,633
39404	18,57	-4,0461	5,555	13,437
39405	19,175	-4,0446	5,2265	13,979
39406	19,013	-3,5709	5,6988	13,619
39407	19,011	-4,5231	5,698	13,672
39408	18,272	-4,0429	4,9609	13,517
39409	17,67	-4,0482	5,2824	13,035
39410	18,128	-3,57	5,4114	13,224
39411	18,129	-4,523	5,412	13,281
39412	18,877	-4,0414	4,6324	14,103
39413	19,459	-4,0325	4,285	14,642
39414	19,34	-3,5675	4,7592	14,365
39415	19,34	-4,5215	4,7549	14,42
39416	16,042	-4,0456	6,7478	11,578
39417	16,699	-4,0466	6,4627	12,
39418	16,519	-3,5698	6,896	11,725
39419	16,332	-4,0442	7,33	11,471
39420	16,521	-4,5226	6,8983	11,768
39421	18,59	-4,0394	4,041	14,076
39422	17,944	-4,0358	4,396	13,575
39423	18,376	-3,5321	4,5225	13,78
39424	18,435	-4,5199	4,5036	13,885
39425	15,089	-4,0474	6,4514	11,251
39426	15,738	-4,0471	6,1767	11,653
39427	15,506	-3,538	6,6004	11,38
39428	15,375	-4,0431	7,0165	11,178
39429	15,578	-4,523	6,5951	11,455
39430	17,044	-4,0493	5,5899	12,544
39431	16,395	-4,0481	5,8916	12,091
39432	16,875	-3,5744	6,0249	12,266
39433	16,876	-4,5241	6,0271	12,315
39434	14,119	-4,0439	6,1636	10,899
39435	14,803	-4,0531	5,8971	11,301
39436	14,627	-3,5814	6,3049	11,079
39437	14,447	-4,0528	6,7116	10,873
39438	14,628	-4,5243	6,3058	11,114
39439	19,172	-4,0305	3,6936	14,674
39440	19,639	-4,0263	3,3639	15,092
39441	19,564	-3,5229	3,8098	14,949
39442	19,623	-4,5111	3,805	15,058
39443	13,128	-4,0387	5,8878	10,533
39444	13,792	-4,0416	5,6269	10,904
39445	13,571	-3,5316	6,0104	10,688
39446	13,436	-4,0342	6,4185	10,518
39447	13,645	-4,5195	6,0286	10,746
39448	18,832	-4,0343	3,1269	14,488
39449	18,288	-4,0464	3,4842	14,094
39450	18,687	-3,5309	3,5957	14,301
39451	18,766	-4,5195	3,5721	14,43
39452	12,131	-4,0387	5,598	10,177
39453	12,795	-4,0371	5,3562	10,52
39454	12,586	-3,5328	5,7286	10,329
39455	12,451	-4,0348	6,1347	10,174
39456	12,655	-4,5192	5,7626	10,377
39457	16,739	-4,0534	5,0315	12,614
39458	17,342	-4,0411	4,7175	13,062
39459	17,21	-3,5778	5,151	12,811
39460	17,212	-4,5253	5,1527	12,868
39461	11,794	-4,0418	5,0521	10,158
39462	11,126	-4,0428	5,2963	9,8416
39463	11,593	-3,5357	5,3939	9,9992
39464	11,45	-4,0361	5,8288	9,8413
39465	11,646	-4,5195	5,4721	10,022
39466	19,299	-4,03	2,7972	14,955
39467	19,847	-3,9941	2,4092	15,182
39468	19,631	-3,5209	2,9418	15,173
39469	20,171	-4,2652	2,4034	15,412
39470	19,863	-4,5152	2,8503	15,437
39471	16,09	-4,0522	5,3331	12,141
39472	15,453	-4,0528	5,6224	11,716
39473	15,862	-3,5386	5,7575	11,861
39474	15,932	-4,5241	5,7512	11,944
39475	18,469	-4,0447	2,605	14,401
39476	18,994	-4,0355	2,2359	14,679
39477	18,846	-3,5275	2,6967	14,599
39478	18,963	-4,5148	2,6697	14,723
39479	16,393	-4,0466	4,4881	12,604
39480	15,78	-4,0586	4,7947	12,173
39481	16,2	-3,5363	4,9107	12,345
39482	16,266	-4,5281	4,9103	12,433
39483	16,996	-4,0343	4,1741	13,075
39484	17,641	-4,0429	3,8392	13,553
39485	17,438	-3,5273	4,2878	13,279
39486	17,499	-4,5159	4,278	13,381
39487	19,542	-3,9997	1,8478	14,968
39488	20,178	-4,0005	1,4699	14,96
39489	19,815	-3,4961	1,9459	15,136
39490	20,319	-4,2289	1,8999	15,544
39491	20,098	-4,479	1,8503	15,204
39492	14,476	-4,0509	5,3605	11,316
39493	15,143	-4,0592	5,084	11,733
39494	14,991	-3,5879	5,487	11,52
39495	14,992	-4,5288	5,4888	11,559
39496	16,05	-4,0515	3,9658	12,59
39497	16,646	-4,0325	3,6437	13,019
39498	16,478	-3,5244	4,0624	12,788
39499	16,543	-4,5185	4,0656	12,883
39500	13,459	-4,04	5,0953	10,899
39501	14,129	-4,0538	4,8413	11,29
39502	13,923	-3,5371	5,2193	11,076
39503	13,978	-4,5221	5,2383	11,132
39504	17,925	-4,0568	2,9623	13,972
39505	17,291	-4,041	3,3089	13,523
39506	17,736	-3,5315	3,4026	13,748
39507	17,81	-4,527	3,3963	13,863
39508	12,457	-4,0402	4,8103	10,506
39509	13,129	-4,0489	4,5877	10,865
39510	12,924	-3,5285	4,928	10,682
39511	12,974	-4,5178	4,9768	10,721
39512	15,438	-4,0636	4,2724	12,141
39513	14,796	-4,0622	4,5648	11,718
39514	15,293	-3,5934	4,6762	11,935
39515	15,294	-4,5305	4,6791	11,979
39516	12,113	-4,0482	4,2776	10,467
39517	11,454	-4,0435	4,5377	10,135
39518	11,967	-3,5458	4,5813	10,333
39519	11,967	-4,5223	4,6937	10,334
39520	15,696	-4,0634	3,4573	12,515
39521	15,079	-4,068	3,7634	12,096
39522	15,534	-3,5521	3,8513	12,311
39523	15,581	-4,5331	3,8657	12,384
39524	17,549	-4,069	2,4637	13,88
39525	18,124	-4,0659	2,0956	14,246
39526	17,986	-3,5488	2,5268	14,11
39527	18,04	-4,5299	2,5283	14,211
39528	13,799	-4,0628	4,3338	11,264
39529	14,437	-4,0666	4,0558	11,659
39530	14,298	-3,5969	4,4476	11,478
39531	14,298	-4,5317	4,4505	11,515
39532	16,292	-4,0444	3,1352	12,964
39533	16,916	-4,0531	2,8103	13,404
39534	16,746	-3,5208	3,2104	13,197
39535	16,803	-4,5141	3,2253	13,292
39536	12,785	-4,057	4,0551	10,831
39537	13,437	-4,0659	3,8281	11,193
39538	13,272	-3,5526	4,1676	11,036
39539	13,3	-4,5311	4,2171	11,064
39540	18,649	-4,0568	1,7265	14,551
39541	19,173	-4,0519	1,326	14,725
39542	19,037	-3,5346	1,8066	14,725
39543	19,138	-4,5207	1,7788	14,82
39544	12,411	-4,0585	3,5251	10,758
39545	11,757	-4,0501	3,7654	10,422
39546	12,362	-3,614	3,8501	10,66
39547	12,271	-4,5259	3,9242	10,636
39548	15,322	-4,0706	2,9641	12,431
39549	15,944	-4,0758	2,6549	12,855
39550	15,787	-3,5469	3,0258	12,671
39551	15,826	-4,5304	3,0541	12,743
39552	16,568	-4,0845	2,33	13,315
39553	17,129	-4,0752	1,9781	13,699
39554	17,011	-3,5514	2,3683	13,555
39555	17,058	-4,5391	2,3992	13,648
39556	14,705	-4,0751	3,2702	11,997
39557	14,075	-4,0697	3,5501	11,598
39558	14,576	-3,6074	3,6562	11,829
39559	14,576	-4,5349	3,6611	11,87
39560	17,704	-4,0722	1,61	14,088
39561	18,255	-4,0789	1,2336	14,391
39562	18,15	-3,5499	1,6601	14,309
39563	18,209	-4,5361	1,6629	14,416
39564	14,953	-4,0893	2,4967	12,299
39565	14,328	-4,0808	2,7754	11,9
39566	14,835	-3,6249	2,871	12,15
39567	14,834	-4,5402	2,8793	12,196
39568	13,063	-4,0674	3,2981	11,126
39569	13,698	-4,0754	3,0552	11,491
39570	13,574	-3,5555	3,3785	11,356
39571	13,574	-4,5348	3,4391	11,38
39572	15,574	-4,0945	2,1875	12,738
39573	16,175	-4,1015	1,8664	13,143
39574	16,039	-3,5682	2,2161	12,993
39575	16,077	-4,5454	2,2609	13,07
39576	12,687	-4,0722	2,7741	11,022
39577	12,038	-4,0621	3,0138	10,684
39578	12,625	-3,6029	3,093	10,934
39579	12,549	-4,5326	3,1728	10,914
39580	16,736	-4,0922	1,5145	13,548
39581	17,252	-4,0721	1,1485	13,876
39582	17,175	-3,5488	1,5228	13,786
39583	17,217	-4,5361	1,5657	13,882
39584	14,571	-4,0984	2,0145	12,17
39585	15,183	-4,1119	1,7418	12,559
39586	15,072	-3,6545	2,101	12,431
39587	15,072	-4,5491	2,1141	12,48
39588	13,321	-4,0802	2,5312	11,395
39589	13,945	-4,0899	2,2932	11,76
39590	13,825	-3,5587	2,6041	11,634
39591	13,821	-4,5406	2,6714	11,663
39592	15,784	-4,1189	1,4207	12,98
39593	16,344	-4,1227	1,0854	13,347
39594	16,239	-3,5854	1,4052	13,237
39595	16,274	-4,5561	1,472	13,319
39596	12,94	-4,0805	2,0074	11,26
39597	12,312	-4,0752	2,2596	10,927
39598	12,863	-3,6047	2,3554	11,176
39599	12,816	-4,5396	2,4086	11,171
39600	13,564	-4,0901	1,7693	11,634
39601	14,19	-4,1136	1,5569	11,999
39602	14,074	-3,6549	1,902	11,884
39603	14,069	-4,5493	1,9149	11,921
39604	14,802	-4,127	1,2841	12,4
39605	15,353	-4,1267	0,98168	12,745
39606	15,293	-3,7006	1,3523	12,669
39607	15,294	-4,5628	1,3694	12,72
39608	13,178	-4,0878	1,2481	11,464
39609	12,564	-4,0777	1,4843	11,137
39610	12,948	-3,6063	1,5538	11,32
39611	13,062	-4,5409	1,6473	11,397
39612	13,804	-4,1112	1,0356	11,839
39613	14,388	-4,1115	0,83069	12,177
39614	14,313	-3,6221	1,0583	12,113
39615	14,31	-4,5643	1,1988	12,143
39616	13,365	-4,1022	0,54042	11,611
39617	12,818	-4,0822	0,75266	11,323
39618	13,288	-3,6035	0,86112	11,549
39619	13,304	-4,5469	0,89811	11,591
39620	13,64	-4,0708	1,3215e-002	11,782
39621	13,95	-4,1025	0,33548	11,958
39622	13,04	-4,0759	-1,4164e-002	11,455
39623	13,404	-3,5961	0,22466	11,639
39624	13,54	-4,5553	0,25441	11,749
39625	14,18	-4,0488	-0,16616	12,093
39626	13,699	-4,0339	-0,40447	11,808
39627	13,854	-3,4265	-0,19719	11,887
39628	13,861	-4,5155	-0,14464	11,936
39629	14,49	-4,0805	0,15611	12,264
39630	14,939	-4,1111	0,52826	12,536
39631	14,441	-3,7169	0,40817	12,224
39632	14,527	-4,5472	0,49819	12,317
39633	14,981	-4,1029	-0,12466	12,571
39634	14,462	-4,063	-0,45204	12,242
39635	14,502	-3,4962	-0,22932	12,262
39636	14,602	-4,5333	-0,12812	12,371
39637	15,431	-4,1335	0,2475	12,832
39638	15,913	-4,1305	0,64635	13,128
39639	15,4	-3,7754	0,5606	12,797
39640	15,446	-4,5639	0,61913	12,878
39641	15,946	-4,1402	-9,1718e-002	13,167
39642	15,398	-4,1099	-0,45083	12,807
39643	15,428	-3,7367	-0,1214	12,828
39644	15,514	-4,5696	-9,7582e-002	12,937
39645	16,429	-4,1372	0,30713	13,447
39646	16,859	-4,1026	0,71937	13,693
39647	16,377	-3,6705	0,66933	13,39
39648	16,414	-4,5666	0,69879	13,48
39649	16,906	-4,1272	-8,0427e-002	13,743
39650	16,402	-4,1351	-0,47601	13,427
39651	16,442	-3,7185	-0,10991	13,455
39652	16,444	-4,5706	-8,4519e-002	13,521
39653	17,337	-4,0927	0,33181	13,972
39654	17,803	-4,0788	0,77209	14,195
39655	17,267	-3,5523	0,76751	13,908
39656	17,326	-4,536	0,747	14,019
39657	17,839	-4,1015	-7,1406e-002	14,23
39658	17,317	-4,0962	-0,47644	13,958
39659	17,451	-3,6303	-6,157e-002	14,039
39660	17,369	-4,5567	-7,6335e-002	14,066
39661	18,306	-4,0877	0,36887	14,441
39662	18,78	-4,074	0,8331	14,573
39663	18,269	-3,5635	0,80612	14,414
39664	18,302	-4,5428	0,80423	14,5
39665	18,769	-4,0623	-4,6077e-002	14,542
39666	18,275	-4,086	-0,50567	14,422
39667	18,299	-3,6401	-6,5258e-002	14,428
39668	18,309	-4,5449	-6,6478e-002	14,507
39669	19,243	-4,0486	0,41815	14,683
39670	19,809	-4,0528	0,94811	14,705
39671	19,197	-3,5417	0,88756	14,698
39672	19,257	-4,5312	0,86197	14,761
39673	19,696	-4,0222	-1,4832e-002	14,476
39674	19,206	-4,0444	-0,49078	14,674
39675	19,228	-3,5277	-1,5604e-002	14,652
39676	19,24	-4,5174	-3,1773e-002	14,696
39677	20,263	-4,0264	0,51514	14,593
39678	20,502	-4,2715	1,4642	15,354
39679	20,271	-3,5158	1,0996	14,876
39680	20,296	-4,5216	1,0006	14,757
39681	20,738	-4,0206	0,99396	14,886
39682	20,176	-4,01	-0,48929	14,562
39683	20,159	-3,5094	4,472e-004	14,404
39684	20,17	-4,5048	-8,137e-003	14,4
39685	20,582	-4,0035	-3,5429e-003	14,016
39686	10,117	-4,039	4,954	9,537
39687	10,786	-4,0445	4,7818	9,815
39688	10,673	-3,5817	5,1054	9,6959
39689	10,446	-4,0411	5,5344	9,5292
39690	10,63	-4,5233	5,1681	9,6906
39691	19,686	-4,0322	-0,96523	14,681
39692	20,251	-3,9598	-1,5485	15,133
39693	20,196	-3,506	-0,98101	14,748
39694	20,152	-4,5052	-0,97775	14,757
39695	20,653	-4,0039	-0,96713	14,701
39696	9,7715	-4,0307	4,3917	9,5182
39697	9,1118	-4,0281	4,5349	9,2768
39698	9,574	-3,5289	4,6486	9,4013
39699	9,4467	-4,0268	5,1897	9,2528
39700	9,6151	-4,5157	4,7906	9,4033
39701	10,441	-4,0361	4,2196	9,7973
39702	11,097	-4,0454	4,0254	10,085
39703	10,988	-3,5654	4,3753	9,9793
39704	10,95	-4,5212	4,4132	9,9706
39705	18,712	-4,0681	-0,95037	14,548
39706	19,126	-4,0435	-1,4287	14,695
39707	19,206	-3,5333	-0,95897	14,706
39708	19,184	-4,527	-0,95588	14,742
39709	10,083	-4,0311	3,6166	9,7643
39710	9,4314	-4,0216	3,7952	9,5127
39711	9,9239	-3,4583	4,0103	9,6454
39712	9,9314	-4,515	4,026	9,6562
39713	10,739	-4,0404	3,4225	10,055
39714	11,383	-4,0537	3,2541	10,343
39715	11,218	-3,6417	3,6136	10,208
39716	11,243	-4,5242	3,6376	10,238
39717	17,753	-4,0807	-0,9107	14,163
39718	18,159	-4,0626	-1,3705	14,337
39719	18,228	-3,6324	-0,93693	14,387
39720	18,24	-4,5411	-0,94485	14,465
39721	10,378	-4,039	2,8328	9,9975
39722	9,7462	-4,0245	2,9917	9,7474
39723	10,195	-3,5432	3,2253	9,8738
39724	10,232	-4,5162	3,2221	9,9022
39725	11,022	-4,0524	2,6644	10,288
39726	11,663	-4,0651	2,4994	10,583
39727	11,523	-3,5933	2,8477	10,456
39728	11,523	-4,5295	2,8706	10,488
39729	16,812	-4,1041	-0,87203	13,657
39730	17,202	-4,0844	-1,3002	13,834
39731	17,22	-3,5512	-0,84489	13,876
39732	17,284	-4,5395	-0,89165	13,986
39733	10,668	-4,0521	2,0909	10,205
39734	10,042	-4,0351	2,2124	9,9545
39735	10,524	-3,534	2,4698	10,098
39736	10,521	-4,5229	2,4583	10,123
39737	11,309	-4,0648	1,9258	10,503
39738	11,936	-4,0724	1,7366	10,796
39739	11,819	-3,5988	2,09	10,698
39740	11,803	-4,5356	2,1282	10,718
39741	15,854	-4,1049	-0,83512	13,082
39742	16,266	-4,118	-1,2493	13,289
39743	16,34	-3,6566	-0,80645	13,362
39744	16,359	-4,5646	-0,8675	13,438
39745	10,955	-4,0636	1,3964	10,393
39746	10,351	-4,0472	1,4445	10,145
39747	10,79	-3,5686	1,6918	10,291
39748	10,815	-4,5293	1,7235	10,324
39749	11,583	-4,0712	1,2072	10,69
39750	12,204	-4,0721	0,98888	10,987
39751	11,964	-3,6738	1,3918	10,841
39752	12,076	-4,5368	1,371	10,922
39753	14,88	-4,07	-0,77821	12,488
39754	15,259	-4,0835	-1,1554	12,679
39755	15,381	-3,6821	-0,77471	12,773
39756	15,383	-4,5403	-0,81314	12,83
39757	11,301	-4,0591	0,628	10,583
39758	10,72	-4,0285	0,73133	10,335
39759	11,112	-3,5947	1,0844	10,477
39760	11,096	-4,5343	1,0694	10,497
39761	11,922	-4,0601	0,40972	10,887
39762	12,493	-4,0559	0,19807	11,158
39763	12,248	-3,708	0,74025	11,018
39764	12,348	-4,5353	0,63003	11,106
39765	13,982	-4,0481	-0,69034	11,963
39766	14,294	-4,0523	-1,0862	12,108
39767	14,355	-3,4919	-0,77252	12,157
39768	14,461	-4,5297	-0,72612	12,268
39769	11,644	-4,0395	-4,1876e-002	10,758
39770	11,16	-4,0167	-5,982e-002	10,54
39771	11,538	-3,5362	0,27819	10,7
39772	11,45	-4,5247	0,2199	10,686
39773	13,1	-4,039	-0,43185	11,483
39774	13,373	-4,0552	-0,9574	11,6
39775	13,5	-3,4724	-0,65651	11,677
39776	13,545	-4,5184	-0,6111	11,742
39777	12,215	-4,0353	-0,25353	11,035
39778	11,606	-4,0173	-0,54827	10,731
39779	11,83	-3,5098	-0,17886	10,836
39780	11,723	-4,5148	-0,31515	10,812
39781	12,448	-4,033	-0,68196	11,124
39782	12,606	-3,6216	-0,23455	11,22
39783	12,634	-4,5206	-0,23574	11,263
39784	19,69	-3,9711	-2,012	15,105
39785	20,006	-3,9651	-2,6203	15,293
39786	20,415	-3,9372	-2,847	15,746
39787	20,902	-3,9249	-2,8366	16,92
39788	20,638	-4,201	-2,4168	16,218
39789	20,359	-3,4515	-2,1379	15,668
39790	20,193	-4,4546	-1,9829	15,322
39791	20,886	-3,9536	-1,9918	16,508
39792	18,573	-4,038	-1,8488	14,495
39793	18,967	-4,0287	-2,3654	14,645
39794	19,143	-3,5522	-1,959	14,75
39795	19,071	-4,5165	-1,8947	14,788
39796	17,608	-4,0663	-1,76	14,026
39797	17,984	-4,0459	-2,2378	14,148
39798	18,076	-3,5987	-1,7942	14,265
39799	18,089	-4,5215	-1,8057	14,34
39800	16,655	-4,0982	-1,6775	13,484
39801	17,018	-4,0628	-2,1189	13,618
39802	17,137	-3,5492	-1,643	13,751
39803	17,139	-4,5448	-1,7239	13,82
39804	8,7716	-4,019	3,9384	9,2715
39805	8,1328	-4,0268	4,0569	9,0669
39806	8,6121	-3,5555	4,2078	9,1782
39807	8,4509	-4,016	4,7593	9,027
39808	8,6144	-4,5124	4,3448	9,165
39809	15,67	-4,0966	-1,5696	12,901
39810	16,054	-4,0794	-2,0038	13,06
39811	16,176	-3,575	-1,5363	13,19
39812	16,172	-4,5534	-1,6311	13,243
39813	9,0943	-4,0149	3,1703	9,4941
39814	8,4673	-4,0151	3,2692	9,288
39815	8,8894	-3,519	3,534	9,3721
39816	8,9313	-4,5066	3,5644	9,3961
39817	14,673	-4,0658	-1,4634	12,31
39818	15,049	-4,0736	-1,8789	12,47
39819	15,222	-3,6023	-1,4404	12,626
39820	15,176	-4,5432	-1,5281	12,638
39821	9,4098	-4,0205	2,3713	9,7027
39822	8,7794	-4,0043	2,4866	9,487
39823	9,2679	-3,5326	2,7769	9,6043
39824	9,2573	-4,5084	2,7761	9,6173
39825	13,686	-4,0594	-1,3533	11,754
39826	14,046	-4,0689	-1,7857	11,901
39827	14,096	-3,5755	-1,4267	11,958
39828	14,183	-4,5226	-1,4238	12,054
39829	9,7241	-4,0301	1,566	9,8924
39830	9,1038	-4,0113	1,6566	9,6749
39831	9,5749	-3,546	1,9657	9,8031
39832	9,5623	-4,5122	1,9665	9,8169
39833	12,722	-4,0492	-1,2075	11,251
39834	13,043	-4,0746	-1,654	11,367
39835	13,182	-3,5641	-1,3155	11,464
39836	13,2	-4,5368	-1,2665	11,517
39837	10,115	-4,0121	0,77942	10,087
39838	9,4606	-4,0221	0,84148	9,8483
39839	9,8358	-3,5376	1,1716	9,9603
39840	9,886	-4,5179	1,1656	9,9996
39841	11,84	-4,015	-0,9767	10,828
39842	12,042	-4,0378	-1,5297	10,877
39843	12,253	-3,6068	-1,1216	11,007
39844	12,242	-4,5125	-1,1324	11,03
39845	10,579	-3,9861	4,3509e-002	10,289
39846	9,953	-3,9878	5,6857e-002	10,047
39847	10,343	-3,5113	0,33483	10,192
39848	10,3	-4,4941	0,38845	10,193
39849	11,122	-3,9945	-0,56622	10,514
39850	11,112	-4,0174	-1,31	10,467
39851	11,416	-3,4892	-0,80622	10,629
39852	11,319	-4,5025	-0,98084	10,603
39853	10,418	-4,0016	-0,70559	10,214
39854	10,759	-3,3385	-0,3469	10,355
39855	10,729	-4,492	-0,32865	10,37
39856	7,187	-4,019	3,5108	8,9051
39857	7,8285	-4,0228	3,3877	9,0841
39858	7,6273	-3,5292	3,76	8,975
39859	7,4839	-4,0275	4,2339	8,8575
39860	7,6448	-4,5144	3,8277	8,9793
39861	6,2521	-4,0036	2,9121	8,7765
39862	6,8942	-4,0042	2,7934	8,9284
39863	6,8348	-3,5056	3,0327	8,8869
39864	6,5357	-3,9912	3,6899	8,7202
39865	6,7087	-4,5047	3,2484	8,8366
39866	7,5357	-4,008	2,6702	9,107
39867	8,1524	-4,0044	2,5855	9,2815
39868	7,9823	-3,5179	2,9305	9,1903
39869	7,9922	-4,5085	3,0077	9,1958
39870	5,9563	-3,9687	2,1504	8,7969
39871	5,332	-3,9936	2,2463	8,6765
39872	5,7809	-3,4701	2,596	8,7183
39873	5,5982	-4,0005	3,06	8,6231
39874	5,7724	-4,4989	2,6032	8,7244
39875	6,5983	-3,9693	2,0317	8,9484
39876	7,2542	-3,9938	1,936	9,1076
39877	7,1023	-3,5576	2,3237	9,0327
39878	7,0517	-4,4996	2,388	9,026
39879	7,8709	-3,9902	1,8513	9,2815
39880	8,4733	-3,9951	1,7719	9,4586
39881	8,2775	-3,4787	2,1839	9,3629
39882	8,3014	-4,496	2,1971	9,3826
39883	6,3268	-3,9412	1,245	8,9441
39884	5,7152	-3,9572	1,3175	8,8208
39885	6,128	-3,444	1,692	8,8748
39886	6,1287	-4,4697	1,6969	8,8842
39887	6,9826	-3,9657	1,1492	9,1031
39888	7,6437	-3,9991	1,0747	9,271
39889	7,512	-3,5225	1,4866	9,213
39890	7,4147	-4,4942	1,5164	9,1968
39891	8,2462	-4,0041	0,99529	9,4484
39892	8,8402	-4,0033	0,93202	9,63
39893	8,5997	-3,5012	1,349	9,5311
39894	8,6452	-4,4991	1,3466	9,561
39895	5,0909	-3,9821	1,4133	8,7007
39896	4,4522	-3,9857	1,491	8,6011
39897	4,8456	-3,5069	2,0068	8,6173
39898	4,6833	-3,993	2,3621	8,5543
39899	4,8698	-4,4947	1,88	8,6409
39900	6,7438	-3,9484	0,34984	9,0706
39901	6,1378	-3,9506	0,40645	8,9409
39902	6,5092	-3,4071	0,78264	9,0061
39903	6,5249	-4,4715	0,79302	9,0228
39904	7,4048	-3,9819	0,2753	9,2388
39905	8,0365	-3,9973	0,23197	9,4088
39906	7,8929	-3,5729	0,7408	9,3552
39907	7,8129	-4,5049	0,65101	9,3503
39908	5,5261	-3,9666	0,47894	8,8174
39909	4,8949	-3,973	0,53825	8,7121
39910	5,2922	-3,4847	0,96731	8,7624
39911	5,2768	-4,4874	0,94786	8,7697
39912	8,6306	-3,9966	0,1687	9,5909
39913	9,2987	-3,9978	0,11892	9,8068
39914	9,0693	-3,5089	0,53194	9,7192
39915	9,0353	-4,5042	0,5174	9,7274
39916	7,2464	-3,9817	-0,51358	9,1904
39917	6,5758	-3,9454	-0,49135	9,0318
39918	6,9641	-3,4671	-4,3654e-003	9,1221
39919	6,9626	-4,477	-9,3338e-002	9,1387
39920	7,8781	-3,9971	-0,55692	9,3609
39921	8,4737	-3,9879	-0,59265	9,5308
39922	8,2051	-3,7035	-0,13946	9,4633
39923	8,2259	-4,4924	-0,18	9,4791
39924	9,7929	-4,0033	-0,69224	9,9721
39925	9,1419	-3,9891	-0,64243	9,7478
39926	9,7246	-3,4396	-0,13832	9,956
39927	9,5199	-4,4936	-0,29028	9,9013
39928	5,9698	-3,9476	-0,43474	8,9014
39929	5,3651	-3,9581	-0,38747	8,7921
39930	5,7944	-3,4284	-8,7082e-003	8,8757
39931	5,7142	-4,4791	2,4114e-002	8,8698
39932	9,6929	-4,0078	-1,468	9,8997
39933	10,409	-4,0245	-1,4494	10,172
39934	10,192	-3,2935	-0,96811	10,113
39935	10,024	-4,5096	-1,1049	10,062
39936	3,6008	-3,9777	0,67812	8,5328
39937	4,2562	-3,9766	0,61591	8,6125
39938	3,9432	-3,5009	1,1251	8,5551
39939	3,8168	-3,9795	1,5786	8,5073
39940	4,0086	-4,491	1,0988	8,572
39941	7,7891	-3,9948	-1,3459	9,2967
39942	7,1647	-4,0003	-1,3239	9,1373
39943	7,5676	-3,6398	-0,9159	9,2624
39944	7,4975	-4,5047	-0,93953	9,2542
39945	9,0419	-3,9936	-1,4182	9,6731
39946	8,3848	-3,9857	-1,3816	9,468
39947	8,7692	-3,4966	-1,0337	9,6076
39948	8,7216	-4,4955	-1,0053	9,6088
39949	6,4941	-3,964	-1,3017	8,9778
39950	5,8188	-3,9291	-1,3011	8,8379
39951	6,2148	-3,4331	-0,87338	8,9386
39952	6,1891	-4,4684	-0,88936	8,9448
39953	9,0443	-3,9999	-2,1949	9,6102
39954	9,6744	-3,8728	-2,239	9,8186
39955	9,3735	-3,4981	-1,8326	9,7553
39956	9,3622	-4,4981	-1,8312	9,7678
39957	2,7694	-3,9655	-0,15645	8,4586
39958	3,4288	-3,9666	-0,22026	8,5177
39959	3,2235	-3,4231	0,28718	8,4989
39960	2,9572	-4,0006	0,76276	8,4602
39961	3,1673	-4,4867	0,26142	8,5024
39962	4,7339	-3,9645	-0,32816	8,6864
39963	4,0841	-3,9655	-0,28248	8,5977
39964	4,52	-3,4846	0,15564	8,6599
39965	4,4542	-4,4855	0,14065	8,6593
39966	8,3872	-3,9919	-2,1583	9,4026
39967	7,714	-3,9772	-2,1457	9,2125
39968	7,9693	-3,4791	-1,8504	9,3143
39969	8,048	-4,4901	-1,7579	9,3538
39970	7,0896	-3,9826	-2,1238	9,0515
39971	6,4263	-3,9666	-2,1377	8,8966
39972	6,8923	-3,5613	-1,6584	9,045
39973	6,7717	-4,4956	-1,7258	9,0229
39974	5,2141	-3,9397	-1,2539	8,7278
39975	4,5659	-3,9218	-1,2335	8,6281
39976	5,0206	-3,4159	-0,83644	8,7188
39977	4,9363	-4,479	-0,79817	8,7164
39978	1,9686	-3,949	-1,0167	8,3725
39979	2,6292	-3,9493	-1,0737	8,4134
39980	2,2689	-3,4397	-0,55084	8,4093
39981	2,129	-3,9853	-6,1672e-002	8,4072
39982	2,3351	-4,4788	-0,57258	8,4222
39983	3,2885	-3,9504	-1,1375	8,473
39984	3,9162	-3,9228	-1,1878	8,5388
39985	3,7296	-3,421	-0,66924	8,5449
39986	3,6479	-4,48	-0,71163	8,5407
39987	8,3784	-3,9992	-2,9222	9,3171
39988	9,0235	-4,0158	-2,9602	9,5101
39989	8,7206	-3,509	-2,5485	9,4679
39990	8,7153	-4,5018	-2,5508	9,4772
39991	5,751	-3,9318	-2,1372	8,7557
39992	5,0976	-3,9137	-2,1403	8,6389
39993	5,4831	-3,4282	-1,6817	8,746
39994	5,4485	-4,4607	-1,7129	8,7483
39995	1,8632	-3,9471	-1,9813	8,2913
39996	1,1201	-3,9021	-1,9989	8,257
39997	1,5505	-3,4657	-1,4553	8,3227
39998	1,3274	-3,9478	-0,92088	8,3405
39999	1,5461	-4,4701	-1,4904	8,327
40000	2,5238	-3,9474	-2,0383	8,3328
40001	3,1969	-3,9342	-2,0536	8,3899
40002	2,7921	-3,4345	-1,4956	8,4055
40003	2,87	-4,4704	-1,5908	8,4099
40004	7,7052	-3,9845	-2,9096	9,1248
40005	7,0568	-3,9689	-2,9378	8,9515
40006	7,3348	-3,5423	-2,5415	9,0687
40007	7,3801	-4,4871	-2,5335	9,094
40008	4,4495	-3,8958	-2,12	8,5382
40009	3,8246	-3,9066	-2,1039	8,4567
40010	4,2042	-3,4093	-1,6682	8,5461
40011	4,1523	-4,4428	-1,6722	8,5466
40012	6,3934	-3,9529	-2,9518	8,7952
40013	5,7563	-3,9318	-2,9739	8,6603
40014	6,0946	-3,4161	-2,5091	8,7859
40015	6,0534	-4,4711	-2,5614	8,7811
40016	5,103	-3,9137	-2,977	8,542
40017	4,4125	-3,8973	-3,0111	8,4277
40018	4,7689	-3,4345	-2,4976	8,5476
40019	4,7468	-4,453	-2,5677	8,5435
40020	2,4749	-3,9404	-2,9848	8,2174
40021	1,7949	-3,9474	-3,0122	8,1663
40022	2,1484	-3,3494	-2,4001	8,2641
40023	2,1056	-4,4769	-2,5269	8,2566
40024	3,1481	-3,9272	-3,0001	8,2756
40025	3,7875	-3,9082	-2,995	8,3449
40026	3,5724	-3,4386	-2,6294	8,3713
40027	3,4621	-4,4638	-2,5465	8,3741
40028	7,7245	-3,9917	-3,6911	9,0205
40029	8,366	-4,017	-3,6774	9,2031
40030	8,0328	-3,5293	-3,253	9,1683
40031	8,0304	-4,4974	-3,2858	9,1769
40032	7,0761	-3,9762	-3,7193	8,8456
40033	6,4254	-3,9568	-3,7683	8,6847
40034	6,7547	-3,4138	-3,3178	8,8257
40035	6,7335	-4,4818	-3,3421	8,829
40036	5,7883	-3,9358	-3,7904	8,5482
40037	5,138	-3,9234	-3,8362	8,4224
40038	5,4448	-3,3975	-3,4009	8,5441
40039	5,43	-4,4608	-3,3991	8,5493
40040	3,1172	-3,9004	-3,917	8,1331
40041	2,4688	-3,9229	-3,943	8,0706
40042	2,8722	-3,4526	-3,5075	8,1761
40043	2,7601	-4,4634	-3,4772	8,1772
40044	7,1404	-3,9848	-4,5184	8,7288
40045	7,7685	-4,0021	-4,4768	8,902
40046	7,4188	-3,489	-4,1012	8,8733
40047	7,4186	-4,4943	-4,0964	8,8831
40048	4,4475	-3,907	-3,8703	8,3067
40049	3,7566	-3,8814	-3,9119	8,2038
40050	4,1193	-3,3051	-3,4888	8,3223
40051	4,0781	-4,4444	-3,4545	8,326
40052	6,4897	-3,9655	-4,5674	8,5663
40053	5,842	-3,9535	-4,6189	8,4199
40054	6,1102	-3,2539	-4,2332	8,5411
40055	6,1173	-4,475	-4,1945	8,5587
40056	5,1918	-3,9411	-4,6647	8,2924
40057	4,5363	-3,9136	-4,7243	8,1726
40058	4,857	-3,4112	-4,2635	8,3042
40059	4,7974	-4,4626	-4,29	8,2985
40060	3,8454	-3,8879	-4,7659	8,0679
40061	3,1516	-3,9011	-4,8298	7,974
40062	3,4759	-3,2671	-4,3872	8,0961
40063	3,4351	-4,437	-4,3694	8,096
40064	6,4724	-4,0172	-5,3563	8,4211
40065	7,2135	-3,9901	-5,3068	8,6054
40066	6,8146	-3,4816	-4,8531	8,5927
40067	6,8704	-4,4905	-4,9404	8,5975
40068	5,8248	-4,0052	-5,4078	8,2738
40069	5,3979	-3,9555	-5,36	8,2006
40070	5,6222	-3,3811	-5,019	8,3074
40071	5,5498	-4,4785	-5,0562	8,2928
40072	4,7424	-3,928	-5,4195	8,0781
40073	3,9541	-3,9059	-5,6441	7,9148
40074	4,2048	-3,3674	-5,1888	8,0356
40075	4,2173	-4,4509	-5,1864	8,0452
40076	5,9826	-4,0174	-6,1833	8,1598
40077	6,6142	-3,9607	-6,1604	8,3017
40078	6,0909	-3,7469	-5,7562	8,2633
40079	6,2051	-4,5267	-5,771	8,292
40080	5,5557	-3,9677	-6,1355	8,0827
40081	4,8798	-3,9458	-6,2725	7,9307
40082	5,1395	-3,3423	-5,8348	8,0599
40083	5,0931	-4,477	-5,8415	8,0596
40084	6,188	-4,0018	-6,7954	8,0878
40085	5,941	-3,9801	-7,0717	7,9808
40086	5,7389	-3,5678	-6,5772	8,034
40087	5,845	-4,4907	-6,6327	8,0515
40088	6,8197	-3,9451	-6,7726	8,2334
40089	6,6841	-4,0101	-7,6199	8,0398
40090	6,3235	-3,4748	-7,1085	8,052
40091	6,4783	-4,5111	-7,0304	8,1104
40092	7,3554	-3,9336	-6,1109	8,4892
40093	7,4817	-3,9065	-6,9899	8,3538
40094	7,0868	-3,4205	-6,5979	8,3271
40095	7,174	-4,434	-6,493	8,3783
40096	7,8417	-4,0074	-5,2652	8,7806
40097	7,9198	-4,0066	-6,0564	8,65
40098	7,5355	-3,4382	-5,7662	8,6017
40099	7,6671	-4,4996	-5,6571	8,6689
40100	8,4099	-4,0274	-4,4631	9,0873
40101	8,4372	-4,0311	-5,2083	8,9624
40102	8,1773	-3,5603	-4,913	8,939
40103	8,1108	-4,5078	-4,8353	8,9457
40104	9,011	-4,0337	-3,7154	9,3998
40105	9,0054	-4,0451	-4,421	9,2772
40106	8,7433	-3,5818	-4,13	9,251
40107	8,6822	-4,5196	-4,0579	9,2507
40108	9,6536	-3,8888	-3,0043	9,7222
40109	9,5647	-4,0634	-3,712	9,5861
40110	9,3665	-3,5557	-3,3499	9,5745
40111	9,3253	-4,5141	-3,3153	9,5789
40112	10,39	-3,8896	-2,2204	10,092
40113	11,314	-4,0402	-1,863	10,526
40114	10,862	-3,4917	-1,6772	10,336
40115	10,794	-4,5149	-1,7938	10,319
40116	-6,6624	-3,944	4,0752	8,6905
40117	-5,9862	-3,9304	4,0443	8,5503
40118	-6,3183	-3,4555	4,5089	8,5391
40119	-6,697	-3,9591	4,8874	8,5532
40120	-6,0358	-3,9497	4,863	8,4183
40121	-6,3426	-4,4714	4,4654	8,5616
40122	10,133	-3,8906	-3,2	9,8582
40123	10,785	-3,9114	-2,6922	10,209
40124	10,089	-3,3358	-2,6008	9,9311
40125	10,122	-4,3747	-2,6265	9,9575
40126	-7,2886	-3,9431	3,2827	8,9616
40127	-6,6313	-3,9283	3,2242	8,8121
40128	-6,9219	-3,3721	3,6876	8,809
40129	-7,3295	-3,9464	4,1374	8,8352
40130	-6,9775	-4,4726	3,6728	8,8374
40131	10,044	-4,0653	-3,9076	9,7311
40132	9,5591	-4,0748	-4,4175	9,4657
40133	10,123	-4,0386	-4,4061	9,666
40134	9,8745	-3,6564	-4,0406	9,6402
40135	9,8088	-4,5494	-4,0621	9,6301
40136	10,489	-3,9036	-4,0395	9,8695
40137	10,873	-4,2286	-3,5904	10,115
40138	10,371	-3,6237	-3,7733	9,8706
40139	10,4	-4,5159	-3,6909	9,9129
40140	11,708	-4,0621	-2,3348	10,636
40141	12,363	-4,0632	-1,9762	11,002
40142	11,845	-3,5267	-1,9405	10,744
40143	11,835	-4,5254	-1,9321	10,766
40144	9,6198	-4,0497	-5,0665	9,3652
40145	9,0327	-4,0487	-5,1662	9,1538
40146	9,3312	-3,5842	-4,8493	9,3096
40147	9,2726	-4,5254	-4,7682	9,3177
40148	11,524	-4,2494	-3,0826	10,457
40149	12,103	-4,0752	-2,7773	10,772
40150	11,549	-3,5254	-2,7617	10,507
40151	11,559	-4,5367	-2,715	10,542
40152	10,568	-3,8769	-4,5379	9,81
40153	11,014	-3,9106	-4,3423	10,027
40154	10,781	-3,4386	-4,2237	9,9455
40155	10,71	-4,3877	-4,2856	9,9278
40156	11,398	-4,2356	-3,8933	10,264
40157	11,934	-4,2686	-3,5066	10,581
40158	11,409	-3,8711	-3,4766	10,346
40159	11,468	-4,7127	-3,4265	10,402
40160	-5,9552	-3,9147	3,1933	8,6751
40161	-5,3226	-3,9286	3,1699	8,5595
40162	-5,6649	-3,4113	3,6167	8,5595
40163	-5,3159	-3,9203	4,0381	8,4277
40164	-5,6278	-4,459	3,6147	8,5594
40165	10,184	-4,0134	-5,055	9,568
40166	10,73	-4,1271	-4,8742	9,8143
40167	10,494	-3,5471	-4,6714	9,7533
40168	10,356	-4,4892	-4,7898	9,6974
40169	11,176	-4,1608	-4,6786	10,028
40170	11,743	-4,074	-4,3561	10,333
40171	11,344	-3,6486	-4,2546	10,175
40172	11,256	-4,5229	-4,3287	10,141
40173	12,758	-4,0763	-2,4186	11,129
40174	13,404	-4,0841	-2,0865	11,524
40175	12,869	-3,5534	-2,0595	11,227
40176	12,892	-4,5378	-2,0202	11,278
40177	10,277	-4,0425	-5,5702	9,4993
40178	9,6556	-4,054	-5,7945	9,2358
40179	9,9386	-3,5495	-5,3344	9,4179
40180	9,8856	-4,5242	-5,398	9,4064
40181	12,512	-4,0944	-3,2012	10,889
40182	13,143	-4,0802	-2,8663	11,27
40183	12,588	-3,5912	-2,8488	10,985
40184	12,638	-4,5385	-2,7867	11,044
40185	11,441	-4,1708	-5,0703	10,061
40186	10,823	-4,1561	-5,3893	9,7422
40187	11,038	-3,699	-4,9758	9,9067
40188	11,014	-4,6379	-5,0416	9,9074
40189	12,278	-4,107	-3,9694	10,639
40190	12,903	-4,0989	-3,6354	11,013
40191	12,35	-3,7253	-3,6632	10,731
40192	12,405	-4,5559	-3,5735	10,798
40193	-7,2849	-3,9499	2,4351	9,0656
40194	-7,919	-3,938	2,4646	9,2322
40195	-7,5757	-3,367	2,9103	9,0863
40196	-7,9596	-3,9402	3,3468	9,1264
40197	-7,5939	-4,4706	2,8807	9,1068
40198	12,008	-4,084	-4,7478	10,359
40199	12,637	-4,0957	-4,4141	10,723
40200	12,182	-3,6864	-4,3366	10,519
40201	12,159	-4,5511	-4,3439	10,533
40202	-6,6276	-3,9351	2,3766	8,9195
40203	-5,9936	-3,939	2,3141	8,7889
40204	-6,1922	-3,3212	2,8612	8,7677
40205	-6,2825	-4,4557	2,7718	8,8077
40206	11,666	-3,9951	-5,5565	10,037
40207	12,317	-4,0699	-5,2042	10,398
40208	11,796	-3,5502	-5,1648	10,173
40209	11,845	-4,5329	-5,1447	10,223
40210	-5,361	-3,9528	2,2908	8,6752
40211	-4,7192	-3,9447	2,2486	8,5726
40212	-5,0478	-3,3916	2,6633	8,5812
40213	-4,6869	-3,9375	3,1712	8,458
40214	-4,9919	-4,4696	2,727	8,5724
40215	11,048	-3,9805	-5,8755	9,7266
40216	10,358	-4,0417	-6,2582	9,3836
40217	10,653	-3,4583	-5,7666	9,589
40218	10,594	-4,5182	-5,8294	9,5738
40219	-6,6882	-3,9728	1,5083	9,0074
40220	-7,3089	-3,9622	1,5651	9,1555
40221	-7,0195	-3,4483	1,9949	9,0484
40222	-6,9492	-4,4793	1,9598	9,046
40223	13,79	-4,0879	-2,5341	11,655
40224	14,422	-4,0767	-2,2012	12,074
40225	13,856	-3,611	-2,1414	11,737
40226	13,917	-4,5463	-2,1527	11,817
40227	-6,0541	-3,9767	1,4458	8,8791
40228	-5,4231	-3,9748	1,3787	8,7609
40229	-5,7275	-3,4187	1,8799	8,7816
40230	-5,6673	-4,4832	1,8577	8,7817
40231	13,533	-4,0847	-3,3004	11,384
40232	14,171	-4,0706	-2,9722	11,802
40233	13,632	-3,645	-2,872	11,509
40234	13,662	-4,5417	-2,9142	11,554
40235	-4,7813	-3,9666	1,3366	8,6598
40236	-4,1353	-3,9335	1,2851	8,5674
40237	-4,417	-3,4793	1,8059	8,5714
40238	-4,0294	-3,9047	2,238	8,4789
40239	-4,3828	-4,4751	1,7848	8,5771
40240	13,262	-4,0876	-4,0801	11,086
40241	13,903	-4,0772	-3,7592	11,492
40242	13,435	-3,6332	-3,6568	11,266
40243	13,404	-4,543	-3,6854	11,271
40244	11,968	-3,9932	-5,93	10,084
40245	11,291	-3,9775	-6,5316	9,6673
40246	11,38	-3,5188	-6,0027	9,8227
40247	11,435	-4,4623	-5,9984	9,8643
40248	12,947	-4,0817	-4,8706	10,754
40249	13,597	-4,0846	-4,5609	11,148
40250	13,155	-3,6183	-4,4732	10,94
40251	13,119	-4,5446	-4,4748	10,955
40252	-6,1428	-3,9876	0,5489	8,9359
40253	-6,7713	-3,9914	0,62727	9,075
40254	-6,4266	-3,4815	1,1301	8,9755
40255	-6,3657	-4,4934	1,0171	8,9793
40256	12,62	-4,0679	-5,5777	10,439
40257	13,27	-4,0629	-5,3478	10,794
40258	12,79	-3,5811	-5,2693	10,589
40259	12,785	-4,537	-5,2519	10,612
40260	-5,5117	-3,9857	0,48188	8,8191
40261	-4,8788	-3,9642	0,41521	8,7094
40262	-5,1397	-3,5321	0,81561	8,7431
40263	-5,1055	-4,4916	0,90653	8,7437
40264	12,339	-4,0499	-6,3907	10,117
40265	12,942	-4,0519	-6,0449	10,466
40266	12,511	-3,6156	-5,9794	10,296
40267	12,465	-4,5309	-5,8891	10,316
40268	-3,5753	-3,8793	0,28714	8,5335
40269	-4,2328	-3,931	0,36373	8,6177
40270	-3,8779	-3,4283	0,79831	8,5623
40271	-3,4437	-3,8735	1,2589	8,4887
40272	-3,8239	-4,4584	0,80506	8,5623
40273	12,175	-4,033	-7,1899	9,8654
40274	11,661	-4,0342	-6,9923	9,7175
40275	12,634	-4,0523	-6,9205	10,116
40276	12,137	-3,5972	-6,9058	9,917
40277	12,145	-4,519	-6,7694	9,9686
40278	8,5153	-4,0303	-5,9995	8,8331
40279	9,0685	-4,0531	-5,8941	9,0253
40280	8,7912	-3,5636	-5,532	8,9987
40281	8,7561	-4,5233	-5,5595	9,0037
40282	-5,6498	-3,996	-0,41411	8,8411
40283	-6,2729	-3,9981	-0,32766	8,9722
40284	-5,8281	-3,5866	-1,246e-002	8,8845
40285	-5,8514	-4,4942	5,5862e-002	8,8978
40286	-3,7234	-3,8914	-0,64182	8,544
40287	-3,0757	-3,8447	-0,75321	8,4663
40288	-3,3311	-3,2571	-0,23712	8,5102
40289	-2,8947	-3,8297	0,21976	8,4687
40290	-3,3009	-4,4209	-0,22387	8,515
40291	-5,0168	-3,9744	-0,48079	8,7318
40292	-4,3808	-3,9431	-0,56522	8,6281
40293	-4,6512	-3,4433	-0,13059	8,6787
40294	-4,5947	-4,4726	-6,7272e-002	8,6804
40295	8,5605	-4,0092	-6,7224	8,7066
40296	8,0461	-3,9795	-6,9354	8,5162
40297	8,2329	-3,4869	-6,3879	8,6734
40298	8,2746	-4,507	-6,4395	8,6874
40299	9,1137	-4,032	-6,617	8,8975
40300	9,7358	-4,0533	-6,4825	9,1261
40301	9,3879	-3,5727	-6,2202	9,0596
40302	9,3808	-4,5298	-6,2288	9,0708
40303	-5,1884	-3,9514	-1,3928	8,7138
40304	-5,8314	-4,0109	-1,2661	8,8447
40305	-5,3755	-3,5685	-0,88951	8,7785
40306	-5,3953	-4,5018	-0,90882	8,7906
40307	-4,5524	-3,92	-1,4773	8,6101
40308	-3,9258	-3,9417	-1,5656	8,5137
40309	-4,1697	-3,3043	-0,97097	8,587
40310	-4,1272	-4,4705	-1,0754	8,5839
40311	-3,2781	-3,895	-1,6769	8,4359
40312	-2,6306	-3,8646	-1,8185	8,3579
40313	-2,8385	-3,331	-1,2631	8,4241
40314	-2,4551	-3,8382	-0,86359	8,4135
40315	-2,8504	-4,4238	-1,2826	8,43
40316	9,1991	-4,0127	-7,3171	8,7876
40317	8,5432	-3,9947	-7,4386	8,5657
40318	8,8324	-3,4951	-6,9852	8,7381
40319	8,8421	-4,5022	-7,0482	8,7391
40320	1,0518	-3,9024	-3,0298	8,1316
40321	0,3975	-3,9012	-3,1735	8,091
40322	0,76376	-3,3441	-2,472	8,1975
40323	0,48527	-3,8875	-1,8276	8,2502
40324	0,31524	-3,8806	-2,488	8,1886
40325	0,66438	-4,4319	-2,5402	8,1932
40326	-4,7661	-3,9534	-2,354	8,5611
40327	-5,404	-3,9529	-2,2363	8,6848
40328	-4,9601	-3,5166	-1,8865	8,6405
40329	-4,959	-4,4496	-1,8948	8,648
40330	9,8213	-4,034	-7,1826	9,0136
40331	10,6	-4,0387	-6,9143	9,3368
40332	10,076	-3,5236	-6,684	9,2002
40333	10,091	-4,5235	-6,7362	9,2066
40334	1,7888	-3,9299	-3,9705	8,0188
40335	1,0799	-3,9576	-4,0209	7,9763
40336	1,4569	-3,4119	-3,548	8,074
40337	1,3954	-4,4705	-3,535	8,0767
40338	-4,1395	-3,9751	-2,4423	8,4641
40339	-3,4779	-3,9323	-2,5818	8,3609
40340	-3,6533	-3,4306	-2,116	8,4376
40341	-3,6947	-4,4712	-2,079	8,452
40342	9,9329	-4,0265	-7,8808	8,9159
40343	9,2521	-4,0145	-8,0545	8,668
40344	9,5643	-3,505	-7,5587	8,856
40345	9,5517	-4,5105	-7,629	8,8514
40346	11,886	-4,0319	-7,7201	9,6368
40347	12,438	-4,0273	-7,6105	9,8665
40348	12,176	-3,5377	-7,493	9,7835
40349	12,046	-4,514	-7,4609	9,7683
40350	10,712	-4,0312	-7,6125	9,2307
40351	11,372	-4,0331	-7,5225	9,4812
40352	11,035	-3,5747	-6,9827	9,4817
40353	10,999	-4,5152	-7,0928	9,4567
40354	2,5032	-3,9235	-4,8558	7,9102
40355	1,7962	-3,8303	-4,8529	7,8608
40356	2,1591	-3,4944	-4,3811	7,9728
40357	2,0889	-4,4594	-4,4462	7,96
40358	-4,357	-4,0088	-3,3009	8,3785
40359	-5,0249	-3,9984	-3,1744	8,5048
40360	-4,6122	-3,7263	-2,8403	8,4804
40361	-4,558	-4,5039	-2,8241	8,4834
40362	10,69	-4,0335	-8,4323	9,0586
40363	10,041	-4,0252	-8,5652	8,8251
40364	10,237	-3,574	-7,996	8,9865
40365	10,278	-4,516	-8,1452	8,9918
40366	14,804	-4,0594	-2,6393	12,208
40367	15,432	-4,0565	-2,3131	12,645
40368	15,016	-3,5432	-2,1809	12,402
40369	14,93	-4,5305	-2,2667	12,387
40370	3,2603	-3,919	-5,708	7,8193
40371	2,5775	-3,9352	-5,7654	7,7389
40372	2,8604	-3,3426	-5,2851	7,8596
40373	2,8479	-4,4641	-5,2963	7,8616
40374	11,35	-4,0354	-8,3423	9,3071
40375	11,991	-4,029	-8,2294	9,5568
40376	11,701	-3,5832	-7,9819	9,5057
40377	11,509	-4,5179	-7,9576	9,4593
40378	14,541	-4,0631	-3,431	11,897
40379	15,172	-4,0595	-3,114	12,337
40380	14,766	-3,599	-2,9682	12,112
40381	14,672	-4,5289	-3,0462	12,093
40382	-2,8304	-3,9019	-2,7234	8,2825
40383	-2,1535	-3,898	-2,8541	8,2079
40384	-2,4808	-3,2595	-2,3922	8,2914
40385	-2,0057	-3,8709	-1,9642	8,3037
40386	-2,4105	-4,4408	-2,3781	8,2947
40387	14,238	-4,0741	-4,24	11,542
40388	14,885	-4,0693	-3,9247	11,977
40389	14,484	-3,62	-3,8284	11,773
40390	14,394	-4,5342	-3,8435	11,757
40391	4,0915	-3,9238	-6,4971	7,7692
40392	3,3674	-3,9218	-6,5906	7,6558
40393	3,6402	-3,4002	-6,0268	7,8003
40394	3,6224	-4,455	-6,1452	7,7799
40395	8,0288	-3,965	-7,6517	8,3821
40396	7,3461	-3,9714	-7,8373	8,1706
40397	7,6969	-3,4656	-7,3578	8,3434
40398	7,6858	-4,4725	-7,3602	8,3489
40399	13,92	-4,0658	-5,0381	11,178
40400	14,564	-4,074	-4,7441	11,589
40401	14,078	-3,6219	-4,6438	11,356
40402	14,082	-4,5399	-4,6468	11,393
40403	-3,6954	-3,966	-3,4404	8,2747
40404	-3,0065	-3,9117	-3,6129	8,168
40405	-3,2662	-3,3089	-3,094	8,2717
40406	-3,2456	-4,4611	-3,0889	8,28
40407	13,593	-4,0469	-5,815	10,815
40408	14,239	-4,0588	-5,5496	11,197
40409	13,796	-3,544	-5,4021	11,013
40410	13,771	-4,5259	-5,4233	11,031
40411	8,5962	-3,9965	-8,176	8,4485
40412	7,942	-3,9836	-8,3064	8,2444
40413	8,2508	-3,4632	-7,8586	8,4038
40414	8,2024	-4,4925	-7,9025	8,3929
40415	13,238	-4,0544	-6,5747	10,453
40416	13,883	-4,0514	-6,3458	10,801
40417	13,416	-3,5913	-6,1993	10,629
40418	13,415	-4,521	-6,2017	10,654
40419	5,265	-3,9583	-7,2087	7,826
40420	4,4116	-3,9294	-7,3414	7,6524
40421	4,6364	-3,2121	-6,7867	7,7943
40422	4,4997	-4,4688	-6,8837	7,7584
40423	12,897	-4,0467	-7,341	10,11
40424	13,5	-4,0619	-7,1323	10,411
40425	13,1	-3,5411	-6,9345	10,293
40426	13,055	-4,5334	-6,9487	10,298
40427	9,3601	-4,0132	-8,7388	8,5816
40428	8,684	-4,0062	-8,9075	8,3563
40429	8,9936	-3,4973	-8,397	8,5242
40430	8,9525	-4,504	-8,4799	8,5118
40431	12,543	-4,0244	-8,1198	9,7846
40432	13,133	-4,0395	-7,9226	10,054
40433	12,78	-3,5163	-7,7285	9,9601
40434	12,658	-4,5133	-7,7305	9,9381
40435	-3,9206	-3,9934	-4,2525	8,1668
40436	-4,6071	-4,0179	-4,1163	8,2924
40437	-4,1786	-3,5975	-3,8541	8,2721
40438	-4,1345	-4,5049	-3,784	8,2826
40439	6,437	-3,9884	-7,8962	7,9411
40440	5,581	-3,9632	-8,0166	7,7407
40441	5,8942	-3,6031	-7,4081	7,9098
40442	5,7104	-4,4894	-7,5383	7,8543
40443	10,822	-4,0324	-9,1522	8,9738
40444	11,481	-4,0281	-9,0114	9,2132
40445	11,133	-3,5459	-8,7582	9,1417
40446	10,984	-4,5175	-8,7709	9,1081
40447	10,172	-4,024	-9,2851	8,7437
40448	9,6557	-3,9825	-9,4792	8,5566
40449	9,6175	-3,5822	-8,8139	8,6387
40450	9,7398	-4,5092	-9,0311	8,662
40451	-2,3297	-3,9079	-3,7437	8,0929
40452	-1,4798	-3,9396	-3,8763	8,0172
40453	-1,884	-3,331	-3,3635	8,1214
40454	-1,507	-3,9022	-2,9473	8,1605
40455	-1,9148	-4,4573	-3,4058	8,1225
40456	7,2592	-3,99	-8,492	8,0388
40457	6,5479	-3,9969	-8,6325	7,8477
40458	6,7246	-3,4563	-8,1605	7,9623
40459	6,6859	-4,4989	-8,1742	7,9578
40460	-0,46633	-3,9516	-4,1028	7,9521
40461	0,42563	-3,9564	-4,1645	7,9365
40462	2,0538e-002	-3,3815	-3,7816	7,998
40463	-0,2182	-3,9258	-3,4398	8,0549
40464	0,11343	-4,4693	-3,8497	7,9924
40465	-3,2317	-3,939	-4,425	8,0596
40466	-2,5151	-3,9124	-4,5502	7,965
40467	-2,7114	-3,3077	-4,1429	8,0562
40468	-2,763	-4,4506	-4,1336	8,0678
40469	8,0297	-3,9933	-9,0379	8,1551
40470	7,3701	-3,9875	-9,1648	7,968
40471	7,6101	-3,4798	-8,7354	8,0883
40472	7,6035	-4,4911	-8,7307	8,0952
40473	12,122	-4,0217	-8,8985	9,4605
40474	12,759	-4,0176	-8,7191	9,7208
40475	12,386	-3,5161	-8,5052	9,6354
40476	12,288	-4,5111	-8,5262	9,6154
40477	-1,6652	-3,9442	-4,6829	7,8881
40478	-0,95552	-3,9602	-4,9766	7,7957
40479	-0,48281	-3,9854	-4,9748	7,7878
40480	-1,0819	-3,5062	-4,441	7,9043
40481	-0,81516	-3,9389	-3,7359	8,0118
40482	-1,0796	-4,4824	-4,4118	7,9127
40483	-3,5018	-3,9575	-5,1708	7,9471
40484	-4,1843	-3,9941	-5,0219	8,0697
40485	-3,6577	-3,4699	-4,7569	8,0458
40486	-3,7029	-4,4884	-4,7084	8,0658
40487	8,9796	-3,9756	-9,6479	8,3346
40488	8,1888	-4,0083	-9,7438	8,1069
40489	8,429	-3,4489	-9,3188	8,2247
40490	8,4155	-4,5023	-9,3352	8,2278
40491	-2,7852	-3,9309	-5,296	7,8508
40492	-2,085	-3,9449	-5,4024	7,7703
40493	-2,2269	-3,4622	-5,0357	7,8538
40494	-2,2671	-4,4618	-4,9668	7,8728
40495	11,001	-4,0258	-9,8463	8,914
40496	10,349	-4,0256	-9,9934	8,696
40497	10,666	-3,5381	-9,565	8,8566
40498	10,55	-4,5149	-9,597	8,8268
40499	1,0873	-3,858	-4,9033	7,8181
40500	0,40915	-3,9902	-5,0366	7,773
40501	0,78596	-3,4282	-4,6018	7,866
40502	0,69683	-4,4872	-4,5378	7,8794
40503	11,66	-4,0215	-9,7055	9,1495
40504	12,3	-4,0224	-9,5339	9,3858
40505	11,924	-3,5156	-9,2941	9,308
40506	11,844	-4,5105	-9,303	9,2977
40507	-3,0815	-3,9535	-6,0387	7,7318
40508	-3,7685	-3,9699	-5,9092	7,8392
40509	-3,2854	-3,4068	-5,6648	7,8321
40510	-3,3032	-4,4691	-5,6252	7,8425
40511	1,8705	-3,842	-5,7625	7,6874
40512	1,2042	-3,859	-5,8522	7,6334
40513	1,4554	-3,3159	-5,404	7,737
40514	1,4462	-4,3708	-5,3596	7,7485
40515	9,8326	-3,9841	-10,187	8,5161
40516	9,187	-3,9775	-10,342	8,3156
40517	9,412	-3,4699	-9,8918	8,4293
40518	9,4001	-4,4734	-9,9235	8,4318
40519	-2,3814	-3,9675	-6,1451	7,6489
40520	-2,5706	-3,9909	-6,8223	7,5274
40521	-3,2988	-3,9808	-6,7519	7,6179
40522	-2,8402	-3,4204	-6,442	7,6285
40523	-2,8599	-4,4844	-6,4523	7,6317
40524	-1,3753	-3,9609	-5,6961	7,6775
40525	-1,684	-3,9969	-6,2384	7,5793
40526	-1,9093	-3,4738	-5,8446	7,6704
40527	-1,9029	-4,4831	-5,8379	7,6772
40528	2,6846	-3,9379	-6,6481	7,574
40529	2,0077	-3,9443	-6,7286	7,5021
40530	2,289	-3,3348	-6,257	7,6189
40531	2,2693	-4,4711	-6,2585	7,6199
40532	11,198	-4,0212	-10,538	8,8767
40533	11,848	-4,0197	-10,368	9,0927
40534	11,457	-3,5164	-10,124	9,0093
40535	11,396	-4,5109	-10,133	9,0078
40536	10,546	-4,0209	-10,685	8,6632
40537	9,8884	-4,0252	-10,843	8,4619
40538	10,107	-3,5406	-10,433	8,5626
40539	10,105	-4,5107	-10,432	8,5778
40540	-0,75587	-3,9639	-5,9149	7,6067
40541	-0,37506	-3,9809	-5,5526	7,6766
40542	-0,92823	-3,5144	-5,5464	7,6889
40543	-0,82749	-4,4778	-5,4522	7,705
40544	3,6875	-3,9274	-7,4349	7,5351
40545	2,7884	-3,9455	-7,5298	7,4136
40546	3,0694	-3,3959	-7,0159	7,54
40547	3,0815	-4,4668	-7,073	7,5335
40548	16,418	-4,0439	-2,4452	13,213
40549	15,801	-4,0567	-2,7878	12,758
40550	15,959	-3,5261	-2,3135	12,936
40551	15,932	-4,526	-2,4003	12,969
40552	-1,0646	-3,9999	-6,4572	7,5081
40553	-0,48309	-3,9806	-6,4741	7,4882
40554	-0,69341	-3,4991	-6,3889	7,5124
40555	-0,74074	-4,4861	-6,2649	7,5388
40556	0,52607	-3,9913	-5,9854	7,5892
40557	-0,10228	-3,9976	-6,1117	7,5549
40558	7,9909e-002	-3,7539	-5,5505	7,6705
40559	0,11805	-4,5031	-5,5335	7,6781
40560	17,394	-4,0423	-2,5967	13,763
40561	16,766	-4,0327	-2,9353	13,3
40562	16,918	-3,5222	-2,4691	13,488
40563	16,904	-4,5179	-2,5335	13,536
40564	-1,1937	-4,0249	-7,0104	7,402
40565	-1,8732	-4,0204	-6,9157	7,4564
40566	-1,4018	-3,5363	-6,6988	7,4744
40567	-1,4854	-4,5138	-6,6522	7,4884
40568	0,66298	-3,9974	-6,8655	7,4144
40569	1,3415	-3,9614	-6,8182	7,4477
40570	0,96345	-3,5366	-6,4249	7,509
40571	0,94956	-4,4882	-6,4076	7,5175
40572	18,378	-4,0366	-2,7543	14,326
40573	17,745	-4,0343	-3,1087	13,837
40574	17,877	-3,5844	-2,6696	14,014
40575	17,89	-4,5244	-2,6795	14,095
40576	-0,6122	-4,0056	-7,0272	7,3807
40577	3,4633e-002	-4,0037	-6,9917	7,3815
40578	-0,38337	-3,5351	-6,7362	7,4351
40579	-0,25798	-4,4945	-6,6764	7,4474
40580	4,3202	-3,9514	-8,4175	7,452
40581	4,7275	-3,9343	-8,1492	7,5638
40582	3,7522	-3,9526	-8,3152	7,3884
40583	4,2676	-3,367	-7,8228	7,5455
40584	4,1755	-4,4606	-7,8323	7,5332
40585	-0,59747	-4,0163	-7,7257	7,2463
40586	-1,3072	-4,0277	-7,6654	7,282
40587	-0,90818	-3,5289	-7,3523	7,3247
40588	-0,90599	-4,5111	-7,4018	7,3172
40589	4,9365e-002	-4,0143	-7,6902	7,2464
40590	0,75202	-3,9856	-7,7248	7,2488
40591	0,50514	-3,4885	-7,362	7,3128
40592	0,44684	-4,5092	-7,3852	7,3096
40593	19,283	-4,0227	-2,9737	14,923
40594	18,723	-4,0197	-3,2744	14,397
40595	18,898	-3,5121	-2,8119	14,623
40596	18,876	-4,5122	-2,8142	14,662
40597	2,1116	-3,9519	-7,6103	7,3414
40598	1,4305	-3,9497	-7,6776	7,2827
40599	1,7524	-3,4483	-7,2416	7,3869
40600	1,7305	-4,4732	-7,2247	7,39
40601	4,6619	-3,9845	-9,1774	7,3999
40602	4,0522	-3,992	-9,3152	7,2859
40603	4,4263	-3,4114	-8,9221	7,3942
40604	4,3293	-4,4908	-8,9954	7,3731
40605	-0,67059	-4,0236	-8,3716	7,1337
40606	3,4063e-002	-4,0102	-8,4436	7,1149
40607	-0,28868	-3,5277	-8,0797	7,177
40608	-0,27275	-4,5052	-8,0694	7,1797
40609	5,0692	-3,9674	-8,9091	7,5054
40610	5,6918	-3,9717	-8,7529	7,6474
40611	5,0959	-3,5793	-8,4607	7,5772
40612	5,1844	-4,4738	-8,4511	7,5985
40613	2,8532	-3,9708	-8,4101	7,2671
40614	2,1847	-3,9763	-8,53	7,1868
40615	2,4828	-3,4513	-8,0364	7,2944
40616	2,4968	-4,4787	-7,9966	7,3052
40617	-1,9868	-4,0232	-7,5706	7,3367
40618	-2,6973	-4,0212	-7,5063	7,4094
40619	-2,2915	-3,5126	-7,1833	7,4343
40620	-2,2919	-4,5065	-7,2026	7,4324
40621	5,404	-3,9896	-9,614	7,479
40622	4,8167	-4,0008	-9,7641	7,3556
40623	5,0169	-3,5225	-9,2976	7,4448
40624	5,0507	-4,4936	-9,3686	7,4451
40625	6,6587	-3,9943	-9,3053	7,7793
40626	6,0267	-3,9939	-9,4578	7,621
40627	6,242	-3,4712	-9,0631	7,7167
40628	6,2104	-4,4979	-9,0061	7,7234
40629	-1,3803	-4,0351	-8,3113	7,1695
40630	-2,0719	-4,0322	-8,2188	7,2292
40631	-1,8055	-3,6254	-7,9985	7,2477
40632	-1,6885	-4,5167	-7,9488	7,2507
40633	0,73672	-3,9815	-8,4783	7,1182
40634	1,5037	-3,974	-8,5972	7,1285
40635	1,1756	-3,4348	-8,2435	7,1743
40636	1,1326	-4,4765	-8,1387	7,1885
40637	7,5291	-4,0025	-9,8706	7,9221
40638	6,8954	-3,9965	-10,022	7,7538
40639	7,0944	-3,5014	-9,6008	7,8451
40640	7,0931	-4,4964	-9,5895	7,8528
40641	-0,80212	-4,0407	-9,0361	7,0333
40642	-1,4507	-4,0425	-8,9628	7,0717
40643	-1,0869	-3,5294	-8,675	7,0974
40644	-1,0684	-4,5185	-8,6737	7,0979
40645	-9,7466e-002	-4,0273	-9,1081	7,0137
40646	0,52248	-4,0252	-9,2269	7,0024
40647	0,38567	-3,5208	-8,8595	7,0503
40648	0,34088	-4,505	-8,8178	7,0585
40649	3,4842	-3,9932	-9,2129	7,2202
40650	2,9721	-3,9989	-9,2085	7,1605
40651	3,2147	-3,4738	-8,8057	7,2441
40652	3,2135	-4,4921	-8,7811	7,2501
40653	6,2633	-3,9961	-10,174	7,5978
40654	5,665	-4,0161	-10,322	7,4623
40655	5,8349	-3,4803	-9,91	7,5321
40656	5,8538	-4,496	-9,9026	7,5414
40657	8,3962	-4,0103	-10,438	8,0883
40658	7,7545	-4,0188	-10,574	7,9139
40659	7,9689	-3,4892	-10,202	7,9995
40660	7,9621	-4,5061	-10,152	8,0102
40661	-0,3153	-4,0552	-9,7704	6,9303
40662	-0,9215	-4,0493	-9,7113	6,9522
40663	-0,53948	-3,5733	-9,4104	6,9782
40664	-0,53581	-4,5222	-9,3985	6,9787
40665	7,1208	-4,0129	-10,725	7,7488
40666	6,4949	-4,0022	-10,876	7,5991
40667	6,6897	-3,4846	-10,482	7,6663
40668	6,6985	-4,5001	-10,45	7,6764
40669	4,2069	-4,0083	-9,9019	7,243
40670	3,6117	-4,0194	-9,9855	7,1502
40671	3,8236	-3,4856	-9,5564	7,2232
40672	3,7566	-4,5011	-9,6098	7,2101
40673	10,743	-4,0207	-11,375	8,6504
40674	11,387	-4,0235	-11,216	8,8412
40675	10,956	-3,5408	-10,964	8,7492
40676	10,956	-4,5102	-10,964	8,7638
40677	9,2428	-4,0187	-10,998	8,2676
40678	8,6071	-4,0137	-11,143	8,0918
40679	8,8224	-3,5304	-10,726	8,1757
40680	8,82	-4,5042	-10,723	8,1861
40681	7,9654	-4,0222	-11,278	7,921
40682	7,3369	-4,0238	-11,42	7,7668
40683	7,5404	-3,5056	-11,027	7,8299
40684	7,5469	-4,5127	-10,995	7,8408
40685	5,0776	-4,0273	-10,472	7,3406
40686	4,4632	-4,0123	-10,575	7,2295
40687	4,6541	-3,4922	-10,177	7,289
40688	4,6644	-4,5072	-10,197	7,292
40689	0,30465	-4,0531	-9,8892	6,9188
40690	0,13783	-4,0813	-10,514	6,8653
40691	-0,45132	-4,0643	-10,466	6,872
40692	-0,15229	-3,5563	-10,052	6,9028
40693	-9,4788e-002	-4,533	-10,142	6,8932
40694	9,4407	-4,0276	-11,687	8,2789
40695	10,085	-4,0249	-11,533	8,4546
40696	9,6563	-3,5441	-11,272	8,3582
40697	9,6554	-4,5145	-11,271	8,3701
40698	5,8965	-4,0221	-11,024	7,4664
40699	5,2952	-4,0396	-11,153	7,3464
40700	5,4657	-3,5124	-10,752	7,3946
40701	5,498	-4,5201	-10,75	7,4049
40702	20,108	-3,9931	-3,3448	15,694
40703	19,583	-4,0128	-3,5507	14,991
40704	19,792	-3,5113	-3,0737	15,311
40705	20,331	-4,2569	-2,9147	15,94
40706	19,808	-4,5105	-3,0071	15,341
40707	1,2895	-4,0177	-9,3459	7,0124
40708	0,76341	-4,0324	-9,9829	6,9197
40709	0,59678	-3,5761	-9,7189	6,9485
40710	0,71519	-4,5201	-9,6218	6,9564
40711	20,44	-3,9757	-3,9151	15,892
40712	21,004	-3,9529	-3,5611	17,307
40713	20,57	-3,468	-3,3814	16,273
40714	20,739	-4,229	-3,1414	16,413
40715	20,657	-4,4826	-3,4102	16,455
40716	6,711	-4,0131	-11,571	7,6211
40717	6,1052	-4,0254	-11,71	7,4937
40718	6,2816	-3,496	-11,31	7,535
40719	6,305	-4,502	-11,296	7,5456
40720	2,3036	-4,0044	-9,3283	7,0816
40721	1,7851	-4,0139	-9,6387	7,0032
40722	1,8903	-3,4661	-9,0665	7,0865
40723	1,8749	-4,4975	-9,0557	7,0857
40724	8,805	-4,0226	-11,832	8,1081
40725	8,1702	-4,0187	-11,98	7,9519
40726	8,3816	-3,5397	-11,564	8,0116
40727	8,382	-4,5095	-11,561	8,0209
40728	7,5417	-4,0202	-12,122	7,8023
40729	6,9217	-4,0254	-12,264	7,6689
40730	7,115	-3,5076	-11,861	7,7064
40731	7,13	-4,5111	-11,846	7,7167
40732	3,0996	-4,0251	-9,9811	7,0877
40733	2,5595	-4,0164	-10,087	7,0209
40734	2,7234	-3,5394	-9,6268	7,0848
40735	2,7324	-4,5069	-9,601	7,0887
40736	1,2591	-4,0287	-10,276	6,9126
40737	0,59659	-4,0606	-10,607	6,867
40738	1,1459	-4,0716	-10,646	6,8835
40739	0,67546	-3,6007	-10,369	6,8894
40740	0,91322	-4,5123	-10,306	6,8963
40741	1,5823	-4,0757	-10,592	6,908
40742	2,041	-4,0259	-10,398	6,9516
40743	1,6261	-3,5713	-10,218	6,9397
40744	1,718	-4,5164	-10,16	6,9477
40745	16,149	-4,0454	-3,2779	12,867
40746	15,517	-4,0657	-3,6078	12,402
40747	15,699	-3,5406	-3,1517	12,615
40748	15,66	-4,5307	-3,2117	12,631
40749	3,868	-4,0233	-10,659	7,135
40750	3,2949	-4,0251	-10,748	7,0552
40751	3,4563	-3,5209	-10,336	7,1009
40752	3,4668	-4,5182	-10,361	7,1017
40753	0,68776	-4,1044	-11,199	6,8462
40754	6,9128e-002	-4,0869	-11,183	6,8373
40755	0,25341	-3,6024	-10,79	6,8539
40756	0,37044	-4,5483	-10,885	6,8491
40757	17,117	-4,0246	-3,4473	13,401
40758	16,482	-4,0296	-3,783	12,91
40759	16,655	-3,5192	-3,3232	13,135
40760	16,635	-4,5147	-3,3704	13,174
40761	1,2371	-4,1154	-11,237	6,8659
40762	1,7648	-4,0882	-11,173	6,8962
40763	1,4222	-3,6	-10,968	6,8794
40764	1,4691	-4,5593	-10,963	6,885
40765	4,6808	-4,0246	-11,256	7,2358
40766	4,0797	-4,0138	-11,353	7,1407
40767	4,2493	-3,5063	-10,954	7,1764
40768	4,275	-4,5051	-10,965	7,1822
40769	18,091	-4,0174	-3,6288	13,945
40770	17,437	-4,0249	-3,985	13,408
40771	17,596	-3,559	-3,5386	13,645
40772	17,606	-4,5099	-3,5448	13,713
40773	9,009	-4,0262	-12,52	8,1494
40774	9,6503	-4,0247	-12,366	8,3033
40775	9,2226	-3,5443	-12,105	8,2039
40776	9,2228	-4,5131	-12,104	8,2153
40777	5,5039	-4,0429	-11,839	7,3764
40778	4,8889	-4,0313	-11,953	7,2701
40779	5,0692	-3,5261	-11,554	7,2973
40780	5,0946	-4,5195	-11,559	7,3054
40781	19,024	-4,0098	-3,8514	14,518
40782	18,397	-4,0131	-4,1923	13,917
40783	18,568	-3,5308	-3,7177	14,203
40784	18,581	-4,5076	-3,7197	14,275
40785	1,3444	-4,1081	-11,84	6,8716
40786	0,74968	-4,103	-11,85	6,8477
40787	1,0152	-3,6029	-11,524	6,8518
40788	1,0051	-4,5561	-11,512	6,8531
40789	6,316	-4,0377	-12,402	7,5456
40790	5,7116	-4,0484	-12,536	7,4363
40791	5,8874	-3,5281	-12,127	7,4533
40792	5,9154	-4,5234	-12,122	7,4636
40793	8,3743	-4,0222	-12,668	7,9987
40794	7,7465	-4,0218	-12,816	7,8645
40795	7,9571	-3,5448	-12,398	7,899
40796	7,9589	-4,5092	-12,397	7,908
40797	19,915	-3,9953	-4,1209	15,249
40798	19,292	-4,0065	-4,4647	14,446
40799	19,473	-3,5031	-3,9703	14,824
40800	19,482	-4,5022	-3,9675	14,881
40801	2,2236	-4,0385	-10,978	6,9357
40802	2,7548	-4,0164	-10,855	6,9897
40803	2,3588	-3,5136	-10,557	6,9679
40804	2,4044	-4,5096	-10,556	6,9723
40805	7,1266	-4,027	-12,958	7,7361
40806	6,5137	-4,0369	-13,098	7,6237
40807	6,698	-3,5178	-12,688	7,6342
40808	6,721	-4,5144	-12,681	7,645
40809	10,295	-4,022	-12,213	8,4734
40810	10,94	-4,0242	-12,051	8,6425
40811	10,529	-3,515	-11,803	8,5531
40812	10,508	-4,5104	-11,801	8,5621
40813	8,5792	-4,0309	-13,359	8,0705
40814	9,2136	-4,0245	-13,202	8,2009
40815	8,7902	-3,5473	-12,94	8,0993
40816	8,7913	-4,5131	-12,939	8,1099
40817	1,8721	-4,081	-11,776	6,9013
40818	2,4065	-4,0398	-11,665	6,9422
40819	2,0177	-3,5263	-11,366	6,9109
40820	2,0785	-4,5289	-11,39	6,9154
40821	20,181	-3,9927	-4,754	15,134
40822	20,781	-3,9931	-4,436	16,247
40823	20,364	-3,4876	-4,2664	15,704
40824	20,364	-4,4931	-4,2586	15,723
40825	7,9515	-4,0305	-13,507	7,9421
40826	7,326	-4,0261	-13,65	7,8291
40827	7,5233	-3,5184	-13,239	7,8353
40828	7,5371	-4,5126	-13,236	7,8462
40829	15,849	-4,0499	-4,1129	12,465
40830	15,211	-4,0691	-4,4288	12,01
40831	15,397	-3,5502	-3,9819	12,236
40832	15,368	-4,5351	-4,0165	12,253
40833	2,0237	-4,072	-12,45	6,9394
40834	1,4558	-4,0939	-12,509	6,9078
40835	1,627	-3,5491	-12,122	6,8953
40836	1,6837	-4,5521	-12,169	6,9015
40837	16,803	-4,0299	-4,3208	12,943
40838	16,167	-4,0285	-4,6368	12,466
40839	16,353	-3,5253	-4,1849	12,711
40840	16,331	-4,5149	-4,2181	12,744
40841	3,5067	-4,0156	-11,443	7,061
40842	2,9378	-4,0177	-11,541	6,9939
40843	3,0974	-3,5095	-11,125	7,0172
40844	3,1212	-4,5069	-11,128	7,0208
40845	9,855	-4,023	-13,048	8,3486
40846	10,498	-4,026	-12,888	8,4947
40847	10,08	-3,5173	-12,637	8,4014
40848	10,067	-4,5115	-12,636	8,4116
40849	17,744	-4,0206	-4,5486	13,418
40850	17,102	-4,034	-4,8785	12,9
40851	17,304	-3,5184	-4,4048	13,187
40852	17,28	-4,5151	-4,4333	13,224
40853	8,1543	-4,0331	-14,196	8,0442
40854	8,7805	-4,0345	-14,045	8,1509
40855	8,3535	-3,5219	-13,782	8,045
40856	8,3664	-4,5178	-13,779	8,0575
40857	4,2878	-4,0205	-12,051	7,1761
40858	3,71	-4,0446	-12,156	7,0989
40859	3,8667	-3,5129	-11,743	7,1091
40860	3,9017	-4,5087	-11,759	7,1163
40861	18,666	-4,0099	-4,8056	13,903
40862	18,037	-4,0095	-5,1265	13,333
40863	18,251	-3,4983	-4,6373	13,676
40864	18,216	-4,5056	-4,6667	13,702
40865	15,528	-4,0477	-4,9527	12,029
40866	14,883	-4,0669	-5,2556	11,595
40867	15,084	-3,5514	-4,813	11,821
40868	15,055	-4,5341	-4,8412	11,844
40869	5,0966	-4,0368	-12,65	7,3325
40870	4,4865	-4,0296	-12,754	7,243
40871	4,6928	-3,5701	-12,36	7,2505
40872	4,6964	-4,5118	-12,36	7,2543
40873	16,466	-4,0326	-5,1946	12,446
40874	15,818	-4,0334	-5,4976	11,99
40875	15,994	-3,5716	-5,0667	12,225
40876	16,	-4,5136	-5,071	12,274
40877	19,558	-4,0039	-5,0978	14,419
40878	18,929	-4,0115	-5,4249	13,746
40879	19,155	-3,4901	-4,9135	14,179
40880	19,118	-4,5043	-4,9463	14,188
40881	17,395	-4,0229	-5,4565	12,846
40882	16,744	-4,0364	-5,7739	12,36
40883	16,924	-3,5612	-5,3212	12,63
40884	16,93	-4,5189	-5,3249	12,685
40885	5,9093	-4,0475	-13,232	7,5189
40886	5,2919	-4,0395	-13,347	7,4241
40887	5,5045	-3,5769	-12,949	7,4233
40888	5,5078	-4,525	-12,949	7,4286
40889	19,809	-4,0059	-5,7431	14,177
40890	20,429	-4,0055	-5,4267	14,984
40891	20,021	-3,4899	-5,2256	14,726
40892	19,997	-4,4997	-5,2535	14,726
40893	18,3	-4,0112	-5,7458	13,217
40894	17,668	-4,0084	-6,0501	12,715
40895	17,903	-3,4961	-5,5588	13,064
40896	17,852	-4,504	-5,5937	13,077
40897	15,173	-4,0526	-5,8005	11,572
40898	14,53	-4,0633	-6,0804	11,173
40899	14,746	-3,5459	-5,6399	11,402
40900	14,712	-4,5329	-5,67	11,416
40901	2,5581	-4,0309	-12,339	6,978
40902	3,1411	-4,0468	-12,254	7,033
40903	2,7203	-3,5126	-11,931	6,9763
40904	2,7762	-4,5109	-11,956	6,9837
40905	16,096	-4,0372	-6,077	11,924
40906	15,446	-4,0425	-6,361	11,509
40907	15,677	-3,5277	-5,9022	11,771
40908	15,639	-4,5197	-5,9269	11,788
40909	19,18	-4,0134	-6,0702	13,559
40910	18,564	-4,004	-6,3702	13,023
40911	18,793	-3,4937	-5,8667	13,429
40912	18,741	-4,5072	-5,9035	13,431
40913	17,017	-4,0219	-6,3675	12,254
40914	16,361	-4,0329	-6,6703	11,816
40915	16,609	-3,517	-6,1843	12,12
40916	16,557	-4,5175	-6,2229	12,128
40917	6,0938	-4,0354	-13,918	7,6272
40918	6,7131	-4,036	-13,79	7,7221
40919	6,3078	-3,5695	-13,515	7,6183
40920	6,3108	-4,5225	-13,514	7,6251
40921	17,932	-4,0012	-6,6745	12,55
40922	17,283	-4,0055	-6,9703	12,105
40923	17,526	-3,4965	-6,4776	12,439
40924	17,469	-4,5044	-6,5199	12,442
40925	20,057	-4,0139	-6,4097	13,877
40926	19,444	-4,0051	-6,725	13,283
40927	19,663	-3,4991	-6,2024	13,769
40928	19,621	-4,5062	-6,236	13,766
40929	2,7468	-4,0565	-13,044	7,0515
40930	2,1664	-4,0576	-13,126	7,0108
40931	2,3215	-3,5211	-12,71	6,982
40932	2,3827	-4,52	-12,746	6,9917
40933	18,827	-3,9957	-7,025	12,782
40934	18,183	-3,9968	-7,311	12,33
40935	18,436	-3,4816	-6,8002	12,718
40936	18,372	-4,4967	-6,8456	12,71
40937	3,3299	-4,0724	-12,96	7,1056
40938	3,9087	-4,0537	-12,859	7,1679
40939	3,4882	-3,5437	-12,545	7,0904
40940	3,5335	-4,5359	-12,565	7,0994
40941	20,259	-4,0791	-7,1917	13,378
40942	20,922	-4,0212	-6,7548	14,137
40943	20,677	-4,0136	-6,0933	14,621
40944	20,513	-3,5033	-6,5651	14,053
40945	20,493	-4,5077	-6,5825	14,062
40946	19,646	-4,0704	-7,507	12,83
40947	19,081	-3,9927	-7,6894	12,487
40948	19,215	-3,5521	-7,2702	12,809
40949	19,259	-4,4989	-7,2022	12,915
40950	3,5103	-4,0676	-13,66	7,208
40951	2,915	-4,0687	-13,755	7,1593
40952	3,0842	-3,5422	-13,336	7,1183
40953	3,1312	-4,5365	-13,362	7,1288
40954	4,6818	-4,0324	-13,45	7,3372
40955	4,0891	-4,049	-13,559	7,2679
40956	4,2608	-3,5301	-13,15	7,2433
40957	4,2996	-4,5179	-13,163	7,2535
40958	20,485	-4,09	-7,9879	12,799
40959	19,93	-4,0632	-8,1684	12,484
40960	20,002	-3,6314	-7,8693	12,719
40961	20,086	-4,5714	-7,6769	12,944
40962	21,148	-4,032	-7,551	13,493
40963	21,768	-4,025	-7,094	14,298
40964	21,53	-4,0185	-6,4515	14,992
40965	21,346	-3,3406	-6,8574	14,323
40966	21,347	-4,5135	-6,9178	14,277
40967	5,4764	-4,0274	-14,034	7,5365
40968	4,8671	-4,0318	-14,147	7,4617
40969	5,0521	-3,5225	-13,739	7,4294
40970	5,0845	-4,5145	-13,757	7,4416
40971	14,803	-4,0532	-6,6409	11,123
40972	14,146	-4,0589	-6,9034	10,752
40973	14,393	-3,5381	-6,4556	10,99
40974	14,347	-4,5304	-6,4908	10,991
40975	21,374	-4,0329	-8,1419	12,968
40976	21,027	-4,0529	-8,5326	12,507
40977	20,867	-3,5029	-8,1177	12,822
40978	21,004	-4,5185	-8,0433	12,972
40979	15,712	-4,0382	-6,9544	11,417
40980	15,064	-4,0355	-7,2152	11,046
40981	15,253	-3,5743	-6,7855	11,267
40982	15,259	-4,5228	-6,7911	11,305
40983	21,994	-4,0259	-7,6849	13,726
40984	22,639	-4,0449	-7,4623	14,246
40985	22,396	-4,0266	-6,8158	15,227
40986	22,17	-3,551	-7,2505	14,366
40987	22,18	-4,5115	-7,2361	14,386
40988	16,627	-4,0165	-7,2731	11,687
40989	15,96	-4,0281	-7,5593	11,297
40990	16,159	-3,5508	-7,1127	11,544
40991	16,165	-4,5154	-7,1178	11,586
40992	5,6734	-4,0378	-14,734	7,6819
40993	6,282	-4,024	-14,604	7,7544
40994	5,8561	-3,5217	-14,32	7,6403
40995	5,8866	-4,5129	-14,333	7,6537
40996	17,534	-4,0011	-7,6068	11,907
40997	16,876	-4,0073	-7,8907	11,524
40998	17,14	-3,4932	-7,3906	11,842
40999	17,077	-4,5011	-7,4411	11,838
41000	22,181	-4,0388	-8,2139	13,118
41001	21,907	-4,0392	-8,6818	12,548
41002	21,756	-3,6122	-8,0237	13,205
41003	21,797	-4,5144	-8,1324	13,121
41004	18,437	-3,9938	-7,9754	12,06
41005	17,782	-3,9932	-8,2493	11,69
41006	17,991	-3,4691	-7,7488	12,012
41007	17,971	-4,5	-7,7924	12,026
41008	4,2744	-4,0484	-14,256	7,3955
41009	3,6757	-4,0593	-14,364	7,3427
41010	3,8543	-3,5414	-13,947	7,2917
41011	3,8881	-4,5311	-13,967	7,3025
41012	22,826	-4,0577	-7,9913	13,628
41013	22,638	-4,0836	-8,5146	12,883
41014	22,522	-3,6638	-8,2778	13,145
41015	22,499	-4,5243	-8,2583	13,188
41016	19,365	-3,9855	-8,3508	12,153
41017	18,678	-3,9865	-8,6305	11,782
41018	18,978	-3,435	-8,1484	12,149
41019	18,882	-4,4938	-8,1591	12,155
41020	9,4149	-4,0281	-13,888	8,2748
41021	10,059	-4,0265	-13,723	8,3979
41022	9,6296	-3,5445	-13,469	8,2999
41023	9,6307	-4,5115	-13,469	8,3125
41024	23,181	-4,058	-7,8257	13,928
41025	23,341	-4,1884	-7,3913	14,714
41026	23,062	-3,6034	-7,5723	14,304
41027	22,984	-4,5334	-7,6202	14,169
41028	20,472	-4,0261	-8,7131	12,201
41029	19,668	-3,9727	-8,9822	11,839
41030	19,901	-3,4055	-8,5158	12,206
41031	19,812	-4,4917	-8,5217	12,217
41032	5,064	-4,0422	-14,848	7,6108
41033	4,441	-4,034	-14,948	7,5503
41034	4,631	-3,5247	-14,54	7,4933
41035	4,6651	-4,5173	-14,558	7,5062
41036	22,993	-4,0839	-8,349	13,176
41037	23,491	-4,0601	-8,0377	13,667
41038	23,251	-3,6287	-7,9682	13,738
41039	23,234	-4,5246	-8,0342	13,632
41040	21,56	-4,0592	-9,0725	12,12
41041	20,814	-4,0161	-9,3297	11,825
41042	21,165	-3,4154	-8,7732	12,321
41043	20,943	-4,5344	-8,8811	12,228
41044	14,407	-4,0413	-7,4776	10,686
41045	13,737	-4,0546	-7,7139	10,348
41046	14,01	-3,531	-7,2745	10,577
41047	13,945	-4,5285	-7,3159	10,568
41048	22,364	-4,0841	-8,9825	12,339
41049	23,086	-4,099	-8,875	12,483
41050	22,699	-3,6378	-8,6413	12,732
41051	22,727	-4,5593	-8,7197	12,658
41052	15,313	-4,0254	-7,8201	10,939
41053	14,664	-4,0232	-8,0659	10,607
41054	14,914	-3,5196	-7,6116	10,844
41055	14,862	-4,5127	-7,6482	10,844
41056	6,9013	-4,0245	-14,476	7,8443
41057	7,5288	-4,0287	-14,34	7,9371
41058	7,1154	-3,5561	-14,07	7,8287
41059	7,1178	-4,5134	-14,07	7,8371
41060	16,209	-4,0189	-8,1769	11,15
41061	15,545	-4,0219	-8,4505	10,811
41062	15,751	-3,5432	-7,9951	11,042
41063	15,756	-4,5127	-8,0009	11,079
41064	21,76	-4,0076	-9,7058	11,609
41065	22,475	-4,0458	-9,5325	11,749
41066	22,037	-3,3812	-9,1365	12,132
41067	22,011	-4,5248	-9,2547	12,046
41068	17,123	-3,9994	-8,5332	11,324
41069	16,449	-4,01	-8,8127	10,991
41070	16,707	-3,5107	-8,3142	11,276
41071	16,657	-4,5062	-8,3632	11,272
41072	5,872	-4,0478	-15,434	7,844
41073	5,2505	-4,0495	-15,543	7,7857
41074	5,4366	-3,5314	-15,133	7,7203
41075	5,4699	-4,525	-15,145	7,7342
41076	18,023	-3,9859	-8,9044	11,43
41077	17,349	-3,986	-9,191	11,112
41078	17,634	-3,4661	-8,7202	11,407
41079	17,567	-4,4931	-8,7227	11,421
41080	13,994	-4,0366	-8,3022	10,278
41081	13,349	-4,0327	-8,522	9,9838
41082	13,586	-3,5404	-8,0912	10,178
41083	13,528	-4,5261	-8,1119	10,178
41084	18,981	-3,9738	-9,2619	11,485
41085	18,244	-3,9817	-9,5727	11,164
41086	18,484	-3,4503	-9,0462	11,486
41087	18,462	-4,4927	-9,0953	11,492
41088	14,896	-4,0197	-8,6963	10,491
41089	14,232	-4,0237	-8,9305	10,192
41090	14,508	-3,516	-8,4673	10,417
41091	14,447	-4,5105	-8,506	10,413
41092	20,01	-3,9628	-9,5989	11,476
41093	19,245	-3,9729	-9,9115	11,183
41094	19,531	-3,4453	-9,4643	11,486
41095	19,462	-4,481	-9,4362	11,528
41096	15,785	-4,013	-9,0863	10,664
41097	15,137	-4,015	-9,3314	10,379
41098	15,327	-3,5328	-8,8939	10,574
41099	15,333	-4,5092	-8,9001	10,607
41100	6,4806	-4,0339	-15,304	7,9117
41101	7,098	-4,0209	-15,163	7,9804
41102	6,6664	-3,5153	-14,883	7,8634
41103	6,6946	-4,5111	-14,895	7,8781
41104	16,675	-3,9966	-9,4704	10,793
41105	16,036	-4,0048	-9,7319	10,521
41106	16,252	-3,5549	-9,2308	10,756
41107	16,231	-4,5038	-9,2785	10,768
41108	21,014	-3,9645	-9,963	11,324
41109	20,314	-3,9785	-10,195	11,139
41110	20,535	-3,4542	-9,807	11,407
41111	20,485	-4,4817	-9,7629	11,472
41112	17,57	-3,9818	-9,8593	10,86
41113	16,926	-3,9866	-10,149	10,601
41114	17,124	-3,4846	-9,6738	10,831
41115	17,113	-4,4928	-9,6683	10,866
41116	7,7255	-4,0251	-15,026	8,0676
41117	8,3591	-4,0267	-14,878	8,1538
41118	7,9401	-3,5541	-14,616	8,0467
41119	7,9421	-4,5153	-14,616	8,0567
41120	18,508	-3,9809	-10,222	10,877
41121	17,871	-3,9804	-10,593	10,609
41122	18,12	-3,451	-10,056	10,888
41123	18,027	-4,489	-10,05	10,91
41124	21,294	-3,9832	-10,577	10,903
41125	21,982	-3,9876	-10,375	11,004
41126	21,519	-3,4492	-10,181	11,181
41127	21,492	-4,4828	-10,142	11,248
41128	18,902	-3,9882	-10,773	10,666
41129	19,549	-3,9887	-10,508	10,86
41130	19,081	-3,4579	-10,389	10,876
41131	18,99	-4,4919	-10,394	10,901
41132	8,9853	-4,0281	-14,727	8,2542
41133	9,6185	-4,0321	-14,565	8,3519
41134	9,1891	-3,5215	-14,31	8,2519
41135	9,1945	-4,5167	-14,31	8,2648
41136	6,6757	-4,0327	-15,992	8,0764
41137	6,0569	-4,0459	-16,121	8,026
41138	6,2445	-3,5292	-15,709	7,9555
41139	6,2741	-4,5228	-15,722	7,9708
41140	19,297	-4,0009	-11,319	10,402
41141	18,264	-3,9877	-11,143	10,412
41142	18,623	-3,9955	-11,553	10,27
41143	18,802	-3,4727	-11,249	10,408
41144	18,814	-4,4963	-11,151	10,493
41145	19,945	-4,0014	-11,054	10,587
41146	20,594	-3,9972	-10,809	10,725
41147	20,11	-3,4973	-10,629	10,832
41148	20,108	-4,4968	-10,621	10,874
41149	7,293	-4,0196	-15,851	8,1395
41150	7,9273	-4,0203	-15,708	8,204
41151	7,4878	-3,5108	-15,435	8,0898
41152	7,5158	-4,5098	-15,448	8,1061
41153	13,587	-4,0198	-9,1503	9,9051
41154	12,937	-4,0184	-9,3544	9,6404
41155	13,211	-3,5119	-8,919	9,8294
41156	13,139	-4,5065	-8,9412	9,8226
41157	20,223	-4,0117	-11,682	10,207
41158	19,547	-4,0035	-11,911	10,123
41159	19,762	-3,4841	-11,518	10,311
41160	19,781	-4,5046	-11,488	10,364
41161	14,472	-4,0191	-9,5656	10,089
41162	13,807	-4,0188	-9,7913	9,8239
41163	14,068	-3,5234	-9,3369	10,017
41164	14,004	-4,5133	-9,3686	10,014
41165	20,873	-4,0075	-11,437	10,337
41166	21,536	-4,0038	-11,224	10,396
41167	21,082	-3,5062	-11,003	10,593
41168	21,081	-4,5004	-10,997	10,632
41169	15,389	-4,0068	-9,977	10,246
41170	14,699	-4,0112	-10,218	9,9871
41171	14,988	-3,5083	-9,7394	10,199
41172	14,919	-4,5058	-9,7759	10,196
41173	8,5609	-4,0219	-15,561	8,2841
41174	9,2019	-4,0268	-15,405	8,3602
41175	8,7726	-3,5466	-15,147	8,259
41176	8,7742	-4,5114	-15,147	8,2708
41177	16,287	-3,9948	-10,411	10,341
41178	15,604	-4,0002	-10,652	10,107
41179	15,951	-3,5026	-10,141	10,346
41180	15,811	-4,501	-10,194	10,325
41181	20,437	-4,0126	-12,313	9,8568
41182	21,11	-4,0133	-12,094	9,8771
41183	20,664	-3,5251	-11,881	10,064
41184	20,665	-4,5071	-11,876	10,102
41185	17,226	-3,9852	-10,883	10,363
41186	16,473	-3,9872	-11,113	10,155
41187	16,918	-3,4591	-10,627	10,403
41188	16,715	-4,4938	-10,635	10,393
41189	7,5014	-4,0282	-16,544	8,3047
41190	6,854	-4,0154	-16,667	8,2569
41191	7,0544	-3,5116	-16,259	8,1859
41192	7,0873	-4,5099	-16,271	8,2029
41193	18,074	-3,9907	-11,545	10,211
41194	17,403	-3,9853	-11,602	10,134
41195	17,764	-3,4177	-11,137	10,351
41196	17,677	-4,4915	-11,126	10,378
41197	13,157	-4,0174	-9,9955	9,5664
41198	12,488	-4,0206	-10,197	9,3232
41199	12,749	-3,5203	-9,7664	9,484
41200	12,691	-4,5118	-9,7839	9,4827
41201	18,873	-3,9982	-12,145	9,9973
41202	18,214	-3,9954	-12,295	9,9338
41203	18,492	-3,442	-11,904	10,094
41204	18,433	-4,4992	-11,956	10,104
41205	14,033	-4,0109	-10,443	9,7307
41206	13,366	-4,0155	-10,657	9,4988
41207	13,647	-3,5132	-10,199	9,6718
41208	13,589	-4,5055	-10,223	9,6726
41209	19,76	-4,0044	-12,542	9,7788
41210	19,084	-4,0075	-12,74	9,7461
41211	19,321	-3,4853	-12,347	9,9004
41212	19,315	-4,4989	-12,331	9,9413
41213	14,915	-4,0046	-10,893	9,8578
41214	14,244	-4,0106	-11,108	9,6442
41215	14,523	-3,5103	-10,647	9,8185
41216	14,458	-4,5054	-10,673	9,8201
41217	8,1357	-4,0288	-16,402	8,3636
41218	8,7753	-4,0259	-16,244	8,4153
41219	8,3282	-3,5158	-15,976	8,3095
41220	8,3553	-4,5105	-15,985	8,3264
41221	15,79	-3,9926	-11,355	9,9308
41222	15,132	-4,0024	-11,563	9,7483
41223	15,414	-3,4955	-11,102	9,922
41224	15,358	-4,4992	-11,113	9,9343
41225	19,981	-4,0151	-13,171	9,47
41226	20,653	-4,0131	-12,968	9,4488
41227	20,212	-3,4985	-12,766	9,6255
41228	20,214	-4,5055	-12,742	9,6717
41229	16,65	-3,9873	-11,833	9,9343
41230	15,984	-3,9929	-12,042	9,7832
41231	16,269	-3,4798	-11,596	9,9495
41232	16,208	-4,4934	-11,596	9,9698
41233	12,698	-4,0188	-10,858	9,2629
41234	12,037	-4,022	-11,046	9,0511
41235	12,308	-3,5165	-10,609	9,1906
41236	12,259	-4,5087	-10,623	9,193
41237	17,544	-3,99	-12,352	9,8551
41238	16,86	-3,9938	-12,528	9,7556
41239	17,094	-3,4869	-12,076	9,9131
41240	17,093	-4,4939	-12,07	9,9466
41241	13,577	-4,0152	-11,321	9,4203
41242	12,901	-4,0207	-11,53	9,2162
41243	13,12	-3,5324	-11,098	9,3395
41244	13,123	-4,51	-11,1	9,3614
41245	18,425	-4,0047	-12,89	9,685
41246	17,755	-4,	-13,059	9,6369
41247	17,969	-3,5046	-12,645	9,7778
41248	17,965	-4,4962	-12,639	9,8112
41249	14,461	-4,0083	-11,778	9,5426
41250	13,792	-4,0132	-11,984	9,3615
41251	14,064	-3,5125	-11,532	9,5019
41252	14,018	-4,5052	-11,547	9,5112
41253	19,304	-4,0182	-13,369	9,4408
41254	18,625	-4,0166	-13,557	9,4384
41255	18,858	-3,5283	-13,148	9,5718
41256	18,855	-4,5086	-13,146	9,605
41257	15,326	-4,0026	-12,251	9,6082
41258	14,662	-4,0095	-12,453	9,456
41259	14,927	-3,5072	-12,003	9,5921
41260	14,887	-4,5032	-12,015	9,6075
41261	8,3472	-4,0345	-17,09	8,5186
41262	7,6954	-4,0306	-17,227	8,4849
41263	7,897	-3,5226	-16,813	8,4116
41264	7,9255	-4,5184	-16,825	8,429
41265	16,194	-3,9994	-12,738	9,6115
41266	15,534	-4,0037	-12,934	9,4946
41267	15,757	-3,5018	-12,493	9,6196
41268	15,76	-4,4994	-12,489	9,6486
41269	19,52	-4,0179	-14,015	9,1588
41270	20,193	-4,0172	-13,816	9,1099
41271	19,753	-3,5304	-13,591	9,2927
41272	19,753	-4,5096	-13,592	9,3239
41273	17,071	-4,0038	-13,235	9,5421
41274	16,405	-4,004	-13,423	9,4666
41275	16,627	-3,5038	-12,992	9,5875
41276	16,628	-4,5	-12,987	9,6174
41277	11,584	-4,0271	-11,892	8,8274
41278	12,241	-4,024	-11,718	9,0114
41279	11,801	-3,5414	-11,475	8,9244
41280	11,803	-4,5133	-11,476	8,9422
41281	17,955	-4,0118	-13,726	9,3936
41282	17,288	-4,0099	-13,914	9,3633
41283	17,514	-3,5156	-13,488	9,4799
41284	17,512	-4,5038	-13,484	9,5103
41285	11,143	-4,0282	-12,727	8,6575
41286	11,801	-4,0232	-12,552	8,818
41287	11,388	-3,5186	-12,306	8,7371
41288	11,365	-4,5137	-12,308	8,7476
41289	18,84	-4,0163	-14,203	9,1594
41290	18,169	-4,0153	-14,392	9,1793
41291	18,403	-3,5066	-13,981	9,286
41292	18,394	-4,508	-13,969	9,3208
41293	10,703	-4,0295	-13,563	8,5374
41294	11,352	-4,0275	-13,394	8,6719
41295	10,935	-3,5195	-13,146	8,5883
41296	10,921	-4,5144	-13,146	8,6006
41297	12,458	-4,0201	-12,377	8,9956
41298	13,116	-4,0187	-12,192	9,1652
41299	12,711	-3,5214	-11,945	9,1019
41300	12,678	-4,5107	-11,96	9,1115
41301	10,263	-4,0304	-14,401	8,4682
41302	10,91	-4,0288	-14,232	8,5782
41303	10,482	-3,546	-13,981	8,4912
41304	10,484	-4,515	-13,981	8,5056
41305	12,01	-4,0225	-13,219	8,8256
41306	12,668	-4,0194	-13,04	8,9692
41307	12,253	-3,5191	-12,793	8,9025
41308	12,234	-4,5094	-12,8	8,9158
41309	9,8351	-4,0307	-15,243	8,4514
41310	10,475	-4,0294	-15,072	8,5358
41311	10,039	-3,5222	-14,822	8,4467
41312	10,042	-4,5154	-14,821	8,4608
41313	11,559	-4,0269	-14,062	8,7059
41314	12,216	-4,0246	-13,887	8,8243
41315	11,781	-3,5405	-13,642	8,7523
41316	11,782	-4,5131	-13,642	8,7696
41317	9,4163	-4,0308	-16,089	8,4852
41318	10,055	-4,0292	-15,919	8,5451
41319	9,6264	-3,547	-15,665	8,4572
41320	9,6279	-4,5154	-15,666	8,4707
41321	11,122	-4,0278	-14,903	8,6391
41322	11,771	-4,0228	-14,729	8,7315
41323	11,335	-3,5422	-14,482	8,6593
41324	11,336	-4,5138	-14,482	8,6754
41325	8,9868	-4,0316	-16,932	8,5645
41326	9,631	-4,0291	-16,768	8,6012
41327	9,183	-3,5241	-16,506	8,5109
41328	9,2047	-4,5155	-16,511	8,5272
41329	10,695	-4,0278	-15,748	8,6229
41330	11,338	-4,0265	-15,572	8,6899
41331	10,901	-3,5214	-15,327	8,618
41332	10,909	-4,514	-15,324	8,6342
41333	9,1897	-4,0303	-17,613	8,7006
41334	8,5349	-4,0336	-17,765	8,6847
41335	8,7666	-3,5501	-17,354	8,6153
41336	8,7689	-4,5161	-17,354	8,6283
41337	10,27	-4,0275	-16,599	8,6549
41338	10,907	-4,0233	-16,424	8,6966
41339	10,48	-3,5423	-16,171	8,6267
41340	10,482	-4,5138	-16,172	8,6417
41341	19,056	-4,0153	-14,862	8,9056
41342	19,727	-4,0152	-14,67	8,8322
41343	19,288	-3,5075	-14,451	9,0061
41344	19,286	-4,5083	-14,438	9,0421
41345	9,8339	-4,0278	-17,449	8,7316
41346	10,474	-4,0208	-17,277	8,7493
41347	10,056	-3,5419	-17,025	8,6821
41348	10,057	-4,5137	-17,025	8,6968
41349	13,993	-4,0143	-12,659	9,2826
41350	13,326	-4,018	-12,855	9,1318
41351	13,551	-3,5262	-12,425	9,2293
41352	13,554	-4,508	-12,424	9,2517
41353	10,028	-4,0237	-18,124	8,8443
41354	9,3767	-4,0293	-18,287	8,8487
41355	9,6085	-3,5438	-17,872	8,7795
41356	9,6105	-4,5141	-17,872	8,794
41357	14,869	-4,0106	-13,137	9,3494
41358	14,204	-4,0151	-13,326	9,2275
41359	14,429	-3,5199	-12,896	9,3242
41360	14,432	-4,5063	-12,895	9,3484
41361	12,874	-4,0214	-13,708	8,961
41362	13,537	-4,0187	-13,522	9,0837
41363	13,096	-3,5318	-13,286	9,0312
41364	13,099	-4,51	-13,285	9,0518
41365	15,745	-4,0084	-13,62	9,3557
41366	15,08	-4,0115	-13,811	9,2669
41367	15,305	-3,5151	-13,383	9,3618
41368	15,308	-4,5043	-13,38	9,3876
41369	13,088	-4,0213	-14,371	8,94
41370	12,428	-4,0205	-14,554	8,8432
41371	12,648	-3,5357	-14,132	8,8882
41372	12,65	-4,5115	-14,132	8,9071
41373	13,751	-4,0186	-14,185	9,0561
41374	14,414	-4,0159	-14,	9,1512
41375	13,975	-3,5269	-13,76	9,1259
41376	13,977	-4,5088	-13,759	9,1481
41377	16,622	-4,0102	-14,102	9,2926
41378	15,955	-4,0109	-14,291	9,2423
41379	16,182	-3,5149	-13,863	9,3356
41380	16,182	-4,5041	-13,86	9,3627
41381	13,962	-4,0169	-14,853	9,0071
41382	13,3	-4,0157	-15,039	8,9369
41383	13,524	-3,531	-14,611	8,982
41384	13,526	-4,5099	-14,611	9,0026
41385	14,624	-4,0142	-14,668	9,0961
41386	15,289	-4,014	-14,482	9,1591
41387	14,85	-3,5229	-14,243	9,1651
41388	14,851	-4,5072	-14,241	9,1885
41389	17,502	-4,0134	-14,58	9,1528
41390	16,833	-4,013	-14,772	9,145
41391	17,062	-3,5197	-14,346	9,2349
41392	17,061	-4,5061	-14,345	9,2625
41393	14,835	-4,0129	-15,337	9,0153
41394	14,171	-4,0136	-15,523	8,9766
41395	14,396	-3,5254	-15,095	9,0212
41396	14,398	-4,507	-15,095	9,0431
41397	15,499	-4,0127	-15,151	9,0729
41398	16,166	-4,0137	-14,961	9,0994
41399	15,734	-3,5084	-14,732	9,1394
41400	15,727	-4,5068	-14,723	9,1651
41401	17,714	-4,014	-15,244	8,968
41402	18,384	-4,0144	-15,051	8,9284
41403	17,944	-3,5224	-14,814	9,0557
41404	17,943	-4,5073	-14,815	9,0833
41405	15,71	-4,0131	-15,818	8,957
41406	15,043	-4,0142	-16,003	8,9543
41407	15,27	-3,5224	-15,58	8,9975
41408	15,271	-4,5059	-15,58	9,0203
41409	11,987	-4,0215	-15,398	8,7758
41410	12,64	-4,0149	-15,221	8,8466
41411	12,206	-3,5146	-14,979	8,7962
41412	12,205	-4,509	-14,977	8,8138
41413	17,045	-4,0136	-15,436	8,9641
41414	16,377	-4,014	-15,628	8,9788
41415	16,61	-3,5073	-15,211	9,0419
41416	16,607	-4,5069	-15,197	9,0705
41417	11,55	-4,022	-16,248	8,7571
41418	12,198	-4,0175	-16,071	8,8028
41419	11,76	-3,516	-15,827	8,7528
41420	11,768	-4,5125	-15,821	8,7704
41421	17,255	-4,0132	-16,103	8,8059
41422	17,924	-4,013	-15,91	8,7457
41423	17,485	-3,5205	-15,673	8,8693
41424	17,485	-4,5067	-15,673	8,8951
41425	11,111	-4,0166	-17,102	8,7849
41426	11,759	-4,0134	-16,926	8,8061
41427	11,317	-3,5138	-16,679	8,7576
41428	11,336	-4,5095	-16,672	8,7751
41429	18,594	-4,0133	-15,717	8,703
41430	19,264	-4,0113	-15,527	8,6097
41431	18,826	-3,5069	-15,3	8,7813
41432	18,825	-4,5071	-15,287	8,814
41433	10,667	-4,0168	-17,952	8,8565
41434	11,319	-4,0134	-17,78	8,8538
41435	10,871	-3,5092	-17,53	8,8077
41436	10,902	-4,5072	-17,531	8,8256
41437	16,586	-4,0136	-16,295	8,8244
41438	15,918	-4,0146	-16,486	8,8609
41439	16,147	-3,5093	-16,068	8,9017
41440	16,148	-4,5071	-16,057	8,9271
41441	10,872	-4,0178	-18,629	8,9434
41442	10,219	-4,0229	-18,796	8,9695
41443	10,425	-3,5146	-18,375	8,9006
41444	10,452	-4,5096	-18,377	8,9172
41445	16,793	-4,0131	-16,964	8,6911
41446	17,464	-4,0123	-16,771	8,6109
41447	17,025	-3,5198	-16,532	8,7318
41448	17,025	-4,5065	-16,533	8,7559
41449	12,851	-4,0109	-15,893	8,8674
41450	13,509	-4,0125	-15,708	8,9125
41451	13,073	-3,5081	-15,471	8,8878
41452	13,073	-4,5059	-15,463	8,9073
41453	18,133	-4,0121	-16,579	8,5478
41454	18,804	-4,0119	-16,383	8,4382
41455	18,363	-3,5195	-16,146	8,6077
41456	18,363	-4,5063	-16,147	8,6336
41457	12,407	-4,0089	-16,748	8,8458
41458	13,062	-4,0096	-16,565	8,8661
41459	12,62	-3,5058	-16,325	8,8426
41460	12,628	-4,505	-16,317	8,8614
41461	14,379	-4,0149	-16,189	8,9208
41462	13,72	-4,0112	-16,38	8,9055
41463	13,942	-3,512	-15,957	8,926
41464	13,942	-4,5066	-15,947	8,9471
41465	11,966	-4,0102	-17,604	8,8695
41466	12,619	-4,0088	-17,423	8,8654
41467	12,173	-3,5048	-17,18	8,8443
41468	12,191	-4,5039	-17,177	8,8625
41469	15,251	-4,0158	-16,672	8,8626
41470	14,591	-4,0169	-16,859	8,8818
41471	14,813	-3,5255	-16,428	8,9034
41472	14,814	-4,5083	-16,428	8,9249
41473	11,524	-4,0144	-18,458	8,9358
41474	12,182	-4,0146	-18,282	8,9079
41475	11,733	-3,5108	-18,035	8,8902
41476	11,756	-4,5062	-18,035	8,9074
41477	16,124	-4,0141	-17,155	8,7312
41478	15,458	-4,0153	-17,346	8,7883
41479	15,687	-3,523	-16,916	8,8093
41480	15,687	-4,5075	-16,916	8,8313
41481	11,738	-4,0179	-19,141	8,9907
41482	11,073	-4,0199	-19,307	9,0419
41483	11,282	-3,5132	-18,884	8,9771
41484	11,307	-4,5082	-18,886	8,9934
41485	16,331	-4,0138	-17,825	8,62
41486	16,999	-4,0126	-17,634	8,5213
41487	16,559	-3,5205	-17,395	8,6401
41488	16,56	-4,5066	-17,395	8,6625
41489	13,274	-4,0095	-17,24	8,8804
41490	13,932	-4,0132	-17,05	8,8716
41491	13,489	-3,5094	-16,814	8,8788
41492	13,497	-4,5046	-16,808	8,8985
41493	17,671	-4,0118	-17,441	8,4384
41494	18,342	-4,0113	-17,247	8,3114
41495	17,902	-3,518	-17,01	8,4762
41496	17,902	-4,5059	-17,01	8,5003
41497	12,834	-4,0132	-18,101	8,8989
41498	13,488	-4,0135	-17,913	8,8663
41499	13,042	-3,5073	-17,674	8,8764
41500	13,057	-4,5048	-17,671	8,8947
41501	14,798	-4,0164	-17,534	8,8118
41502	14,146	-4,0172	-17,724	8,8528
41503	14,367	-3,5261	-17,291	8,853
41504	14,368	-4,5086	-17,291	8,8731
41505	12,396	-4,0181	-18,965	8,9584
41506	13,053	-4,0172	-18,781	8,9018
41507	12,6	-3,5132	-18,534	8,9163
41508	12,621	-4,5084	-18,535	8,9333
41509	15,665	-4,0151	-18,016	8,6805
41510	15,009	-4,0161	-18,211	8,7568
41511	15,225	-3,512	-17,785	8,7581
41512	15,228	-4,5079	-17,777	8,7793
41513	12,606	-4,0189	-19,646	8,9772
41514	11,938	-4,0191	-19,816	9,0566
41515	12,176	-3,5298	-19,398	8,9951
41516	12,177	-4,5097	-19,398	9,012
41517	15,878	-4,0151	-18,688	8,5879
41518	16,54	-4,0138	-18,496	8,4721
41519	16,101	-3,5222	-18,256	8,5898
41520	16,102	-4,5072	-18,256	8,6109
41521	14,357	-4,0169	-18,4	8,8018
41522	13,707	-4,0174	-18,593	8,865
41523	13,923	-3,5262	-18,156	8,8454
41524	13,923	-4,5087	-18,156	8,8645
41525	17,209	-4,0126	-18,304	8,3708
41526	17,875	-4,0105	-18,114	8,228
41527	17,438	-3,5184	-17,872	8,3892
41528	17,439	-4,506	-17,872	8,4117
41529	15,222	-4,0161	-18,882	8,6674
41530	14,564	-4,0148	-19,078	8,7646
41531	14,789	-3,5249	-18,644	8,7464
41532	14,79	-4,5083	-18,644	8,766
41533	13,263	-4,018	-19,462	8,9169
41534	13,914	-4,0153	-19,271	8,8314
41535	13,49	-3,5265	-19,031	8,8773
41536	13,49	-4,5088	-19,03	8,8956
41537	15,426	-4,0137	-19,557	8,5929
41538	16,089	-4,0154	-19,361	8,459
41539	15,654	-3,5242	-19,12	8,5762
41540	15,655	-4,5079	-19,119	8,596
41541	13,458	-4,0156	-20,134	8,8996
41542	12,796	-4,0192	-20,317	9,0081
41543	13,035	-3,5282	-19,894	8,9489
41544	13,036	-4,5092	-19,894	8,9666
41545	14,768	-4,0124	-19,752	8,693
41546	14,109	-4,0129	-19,943	8,811
41547	14,328	-3,5126	-19,514	8,7754
41548	14,346	-4,5066	-19,515	8,7915
41549	16,751	-4,0141	-19,169	8,3407
41550	17,414	-4,0111	-18,979	8,1835
41551	16,978	-3,5205	-18,737	8,3415
41552	16,979	-4,5066	-18,736	8,3625
41553	14,967	-4,0108	-20,426	8,6351
41554	15,63	-4,0116	-20,234	8,4826
41555	15,19	-3,5112	-19,998	8,6016
41556	15,208	-4,5058	-19,997	8,6166
41557	14,308	-4,0113	-20,617	8,7556
41558	13,648	-4,0148	-20,801	8,8939
41559	13,869	-3,5127	-20,376	8,8411
41560	13,886	-4,5064	-20,377	8,8563
41561	16,293	-4,0132	-20,038	8,3463
41562	16,955	-4,0125	-19,844	8,1743
41563	16,523	-3,5231	-19,602	8,3294
41564	16,524	-4,5075	-19,602	8,349
41565	15,171	-4,0139	-21,1	8,5402
41566	14,503	-4,0105	-21,288	8,7121
41567	14,727	-3,5099	-20,862	8,6626
41568	14,744	-4,5049	-20,862	8,6765
41569	15,834	-4,0147	-20,907	8,3858
41570	16,494	-4,0133	-20,708	8,1992
41571	16,052	-3,5091	-20,479	8,3552
41572	16,065	-4,5057	-20,476	8,3703
41573	15,372	-4,0178	-21,774	8,4574
41574	16,034	-4,017	-21,574	8,255
41575	15,605	-3,5273	-21,34	8,4087
41576	15,605	-4,509	-21,34	8,4258
41577	14,904	-4,0169	-22,635	8,5603
41578	14,705	-4,0144	-21,962	8,6309
41579	15,567	-4,0152	-22,446	8,3414
41580	15,139	-3,527	-22,207	8,4967
41581	15,139	-4,5088	-22,208	8,5129
41582	14,436	-4,0155	-23,491	8,6908
41583	14,237	-4,0166	-22,813	8,7515
41584	15,099	-4,0142	-23,304	8,4561
41585	14,669	-3,5249	-23,061	8,6146
41586	14,669	-4,5081	-23,062	8,6303
41587	13,971	-4,0131	-24,351	8,8464
41588	13,77	-4,0152	-23,673	8,8995
41589	14,633	-4,0132	-24,165	8,5951
41590	14,203	-3,5225	-23,919	8,7577
41591	14,203	-4,5074	-23,919	8,7727
41592	13,509	-4,0131	-25,215	9,0254
41593	13,309	-4,0134	-24,532	9,0718
41594	14,169	-4,0111	-25,028	8,7578
41595	13,729	-3,5101	-24,786	8,9294
41596	13,737	-4,5058	-24,782	8,9408
41597	13,049	-4,0134	-26,077	9,2279
41598	12,849	-4,0151	-25,399	9,2697
41599	13,712	-4,0145	-25,892	8,9406
41600	13,28	-3,5221	-25,648	9,116
41601	13,28	-4,5073	-25,648	9,1299
41602	12,588	-4,0138	-26,941	9,4538
41603	12,389	-4,0135	-26,256	9,4917
41604	13,25	-4,0136	-26,754	9,1478
41605	12,805	-3,5096	-26,512	9,3364
41606	12,821	-4,5061	-26,507	9,3431
41607	12,133	-4,0159	-27,803	9,7007
41608	11,932	-4,0159	-27,121	9,7375
41609	12,79	-4,0156	-27,62	9,3759
41610	12,347	-3,513	-27,375	9,5734
41611	12,359	-4,5078	-27,374	9,5812
41612	11,674	-4,016	-28,662	9,9716
41613	11,475	-4,0168	-27,977	10,007
41614	12,333	-4,0164	-28,481	9,6239
41615	11,905	-3,5247	-28,232	9,825
41616	11,906	-4,5082	-28,232	9,8382
41617	11,214	-4,0158	-29,524	10,267
41618	11,015	-4,0147	-28,838	10,303
41619	11,871	-4,0166	-29,343	9,8954
41620	11,43	-3,5155	-29,094	10,116
41621	11,442	-4,5078	-29,095	10,123
41622	10,754	-4,014	-30,387	10,585
41623	10,56	-4,015	-29,702	10,621
41624	11,412	-4,0174	-30,207	10,187
41625	10,966	-3,5128	-29,959	10,425
41626	10,986	-4,508	-29,956	10,428
41627	10,291	-4,0098	-31,248	10,929
41628	10,109	-4,0165	-30,569	10,964
41629	10,951	-4,016	-31,07	10,5
41630	10,507	-3,5105	-30,819	10,755
41631	10,529	-4,506	-30,821	10,756
41632	9,8243	-4,0061	-32,107	11,3
41633	9,6365	-4,006	-31,42	11,344
41634	10,482	-4,009	-31,93	10,84
41635	10,041	-3,5042	-31,676	11,114
41636	10,069	-4,5037	-31,683	11,112
41637	9,3511	-4,0035	-32,963	11,7
41638	9,1679	-4,0029	-32,274	11,75
41639	10,013	-4,005	-32,789	11,201
41640	9,578	-3,5033	-32,537	11,495
41641	9,6008	-4,5024	-32,543	11,495
41642	8,8676	-4,0019	-33,823	12,135
41643	8,6912	-4,0037	-33,127	12,193
41644	9,5387	-4,0042	-33,648	11,586
41645	9,1049	-3,5002	-33,389	11,908
41646	9,1215	-4,5011	-33,399	11,913
41647	8,3685	-3,9944	-34,678	12,611
41648	8,1982	-4,0018	-33,986	12,682
41649	9,0533	-4,0012	-34,509	12,002
41650	8,6272	-3,5054	-34,25	12,352
41651	8,6234	-4,5007	-34,255	12,373
41652	14,038	-4,0141	-22,14	8,8209
41653	13,843	-4,014	-21,472	8,8525
41654	14,259	-3,5097	-21,72	8,7571
41655	14,275	-4,5056	-21,717	8,77
41656	7,8611	-3,9912	-35,524	13,13
41657	7,6741	-3,9863	-34,822	13,235
41658	8,5553	-3,9923	-35,365	12,448
41659	8,1194	-3,4864	-35,098	12,85
41660	8,1136	-4,4936	-35,102	12,874
41661	13,571	-4,0164	-22,995	8,9594
41662	13,373	-4,0151	-22,321	8,9816
41663	13,795	-3,5143	-22,571	8,881
41664	13,805	-4,5085	-22,564	8,8944
41665	7,3993	-4,0041	-36,396	13,629
41666	7,1663	-3,9995	-35,65	13,825
41667	8,0662	-3,9928	-36,22	12,911
41668	7,6283	-3,479	-35,958	13,374
41669	7,625	-4,4976	-35,956	13,393
41670	13,109	-4,0155	-23,854	9,1247
41671	12,907	-4,0157	-23,176	9,1395
41672	13,337	-3,5241	-23,426	9,0316
41673	13,337	-4,5079	-23,427	9,0472
41674	6,988	-4,0153	-37,297	14,092
41675	6,8151	-4,0441	-36,551	14,288
41676	7,6271	-4,0064	-37,104	13,331
41677	7,1992	-3,5048	-36,842	13,853
41678	7,1728	-4,5066	-36,825	13,889
41679	6,4016	-4,0356	-37,551	14,845
41680	5,6867	-4,0592	-37,34	15,851
41681	5,8122	-4,0607	-37,843	15,722
41682	6,2286	-4,0644	-36,805	15,052
41683	5,9303	-3,6123	-37,324	15,516
41684	6,0172	-4,5269	-37,353	15,383
41685	12,649	-4,0155	-24,716	9,3164
41686	12,451	-4,0162	-24,032	9,3233
41687	12,867	-3,5122	-24,288	9,2131
41688	12,881	-4,5077	-24,282	9,2239
41689	6,5778	-4,0254	-38,235	14,563
41690	7,1995	-4,0112	-38,001	13,743
41691	6,7736	-3,5112	-37,736	14,364
41692	6,7859	-4,5087	-37,748	14,315
41693	5,1495	-4,064	-37,612	16,732
41694	5,1899	-4,0525	-37,075	16,494
41695	5,3799	-3,6131	-37,261	16,338
41696	5,3697	-4,5323	-37,284	16,31
41697	5,9884	-4,0505	-38,528	15,43
41698	5,2749	-4,0656	-38,115	16,592
41699	5,3531	-4,0635	-38,756	16,559
41700	5,5932	-3,6128	-38,328	16,169
41701	5,6071	-4,5338	-38,333	16,025
41702	6,1233	-4,0336	-39,179	15,141
41703	6,7659	-4,0237	-38,948	14,153
41704	6,3434	-3,5281	-38,667	14,906
41705	6,3697	-4,5167	-38,722	14,751
41706	12,19	-4,0152	-25,578	9,5344
41707	11,992	-4,0165	-24,895	9,5358
41708	12,417	-3,5239	-25,15	9,4152
41709	12,418	-4,5078	-25,15	9,43
41710	4,6722	-4,0501	-38,286	17,748
41711	4,6299	-4,0554	-37,669	17,542
41712	4,9367	-3,6316	-37,882	17,193
41713	4,9055	-4,5318	-37,912	17,163
41714	5,488	-4,0466	-39,408	16,257
41715	5,6131	-4,0292	-40,075	15,944
41716	6,2741	-4,0243	-39,865	14,701
41717	5,8772	-3,5136	-39,566	15,608
41718	5,8769	-4,5169	-39,637	15,331
41719	4,7504	-4,048	-38,926	17,694
41720	4,8434	-4,0359	-39,583	17,675
41721	5,1309	-3,5859	-39,146	17,105
41722	5,0991	-4,5297	-39,178	16,889
41723	11,532	-4,0141	-25,751	9,7749
41724	11,733	-4,0156	-26,437	9,7769
41725	11,948	-3,5125	-26,009	9,6497
41726	11,963	-4,5074	-26,003	9,6587
41727	4,9685	-4,0186	-40,25	17,342
41728	5,0685	-4,0041	-40,962	17,28
41729	5,7468	-4,0136	-40,755	15,477
41730	5,3199	-3,4651	-40,463	16,652
41731	5,3492	-4,5123	-40,513	16,151
41732	4,1118	-4,0468	-39,086	19,171
41733	4,0386	-4,053	-38,419	18,905
41734	4,3941	-3,5887	-38,677	18,517
41735	4,3739	-4,5183	-38,681	18,265
41736	4,2048	-4,0348	-39,743	19,121
41737	4,3156	-4,0066	-40,411	19,352
41738	4,6718	-3,4452	-39,989	18,286
41739	4,5816	-4,5062	-40,	17,997
41740	4,4969	-3,9524	-42,738	20,237
41741	5,211	-3,9505	-42,555	17,243
41742	5,4203	-3,9605	-43,219	16,398
41743	5,0647	-3,9337	-43,74	17,56
41744	4,9203	-3,9262	-44,111	17,436
41745	4,8329	-4,1964	-43,641	19,112
41746	4,8724	-4,4536	-42,974	18,601
41747	4,3631	-3,955	-43,596	24,115
41748	4,4157	-3,9921	-41,123	19,257
41749	4,469	-3,9906	-41,867	19,833
41750	5,1831	-3,9887	-41,684	16,897
41751	4,7776	-3,478	-41,433	18,147
41752	4,7969	-4,4918	-41,392	17,556
41753	3,5452	-4,0393	-39,885	21,138
41754	3,4584	-4,0559	-39,227	20,565
41755	3,8104	-3,5042	-39,429	20,195
41756	3,822	-4,5285	-39,499	19,637
41757	3,656	-4,0111	-40,553	21,319
41758	3,7611	-4,0034	-41,237	21,749
41759	4,07	-3,5308	-40,835	20,216
41760	4,0389	-4,5003	-40,837	19,65
41761	3,8144	-4,0019	-41,981	22,386
41762	4,1944	-4,4989	-42,296	21,412
41763	3,8452	-4,	-42,731	26,162
41764	10,816	-4,0154	-28,153	10,341
41765	10,62	-4,0184	-27,468	10,332
41766	11,275	-4,0168	-27,295	10,046
41767	11,043	-3,5266	-27,723	10,183
41768	11,044	-4,5086	-27,722	10,197
41769	2,9987	-4,0164	-40,651	23,157
41770	2,8749	-4,0175	-39,999	22,941
41771	3,2858	-3,5476	-40,251	22,134
41772	3,2672	-4,5107	-40,28	21,346
41773	3,1038	-4,0088	-41,335	23,706
41774	3,503	-4,503	-41,663	23,527
41775	3,235	-4,0039	-41,991	26,214
41776	10,362	-4,0139	-29,016	10,661
41777	10,163	-4,0122	-28,326	10,651
41778	10,59	-3,5262	-28,585	10,489
41779	10,591	-4,5068	-28,584	10,503
41780	2,2813	-4,0116	-40,746	24,642
41781	2,7253	-4,5057	-41,044	24,5
41782	2,499	-4,0063	-41,368	24,594
41783	9,9148	-4,0175	-29,884	11,005
41784	9,7134	-4,0137	-29,188	10,997
41785	10,138	-3,5276	-29,45	10,821
41786	10,139	-4,507	-29,45	10,837
41787	9,4545	-4,0128	-30,741	11,384
41788	9,2658	-4,0143	-30,051	11,37
41789	9,6936	-3,532	-30,321	11,177
41790	9,6944	-4,5105	-30,321	11,194
41791	2,1575	-4,0126	-40,094	24,261
41792	1,3647	-3,9679	-40,243	25,339
41793	1,8535	-4,5058	-40,489	24,893
41794	1,6241	-4,0061	-40,86	22,37
41795	8,9801	-4,0028	-31,587	11,8
41796	8,7973	-4,0047	-30,896	11,784
41797	9,1992	-3,5036	-31,163	11,588
41798	9,2267	-4,5023	-31,169	11,591
41799	2,7881	-4,0341	-39,341	22,42
41800	2,1061	-4,0157	-39,442	23,902
41801	2,475	-3,5086	-39,732	23,602
41802	2,4952	-4,5068	-39,738	22,575
41803	8,508	-4,0031	-32,438	12,25
41804	8,3292	-4,0017	-31,743	12,233
41805	8,7296	-3,4973	-32,008	12,019
41806	8,7589	-4,5005	-32,025	12,021
41807	3,3853	-4,0621	-38,56	20,34
41808	2,7421	-4,0483	-38,671	21,525
41809	3,1151	-3,5339	-38,954	21,412
41810	3,0949	-4,5273	-38,955	20,895
41811	8,0218	-4,0037	-33,29	12,748
41812	7,8527	-4,0062	-32,586	12,726
41813	8,2614	-3,4997	-32,861	12,484
41814	8,2782	-4,5026	-32,872	12,495
41815	3,9964	-4,0584	-37,803	18,726
41816	3,3613	-4,0473	-37,882	19,765
41817	3,7236	-3,5514	-38,18	19,553
41818	3,6757	-4,5348	-38,165	19,359
41819	7,5038	-3,9938	-34,13	13,316
41820	7,3571	-4,0069	-33,435	13,28
41821	7,7748	-3,508	-33,71	13,
41822	7,7731	-4,5011	-33,718	13,028
41823	4,6704	-4,0438	-37,132	17,316
41824	4,0147	-4,0486	-37,129	18,212
41825	4,3528	-3,5398	-37,435	17,976
41826	4,3068	-4,5236	-37,41	17,962
41827	6,9793	-3,9946	-34,948	13,943
41828	6,8119	-3,9966	-34,235	13,918
41829	7,2362	-3,4845	-34,535	13,61
41830	7,2346	-4,4927	-34,543	13,639
41831	5,7318	-4,0577	-36,54	15,688
41832	4,7342	-4,0348	-36,494	16,888
41833	5,036	-3,5814	-36,807	16,661
41834	5,096	-4,5202	-36,763	16,561
41835	6,582	-4,0395	-35,805	14,496
41836	6,2656	-4,0074	-35,036	14,633
41837	6,7523	-3,4904	-35,369	14,226
41838	6,7007	-4,502	-35,362	14,31
41839	5,8039	-4,0387	-35,841	15,324
41840	6,2978	-3,5869	-36,299	14,902
41841	6,2639	-4,5375	-36,247	14,958
41842	1,3133	-3,971	-39,591	24,833
41843	0,60657	-3,9785	-39,626	25,39
41844	0,30171	-3,9913	-39,803	25,558
41845	-1,5147e-002	-3,9459	-40,132	25,118
41846	0,4581	-4,2128	-40,124	26,043
41847	1,0447	-4,462	-40,029	25,145
41848	0,68731	-3,962	-40,527	21,001
41849	2,0601	-4,0299	-38,772	23,053
41850	1,3799	-4,019	-38,838	24,013
41851	1,7238	-3,5101	-39,162	24,358
41852	1,7488	-4,5089	-39,162	23,267
41853	2,7181	-4,0335	-37,993	20,989
41854	2,0514	-4,0306	-38,071	21,939
41855	2,4064	-3,5215	-38,384	22,131
41856	2,3892	-4,521	-38,386	21,69
41857	3,3796	-4,0376	-37,209	19,28
41858	2,7081	-4,0301	-37,298	20,19
41859	3,0614	-3,5187	-37,609	20,198
41860	3,0349	-4,5125	-37,598	20,021
41861	4,0786	-4,0396	-36,491	17,805
41862	3,3721	-4,0392	-36,534	18,651
41863	3,7152	-3,5307	-36,845	18,547
41864	3,7124	-4,525	-36,818	18,501
41865	4,8062	-4,0157	-35,795	16,549
41866	4,0745	-4,0299	-35,836	17,328
41867	4,4189	-3,5292	-36,177	17,195
41868	4,448	-4,5145	-36,135	17,151
41869	5,4875	-4,0066	-35,072	15,494
41870	4,7605	-4,0137	-35,117	16,201
41871	5,1734	-3,5019	-35,458	15,968
41872	5,1677	-4,5011	-35,426	15,997
41873	6,0983	-4,0094	-34,323	14,627
41874	5,3957	-4,0132	-34,391	15,249
41875	5,8559	-3,5076	-34,736	14,966
41876	5,7955	-4,5055	-34,704	15,059
41877	6,6652	-4,0097	-33,54	13,895
41878	5,9764	-4,0141	-33,619	14,451
41879	6,3856	-3,5111	-33,926	14,222
41880	6,389	-4,5039	-33,936	14,259
41881	7,188	-4,0094	-32,731	13,268
41882	6,5321	-4,0188	-32,855	13,762
41883	6,9391	-3,5223	-33,145	13,549
41884	6,9411	-4,5058	-33,153	13,58
41885	7,6739	-4,0049	-31,891	12,718
41886	7,0272	-4,0122	-32,025	13,162
41887	7,428	-3,5018	-32,313	12,974
41888	7,444	-4,5037	-32,32	12,991
41889	8,1465	-4,0036	-31,052	12,224
41890	7,5049	-4,006	-31,197	12,628
41891	7,8997	-3,5004	-31,472	12,459
41892	7,9267	-4,5012	-31,488	12,469
41893	8,6085	-4,0063	-30,206	11,776
41894	7,9672	-4,0058	-30,359	12,145
41895	8,3622	-3,5024	-30,627	11,992
41896	8,3927	-4,5024	-30,642	11,999
41897	9,0644	-4,0105	-29,355	11,366
41898	8,421	-4,0079	-29,513	11,706
41899	8,8206	-3,5078	-29,781	11,565
41900	8,8472	-4,5038	-29,791	11,572
41901	9,5144	-4,0121	-28,498	10,991
41902	8,8694	-4,0099	-28,661	11,302
41903	9,2733	-3,5103	-28,926	11,172
41904	9,2976	-4,5067	-28,931	11,18
41905	9,9665	-4,0153	-27,64	10,645
41906	9,3151	-4,0101	-27,805	10,932
41907	9,7212	-3,5094	-28,068	10,813
41908	9,7401	-4,5054	-28,07	10,822
41909	10,425	-4,0191	-26,784	10,327
41910	9,7696	-4,0162	-26,952	10,59
41911	10,194	-3,5307	-27,213	10,474
41912	10,196	-4,5098	-27,214	10,49
41913	10,878	-4,016	-25,926	10,038
41914	10,223	-4,0146	-26,096	10,277
41915	11,08	-4,0174	-26,611	10,039
41916	10,653	-3,5287	-26,354	10,17
41917	10,654	-4,5093	-26,355	10,185
41918	11,334	-4,0154	-25,068	9,777
41919	10,674	-4,0119	-25,241	9,9945
41920	11,104	-3,5254	-25,498	9,8966
41921	11,105	-4,5067	-25,498	9,9121
41922	11,793	-4,0172	-24,21	9,5427
41923	11,132	-4,0135	-24,386	9,7381
41924	11,564	-3,5268	-24,639	9,6479
41925	11,565	-4,5087	-24,639	9,6634
41926	12,249	-4,0164	-23,354	9,3376
41927	11,589	-4,0156	-23,53	9,5107
41928	12,005	-3,5128	-23,787	9,4331
41929	12,021	-4,5085	-23,782	9,4445
41930	12,709	-4,0144	-22,502	9,1605
41931	12,046	-4,0176	-22,674	9,3127
41932	12,476	-3,526	-22,926	9,2379
41933	12,477	-4,5078	-22,927	9,254
41934	13,178	-4,015	-21,652	9,0115
41935	12,986	-4,0184	-20,984	9,0049
41936	13,402	-3,5137	-21,23	8,9426
41937	13,42	-4,5084	-21,23	8,9563
41938	12,513	-4,0167	-21,828	9,1436
41939	12,927	-3,5104	-22,081	9,0777
41940	12,942	-4,5066	-22,073	9,0907
41941	-7,943	-3,9504	1,5947	9,3199
41942	-8,545	-3,9414	1,6274	9,4963
41943	-8,1683	-3,3818	2,0025	9,3512
41944	-8,6027	-3,9446	2,4671	9,4303
41945	-8,1803	-4,4674	2,0153	9,3675
41946	-7,3919	-3,9808	0,68416	9,2214
41947	-8,0023	-3,9671	0,73861	9,3883
41948	-7,5526	-3,3734	1,1524	9,2452
41949	-7,6236	-4,4829	1,1228	9,2791
41950	-6,9014	-4,0018	-0,24929	9,1102
41951	-7,5181	-3,9875	-0,17194	9,2698
41952	-7,1477	-3,5316	0,29003	9,1752
41953	-7,1011	-4,4979	0,19158	9,1738
41954	-6,4545	-4,013	-1,1797	8,9754
41955	-7,0626	-3,9777	-1,1342	9,1223
41956	-6,7048	-3,5202	-0,75726	9,0511
41957	-6,6394	-4,5039	-0,75015	9,0511
41958	-6,0471	-4,0124	-2,1096	8,8156
41959	-6,6789	-4,0082	-1,9941	8,969
41960	-6,1805	-3,5074	-1,6173	8,8916
41961	-6,2299	-4,5091	-1,6836	8,905
41962	-5,6628	-3,9978	-3,0567	8,6293
41963	-6,3041	-4,0106	-2,91	8,7847
41964	-5,8591	-3,5528	-2,4921	8,7411
41965	-5,8411	-4,5033	-2,6141	8,7317
41966	-5,275	-4,0075	-3,9898	8,4198
41967	-5,9397	-3,9998	-3,8446	8,5739
41968	-5,4793	-3,6119	-3,5601	8,5257
41969	-5,4626	-4,4945	-3,5432	8,5335
41970	-4,8708	-4,0187	-4,8857	8,1966
41971	-5,5511	-4,0289	-4,7484	8,3448
41972	-5,0641	-3,5531	-4,4529	8,3072
41973	-5,0701	-4,513	-4,4515	8,3146
41974	-4,451	-4,0065	-5,7604	7,9632
41975	-5,1473	-4,013	-5,6204	8,1072
41976	-4,656	-3,6051	-5,3188	8,0761
41977	-4,6675	-4,5057	-5,338	8,0861
41978	-3,9858	-3,9972	-6,6224	7,7267
41979	-4,7086	-4,0107	-6,4792	7,8663
41980	-4,2526	-3,5237	-6,1728	7,8516
41981	-4,2344	-4,5008	-6,204	7,8491
41982	-3,4256	-4,011	-7,4359	7,5014
41983	-4,2104	-3,9951	-7,3411	7,6254
41984	-3,7162	-3,5303	-7,0921	7,6016
41985	-3,7566	-4,4964	-7,0788	7,6129
41986	-2,7825	-4,0302	-8,1545	7,3026
41987	-3,5025	-4,0647	-8,2305	7,37
41988	-3,0923	-3,505	-7,8804	7,3819
41989	-3,134	-4,5146	-7,826	7,3985
41990	-2,1423	-4,0396	-8,8703	7,1306
41991	-2,7857	-4,0422	-8,8149	7,1965
41992	-2,4672	-3,5847	-8,5041	7,2127
41993	-2,4516	-4,5155	-8,4888	7,2165
41994	-1,5701	-4,0511	-9,638	6,9907
41995	-2,1769	-4,0551	-9,5658	7,0415
41996	-1,8525	-3,54	-9,2457	7,0568
41997	-1,8329	-4,524	-9,2518	7,0554
41998	-1,0575	-4,0583	-10,407	6,8943
41999	-1,7017	-4,0477	-10,335	6,9334
42000	-1,3078	-3,5827	-10,028	6,937
42001	-1,3072	-4,527	-10,024	6,9371
42002	-0,52002	-4,0698	-11,136	6,8434
42003	-1,3202	-4,0531	-11,16	6,8699
42004	-0,87054	-3,5548	-10,781	6,8651
42005	-0,81697	-4,5313	-10,798	6,8626
42006	0,13105	-4,0855	-11,835	6,8368
42007	-0,71113	-4,1089	-11,925	6,8489
42008	-0,36869	-3,6188	-11,362	6,8373
42009	-0,22523	-4,5386	-11,486	6,8348
42010	0,8611	-4,0888	-12,519	6,8819
42011	0,26322	-4,0921	-12,547	6,8718
42012	0,51632	-3,6096	-12,183	6,8549
42013	0,4835	-4,5469	-12,177	6,8525
42014	1,5985	-4,0795	-13,185	6,9792
42015	1,012	-4,0729	-13,21	6,9557
42016	1,176	-3,5549	-12,817	6,9184
42017	1,2279	-4,5419	-12,85	6,9257
42018	2,3346	-4,0698	-13,837	7,1198
42019	1,7485	-4,0694	-13,898	7,0894
42020	1,9125	-3,5404	-13,489	7,0371
42021	1,9691	-4,5376	-13,521	7,0471
42022	3,0804	-4,0604	-14,459	7,2964
42023	2,4715	-4,053	-14,537	7,2594
42024	2,6575	-3,5377	-14,125	7,1952
42025	2,7001	-4,5322	-14,153	7,2066
42026	3,8424	-4,0449	-15,056	7,5009
42027	3,2257	-4,0416	-15,154	7,4618
42028	3,4207	-3,531	-14,742	7,3877
42029	3,4607	-4,5282	-14,766	7,401
42030	4,6275	-4,0412	-15,644	7,7283
42031	3,9982	-4,0294	-15,745	7,6856
42032	4,1943	-3,5184	-15,336	7,6043
42033	4,2329	-4,5167	-15,349	7,6173
42034	5,4354	-4,0476	-16,23	7,9716
42035	4,8008	-4,035	-16,336	7,9297
42036	4,9956	-3,5242	-15,929	7,843
42037	5,0311	-4,5245	-15,941	7,8573
42038	6,2353	-4,0286	-16,796	8,2113
42039	5,6119	-4,0357	-16,916	8,1786
42040	5,8061	-3,5242	-16,509	8,0876
42041	5,8398	-4,5231	-16,52	8,103
42042	7,048	-4,0177	-17,351	8,4417
42043	6,4097	-4,0107	-17,476	8,4168
42044	6,6101	-3,5054	-17,068	8,324
42045	6,6387	-4,5055	-17,08	8,3404
42046	7,883	-4,0297	-17,903	8,6559
42047	7,2425	-4,0331	-18,039	8,6452
42048	7,4437	-3,5169	-17,625	8,5507
42049	7,469	-4,5122	-17,633	8,5665
42050	8,7218	-4,0326	-18,439	8,8378
42051	8,0738	-4,036	-18,584	8,8438
42052	8,2983	-3,5542	-18,177	8,7537
42053	8,3008	-4,5174	-18,177	8,7667
42054	12,128	-4,0193	-20,488	9,0907
42055	12,321	-4,02	-21,16	9,1349
42056	12,556	-3,5304	-20,741	9,0594
42057	12,557	-4,5099	-20,74	9,0765
42058	9,5676	-4,0285	-18,959	8,9786
42059	8,9104	-4,0235	-19,111	9,0041
42060	9,1405	-3,5474	-18,701	8,9154
42061	9,1429	-4,5152	-18,701	8,9298
42062	11,273	-4,021	-19,983	9,1115
42063	11,463	-4,0205	-20,655	9,1915
42064	11,696	-3,5315	-20,239	9,1123
42065	11,698	-4,5094	-20,239	9,1289
42066	10,42	-4,0249	-19,474	9,0723
42067	9,7577	-4,0214	-19,632	9,1206
42068	9,9904	-3,5413	-19,217	9,0341
42069	9,9924	-4,5133	-19,217	9,0493
42070	10,612	-4,0241	-20,147	9,1852
42071	10,845	-3,5363	-19,731	9,1018
42072	10,847	-4,5117	-19,731	9,1179
42073	11,849	-4,0199	-22,001	9,2943
42074	11,656	-4,0213	-21,327	9,2383
42075	12,074	-3,5184	-21,581	9,2042
42076	12,085	-4,5101	-21,579	9,2189
42077	11,385	-4,0168	-22,85	9,485
42078	11,188	-4,0207	-22,169	9,4191
42079	11,613	-3,5301	-22,421	9,378
42080	11,614	-4,5098	-22,422	9,3944
42081	10,995	-4,0221	-21,495	9,3611
42082	10,802	-4,0235	-20,819	9,2682
42083	11,217	-3,5206	-21,076	9,2657
42084	11,228	-4,5111	-21,074	9,2808
42085	10,928	-4,0119	-23,705	9,7059
42086	10,732	-4,0179	-23,024	9,6317
42087	11,142	-3,5101	-23,282	9,5872
42088	11,159	-4,507	-23,278	9,5992
42089	10,535	-4,0219	-22,344	9,5645
42090	10,336	-4,0181	-21,659	9,4599
42091	10,762	-3,5337	-21,915	9,4504
42092	10,763	-4,511	-21,916	9,4668
42093	10,277	-4,0161	-23,876	9,8741
42094	10,472	-4,0099	-24,558	9,956
42095	10,682	-3,5064	-24,137	9,8241
42096	10,704	-4,5048	-24,132	9,8345
42097	10,081	-4,0222	-23,196	9,7993
42098	9,8817	-4,0202	-22,509	9,6852
42099	10,291	-3,5166	-22,772	9,6731
42100	10,306	-4,5109	-22,772	9,6869
42101	9,9495	-4,0205	-20,305	9,237
42102	10,143	-4,0195	-20,983	9,3646
42103	10,362	-3,52	-20,565	9,264
42104	10,376	-4,5124	-20,563	9,2787
42105	9,4333	-4,0244	-23,358	9,9415
42106	9,6274	-4,0183	-24,043	10,064
42107	9,8354	-3,5149	-23,622	9,9237
42108	9,8554	-4,5113	-23,62	9,9361
42109	9,1005	-4,0164	-19,784	9,15
42110	9,2938	-4,0156	-20,463	9,3084
42111	9,5049	-3,513	-20,049	9,2036
42112	9,5259	-4,5081	-20,046	9,218
42113	9,6832	-4,0165	-21,825	9,5791
42114	9,4869	-4,0146	-21,141	9,4388
42115	9,9099	-3,5329	-21,402	9,4599
42116	9,9114	-4,5071	-21,402	9,4758
42117	8,2623	-4,0268	-19,257	9,0143
42118	8,4491	-4,0122	-19,935	9,1983
42119	8,6603	-3,5129	-19,523	9,0897
42120	8,6815	-4,5082	-19,523	9,1044
42121	9,2342	-4,0224	-22,671	9,8266
42122	9,0344	-4,0156	-21,982	9,6748
42123	9,4562	-3,5354	-22,247	9,6911
42124	9,4579	-4,5093	-22,248	9,7072
42125	7,4332	-4,0394	-18,72	8,8374
42126	7,6186	-4,0241	-19,399	9,0421
42127	7,8269	-3,5267	-18,99	8,9311
42128	7,8467	-4,5186	-18,991	8,9457
42129	8,5889	-4,0207	-22,827	9,9437
42130	8,7913	-4,0269	-23,517	10,104
42131	9,0092	-3,5405	-23,096	9,9546
42132	9,0113	-4,513	-23,096	9,9709
42133	8,6424	-4,0114	-20,614	9,3598
42134	8,838	-4,0138	-21,299	9,5325
42135	9,0475	-3,5099	-20,882	9,4102
42136	9,0702	-4,5075	-20,881	9,4242
42137	6,6042	-4,026	-18,164	8,6244
42138	6,796	-4,0305	-18,852	8,8472
42139	6,9959	-3,522	-18,442	8,7337
42140	7,0197	-4,5208	-18,449	8,7493
42141	7,8054	-4,0095	-20,078	9,2295
42142	7,9968	-4,007	-20,764	9,4303
42143	8,2041	-3,5061	-20,35	9,3038
42144	8,2275	-4,5039	-20,35	9,318
42145	8,389	-4,0139	-22,137	9,7908
42146	8,1925	-4,0094	-21,448	9,6052
42147	8,5953	-3,5113	-21,72	9,6523
42148	8,6141	-4,5062	-21,719	9,6663
42149	6,9814	-4,0152	-19,532	9,0554
42150	7,1724	-4,0146	-20,22	9,279
42151	7,3739	-3,5091	-19,807	9,1491
42152	7,3969	-4,5056	-19,811	9,1642
42153	7,7495	-4,0128	-22,285	9,8842
42154	7,949	-4,0236	-22,981	10,082
42155	8,1487	-3,5106	-22,559	9,9268
42156	8,1683	-4,5076	-22,56	9,9414
42157	5,7863	-4,0178	-17,596	8,3882
42158	5,9715	-4,0121	-18,285	8,6192
42159	6,1684	-3,5047	-17,877	8,5057
42160	6,1979	-4,5052	-17,886	8,5216
42161	7,3638	-4,0122	-20,906	9,4823
42162	7,553	-4,0083	-21,596	9,6972
42163	7,7575	-3,5047	-21,18	9,5536
42164	7,7806	-4,5031	-21,182	9,5682
42165	6,1633	-4,0166	-18,973	8,8453
42166	6,3559	-4,0198	-19,664	9,0867
42167	6,5524	-3,5133	-19,254	8,9548
42168	6,5769	-4,5097	-19,259	8,9701
42169	6,5469	-4,0192	-20,352	9,3129
42170	6,7386	-4,0208	-21,046	9,5522
42171	6,9313	-3,5122	-20,634	9,4058
42172	6,9599	-4,5091	-20,635	9,4203
42173	6,9278	-4,0169	-21,736	9,7688
42174	7,117	-4,0148	-22,43	9,9965
42175	7,3147	-3,5067	-22,014	9,8374
42176	7,3396	-4,5052	-22,017	9,8526
42177	4,9773	-4,0231	-17,021	8,1402
42178	5,1705	-4,0358	-17,719	8,377
42179	5,358	-3,5119	-17,306	8,2623
42180	5,3884	-4,5126	-17,318	8,2781
42181	5,3557	-4,0301	-18,408	8,6113
42182	5,5406	-4,0134	-19,095	8,861
42183	5,7352	-3,5117	-18,687	8,729
42184	5,7643	-4,5069	-18,693	8,7438
42185	5,7332	-4,0166	-19,786	9,1049
42186	5,9267	-4,0219	-20,483	9,3635
42187	6,1149	-3,5135	-20,073	9,2148
42188	6,146	-4,5101	-20,076	9,2294
42189	6,1184	-4,0235	-21,176	9,6045
42190	6,3057	-4,0219	-21,872	9,8576
42191	6,4993	-3,5133	-21,457	9,6946
42192	6,5296	-4,5117	-21,462	9,7101
42193	4,3601	-4,0321	-17,13	8,1203
42194	4,1716	-4,0232	-16,437	7,89
42195	4,5458	-3,5109	-16,724	8,0103
42196	4,5787	-4,5105	-16,734	8,0241
42197	4,5532	-4,0447	-17,827	8,3598
42198	4,7534	-4,0482	-18,524	8,6179
42199	4,9293	-3,5259	-18,115	8,4845
42200	4,957	-4,5232	-18,126	8,4997
42201	4,9383	-4,0316	-19,211	8,8699
42202	5,117	-4,0141	-19,906	9,1387
42203	5,304	-3,5104	-19,498	8,989
42204	5,3372	-4,5065	-19,505	9,0049
42205	5,3105	-4,0194	-20,603	9,399
42206	5,4982	-4,0205	-21,302	9,6724
42207	5,6863	-3,5116	-20,889	9,5073
42208	5,7237	-4,5118	-20,896	9,5234
42209	3,7284	-4,0351	-17,243	8,1026
42210	3,9437	-4,0469	-17,932	8,3569
42211	4,1204	-3,5293	-17,526	8,2266
42212	4,1495	-4,5216	-17,529	8,2382
42213	3,5399	-4,0262	-16,55	7,8698
42214	3,3816	-4,0262	-15,843	7,6493
42215	3,7492	-3,5173	-16,134	7,7638
42216	3,7791	-4,5127	-16,148	7,7766
42217	4,1439	-4,0504	-18,629	8,6166
42218	4,3472	-4,0538	-19,328	8,8943
42219	4,5144	-3,5343	-18,916	8,7417
42220	4,5498	-4,5251	-18,923	8,757
42221	4,5259	-4,0363	-20,023	9,1649
42222	4,6979	-4,0129	-20,718	9,4486
42223	4,8791	-3,508	-20,31	9,2833
42224	4,921	-4,5076	-20,317	9,2998
42225	3,1111	-4,0328	-17,379	8,1086
42226	2,8793	-4,039	-16,656	7,8498
42227	3,2859	-3,5172	-16,944	7,9717
42228	3,309	-4,5135	-16,95	7,9819
42229	3,3264	-4,0446	-18,068	8,3646
42230	3,5376	-4,0442	-18,738	8,6317
42231	3,7348	-3,5806	-18,339	8,4875
42232	3,738	-4,5253	-18,334	8,4952
42233	3,7408	-4,0476	-19,438	8,9103
42234	3,9285	-4,0448	-20,134	9,2019
42235	4,1144	-3,6201	-19,751	9,0477
42236	4,1445	-4,5287	-19,734	9,0528
42237	2,7352	-4,0438	-18,201	8,3882
42238	2,258	-4,0795	-17,648	8,1529
42239	2,8767	-3,6007	-17,858	8,2648
42240	2,9139	-4,5193	-17,764	8,2388
42241	2,9464	-4,0434	-18,872	8,656
42242	3,1481	-4,0244	-19,533	8,9337
42243	3,269	-3,7576	-19,148	8,7786
42244	3,3437	-4,5189	-19,144	8,7886
42245	2,6168	-4,0342	-15,231	7,4266
42246	2,721	-4,0389	-15,949	7,6268
42247	2,9575	-3,5147	-15,524	7,5284
42248	2,9978	-4,5135	-15,549	7,5424
42249	2,2548	-4,0448	-18,443	8,46
42250	2,4982	-4,0358	-19,027	8,706
42251	2,5023	-3,5536	-18,612	8,5358
42252	2,5743	-4,5245	-18,598	8,5407
42253	1,8855	-4,0526	-14,597	7,2298
42254	2,0193	-4,0403	-15,337	7,4135
42255	2,2114	-3,5265	-14,903	7,3184
42256	2,249	-4,5208	-14,932	7,3312
42257	2,1235	-4,045	-16,054	7,6172
42258	2,0262	-4,0856	-16,924	7,8905
42259	2,3221	-3,5335	-16,223	7,6789
42260	2,487	-4,5255	-16,37	7,7398
42261	1,7776	-4,0804	-17,889	8,2281
42262	1,7671	-4,0292	-18,506	8,4704
42263	1,9307	-3,6081	-18,295	8,3854
42264	1,9645	-4,5202	-18,257	8,3825
42265	1,1621	-4,0629	-13,922	7,064
42266	1,2991	-4,0652	-14,65	7,2117
42267	1,4793	-3,5348	-14,251	7,1373
42268	1,528	-4,5318	-14,274	7,1463
42269	1,4329	-4,0529	-15,39	7,3958
42270	1,44	-4,0437	-16,132	7,6087
42271	1,7302	-3,5455	-15,725	7,5008
42272	1,7957	-4,5196	-15,753	7,5164
42273	1,3427	-4,0842	-17,003	7,8902
42274	1,2421	-4,0721	-17,788	8,1746
42275	1,5604	-3,7917	-17,438	8,0518
42276	1,7383	-4,5601	-17,393	8,0478
42277	-8,6042	-3,9581	0,77136	9,563
42278	-9,2333	-3,9703	0,79285	9,7706
42279	-8,8535	-3,4595	1,1827	9,6235
42280	-9,2163	-3,959	1,5962	9,7157
42281	-8,8491	-4,4739	1,2144	9,6367
42282	0,61312	-4,0727	-13,948	7,0523
42283	0,41415	-4,0762	-13,238	6,9432
42284	0,76009	-3,5486	-13,545	6,9907
42285	0,80184	-4,5311	-13,559	6,9957
42286	0,75016	-4,075	-14,676	7,1987
42287	0,791	-4,0536	-15,402	7,378
42288	1,0683	-3,5981	-15,031	7,2907
42289	1,0761	-4,5334	-15,038	7,2953
42290	0,79801	-4,0444	-16,144	7,5924
42291	0,81714	-4,0446	-16,944	7,8565
42292	1,0278	-3,6375	-16,5	7,71
42293	1,1444	-4,5241	-16,503	7,7194
42294	-8,1284	-3,9737	-0,11748	9,4355
42295	-8,7456	-3,9775	-5,3681e-002	9,6273
42296	-8,3713	-3,4892	0,28188	9,5068
42297	-8,3407	-4,4842	0,31974	9,5125
42298	0,17487	-4,079	-14,693	7,1948
42299	6,3296e-002	-4,0975	-14,	7,0548
42300	0,37489	-3,6336	-14,299	7,1132
42301	0,4301	-4,5416	-14,326	7,1202
42302	0,21571	-4,0576	-15,419	7,3741
42303	0,22841	-4,0474	-16,16	7,5893
42304	0,53553	-3,5845	-15,793	7,4814
42305	0,54649	-4,5202	-15,802	7,488
42306	-0,13567	-4,1009	-13,289	6,9476
42307	-0,57896	-4,1154	-12,637	6,8834
42308	9,8612e-002	-3,629	-12,845	6,8971
42309	3,1087e-002	-4,5451	-12,875	6,9004
42310	-7,6793	-3,9633	-1,0569	9,2811
42311	-8,3075	-3,9796	-0,92496	9,4724
42312	-7,8425	-3,4823	-0,56034	9,346
42313	-7,8736	-4,4896	-0,59963	9,3705
42314	-0,34553	-4,0899	-14,746	7,2082
42315	-0,32727	-4,0809	-15,438	7,3806
42316	-0,15271	-3,6468	-14,917	7,2501
42317	-4,4663e-002	-4,5374	-15,065	7,2843
42318	-0,4571	-4,1083	-14,052	7,0685
42319	-0,64742	-4,1176	-13,448	6,9756
42320	-0,29561	-3,6788	-13,655	6,9927
42321	-0,26905	-4,5558	-13,638	6,9979
42322	-7,287	-3,9729	-1,9486	9,1169
42323	-7,9088	-3,9628	-1,8841	9,2932
42324	-7,4603	-3,4724	-1,4907	9,202
42325	-7,4613	-4,4738	-1,5505	9,2077
42326	-0,80838	-4,1078	-14,228	7,1066
42327	-0,83673	-4,1143	-14,795	7,2283
42328	-0,58956	-3,6847	-14,337	7,1256
42329	-0,5891	-4,5525	-14,358	7,1299
42330	-6,9359	-4,0064	-2,7944	8,9385
42331	-7,5671	-3,995	-2,6759	9,1171
42332	-7,0617	-3,5058	-2,2947	9,0278
42333	-7,106	-4,4991	-2,387	9,0403
42334	-0,9987	-4,1171	-13,624	7,0099
42335	-1,233	-4,0979	-14,207	7,1169
42336	-0,93826	-3,7158	-13,974	7,0672
42337	-1,0008	-4,5553	-14,	7,071
42338	-6,5809	-4,0126	-3,6979	8,7298
42339	-7,2279	-3,9991	-3,5945	8,9041
42340	-6,8189	-3,5154	-3,1043	8,8748
42341	-6,7519	-4,5073	-3,2811	8,8423
42342	-1,0907	-4,1321	-12,796	6,9141
42343	-1,367	-4,1167	-13,387	6,9925
42344	-0,92653	-3,7371	-13,218	6,9529
42345	-0,99133	-4,5618	-13,222	6,9565
42346	-6,2157	-4,0212	-4,6032	8,4998
42347	-6,8671	-3,996	-4,4597	8,6762
42348	-6,4642	-3,5089	-4,1569	8,6327
42349	-6,3981	-4,5053	-4,1766	8,6226
42350	-1,5113	-4,0921	-11,95	6,8824
42351	-1,621	-4,0999	-12,6	6,9232
42352	-1,168	-3,706	-12,16	6,8752
42353	-1,081	-4,5703	-12,288	6,8763
42354	-5,8276	-4,0232	-5,4831	8,257
42355	-6,502	-4,0038	-5,3377	8,4331
42356	-6,0804	-3,5146	-5,0717	8,387
42357	-6,0155	-4,5159	-5,0513	8,3859
42358	-1,9644	-4,0425	-11,088	6,912
42359	-2,1354	-4,0455	-11,78	6,9209
42360	-1,771	-3,5457	-11,459	6,8925
42361	-1,6938	-4,5218	-11,481	6,8875
42362	-5,4049	-4,0172	-6,3392	8,0119
42363	-6,1074	-3,9926	-6,1953	8,1816
42364	-5,7082	-3,5684	-5,9135	8,1508
42365	-5,6194	-4,5073	-5,9258	8,1387
42366	-2,3085	-4,0517	-10,263	6,9843
42367	-2,4551	-4,0527	-10,961	6,9566
42368	-2,0741	-3,5828	-10,646	6,9388
42369	-2,0706	-4,5206	-10,647	6,9392
42370	-4,9332	-4,0087	-7,1979	7,7661
42371	-5,6778	-3,9953	-7,0533	7,9329
42372	-5,2088	-3,5089	-6,7312	7,9018
42373	-5,1952	-4,5099	-6,7977	7,8933
42374	-2,8203	-4,0577	-9,5104	7,1069
42375	-2,912	-4,0623	-10,207	7,0475
42376	-2,558	-3,5563	-9,8608	7,043
42377	-2,5208	-4,5311	-9,8797	7,0383
42378	-4,2873	-4,0488	-8,1357	7,4939
42379	-5,1499	-3,9913	-7,8832	7,6829
42380	-4,7131	-3,5178	-7,6062	7,653
42381	-4,6836	-4,4988	-7,6523	7,6453
42382	-3,5057	-4,0767	-8,8909	7,2676
42383	-3,4538	-4,0617	-9,5027	7,181
42384	-3,0517	-3,6798	-9,2119	7,1689
42385	-3,1199	-4,5266	-9,141	7,1874
42386	-3,9701	-4,0604	-9,0366	7,3085
42387	-4,5323	-4,0628	-8,7999	7,4301
42388	-3,9844	-3,643	-8,602	7,3738
42389	-3,956	-4,55	-8,6097	7,3721
42390	-3,9182	-4,0455	-9,6484	7,2267
42391	-4,4368	-4,0456	-9,586	7,3119
42392	-4,0054	-3,5849	-9,3896	7,2691
42393	-4,1145	-4,5104	-9,4423	7,2802
42394	-3,5455	-4,0663	-10,199	7,1237
42395	-4,1366	-4,068	-10,161	7,2087
42396	-3,6527	-3,6378	-9,7654	7,1762
42397	-3,7247	-4,5351	-9,9107	7,1744
42398	-3,0586	-4,0632	-10,905	7,0205
42399	-3,672	-4,0719	-10,863	7,0979
42400	-3,3244	-3,561	-10,495	7,0729
42401	-3,2724	-4,5312	-10,519	7,0667
42402	-2,6261	-4,0557	-11,653	6,9626
42403	-3,2121	-4,0662	-11,584	7,0248
42404	-2,8198	-3,602	-11,273	6,9839
42405	-2,814	-4,532	-11,276	6,9839
42406	-2,245	-4,0532	-12,431	6,9564
42407	-2,8394	-4,0435	-12,334	7,0046
42408	-2,4651	-3,5337	-12,02	6,9548
42409	-2,4007	-4,5237	-12,029	6,9503
42410	-1,8973	-4,0845	-13,192	6,9994
42411	-2,4595	-4,0451	-13,115	7,0329
42412	-2,0958	-3,5515	-12,824	6,9743
42413	-2,0175	-4,5296	-12,799	6,9676
42414	-1,6013	-4,0975	-13,97	7,0939
42415	-2,1145	-4,0879	-13,867	7,1082
42416	-1,7656	-3,5741	-13,577	7,0411
42417	-1,7426	-4,5549	-13,553	7,037
42418	-1,2614	-4,1045	-14,773	7,2379
42419	-1,801	-4,0633	-14,677	7,2419
42420	-1,4763	-3,5732	-14,383	7,1623
42421	-1,4451	-4,5427	-14,367	7,1609
42422	-0,81847	-4,1053	-15,488	7,402
42423	-1,3918	-4,1093	-15,461	7,4131
42424	-1,0927	-3,5857	-15,126	7,3155
42425	-1,0628	-4,5618	-15,159	7,3249
42426	-0,31457	-4,0706	-16,18	7,5962
42427	-0,91944	-4,079	-16,15	7,5967
42428	-0,62626	-3,5672	-15,798	7,4834
42429	-0,57417	-4,5435	-15,816	7,4927
42430	0,24753	-4,0476	-16,96	7,8542
42431	-0,41647	-4,0394	-16,886	7,8294
42432	-0,10207	-3,5304	-16,523	7,703
42433	-5,4977e-002	-4,5271	-16,543	7,7155
42434	0,7166	-4,0325	-17,729	8,142
42435	0,15742	-4,036	-17,685	8,119
42436	0,44708	-3,4416	-17,416	8,0171
42437	0,51085	-4,5205	-17,32	7,9904
42438	1,2316	-4,0209	-18,405	8,4161
42439	0,63886	-4,019	-18,416	8,4125
42440	0,81242	-3,4882	-17,979	8,2395
42441	0,93916	-4,512	-18,013	8,261
42442	2,0104	-4,0203	-19,09	8,7142
42443	1,3301	-4,0169	-19,084	8,701
42444	1,6339	-3,4687	-18,643	8,5253
42445	1,5025	-4,509	-18,756	8,5722
42446	2,6999	-4,0168	-19,689	8,9847
42447	2,1395	-4,0188	-19,762	9,0064
42448	2,4	-3,3054	-19,26	8,7915
42449	2,3342	-4,5113	-19,424	8,8728
42450	3,3358	-4,0216	-20,229	9,2254
42451	2,7756	-4,0413	-20,338	9,2692
42452	2,9517	-3,4374	-19,833	9,0494
42453	2,9721	-4,5055	-19,944	9,1091
42454	4,1006	-4,0214	-20,829	9,4865
42455	3,5258	-4,0469	-20,948	9,5423
42456	3,6703	-3,4029	-20,468	9,3315
42457	3,7329	-4,5161	-20,542	9,3768
42458	4,8856	-4,0141	-21,417	9,7228
42459	4,2792	-4,0155	-21,533	9,7885
42460	4,4585	-3,5033	-21,118	9,607
42461	4,5065	-4,5053	-21,131	9,6255
42462	5,6855	-4,019	-21,998	9,9263
42463	5,0786	-4,0325	-22,127	10,013
42464	5,2601	-3,5175	-21,71	9,8321
42465	5,2946	-4,5088	-21,715	9,8478
42466	6,495	-4,0198	-22,566	10,086
42467	5,8782	-4,0314	-22,703	10,195
42468	6,0662	-3,5177	-22,285	10,016
42469	6,0928	-4,5102	-22,288	10,031
42470	7,3165	-4,0255	-23,126	10,195
42471	6,6889	-4,0263	-23,263	10,326
42472	6,8801	-3,5156	-22,848	10,152
42473	6,9085	-4,5096	-22,849	10,166
42474	8,1514	-4,0298	-23,671	10,243
42475	7,5128	-4,0327	-23,823	10,403
42476	7,7097	-3,5221	-23,403	10,234
42477	7,7315	-4,516	-23,405	10,248
42478	9,8224	-4,0121	-24,725	10,146
42479	10,019	-4,0104	-25,411	10,235
42480	10,228	-3,5063	-24,988	10,089
42481	10,25	-4,5051	-24,986	10,099
42482	8,9853	-4,0208	-24,201	10,227
42483	8,3493	-4,0284	-24,36	10,412
42484	8,5691	-3,5428	-23,937	10,246
42485	8,5712	-4,5138	-23,938	10,263
42486	9,1755	-4,0144	-24,889	10,359
42487	9,3814	-3,5108	-24,469	10,204
42488	9,4034	-4,507	-24,467	10,216
42489	9,3722	-4,0127	-25,575	10,447
42490	9,5681	-4,0117	-26,264	10,543
42491	9,7742	-3,5079	-25,841	10,383
42492	9,7972	-4,5053	-25,839	10,392
42493	8,5396	-4,022	-25,048	10,543
42494	8,7296	-4,0158	-25,737	10,683
42495	8,9318	-3,5115	-25,316	10,514
42496	8,9583	-4,5074	-25,315	10,525
42497	7,7108	-4,0314	-24,512	10,572
42498	7,9061	-4,028	-25,202	10,751
42499	8,1251	-3,5453	-24,783	10,57
42500	8,1274	-4,5146	-24,783	10,587
42501	6,8853	-4,0335	-23,96	10,533
42502	7,0787	-4,0345	-24,659	10,752
42503	7,2918	-3,5518	-24,24	10,566
42504	7,2942	-4,5167	-24,241	10,583
42505	6,0721	-4,0379	-23,4	10,434
42506	6,2603	-4,0318	-24,094	10,683
42507	6,4747	-3,556	-23,682	10,494
42508	6,4769	-4,5167	-23,682	10,511
42509	5,2712	-4,0449	-22,832	10,282
42510	5,4507	-4,0354	-23,529	10,559
42511	5,6658	-3,5649	-23,119	10,367
42512	5,6678	-4,5212	-23,12	10,384
42513	4,4721	-4,0339	-22,243	10,079
42514	4,6499	-4,0335	-22,948	10,38
42515	4,8725	-3,5727	-22,542	10,189
42516	4,8746	-4,5237	-22,543	10,205
42517	3,7044	-4,041	-21,652	9,8444
42518	3,8562	-4,0208	-22,35	10,156
42519	4,0382	-3,5166	-21,935	9,9614
42520	4,0832	-4,5102	-21,949	9,9813
42521	2,9657	-4,0666	-21,057	9,5858
42522	3,1273	-4,0588	-21,767	9,911
42523	3,2831	-3,5224	-21,33	9,7067
42524	3,3392	-4,5308	-21,361	9,7339
42525	2,2153	-4,0433	-20,411	9,2921
42526	2,3751	-4,0701	-21,134	9,6255
42527	2,5355	-3,5539	-20,727	9,4346
42528	2,5922	-4,5358	-20,752	9,4602
42529	1,4592	-4,0153	-19,755	8,9913
42530	1,6505	-4,042	-20,457	9,3107
42531	1,8107	-3,4959	-20,058	9,1273
42532	1,837	-4,5075	-20,087	9,1537
42533	0,73733	-4,0149	-19,096	8,6963
42534	0,85597	-4,1391	-19,819	9,0178
42535	1,119	-3,499	-19,505	8,8777
42536	1,0648	-4,5079	-19,425	8,8512
42537	7,9674e-002	-4,0226	-18,373	8,3905
42538	3,6329e-002	-4,0302	-19,22	8,7469
42539	0,4082	-3,5324	-18,792	8,5643
42540	0,36273	-4,5071	-18,744	8,5516
42541	-0,50659	-4,0278	-17,612	8,0944
42542	-0,61756	-4,0279	-18,338	8,3791
42543	-0,22583	-3,4946	-17,948	8,2191
42544	-0,23552	-4,5155	-18,006	8,2504
42545	-1,0213	-4,0478	-16,857	7,8309
42546	-1,1365	-4,0342	-17,562	8,0853
42547	-0,80879	-3,5155	-17,222	7,953
42548	-0,76579	-4,5123	-17,24	7,9649
42549	-1,4928	-4,0829	-16,123	7,6084
42550	-1,6351	-4,0493	-16,801	7,8304
42551	-1,2975	-3,551	-16,472	7,7089
42552	-1,2544	-4,5355	-16,499	7,7214
42553	-1,9315	-4,068	-15,364	7,4151
42554	-2,0728	-4,0841	-16,066	7,618
42555	-1,7476	-3,5674	-15,737	7,5052
42556	-1,7209	-4,5474	-15,762	7,5151
42557	-2,3142	-4,0537	-14,573	7,2549
42558	-2,4965	-4,0584	-15,273	7,4279
42559	-2,1572	-3,5445	-14,959	7,3277
42560	-2,1229	-4,5206	-14,969	7,3308
42561	-2,6767	-4,0485	-13,79	7,1422
42562	-2,8674	-4,0677	-14,488	7,282
42563	-2,5168	-3,551	-14,177	7,1925
42564	-2,4864	-4,533	-14,181	7,1935
42565	-3,0539	-4,0353	-13,018	7,0807
42566	-3,2648	-4,032	-13,702	7,1862
42567	-2,8953	-3,5289	-13,395	7,1062
42568	-2,8432	-4,5155	-13,395	7,1032
42569	-3,4255	-4,0539	-12,264	7,0677
42570	-3,6483	-4,0389	-12,937	7,141
42571	-3,2801	-3,533	-12,626	7,0712
42572	-3,2208	-4,5198	-12,634	7,0669
42573	-3,8255	-4,0749	-11,542	7,1035
42574	-4,0214	-4,0677	-12,193	7,1423
42575	-3,6648	-3,5552	-11,866	7,084
42576	-3,6102	-4,5341	-11,891	7,0793
42577	-4,2631	-4,0737	-10,825	7,1839
42578	-4,455	-4,0783	-11,478	7,1965
42579	-4,0996	-3,5695	-11,13	7,1496
42580	-4,0407	-4,5407	-11,193	7,1397
42581	-4,6552	-4,0681	-10,098	7,2958
42582	-4,8964	-4,0696	-10,729	7,292
42583	-4,526	-3,596	-10,45	7,2461
42584	-4,4934	-4,533	-10,489	7,241
42585	-4,999	-4,0479	-9,3493	7,434
42586	-5,2713	-4,0676	-9,9861	7,4132
42587	-4,8414	-3,6184	-9,7665	7,3589
42588	-4,8608	-4,5352	-9,7534	7,3668
42589	-5,3949	-4,0053	-8,5474	7,6177
42590	-5,6397	-4,0297	-9,1884	7,5775
42591	-5,1688	-3,558	-8,9778	7,5118
42592	-5,1729	-4,5127	-8,9591	7,5202
42593	-5,8946	-3,978	-7,7386	7,8506
42594	-6,1199	-4,0124	-8,3863	7,7915
42595	-5,6312	-3,5074	-8,1631	7,7255
42596	-5,6168	-4,4925	-8,1357	7,732
42597	-6,3803	-3,9707	-6,9093	8,104
42598	-6,6394	-4,002	-7,5703	8,0441
42599	-6,176	-3,4974	-7,3252	7,9829
42600	-6,1724	-4,4854	-7,3415	7,9853
42601	-6,7817	-3,9732	-6,0499	8,3589
42602	-7,0932	-3,9797	-6,7401	8,3051
42603	-6,6336	-3,5081	-6,4731	8,2438
42604	-6,5883	-4,4853	-6,4772	8,2402
42605	-7,1533	-3,9786	-5,1942	8,6103
42606	-7,4744	-3,9982	-5,8647	8,5701
42607	-6,9643	-3,5492	-5,775	8,4589
42608	-6,9752	-4,4879	-5,6226	8,4957
42609	-7,5141	-3,9825	-4,3563	8,852
42610	-7,8245	-3,9909	-5,0213	8,822
42611	-7,2957	-3,5103	-4,7846	8,7191
42612	-7,3315	-4,4907	-4,7657	8,7436
42613	-7,8591	-3,9877	-3,476	9,0832
42614	-8,174	-3,9945	-4,1966	9,0656
42615	-7,7218	-3,4809	-3,9273	8,9794
42616	-7,6967	-4,4918	-3,9469	8,9802
42617	-8,1889	-3,985	-2,6114	9,2945
42618	-8,5016	-3,9994	-3,3176	9,2999
42619	-7,9499	-3,514	-2,9689	9,1839
42620	-8,0244	-4,4959	-3,0465	9,2057
42621	-9,3747	-3,9897	-3,2194e-002	9,8343
42622	-9,972	-4,005	1,1671e-002	10,055
42623	-9,645	-3,4579	0,34341	9,9253
42624	-9,8878	-3,9975	0,74086	10,005
42625	-9,5674	-4,4964	0,38211	9,917
42626	-8,5369	-3,9791	-1,7522	9,4828
42627	-8,8252	-3,9928	-2,518	9,5051
42628	-8,222	-3,4063	-2,1555	9,3544
42629	-8,3563	-4,4891	-2,2177	9,4024
42630	-8,9247	-3,9833	-0,86116	9,6633
42631	-9,5219	-4,0051	-0,80023	9,8742
42632	-9,1427	-3,4662	-0,41018	9,748
42633	-9,1075	-4,4933	-0,44648	9,7562
42634	-9,1647	-3,9991	-1,6	9,7058
42635	-8,5717	-3,3827	-1,2181	9,5344
42636	-8,7105	-4,4901	-1,3088	9,5881
42637	-10,119	-4,0204	-0,75637	10,094
42638	-10,72	-4,0314	-0,64093	10,344
42639	-10,261	-3,4684	-0,37426	10,16
42640	-10,538	-4,0365	1,1036e-002	10,274
42641	-10,292	-4,5086	-0,35821	10,194
42642	-9,7619	-4,0208	-1,5391	9,9166
42643	-10,364	-4,0231	-1,4091	10,161
42644	-9,9708	-3,4996	-1,1676	10,018
42645	-9,9119	-4,5118	-1,1648	10,015
42646	-9,4529	-4,0127	-2,3658	9,726
42647	-10,083	-4,0243	-2,1662	9,9863
42648	-9,575	-3,521	-1,9175	9,8178
42649	-9,6055	-4,509	-1,9499	9,8428
42650	-9,1379	-4,0073	-3,2242	9,5113
42651	-9,785	-4,0234	-3,0287	9,7711
42652	-9,2416	-3,5127	-2,8074	9,6026
42653	-9,2941	-4,5037	-2,8183	9,6352
42654	-8,8165	-4,0062	-4,0382	9,2819
42655	-9,4815	-4,0269	-3,8284	9,5431
42656	-8,947	-3,4538	-3,6308	9,3877
42657	-8,9817	-4,5035	-3,6301	9,4152
42658	-8,4845	-4,0029	-4,8616	9,0356
42659	-9,1541	-4,0236	-4,645	9,2907
42660	-8,6753	-3,5395	-4,4817	9,1593
42661	-8,6514	-4,5027	-4,4463	9,174
42662	-8,1456	-4,0105	-5,6918	8,782
42663	-8,8119	-4,0096	-5,4805	9,0252
42664	-8,3268	-3,5073	-5,277	8,912
42665	-8,3176	-4,5002	-5,2769	8,9217
42666	-7,7859	-4,0047	-6,5549	8,5163
42667	-8,4747	-4,0182	-6,3343	8,7572
42668	-7,9771	-3,5097	-6,1132	8,6544
42669	-7,9675	-4,5103	-6,1125	8,662
42670	-7,3523	-4,011	-7,4012	8,2455
42671	-8,0765	-4,0051	-7,1827	8,482
42672	-7,6232	-3,5153	-6,9946	8,3914
42673	-7,5982	-4,4944	-7,0031	8,3906
42674	-6,8646	-4,0364	-8,2181	7,9848
42675	-7,6222	-4,0398	-8,0464	8,2037
42676	-7,0243	-3,531	-7,7468	8,0994
42677	-7,1314	-4,5166	-7,8073	8,1251
42678	-6,3647	-4,0368	-9,0273	7,7511
42679	-7,0549	-4,0524	-8,9029	7,9274
42680	-6,6201	-3,5329	-8,6426	7,8619
42681	-6,6089	-4,5198	-8,6162	7,869
42682	-5,912	-4,0493	-9,8251	7,556
42683	-6,5597	-4,045	-9,6836	7,7103
42684	-6,1143	-3,6279	-9,3671	7,6481
42685	-6,1065	-4,517	-9,4177	7,6495
42686	-5,5124	-4,069	-10,617	7,4097
42687	-6,1344	-4,0624	-10,488	7,5452
42688	-5,6848	-3,6019	-10,212	7,47
42689	-5,7176	-4,5324	-10,233	7,4814
42690	9,1182	-4,0111	-27,117	10,88
42691	8,9255	-4,0148	-26,426	10,777
42692	9,3226	-3,5078	-26,693	10,706
42693	9,3466	-4,5064	-26,694	10,715
42694	-5,0883	-4,0742	-11,382	7,304
42695	-5,7189	-4,0701	-11,266	7,4233
42696	-5,332	-3,6049	-10,995	7,3619
42697	-5,3094	-4,5366	-11,009	7,3563
42698	8,485	-4,0195	-27,28	11,137
42699	8,6701	-4,0079	-27,968	11,248
42700	8,8703	-3,5042	-27,544	11,059
42701	8,8989	-4,5047	-27,547	11,068
42702	8,2922	-4,0232	-26,589	11,037
42703	8,0962	-4,0218	-25,892	10,889
42704	8,4861	-3,5137	-26,164	10,854
42705	8,5118	-4,5084	-26,164	10,865
42706	-4,6509	-4,0711	-12,128	7,2359
42707	-5,2799	-4,0705	-12,033	7,3387
42708	-4,8678	-3,6183	-11,758	7,2625
42709	-4,8692	-4,5375	-11,762	7,2668
42710	7,664	-4,0289	-26,739	11,264
42711	7,8533	-4,0232	-27,434	11,421
42712	8,0473	-3,5196	-27,014	11,224
42713	8,077	-4,5148	-27,016	11,234
42714	7,4679	-4,0274	-26,042	11,119
42715	7,274	-4,0311	-25,35	10,93
42716	7,6834	-3,5464	-25,625	10,923
42717	7,6859	-4,5134	-25,624	10,941
42718	-4,2442	-4,0526	-12,865	7,2159
42719	-4,8494	-4,0648	-12,782	7,3005
42720	-4,4333	-3,6037	-12,491	7,2169
42721	-4,4325	-4,5335	-12,494	7,2199
42722	6,8472	-4,0328	-26,185	11,315
42723	7,0334	-4,0259	-26,88	11,517
42724	7,2511	-3,5498	-26,466	11,305
42725	7,2536	-4,5141	-26,466	11,324
42726	6,6533	-4,0365	-25,492	11,129
42727	6,4537	-4,0328	-24,793	10,901
42728	6,8611	-3,5545	-25,077	10,93
42729	6,8633	-4,5177	-25,077	10,948
42730	-3,8592	-4,0356	-13,62	7,246
42731	-4,4634	-4,0371	-13,53	7,3146
42732	-4,0849	-3,5333	-13,224	7,2265
42733	-4,0418	-4,5191	-13,24	7,2256
42734	6,0355	-4,0385	-25,625	11,296
42735	6,2243	-4,0332	-26,32	11,536
42736	6,4414	-3,5574	-25,908	11,318
42737	6,4434	-4,5188	-25,907	11,338
42738	5,6389	-4,0293	-24,223	10,807
42739	5,8359	-4,0349	-24,926	11,07
42740	6,0182	-3,525	-24,508	10,868
42741	6,0491	-4,5151	-24,51	10,883
42742	-3,4554	-4,0513	-14,399	7,3247
42743	-4,0669	-4,0277	-14,302	7,3766
42744	-3,6848	-3,5326	-13,999	7,2795
42745	-3,6488	-4,5166	-14,007	7,2798
42746	4,8294	-4,024	-23,645	10,657
42747	5,0136	-4,023	-24,349	10,949
42748	5,2065	-3,5235	-23,934	10,743
42749	5,2359	-4,5142	-23,942	10,761
42750	5,2106	-4,0285	-25,051	11,21
42751	5,4066	-4,0324	-25,753	11,485
42752	5,6269	-3,5597	-25,343	11,266
42753	5,6276	-4,5198	-25,343	11,285
42754	-3,0497	-4,0724	-15,188	7,4537
42755	-3,6424	-4,0652	-15,096	7,4881
42756	-3,2887	-3,5426	-14,784	7,3831
42757	-3,2484	-4,5347	-14,795	7,3852
42758	4,034	-4,0204	-23,055	10,457
42759	4,224	-4,029	-23,772	10,775
42760	4,3994	-3,5188	-23,347	10,564
42761	4,4393	-4,5098	-23,36	10,584
42762	4,4082	-4,028	-24,475	11,066
42763	4,577	-4,0178	-25,172	11,369
42764	4,7665	-3,5145	-24,756	11,149
42765	4,807	-4,5087	-24,766	11,167
42766	-2,6379	-4,0744	-15,976	7,6289
42767	-3,2314	-4,0688	-15,884	7,6478
42768	-2,8773	-3,5645	-15,573	7,534
42769	-2,851	-4,5377	-15,581	7,5388
42770	3,279	-4,0386	-22,465	10,223
42771	3,4209	-4,0192	-23,167	10,549
42772	3,6059	-3,5145	-22,746	10,339
42773	3,6598	-4,5106	-22,767	10,363
42774	3,611	-4,0279	-23,883	10,865
42775	3,7953	-4,0328	-24,602	11,198
42776	3,9794	-3,5253	-24,176	10,973
42777	4,0228	-4,5192	-24,191	10,995
42778	-2,2151	-4,0505	-16,744	7,8401
42779	-2,8137	-4,0534	-16,666	7,8485
42780	-2,4622	-3,5516	-16,353	7,7273
42781	-2,4248	-4,5366	-16,371	7,736
42782	2,5367	-4,0623	-21,844	9,9499
42783	2,7014	-4,05	-22,584	10,302
42784	2,8603	-3,5444	-22,149	10,085
42785	2,9154	-4,528	-22,173	10,111
42786	2,8433	-4,0307	-23,286	10,627
42787	2,9857	-4,0181	-24,005	10,976
42788	3,1617	-3,5116	-23,561	10,743
42789	3,2176	-4,5087	-23,59	10,771
42790	-1,7503	-4,0357	-17,506	8,0848
42791	-2,3789	-4,0317	-17,43	8,0823
42792	-2,0268	-3,5317	-17,113	7,9534
42793	-1,9893	-4,5138	-17,131	7,9645
42794	1,9486	-4,0646	-21,9	9,9882
42795	1,8102	-4,0689	-21,179	9,6428
42796	2,1262	-3,5536	-21,485	9,7874
42797	2,1733	-4,5343	-21,527	9,8179
42798	2,1134	-4,0523	-22,641	10,338
42799	2,2476	-4,0371	-23,397	10,711
42800	2,417	-3,5433	-22,943	10,478
42801	2,4874	-4,522	-22,996	10,517
42802	-1,2475	-4,0343	-18,288	8,3706
42803	-1,8924	-4,0379	-18,209	8,3545
42804	-1,499	-3,5733	-17,887	8,2173
42805	-1,4951	-4,5219	-17,894	8,2274
42806	1,3961	-4,0812	-21,947	10,013
42807	1,5142	-4,0591	-22,704	10,386
42808	1,791	-3,6092	-22,133	10,102
42809	1,7541	-4,5303	-22,315	10,201
42810	1,0472	-4,1658	-20,521	9,3348
42811	1,2577	-4,0855	-21,226	9,6689
42812	1,3998	-3,6236	-20,817	9,4721
42813	1,4625	-4,5346	-20,843	9,4962
42814	-0,66091	-4,0354	-19,185	8,7354
42815	-1,4037	-4,0306	-19,003	8,6656
42816	-0,98194	-3,544	-18,694	8,5294
42817	-0,98256	-4,5123	-18,693	8,5369
42818	0,15496	-4,1543	-19,944	9,0678
42819	0,53576	-4,2155	-20,568	9,3589
42820	0,59285	-3,7615	-20,207	9,1849
42821	0,68767	-4,6312	-20,129	9,1639
42822	0,74627	-4,1353	-21,273	9,6901
42823	0,84005	-4,0975	-22,002	10,045
42824	1,0452	-3,7181	-21,632	9,8551
42825	1,0797	-4,5509	-21,619	9,8669
42826	-0,30282	-4,0339	-19,969	9,0833
42827	-0,86544	-4,0525	-19,915	9,0552
42828	-0,21915	-3,55	-19,693	8,9536
42829	-0,32905	-4,5231	-19,634	8,9385
42830	7,7987e-002	-4,0951	-20,593	9,368
42831	0,1684	-4,1351	-21,305	9,7037
42832	0,40565	-3,7203	-21,112	9,6138
42833	0,45931	-4,5843	-20,906	9,5238
42834	-0,30334	-4,0445	-20,79	9,4616
42835	-0,69901	-4,0573	-20,548	9,3474
42836	-0,2101	-3,5237	-20,484	9,3172
42837	-0,30446	-4,5108	-20,388	9,2822
42838	-0,21292	-4,0845	-21,502	9,7986
42839	-0,63013	-4,0377	-21,478	9,7858
42840	-0,21611	-3,6027	-21,257	9,6799
42841	-0,31646	-4,5337	-21,296	9,7081
42842	0,26218	-4,0974	-22,034	10,057
42843	-0,29147	-4,1308	-22,029	10,058
42844	-7,0667e-003	-3,6844	-21,635	9,8585
42845	2,89e-002	-4,5508	-21,608	9,8604
42846	0,95816	-4,0754	-22,759	10,417
42847	0,38406	-4,072	-22,792	10,437
42848	0,64391	-3,5985	-22,368	10,217
42849	0,64949	-4,5466	-22,417	10,261
42850	1,6484	-4,0439	-23,46	10,758
42851	0,96955	-4,0488	-23,52	10,809
42852	1,2605	-3,6114	-23,114	10,589
42853	1,3009	-4,5288	-23,14	10,62
42854	2,39	-4,0245	-24,117	11,059
42855	1,7405	-4,0128	-24,226	11,153
42856	1,94	-3,5362	-23,752	10,893
42857	2,0089	-4,5151	-23,808	10,938
42858	3,17	-4,023	-24,724	11,307
42859	2,4979	-4,0095	-24,84	11,428
42860	2,7221	-3,5152	-24,402	11,183
42861	2,7723	-4,5095	-24,436	11,216
42862	3,9641	-4,0226	-25,299	11,499
42863	3,3337	-4,0279	-25,418	11,644
42864	3,5325	-3,5239	-24,998	11,407
42865	3,5678	-4,5135	-25,012	11,431
42866	4,773	-4,0218	-25,874	11,641
42867	4,1411	-4,0144	-26,001	11,82
42868	4,3305	-3,5161	-25,579	11,582
42869	4,377	-4,5091	-25,591	11,602
42870	8,0384	-4,0116	-28,122	11,528
42871	8,2261	-4,0072	-28,819	11,647
42872	8,4266	-3,5034	-28,391	11,441
42873	8,4592	-4,5032	-28,399	11,449
42874	5,5954	-4,0271	-26,448	11,722
42875	4,9934	-4,0364	-26,574	11,926
42876	5,1534	-3,522	-26,16	11,698
42877	5,1961	-4,5127	-26,165	11,715
42878	7,2227	-4,0202	-27,575	11,671
42879	7,4119	-4,018	-28,273	11,838
42880	7,6046	-3,5125	-27,849	11,623
42881	7,6392	-4,5084	-27,857	11,634
42882	6,4104	-4,0263	-27,015	11,734
42883	5,8054	-4,0375	-27,15	11,972
42884	5,9687	-3,5212	-26,732	11,75
42885	6,0128	-4,5144	-26,736	11,762
42886	6,614	-4,0321	-27,717	11,943
42887	6,8191	-3,5507	-27,303	11,718
42888	6,822	-4,5118	-27,302	11,739
42889	7,7797	-4,0074	-29,666	12,081
42890	7,5995	-4,0136	-28,969	11,952
42891	7,9844	-3,505	-29,239	11,856
42892	8,0168	-4,504	-29,253	11,866
42893	7,3257	-4,0082	-30,504	12,556
42894	7,1502	-4,0101	-29,805	12,414
42895	7,5367	-3,5052	-30,08	12,308
42896	7,5674	-4,5034	-30,099	12,321
42897	6,97	-4,0164	-29,109	12,291
42898	6,8032	-4,0299	-28,415	12,106
42899	7,1679	-3,514	-28,688	12,056
42900	7,2016	-4,5096	-28,703	12,07
42901	6,6997	-4,0199	-30,637	12,919
42902	6,8582	-4,0133	-31,331	13,08
42903	7,084	-3,5099	-30,918	12,802
42904	7,1069	-4,5048	-30,934	12,821
42905	6,5242	-4,0219	-29,939	12,784
42906	6,3458	-4,0164	-29,239	12,587
42907	6,7251	-3,5126	-29,52	12,527
42908	6,7607	-4,5067	-29,534	12,541
42909	6,179	-4,03	-28,545	12,408
42910	6,009	-4,0434	-27,851	12,177
42911	6,4082	-3,564	-28,137	12,157
42912	6,4122	-4,5203	-28,136	12,179
42913	5,9069	-4,0321	-30,062	13,103
42914	6,0658	-4,036	-30,756	13,325
42915	6,2813	-3,5235	-30,354	13,042
42916	6,308	-4,5151	-30,362	13,061
42917	5,7285	-4,0266	-29,362	12,913
42918	5,5508	-4,0214	-28,665	12,666
42919	5,9201	-3,5195	-28,953	12,653
42920	5,9635	-4,5097	-28,96	12,666
42921	5,2034	-4,0468	-27,276	12,171
42922	5,3807	-4,0348	-27,971	12,441
42923	5,5538	-3,5297	-27,559	12,201
42924	5,6057	-4,5231	-27,566	12,213
42925	5,1356	-4,052	-29,476	13,18
42926	5,2886	-4,0454	-30,17	13,455
42927	5,4863	-3,5277	-29,77	13,173
42928	5,5224	-4,5169	-29,776	13,19
42929	4,3615	-4,0291	-26,701	12,099
42930	4,5879	-4,0269	-27,389	12,391
42931	4,7474	-3,5344	-26,982	12,154
42932	4,8011	-4,5238	-26,985	12,167
42933	4,7652	-4,0148	-28,084	12,655
42934	4,9578	-4,0468	-28,779	12,94
42935	5,1213	-3,5217	-28,375	12,687
42936	5,175	-4,5117	-28,38	12,699
42937	3,771	-4,0389	-26,807	12,278
42938	3,5107	-4,0197	-26,121	11,961
42939	3,8876	-3,5097	-26,413	12,05
42940	3,946	-4,5053	-26,418	12,067
42941	3,9975	-4,0368	-27,494	12,564
42942	4,2005	-4,045	-28,197	12,882
42943	4,3331	-3,505	-27,793	12,634
42944	4,3884	-4,5031	-27,798	12,65
42945	4,3932	-4,0769	-28,892	13,159
42946	4,5408	-4,0717	-29,577	13,472
42947	4,7085	-3,5483	-29,19	13,205
42948	4,7637	-4,5351	-29,188	13,216
42949	3,4825	-4,083	-27,601	12,74
42950	3,1075	-4,0727	-27,02	12,484
42951	3,5548	-3,3649	-27,183	12,497
42952	3,6203	-4,5336	-27,196	12,519
42953	3,6855	-4,0912	-28,303	13,052
42954	3,7986	-4,0801	-28,976	13,397
42955	3,9611	-3,5646	-28,606	13,139
42956	4,0264	-4,5419	-28,602	13,151
42957	3,0438	-4,099	-27,838	12,942
42958	3,1195	-4,104	-28,384	13,238
42959	3,3241	-3,5066	-28,016	12,981
42960	3,3447	-4,5493	-28,005	12,997
42961	2,6616	-4,0144	-25,534	11,762
42962	2,8471	-4,0534	-26,334	12,174
42963	3,0596	-3,5299	-25,821	11,871
42964	3,1232	-4,5144	-25,831	11,892
42965	2,6688	-4,0888	-27,258	12,693
42966	2,5438	-4,0988	-27,876	13,055
42967	2,707	-3,6522	-27,644	12,888
42968	2,7316	-4,5497	-27,642	12,911
42969	1,9576	-4,0181	-25,658	11,897
42970	1,8484	-3,9977	-24,949	11,52
42971	2,1818	-3,5233	-25,234	11,647
42972	2,2236	-4,5	-25,244	11,671
42973	2,1432	-4,0572	-26,458	12,304
42974	2,1973	-4,1742	-27,073	12,648
42975	2,4729	-3,6356	-26,843	12,48
42976	2,6146	-4,5391	-26,766	12,448
42977	1,517	-4,0591	-26,433	12,353
42978	1,0187	-4,0337	-25,801	12,009
42979	1,6783	-3,6906	-26,06	12,13
42980	1,7249	-4,5181	-26,008	12,119
42981	1,5712	-4,1761	-27,048	12,695
42982	1,257	-4,0457	-27,047	12,718
42983	1,0233	-4,0655	-26,641	12,493
42984	1,3735	-3,6035	-26,818	12,567
42985	1,336	-4,541	-26,743	12,557
42986	2,0723	-4,1842	-27,69	13,012
42987	1,579	-4,19	-27,66	13,053
42988	1,8464	-3,7204	-27,289	12,803
42989	1,8038	-4,6351	-27,304	12,842
42990	2,6195	-4,1038	-28,421	13,348
42991	2,0899	-4,0921	-28,401	13,429
42992	2,3774	-3,6511	-28,078	13,192
42993	2,2876	-4,5491	-28,061	13,218
42994	3,2326	-4,0929	-29,057	13,578
42995	2,6633	-4,1074	-29,103	13,75
42996	2,8681	-3,6101	-28,756	13,479
42997	2,8943	-4,5547	-28,763	13,519
42998	6,2243	-4,0294	-31,449	13,477
42999	6,3713	-4,0216	-32,149	13,666
43000	6,6123	-3,5128	-31,74	13,35
43001	6,6258	-4,5085	-31,752	13,376
43002	3,9462	-4,0749	-29,661	13,703
43003	3,3436	-4,0828	-29,727	13,947
43004	3,4903	-3,5813	-29,371	13,681
43005	3,5847	-4,5382	-29,357	13,685
43006	5,4475	-4,0494	-30,864	13,668
43007	5,5778	-4,0419	-31,553	13,926
43008	5,8181	-3,5321	-31,158	13,603
43009	5,8301	-4,5209	-31,166	13,633
43010	4,6938	-4,0651	-30,271	13,739
43011	4,0779	-4,0732	-30,348	14,052
43012	4,2897	-3,5542	-29,99	13,761
43013	4,3216	-4,5366	-29,972	13,773
43014	4,8171	-4,0574	-30,955	14,05
43015	5,0476	-3,5488	-30,573	13,734
43016	5,066	-4,5285	-30,571	13,759
43017	5,7248	-4,0341	-32,253	14,104
43018	5,8433	-4,0233	-32,934	14,332
43019	6,1182	-3,5435	-32,552	13,966
43020	6,123	-4,5131	-32,558	14,
43021	4,9474	-4,0499	-31,644	14,298
43022	5,0513	-4,0414	-32,324	14,602
43023	5,3205	-3,5673	-31,944	14,23
43024	5,3266	-4,521	-31,949	14,27
43025	4,2013	-4,0654	-31,032	14,353
43026	4,3017	-4,0571	-31,713	14,708
43027	4,5621	-3,591	-31,334	14,353
43028	4,5682	-4,5289	-31,339	14,389
43029	3,4754	-4,0811	-30,414	14,288
43030	3,5725	-4,0718	-31,094	14,683
43031	3,8284	-3,6139	-30,72	14,337
43032	3,8343	-4,5365	-30,725	14,379
43033	2,7744	-4,0973	-29,773	14,113
43034	2,8696	-4,0821	-30,456	14,53
43035	3,1647	-3,6264	-30,165	14,244
43036	3,1165	-4,5446	-30,103	14,258
43037	2,1338	-4,0957	-29,083	13,828
43038	2,1952	-4,0871	-29,788	14,271
43039	2,3932	-3,7078	-29,421	13,986
43040	2,4323	-4,5527	-29,443	14,026
43041	1,5966	-4,0979	-28,371	13,468
43042	1,5765	-4,0756	-29,068	13,91
43043	1,7647	-3,6605	-28,684	13,635
43044	1,8143	-4,543	-28,737	13,692
43045	1,2648	-4,0596	-27,659	13,075
43046	1,0726	-4,0827	-28,348	13,505
43047	1,3173	-3,6239	-28,008	13,268
43048	1,3141	-4,5548	-28,038	13,318
43049	0,93792	-4,0293	-26,894	12,646
43050	0,74459	-4,0287	-27,595	13,061
43051	1,1967	-3,5555	-27,32	12,871
43052	0,98783	-4,5047	-27,373	12,94
43053	1,0616	-4,0177	-24,286	11,202
43054	0,90948	-4,0133	-25,092	11,636
43055	1,4033	-3,5084	-24,611	11,363
43056	1,4731	-4,4977	-24,654	11,402
43057	0,52501	-4,0402	-26,009	12,159
43058	0,26453	-4,0497	-26,731	12,566
43059	0,71947	-3,5501	-26,475	12,411
43060	0,61778	-4,5246	-26,516	12,459
43061	0,39545	-4,0454	-23,553	10,829
43062	0,291	-4,0372	-24,293	11,22
43063	0,5964	-3,5039	-23,902	11,008
43064	0,71404	-4,52	-23,946	11,047
43065	0,13888	-4,0328	-25,099	11,659
43066	-6,3068e-002	-4,0262	-25,815	12,049
43067	0,27434	-3,5652	-25,556	11,903
43068	0,39309	-4,5156	-25,517	11,904
43069	-0,1696	-4,1054	-22,787	10,435
43070	-0,10889	-4,0998	-23,63	10,87
43071	0,15456	-3,5976	-23,197	10,642
43072	0,14084	-4,5254	-23,189	10,653
43073	-0,21334	-4,0916	-24,37	11,264
43074	-0,47384	-4,0309	-25,008	11,599
43075	-0,18861	-3,4656	-24,775	11,471
43076	-2,7514e-002	-4,5172	-24,655	11,431
43077	-0,70868	-4,084	-22,005	10,046
43078	-0,64269	-4,1421	-22,789	10,44
43079	-0,43753	-3,7147	-22,429	10,247
43080	-0,42862	-4,58	-22,426	10,267
43081	-0,58198	-4,1365	-23,632	10,873
43082	-0,82822	-4,094	-24,307	11,216
43083	-0,42372	-3,6243	-24,131	11,13
43084	-0,44362	-4,5744	-23,974	11,065
43085	-1,0258	-4,0506	-21,237	9,6733
43086	-1,2172	-4,0333	-21,963	10,021
43087	-0,85231	-3,5391	-21,645	9,8677
43088	-0,8952	-4,504	-21,67	9,8902
43089	-1,1512	-4,0914	-22,747	10,413
43090	-1,2787	-4,0863	-23,46	10,766
43091	-0,74773	-3,644	-23,129	10,604
43092	-0,92879	-4,5621	-23,152	10,632
43093	-1,2616	-4,0759	-20,495	9,3268
43094	-1,4977	-4,082	-21,166	9,6362
43095	-1,1133	-3,5653	-20,92	9,5182
43096	-1,1143	-4,5465	-20,849	9,4986
43097	-1,6891	-4,0648	-21,892	9,9858
43098	-1,8578	-4,0582	-22,61	10,33
43099	-1,4901	-3,5592	-22,305	10,184
43100	-1,4823	-4,5293	-22,281	10,187
43101	-1,6083	-4,0476	-19,733	8,9867
43102	-1,8211	-4,0545	-20,415	9,2904
43103	-1,4634	-3,5446	-20,135	9,1611
43104	-1,3971	-4,5294	-20,1	9,1553
43105	-2,0572	-4,0606	-21,085	9,6027
43106	-2,2585	-4,0631	-21,802	9,9329
43107	-1,9093	-3,549	-21,498	9,7912
43108	-1,881	-4,5355	-21,483	9,7979
43109	-2,0487	-4,0342	-18,925	8,6501
43110	-2,2241	-4,0387	-19,622	8,9456
43111	-1,8563	-3,5261	-19,32	8,8078
43112	-1,7913	-4,5182	-19,316	8,8151
43113	-2,437	-4,0456	-20,304	9,251
43114	-2,641	-4,0492	-21,006	9,5624
43115	-2,2274	-3,5819	-20,694	9,4193
43116	-2,2333	-4,5251	-20,688	9,4292
43117	-2,5211	-4,0339	-18,133	8,3516
43118	-2,6796	-4,0377	-18,835	8,6304
43119	-2,3287	-3,5226	-18,52	8,4917
43120	-2,2765	-4,516	-18,53	8,5029
43121	-2,855	-4,0421	-19,532	8,9263
43122	-3,0521	-4,0406	-20,229	9,222
43123	-2,6414	-3,5629	-19,922	9,0835
43124	-2,6407	-4,5205	-19,919	9,0934
43125	-2,9774	-4,0347	-17,351	8,09
43126	-3,133	-4,0422	-18,051	8,3475
43127	-2,7844	-3,5275	-17,736	8,2132
43128	-2,7395	-4,5179	-17,748	8,2228
43129	-3,2915	-4,046	-18,752	8,6256
43130	-3,4741	-4,0433	-19,45	8,9062
43131	-3,0708	-3,5672	-19,144	8,7688
43132	-3,0693	-4,5216	-19,145	8,7795
43133	-3,4072	-4,0479	-16,574	7,8659
43134	-3,5796	-4,0431	-17,267	8,0992
43135	-3,2262	-3,5323	-16,956	7,9706
43136	-3,1938	-4,5168	-16,968	7,9792
43137	-3,7352	-4,0507	-17,966	8,355
43138	-3,9145	-4,0465	-18,66	8,6159
43139	-3,5132	-3,5761	-18,356	8,4815
43140	-3,5138	-4,5244	-18,359	8,4918
43141	-3,8242	-4,0616	-15,792	7,6802
43142	-4,0047	-4,0582	-16,484	7,8882
43143	-3,6439	-3,5469	-16,177	7,7663
43144	-3,6118	-4,5311	-16,187	7,7723
43145	-4,1771	-4,0534	-17,176	8,1194
43146	-4,3584	-4,0492	-17,869	8,3594
43147	-3,9543	-3,5814	-17,57	8,2287
43148	-3,9566	-4,5263	-17,573	8,238
43149	-10,965	-4,0341	-1,2936	10,409
43150	-11,596	-4,1673	-1,1611	10,707
43151	-10,975	-3,5325	-0,9654	10,429
43152	-11,281	-4,0492	-0,5713	10,578
43153	-11,104	-4,5228	-0,98595	10,51
43154	-4,2539	-4,0416	-14,998	7,5376
43155	-4,4315	-4,0577	-15,692	7,7175
43156	-4,0725	-3,537	-15,385	7,6021
43157	-4,0365	-4,5305	-15,397	7,6064
43158	-4,612	-4,0543	-16,384	7,9228
43159	-4,7934	-4,0506	-17,073	8,1385
43160	-4,4269	-3,5404	-16,772	8,0136
43161	-4,3976	-4,5271	-16,78	8,0206
43162	-10,685	-4,0267	-2,0362	10,229
43163	-11,312	-4,0311	-1,863	10,52
43164	-10,784	-3,5638	-1,6664	10,303
43165	-10,83	-4,5113	-1,6929	10,342
43166	-4,6711	-4,0291	-14,211	7,4436
43167	-4,8756	-4,0194	-14,889	7,5928
43168	-4,4987	-3,5142	-14,591	7,4848
43169	-4,4552	-4,5112	-14,605	7,4866
43170	-5,0532	-4,0355	-15,584	7,769
43171	-5,2394	-4,0396	-16,271	7,9586
43172	-4,8596	-3,536	-15,976	7,8386
43173	-4,8265	-4,5272	-15,988	7,8446
43174	-10,415	-4,035	-2,8291	10,028
43175	-11,057	-4,0391	-2,6283	10,325
43176	-10,452	-3,5959	-2,3359	10,101
43177	-10,554	-4,5153	-2,4516	10,151
43178	-5,0686	-4,0492	-13,446	7,3982
43179	-5,2827	-4,0315	-14,109	7,5165
43180	-4,8971	-3,5305	-13,812	7,4152
43181	-4,8581	-4,518	-13,829	7,4162
43182	-5,4872	-4,0218	-14,786	7,6628
43183	-5,6852	-4,0171	-15,465	7,8239
43184	-5,3027	-3,5118	-15,173	7,7093
43185	-5,2646	-4,5082	-15,187	7,7135
43186	-10,129	-4,043	-3,633	9,8006
43187	-10,778	-4,0404	-3,4611	10,086
43188	-10,318	-3,6028	-3,2161	9,9373
43189	-10,271	-4,5196	-3,257	9,931
43190	-5,4784	-4,0642	-12,686	7,4018
43191	-5,679	-4,0593	-13,345	7,4882
43192	-5,2649	-3,5963	-13,066	7,3911
43193	-5,2663	-4,5313	-13,069	7,3964
43194	-5,8931	-4,0416	-14,007	7,6039
43195	-6,106	-4,0259	-14,672	7,7365
43196	-5,7205	-3,5183	-14,383	7,6278
43197	-5,6836	-4,5136	-14,4	7,6309
43198	-9,8191	-4,0442	-4,4352	9,5498
43199	-10,48	-4,0547	-4,2094	9,8427
43200	-10,033	-3,6331	-3,9686	9,7114
43201	-9,9722	-4,5234	-4,053	9,6893
43202	-5,9105	-4,0664	-11,917	7,4558
43203	-6,1063	-4,0617	-12,57	7,5108
43204	-5,6876	-3,6023	-12,3	7,4201
43205	-5,6905	-4,5329	-12,303	7,4253
43206	-6,3069	-4,0568	-13,229	7,5941
43207	-6,5121	-4,0524	-13,893	7,6964
43208	-6,0892	-3,5864	-13,619	7,5891
43209	-6,0917	-4,528	-13,621	7,5959
43210	-9,4816	-4,0303	-5,2639	9,2782
43211	-10,151	-4,0512	-5,0265	9,5646
43212	-9,7029	-3,6084	-4,9113	9,4202
43213	-9,6542	-4,5209	-4,8605	9,4291
43214	-6,3409	-4,0635	-11,136	7,5569
43215	-6,5432	-4,0627	-11,791	7,5835
43216	-6,1622	-3,5587	-11,484	7,5015
43217	-6,1305	-4,5335	-11,53	7,5049
43218	-6,739	-4,058	-12,445	7,6352
43219	-6,9427	-4,054	-13,104	7,7073
43220	-6,5191	-3,5887	-12,836	7,6051
43221	-6,522	-4,5288	-12,838	7,6127
43222	-9,1411	-4,0172	-6,123	8,9987
43223	-9,8152	-4,0276	-5,8586	9,28
43224	-9,3145	-3,5332	-5,6855	9,1409
43225	-9,3063	-4,5094	-5,6842	9,1525
43226	-6,7821	-4,058	-10,346	7,6978
43227	-6,9815	-4,0534	-10,996	7,7027
43228	-6,5465	-3,6124	-10,767	7,6182
43229	-6,5513	-4,53	-10,742	7,6254
43230	-7,1838	-4,0527	-11,651	7,726
43231	-7,3866	-4,0474	-12,308	7,7696
43232	-6,9858	-3,5464	-12,014	7,6786
43233	-6,9559	-4,5292	-12,053	7,6785
43234	-8,7654	-4,0186	-6,9621	8,7209
43235	-9,4702	-4,0283	-6,6832	8,9988
43236	-9,0433	-3,5635	-6,5523	8,884
43237	-8,9759	-4,5079	-6,5618	8,8729
43238	-7,2499	-4,0606	-9,5591	7,8859
43239	-7,4041	-4,056	-10,219	7,8528
43240	-7,1705	-3,6361	-9,9431	7,8231
43241	-6,9806	-4,528	-9,9385	7,7844
43242	-7,6034	-4,0515	-10,869	7,8554
43243	-7,8205	-4,0514	-11,529	7,8759
43244	-7,4315	-3,5437	-11,215	7,7947
43245	-7,395	-4,5235	-11,257	7,7913
43246	-8,3464	-4,0339	-7,828	8,438
43247	-9,0954	-4,0655	-7,4734	8,7281
43248	-8,6384	-3,614	-7,3442	8,6121
43249	-8,5549	-4,5107	-7,3624	8,5926
43250	-7,8124	-4,0558	-8,7312	8,1444
43251	-7,842	-4,0657	-9,443	8,0523
43252	-7,6515	-3,5465	-9,2167	8,0268
43253	-7,4566	-4,5326	-9,1453	7,9979
43254	-7,9962	-4,0611	-10,103	8,0169
43255	-8,2394	-4,0579	-10,759	8,0207
43256	-7,8461	-3,5542	-10,442	7,9458
43257	-7,7952	-4,528	-10,488	7,9359
43258	-8,5145	-4,067	-8,7387	8,3325
43259	-8,7757	-4,0779	-8,3066	8,4842
43260	-8,1804	-3,6097	-8,4126	8,2913
43261	-8,138	-4,5232	-8,2936	8,3082
43262	-8,5441	-4,0769	-9,4505	8,2431
43263	-8,6566	-4,0679	-10,022	8,2009
43264	-8,2408	-3,6106	-9,7562	8,1174
43265	-8,1972	-4,5331	-9,7171	8,1199
43266	-9,1105	-4,0974	-9,0136	8,468
43267	-9,2154	-4,0969	-9,4611	8,4303
43268	-8,8324	-3,6314	-9,02	8,3818
43269	-8,7962	-4,5438	-9,1573	8,3609
43270	-9,3717	-4,1083	-8,5814	8,614
43271	-9,6646	-4,1144	-8,9998	8,6348
43272	-9,3079	-3,6957	-8,7743	8,561
43273	-9,304	-4,5536	-8,8139	8,5635
43274	-9,5247	-4,1095	-7,952	8,7705
43275	-9,8657	-4,1044	-8,4083	8,7984
43276	-9,4051	-3,7399	-8,3195	8,6658
43277	-9,3575	-4,5547	-8,282	8,669
43278	-9,8003	-4,0752	-7,1945	9,0026
43279	-10,127	-4,1213	-7,6936	9,0172
43280	-9,6276	-3,7468	-7,5696	8,8738
43281	-9,6183	-4,5548	-7,5867	8,8785
43282	-10,144	-4,0386	-6,4188	9,2763
43283	-10,478	-4,0496	-6,934	9,2903
43284	-9,9764	-3,6481	-6,8132	9,1362
43285	-9,9646	-4,5204	-6,8046	9,1483
43286	-10,485	-4,0485	-5,6212	9,5629
43287	-10,835	-4,0446	-6,1732	9,5819
43288	-10,322	-3,6483	-6,0172	9,4197
43289	-10,324	-4,5182	-6,033	9,434
43290	-10,812	-4,0616	-4,8007	9,8539
43291	-11,146	-4,0683	-5,3595	9,8766
43292	-10,64	-3,7079	-5,2697	9,6916
43293	-10,657	-4,5303	-5,2364	9,7235
43294	-11,13	-4,052	-4,0376	10,126
43295	-11,473	-4,0584	-4,5577	10,176
43296	-10,976	-3,6224	-4,3069	10,015
43297	-10,982	-4,5313	-4,4271	10,011
43298	-11,942	-4,1643	-1,7304	10,815
43299	-12,548	-4,1612	-1,4824	11,143
43300	-11,86	-3,5657	-1,447	10,795
43301	-12,19	-4,3323	-1,0242	10,996
43302	-12,085	-4,6445	-1,3588	10,94
43303	-11,42	-4,0446	-3,2603	10,379
43304	-11,795	-4,0451	-3,8369	10,452
43305	-11,286	-3,5601	-3,579	10,268
43306	-11,28	-4,5208	-3,6831	10,271
43307	-11,684	-4,0436	-2,4551	10,613
43308	-12,301	-4,0295	-2,2157	10,942
43309	-11,719	-3,4942	-2,0628	10,673
43310	-11,821	-4,5198	-2,1002	10,742
43311	-12,072	-4,0505	-3,0192	10,721
43312	-11,554	-3,5641	-2,8204	10,502
43313	-11,558	-4,5238	-2,8662	10,524
43314	-12,907	-4,0264	-1,9677	11,262
43315	-13,547	-4,0404	-1,6802	11,648
43316	-13,029	-3,5203	-1,5581	11,363
43317	-13,135	-4,041	-1,155	11,457
43318	-13,056	-4,5167	-1,6023	11,412
43319	-12,69	-4,0364	-2,7798	11,043
43320	-13,325	-4,0367	-2,4862	11,425
43321	-12,81	-3,4996	-2,3434	11,163
43322	-12,815	-4,5097	-2,3821	11,194
43323	-12,446	-4,051	-3,5957	10,788
43324	-13,099	-4,0533	-3,3218	11,168
43325	-12,567	-3,5273	-3,1475	10,922
43326	-12,584	-4,5267	-3,2008	10,952
43327	-12,137	-4,0514	-4,357	10,498
43328	-12,819	-4,0503	-4,1142	10,87
43329	-12,277	-3,542	-3,929	10,644
43330	-12,309	-4,5243	-3,9907	10,673
43331	-11,807	-4,0652	-5,1164	10,193
43332	-12,477	-4,0505	-4,8632	10,547
43333	-11,931	-3,5682	-4,6794	10,344
43334	-11,986	-4,5271	-4,744	10,371
43335	-11,497	-4,0644	-5,9114	9,8903
43336	-12,156	-4,0656	-5,6548	10,224
43337	-11,637	-3,6402	-5,4929	10,04
43338	-11,672	-4,538	-5,5346	10,064
43339	-11,169	-4,0555	-6,6884	9,5922
43340	-11,841	-4,0601	-6,4483	9,9096
43341	-11,341	-3,6503	-6,3199	9,7376
43342	-11,348	-4,5263	-6,3144	9,7592
43343	-10,805	-4,0957	-7,4332	9,3009
43344	-11,498	-4,0631	-7,204	9,6033
43345	-10,986	-3,6768	-7,0886	9,4347
43346	-10,992	-4,5292	-7,0635	9,4595
43347	-10,468	-4,1162	-8,1499	9,0413
43348	-11,108	-4,1243	-7,9451	9,3036
43349	-10,527	-3,7392	-7,7354	9,1394
43350	-10,638	-4,5665	-7,7941	9,1813
43351	-10,159	-4,1104	-8,8266	8,8172
43352	-10,764	-4,1083	-8,6517	9,0455
43353	-10,256	-3,7269	-8,459	8,9119
43354	-10,342	-4,5497	-8,4924	8,9461
43355	-9,7695	-4,1139	-9,4473	8,5986
43356	-10,419	-4,1129	-9,3451	8,8131
43357	-9,9249	-3,6593	-9,1703	8,6856
43358	-9,9992	-4,5608	-9,1562	8,7225
43359	-9,3278	-4,0879	-10,033	8,391
43360	-9,9862	-4,1005	-9,9704	8,588
43361	-9,5428	-3,5666	-9,7286	8,4886
43362	-9,5397	-4,5531	-9,7384	8,4976
43363	-8,8998	-4,0646	-10,678	8,2049
43364	-9,5496	-4,0689	-10,591	8,3895
43365	-9,1142	-3,6232	-10,312	8,2955
43366	-9,0978	-4,5348	-10,342	8,2987
43367	-8,4566	-4,0578	-11,419	8,039
43368	-9,1147	-4,0587	-11,298	8,2129
43369	-8,703	-3,5724	-10,98	8,1221
43370	-8,6674	-4,5299	-11,04	8,1212
43371	-8,0234	-4,0462	-12,186	7,916
43372	-8,6646	-4,0535	-12,067	8,0677
43373	-8,2634	-3,5498	-11,761	7,9766
43374	-8,2295	-4,528	-11,809	7,9756
43375	-7,5903	-4,0434	-12,966	7,8372
43376	-8,2405	-4,0393	-12,829	7,9722
43377	-7,84	-3,5318	-12,536	7,8748
43378	-7,8093	-4,5182	-12,572	7,8771
43379	-7,1479	-4,0496	-13,768	7,8055
43380	-7,7899	-4,0474	-13,632	7,9183
43381	-7,3612	-3,5777	-13,367	7,811
43382	-7,3633	-4,5252	-13,37	7,8194
43383	-6,725	-4,0368	-14,558	7,8253
43384	-7,3503	-4,0453	-14,433	7,916
43385	-6,9299	-3,5751	-14,163	7,8054
43386	-6,9325	-4,5244	-14,166	7,814
43387	-6,304	-4,0213	-15,35	7,8936
43388	-6,9341	-4,0236	-15,225	7,9646
43389	-6,5375	-3,5212	-14,943	7,8524
43390	-6,5025	-4,5124	-14,956	7,8567
43391	-5,8714	-4,0212	-16,152	8,0093
43392	-6,5022	-4,018	-16,028	8,0601
43393	-6,1121	-3,5126	-15,745	7,9445
43394	-6,0768	-4,5089	-15,757	7,9504
43395	-5,4207	-4,0358	-16,96	8,1708
43396	-6,0506	-4,0325	-16,843	8,2028
43397	-5,6734	-3,5219	-16,548	8,0821
43398	-5,6415	-4,5123	-16,559	8,0898
43399	-4,9747	-4,0464	-17,765	8,3759
43400	-5,6005	-4,0435	-17,652	8,3886
43401	-5,2184	-3,5399	-17,357	8,2647
43402	-5,1892	-4,5235	-17,365	8,2737
43403	-4,5377	-4,045	-18,562	8,6186
43404	-5,1631	-4,0429	-18,456	8,6153
43405	-4,7579	-3,5709	-18,162	8,4886
43406	-4,7602	-4,5229	-18,165	8,499
43407	-4,0971	-4,0438	-19,357	8,8957
43408	-4,7204	-4,0421	-19,258	8,8776
43409	-4,3138	-3,5682	-18,958	8,7481
43410	-4,3152	-4,5221	-18,96	8,7592
43411	-3,6713	-4,0418	-20,146	9,2024
43412	-4,2858	-4,0422	-20,056	9,1723
43413	-3,8786	-3,5658	-19,755	9,042
43414	-3,879	-4,5217	-19,755	9,0535
43415	-3,2561	-4,0443	-20,931	9,5348
43416	-3,8744	-4,033	-20,842	9,4916
43417	-3,4948	-3,5305	-20,538	9,3607
43418	-3,461	-4,5202	-20,539	9,3735
43419	-2,8423	-4,0517	-21,722	9,8944
43420	-3,4555	-4,0368	-21,633	9,8394
43421	-3,0773	-3,5388	-21,329	9,7079
43422	-3,0486	-4,5241	-21,324	9,719
43423	-2,4272	-4,0565	-22,52	10,278
43424	-3,0335	-4,0424	-22,431	10,214
43425	-2,6632	-3,539	-22,127	10,08
43426	-2,6361	-4,5276	-22,121	10,093
43427	-1,9852	-4,0532	-23,323	10,685
43428	-2,5999	-4,0522	-23,23	10,61
43429	-2,2257	-3,5422	-22,93	10,477
43430	-2,2184	-4,529	-22,919	10,488
43431	-1,5249	-4,0437	-24,134	11,114
43432	-2,1441	-4,045	-24,031	11,029
43433	-1,7586	-3,582	-23,714	10,883
43434	-1,7603	-4,5242	-23,722	10,905
43435	-1,0887	-4,0332	-24,945	11,557
43436	-1,6928	-4,0354	-24,841	11,47
43437	-1,3024	-3,56	-24,519	11,316
43438	-1,2984	-4,5195	-24,526	11,34
43439	-0,67579	-4,0243	-25,724	11,994
43440	-1,2699	-4,0238	-25,649	11,924
43441	-0,94	-3,5004	-25,356	11,775
43442	-0,85197	-4,5137	-25,31	11,775
43443	-0,32354	-4,0357	-26,537	12,462
43444	-0,86491	-4,0193	-26,443	12,384
43445	-0,46879	-3,5367	-26,108	12,205
43446	-0,47195	-4,5106	-26,1	12,226
43447	7,1196e-002	-4,0491	-27,432	12,987
43448	-0,48995	-4,0414	-27,319	12,908
43449	-0,18614	-3,5518	-26,95	12,692
43450	-0,17513	-4,5251	-26,974	12,733
43451	0,55235	-4,0519	-28,283	13,496
43452	-1,2478e-003	-4,0417	-28,207	13,457
43453	0,27172	-3,6031	-27,873	13,242
43454	0,27405	-4,524	-27,905	13,292
43455	1,0525	-4,0604	-29,045	13,947
43456	0,50185	-4,048	-29,012	13,961
43457	0,73846	-3,5547	-28,725	13,755
43458	0,76363	-4,5279	-28,709	13,779
43459	1,638	-4,0669	-29,773	14,349
43460	1,0589	-4,0519	-29,76	14,422
43461	1,3152	-3,5503	-29,361	14,115
43462	1,3194	-4,5325	-29,436	14,204
43463	2,2904	-4,0719	-30,471	14,681
43464	1,6999	-4,0606	-30,483	14,83
43465	1,937	-3,5834	-30,091	14,504
43466	1,9512	-4,5344	-30,142	14,576
43467	2,9667	-4,0728	-31,136	14,917
43468	2,3551	-4,071	-31,166	15,152
43469	2,7434	-3,5789	-30,866	14,809
43470	2,6158	-4,5375	-30,815	14,864
43471	3,6729	-4,0635	-31,775	15,027
43472	3,0313	-4,069	-31,824	15,372
43473	3,367	-3,6064	-31,456	14,961
43474	3,3107	-4,5353	-31,464	15,045
43475	5,1698	-4,0305	-33,004	14,816
43476	5,2738	-4,018	-33,687	15,093
43477	5,5627	-3,5375	-33,308	14,671
43478	5,569	-4,5102	-33,316	14,714
43479	4,4056	-4,0485	-32,393	15,
43480	3,7487	-4,0529	-32,453	15,442
43481	4,0602	-3,6016	-32,054	15,009
43482	4,0351	-4,5282	-32,087	15,087
43483	4,4861	-4,0382	-33,071	15,366
43484	4,793	-3,539	-32,71	14,934
43485	4,7832	-4,5203	-32,702	14,988
43486	4,5901	-4,0256	-33,754	15,625
43487	4,6687	-4,0203	-34,436	15,979
43488	4,9699	-3,5387	-34,065	15,495
43489	4,9841	-4,5078	-34,065	15,535
43490	3,8291	-4,0425	-33,131	15,794
43491	3,9016	-4,0372	-33,806	16,223
43492	4,1392	-3,5477	-33,485	15,821
43493	4,2064	-4,5178	-33,442	15,803
43494	3,107	-4,0584	-32,501	15,774
43495	3,173	-4,0511	-33,183	16,258
43496	3,3946	-3,5859	-32,838	15,871
43497	3,4681	-4,5247	-32,82	15,869
43498	2,4196	-4,0672	-31,854	15,598
43499	2,4656	-4,0658	-32,545	16,12
43500	2,7136	-3,6118	-32,215	15,749
43501	2,7518	-4,5337	-32,184	15,768
43502	1,7646	-4,0597	-31,178	15,294
43503	1,8045	-4,0705	-31,885	15,829
43504	2,0676	-3,5669	-31,516	15,461
43505	2,0828	-4,5335	-31,528	15,517
43506	1,1209	-4,0456	-30,47	14,898
43507	1,1623	-4,0662	-31,199	15,436
43508	1,4341	-3,6174	-30,841	15,112
43509	1,4332	-4,5262	-30,845	15,163
43510	0,50823	-4,0395	-29,727	14,435
43511	0,53354	-4,0368	-30,457	14,949
43512	0,79995	-3,5299	-30,107	14,668
43513	0,80315	-4,5194	-30,129	14,727
43514	-5,1744e-002	-4,0379	-28,936	13,923
43515	-4,5586e-002	-4,0532	-29,695	14,428
43516	0,11593	-3,5482	-29,338	14,174
43517	0,21784	-4,5201	-29,361	14,228
43518	-0,5624	-4,0341	-28,094	13,38
43519	-0,60508	-4,0388	-28,868	13,862
43520	-0,3133	-3,5951	-28,531	13,645
43521	-0,32449	-4,5177	-28,532	13,683
43522	-1,0313	-4,025	-27,225	12,835
43523	-1,1433	-4,0244	-28,008	13,287
43524	-0,80667	-3,5594	-27,658	13,093
43525	-0,81524	-4,5163	-27,654	13,12
43526	-1,459	-4,0188	-26,368	12,319
43527	-1,6288	-4,0122	-27,121	12,723
43528	-1,2521	-3,5321	-26,788	12,56
43529	-1,2579	-4,5087	-26,787	12,585
43530	-1,8739	-4,026	-25,545	11,841
43531	-2,0569	-4,0178	-26,277	12,213
43532	-1,6618	-3,5338	-25,946	12,064
43533	-1,6601	-4,5101	-25,95	12,09
43534	-2,312	-4,0366	-24,738	11,388
43535	-2,4966	-4,0282	-25,451	11,734
43536	-2,09	-3,5518	-25,135	11,601
43537	-2,0877	-4,5159	-25,14	11,625
43538	-2,7589	-4,044	-23,938	10,957
43539	-2,931	-4,0392	-24,645	11,288
43540	-2,5359	-3,566	-24,332	11,159
43541	-2,5363	-4,5208	-24,336	11,181
43542	-3,2062	-4,0381	-23,141	10,548
43543	-3,3731	-4,0437	-23,846	10,866
43544	-3,0109	-3,5379	-23,543	10,743
43545	-2,9814	-4,5233	-23,54	10,761
43546	-3,6467	-4,0275	-22,342	10,16
43547	-3,8221	-4,0359	-23,047	10,466
43548	-3,4541	-3,5249	-22,744	10,345
43549	-3,4241	-4,5148	-22,743	10,362
43550	-4,0738	-4,0256	-21,544	9,7971
43551	-4,2531	-4,0335	-22,249	10,091
43552	-3,8883	-3,5177	-21,944	9,9691
43553	-3,8539	-4,5127	-21,946	9,9859
43554	-4,4889	-4,0334	-20,751	9,4617
43555	-4,6816	-4,0328	-21,448	9,7396
43556	-4,3114	-3,5182	-21,145	9,6193
43557	-4,276	-4,5129	-21,15	9,6356
43558	-4,9091	-4,0405	-19,956	9,1531
43559	-5,102	-4,0394	-20,651	9,417
43560	-4,6909	-3,5626	-20,357	9,3
43561	-4,6926	-4,5205	-20,357	9,3125
43562	-5,3458	-4,04	-19,152	8,8722
43563	-5,5434	-4,0344	-19,839	9,119
43564	-5,1236	-3,5612	-19,555	9,0041
43565	-5,1256	-4,52	-19,556	9,0161
43566	-5,7889	-4,04	-18,343	8,625
43567	-5,9863	-4,0327	-19,027	8,8544
43568	-5,5638	-3,5615	-18,747	8,7391
43569	-5,5661	-4,52	-18,748	8,7506
43570	-6,2304	-4,0402	-17,536	8,4166
43571	-6,4239	-4,0373	-18,22	8,6274
43572	-6,0092	-3,5619	-17,937	8,5108
43573	-6,0118	-4,5201	-17,938	8,5218
43574	-6,6815	-4,0293	-16,72	8,2488
43575	-6,8672	-4,0373	-17,407	8,4384
43576	-6,4463	-3,5623	-17,132	8,3231
43577	-6,449	-4,5201	-17,133	8,3338
43578	-7,1323	-4,0203	-15,902	8,1263
43579	-7,3321	-4,0176	-16,578	8,2908
43580	-6,9327	-3,5172	-16,299	8,1786
43581	-6,9017	-4,5091	-16,311	8,1869
43582	-7,5593	-4,0322	-15,099	8,0506
43583	-7,7703	-4,022	-15,767	8,1903
43584	-7,3707	-3,5162	-15,49	8,0809
43585	-7,3382	-4,5112	-15,503	8,0876
43586	-7,9922	-4,0432	-14,297	8,0236
43587	-8,1948	-4,0392	-14,966	8,1362
43588	-7,7659	-3,5648	-14,698	8,0258
43589	-7,768	-4,521	-14,701	8,036
43590	-8,4401	-4,0434	-13,495	8,0481
43591	-8,6439	-4,042	-14,158	8,1329
43592	-8,2152	-3,5686	-13,891	8,0257
43593	-8,2165	-4,5222	-13,894	8,0359
43594	-8,8818	-4,0466	-12,711	8,1203
43595	-9,0912	-4,0437	-13,358	8,1787
43596	-8,6862	-3,536	-13,067	8,0795
43597	-8,6604	-4,5211	-13,102	8,0849
43598	-9,3227	-4,0543	-11,946	8,2382
43599	-9,5373	-4,048	-12,575	8,2723
43600	-9,1233	-3,5485	-12,28	8,1756
43601	-9,0952	-4,5255	-12,328	8,1792
43602	-9,7645	-4,0629	-11,211	8,3964
43603	-9,9786	-4,0587	-11,824	8,4083
43604	-9,5399	-3,6203	-11,552	8,3101
43605	-9,5381	-4,5288	-11,579	8,3186
43606	-10,208	-4,0815	-10,529	8,5872
43607	-10,428	-4,0685	-11,103	8,585
43608	-10,01	-3,6815	-10,856	8,4933
43609	-9,9788	-4,5341	-10,867	8,4939
43610	-10,636	-4,0995	-9,8682	8,802
43611	-10,865	-4,0866	-10,404	8,7932
43612	-10,395	-3,6096	-10,209	8,6795
43613	-10,433	-4,5474	-10,202	8,7033
43614	-11,025	-4,1108	-9,1702	9,0385
43615	-11,285	-4,0993	-9,7104	9,0274
43616	-10,799	-3,6217	-9,4957	8,9058
43617	-10,839	-4,5522	-9,5339	8,9275
43618	-11,404	-4,1165	-8,4469	9,3045
43619	-11,685	-4,1063	-8,979	9,2924
43620	-11,161	-3,7072	-8,8156	9,1448
43621	-11,25	-4,5586	-8,8104	9,1919
43622	-11,8	-4,0918	-7,7158	9,6019
43623	-12,083	-4,105	-8,2462	9,5874
43624	-11,563	-3,7064	-8,0661	9,4357
43625	-11,633	-4,5578	-8,0861	9,4742
43626	-13,965	-4,0507	-2,1987	11,799
43627	-14,536	-4,0298	-1,8397	12,189
43628	-14,029	-3,5232	-1,736	11,892
43629	-14,127	-4,0391	-1,3092	11,99
43630	-14,076	-4,5237	-1,7838	11,956
43631	-12,169	-4,0678	-6,9638	9,9159
43632	-12,494	-4,0673	-7,4904	9,9169
43633	-11,92	-3,6056	-7,3647	9,7211
43634	-12,009	-4,534	-7,3414	9,7812
43635	-13,734	-4,0536	-3,0282	11,538
43636	-14,333	-4,0349	-2,6955	11,94
43637	-13,821	-3,5284	-2,5888	11,658
43638	-13,854	-4,527	-2,6136	11,712
43639	-12,5	-4,0614	-6,1917	10,237
43640	-12,835	-4,062	-6,7219	10,247
43641	-12,268	-3,5872	-6,5793	10,043
43642	-12,353	-4,5338	-6,5854	10,099
43643	-13,471	-4,0526	-3,8403	11,241
43644	-14,095	-4,0404	-3,5336	11,642
43645	-13,573	-3,5367	-3,4146	11,377
43646	-13,614	-4,5266	-3,4429	11,43
43647	-12,826	-4,0509	-5,4016	10,572
43648	-13,17	-4,0526	-5,9357	10,595
43649	-12,61	-3,5545	-5,7973	10,377
43650	-12,69	-4,5276	-5,811	10,434
43651	-13,158	-4,0494	-4,6204	10,913
43652	-13,834	-4,0521	-4,3516	11,318
43653	-13,279	-3,5437	-4,2065	11,061
43654	-13,328	-4,526	-4,2377	11,111
43655	-13,514	-4,0502	-5,1419	10,96
43656	-12,948	-3,549	-4,997	10,721
43657	-13,008	-4,5234	-5,0161	10,773
43658	-14,904	-4,014	-2,3365	12,313
43659	-15,533	-4,0226	-1,9909	12,758
43660	-14,988	-3,5025	-1,8979	12,427
43661	-14,885	-4,0193	-1,4266	12,421
43662	-15,032	-4,5061	-1,9032	12,505
43663	-14,693	-4,0217	-3,2008	12,029
43664	-15,31	-4,0192	-2,8726	12,466
43665	-14,787	-3,5084	-2,7735	12,165
43666	-14,836	-4,508	-2,7843	12,24
43667	-14,458	-4,0399	-4,0449	11,706
43668	-15,075	-4,0303	-3,7308	12,133
43669	-14,544	-3,5203	-3,6215	11,85
43670	-14,595	-4,5138	-3,6323	11,919
43671	-14,19	-4,053	-4,873	11,356
43672	-14,841	-4,0514	-4,5785	11,78
43673	-14,34	-3,5787	-4,4661	11,535
43674	-14,341	-4,5261	-4,4654	11,574
43675	-13,858	-4,0519	-5,6759	10,976
43676	-14,523	-4,053	-5,4007	11,378
43677	-14,04	-3,5811	-5,2816	11,165
43678	-14,04	-4,5269	-5,2805	11,2
43679	-13,505	-4,0532	-6,4659	10,598
43680	-14,182	-4,0521	-6,2052	10,977
43681	-13,689	-3,5822	-6,0736	10,782
43682	-13,69	-4,525	-6,0719	10,813
43683	-13,159	-4,0616	-7,2484	10,242
43684	-13,834	-4,0566	-7,0033	10,589
43685	-13,345	-3,5899	-6,8624	10,416
43686	-13,346	-4,5282	-6,8602	10,444
43687	-12,776	-4,0805	-8,0207	9,8972
43688	-13,471	-4,0635	-7,7891	10,221
43689	-12,988	-3,6014	-7,6368	10,067
43690	-12,99	-4,5334	-7,6342	10,093
43691	-12,363	-4,0948	-8,7783	9,5712
43692	-13,043	-4,0852	-8,5712	9,8582
43693	-12,536	-3,6729	-8,3925	9,7149
43694	-12,596	-4,5471	-8,3994	9,7561
43695	-11,945	-4,0949	-9,5192	9,2772
43696	-12,619	-4,0914	-9,3291	9,5369
43697	-12,094	-3,6802	-9,1703	9,3894
43698	-12,185	-4,5477	-9,1475	9,4443
43699	-11,515	-4,0863	-10,247	9,0154
43700	-12,191	-4,087	-10,077	9,2487
43701	-11,69	-3,6037	-9,8739	9,1255
43702	-11,757	-4,5472	-9,885	9,1622
43703	-11,086	-4,0736	-10,978	8,7885
43704	-11,763	-4,0717	-10,817	9,
43705	-11,249	-3,5937	-10,623	8,8759
43706	-11,315	-4,5392	-10,612	8,9127
43707	-10,642	-4,0642	-11,716	8,5944
43708	-11,314	-4,0606	-11,56	8,7843
43709	-10,871	-3,6047	-11,344	8,6826
43710	-10,873	-4,5344	-11,35	8,6987
43711	-10,193	-4,0524	-12,453	8,4387
43712	-10,853	-4,057	-12,317	8,6037
43713	-10,428	-3,5814	-12,05	8,5095
43714	-10,411	-4,5299	-12,081	8,519
43715	-9,7467	-4,0451	-13,222	8,3258
43716	-10,411	-4,0401	-13,066	8,4717
43717	-9,9924	-3,5416	-12,784	8,3789
43718	-9,9699	-4,5225	-12,835	8,385
43719	-9,295	-4,0423	-14,021	8,258
43720	-9,9507	-4,0429	-13,871	8,3799
43721	-9,5185	-3,5701	-13,616	8,2809
43722	-9,5186	-4,5225	-13,62	8,293
43723	-8,8465	-4,038	-14,827	8,2398
43724	-9,5009	-4,0374	-14,678	8,339
43725	-9,0706	-3,5617	-14,42	8,2382
43726	-9,0714	-4,5198	-14,423	8,2501
43727	-8,4058	-4,029	-15,633	8,2708
43728	-9,055	-4,0308	-15,487	8,3469
43729	-8,6201	-3,5561	-15,229	8,2441
43730	-8,6216	-4,5182	-15,231	8,2558
43731	-7,9701	-4,0193	-16,443	8,3497
43732	-8,6093	-4,026	-16,303	8,403
43733	-8,2093	-3,5162	-16,028	8,3013
43734	-8,182	-4,5108	-16,039	8,3107
43735	-7,5178	-4,0256	-17,266	8,4751
43736	-8,1744	-4,0146	-17,116	8,5052
43737	-7,7675	-3,5162	-16,843	8,4024
43738	-7,7414	-4,5085	-16,855	8,4133
43739	-7,0607	-4,0344	-18,092	8,6452
43740	-7,7074	-4,0318	-17,95	8,6534
43741	-7,283	-3,5528	-17,68	8,55
43742	-7,2853	-4,5171	-17,681	8,5619
43743	-6,6213	-4,03	-18,904	8,8538
43744	-7,2585	-4,0321	-18,773	8,8426
43745	-6,864	-3,5259	-18,489	8,7387
43746	-6,8361	-4,5172	-18,502	8,7524
43747	-6,1838	-4,0272	-19,714	9,0989
43748	-6,8291	-4,0188	-19,582	9,0665
43749	-6,4314	-3,5138	-19,3	8,9649
43750	-6,4003	-4,5127	-19,311	8,9794
43751	-5,7363	-4,0333	-20,533	9,3815
43752	-6,3732	-4,0304	-20,406	9,3309
43753	-5,9887	-3,5159	-20,116	9,2281
43754	-5,9552	-4,5144	-20,127	9,2446
43755	-5,2948	-4,0388	-21,348	9,6945
43756	-5,9254	-4,0357	-21,23	9,6286
43757	-5,5463	-3,5213	-20,935	9,5257
43758	-5,5114	-4,5188	-20,945	9,5438
43759	-4,8609	-4,0408	-22,153	10,033
43760	-5,4874	-4,0378	-22,04	9,9521
43761	-5,1083	-3,5282	-21,744	9,8502
43762	-5,0781	-4,52	-21,751	9,8692
43763	-4,4285	-4,0419	-22,954	10,397
43764	-5,0487	-4,0393	-22,848	10,303
43765	-4,6415	-3,564	-22,555	10,206
43766	-4,6437	-4,5208	-22,555	10,222
43767	-3,989	-4,0415	-23,753	10,786
43768	-4,6116	-4,0397	-23,654	10,681
43769	-4,2113	-3,5645	-23,352	10,58
43770	-4,2132	-4,5211	-23,354	10,598
43771	-3,5453	-4,0388	-24,553	11,2
43772	-4,1698	-4,0387	-24,456	11,082
43773	-3,7636	-3,5631	-24,151	10,981
43774	-3,7648	-4,5204	-24,153	11,001
43775	-3,1156	-4,0308	-25,358	11,638
43776	-3,7296	-4,0355	-25,26	11,51
43777	-3,3262	-3,5577	-24,95	11,405
43778	-3,3258	-4,5184	-24,954	11,427
43779	-2,6796	-4,02	-26,183	12,111
43780	-3,3045	-4,0257	-26,07	11,965
43781	-2,9477	-3,5102	-25,767	11,854
43782	-2,898	-4,5124	-25,761	11,88
43783	-2,2268	-4,0112	-27,029	12,622
43784	-2,8623	-4,014	-26,894	12,453
43785	-2,512	-3,4972	-26,602	12,344
43786	-2,4537	-4,5077	-26,603	12,377
43787	-1,7408	-4,0115	-27,904	13,179
43788	-2,3818	-4,0042	-27,777	13,01
43789	-2,0596	-3,4887	-27,451	12,867
43790	-2,0008	-4,5035	-27,462	12,909
43791	-1,1859	-4,0291	-28,781	13,77
43792	-1,8417	-4,0171	-28,678	13,62
43793	-1,5123	-3,4824	-28,358	13,464
43794	-1,4817	-4,508	-28,353	13,496
43795	3,9802	-4,0319	-34,488	16,557
43796	4,0287	-4,028	-35,158	17,006
43797	4,3003	-3,5569	-34,834	16,516
43798	4,3493	-4,5126	-34,794	16,502
43799	-0,59892	-4,0541	-29,627	14,366
43800	-1,2136	-4,0518	-29,641	14,318
43801	-0,87662	-3,5736	-29,215	14,063
43802	-0,89014	-4,5211	-29,21	14,094
43803	3,2455	-4,0458	-33,858	16,67
43804	3,2903	-4,04	-34,535	17,2
43805	3,6276	-3,5427	-34,194	16,665
43806	3,6071	-4,5194	-34,169	16,723
43807	-2,0269e-002	-4,0505	-30,425	14,94
43808	-0,59064	-4,0442	-30,396	14,897
43809	-0,34166	-3,5102	-30,042	14,649
43810	-0,3077	-4,5331	-30,043	14,695
43811	2,5316	-4,0586	-33,227	16,59
43812	2,5783	-4,0505	-33,907	17,16
43813	2,8438	-3,5317	-33,535	16,68
43814	2,8839	-4,5264	-33,547	16,736
43815	0,575	-4,0574	-31,187	15,483
43816	-7,5473e-004	-4,0542	-31,173	15,498
43817	0,27493	-3,5273	-30,807	15,201
43818	0,27282	-4,5175	-30,821	15,262
43819	1,8505	-4,0692	-32,577	16,341
43820	1,8872	-4,0631	-33,262	16,925
43821	2,1763	-3,6002	-32,902	16,486
43822	2,1793	-4,5321	-32,907	16,558
43823	1,2022	-4,077	-31,907	15,965
43824	0,60277	-4,072	-31,908	16,057
43825	0,88441	-3,6226	-31,563	15,733
43826	0,88283	-4,54	-31,566	15,793
43827	1,2319	-4,0664	-32,598	16,541
43828	1,5203	-3,6145	-32,244	16,161
43829	1,5216	-4,537	-32,248	16,226
43830	3,3387	-4,0361	-35,205	17,626
43831	3,3679	-4,0295	-35,879	18,201
43832	3,699	-3,5502	-35,51	17,554
43833	3,7041	-4,5154	-35,508	17,602
43834	2,6231	-4,0447	-34,584	17,67
43835	2,6561	-4,0424	-35,269	18,317
43836	2,9686	-3,5651	-34,899	17,718
43837	2,9734	-4,5207	-34,901	17,786
43838	2,6853	-4,0358	-35,943	18,865
43839	2,7006	-4,0316	-36,623	19,593
43840	3,0284	-3,5177	-36,257	18,891
43841	3,0328	-4,5141	-36,246	18,891
43842	1,9339	-4,0549	-33,943	17,481
43843	1,9618	-4,0498	-34,631	18,155
43844	2,2696	-3,5788	-34,269	17,618
43845	2,2729	-4,524	-34,272	17,7
43846	1,9948	-4,0474	-35,316	18,781
43847	2,0133	-4,0426	-36,009	19,571
43848	2,3368	-3,5671	-35,636	18,914
43849	2,3388	-4,5217	-35,637	18,97
43850	1,2686	-4,0603	-33,283	17,116
43851	1,2899	-4,0598	-33,978	17,787
43852	1,589	-3,5954	-33,621	17,325
43853	1,5912	-4,5309	-33,625	17,408
43854	1,3178	-4,0547	-34,666	18,448
43855	1,333	-4,049	-35,364	19,24
43856	1,6504	-3,5785	-34,997	18,672
43857	1,6522	-4,5257	-35,	18,752
43858	0,63245	-4,0615	-32,599	16,628
43859	0,64191	-4,0539	-33,3	17,27
43860	0,93681	-3,5584	-32,939	16,871
43861	0,9421	-4,5294	-32,956	16,961
43862	0,66319	-4,0534	-33,995	17,933
43863	0,66971	-4,0551	-34,7	18,693
43864	0,9816	-3,5895	-34,344	18,226
43865	0,98273	-4,5289	-34,348	18,316
43866	2,7024e-002	-4,0689	-31,894	16,069
43867	2,5765e-002	-4,057	-32,596	16,665
43868	0,31945	-3,5539	-32,239	16,332
43869	0,32099	-4,5321	-32,259	16,415
43870	3,5228e-002	-4,0494	-33,298	17,305
43871	2,8789e-002	-4,0533	-34,013	18,014
43872	0,34171	-3,5918	-33,659	17,628
43873	0,34175	-4,5245	-33,663	17,716
43874	-0,57112	-4,0479	-31,144	15,455
43875	-0,5604	-4,0725	-31,877	16,029
43876	-0,2675	-3,5445	-31,524	15,75
43877	-0,26867	-4,5368	-31,539	15,82
43878	-0,56166	-4,0606	-32,579	16,625
43879	-0,58376	-4,0565	-33,284	17,251
43880	-0,27356	-3,5434	-32,935	16,943
43881	-0,27164	-4,5249	-32,953	17,037
43882	-1,2053	-4,0418	-30,41	14,85
43883	-1,1569	-4,0211	-31,095	15,346
43884	-0,86956	-3,5178	-30,741	15,113
43885	-0,85185	-4,5111	-30,759	15,175
43886	-1,1462	-4,0457	-31,828	15,921
43887	-1,1639	-4,0692	-32,547	16,496
43888	-0,85276	-3,5428	-32,208	16,254
43889	-0,8511	-4,5357	-32,223	16,333
43890	-1,7434	-4,0477	-30,374	14,738
43891	-1,8694	-4,0398	-29,537	14,171
43892	-1,6308	-3,5279	-30,095	14,56
43893	-1,4608	-4,5307	-30,003	14,564
43894	-1,695	-4,0269	-31,059	15,233
43895	-1,7309	-4,0281	-31,769	15,739
43896	-1,4346	-3,513	-31,438	15,546
43897	-1,4149	-4,5099	-31,463	15,624
43898	-2,1755	-4,024	-30,425	14,682
43899	-2,2367	-4,0341	-31,	15,049
43900	-2,0385	-3,5307	-30,647	14,856
43901	-1,9204	-4,517	-30,695	14,956
43902	-2,3015	-4,0161	-29,588	14,117
43903	-2,6903	-4,0307	-30,347	14,492
43904	-2,4142	-3,5082	-30,146	14,43
43905	-2,369	-4,507	-30,143	14,478
43906	-2,4828	-4,0098	-28,551	13,456
43907	-2,7047	-4,0189	-29,256	13,808
43908	-2,1769	-3,5024	-29,025	13,778
43909	-2,1792	-4,5091	-29,032	13,82
43910	-3,0173	-4,007	-27,641	12,847
43911	-3,1844	-4,0072	-28,386	13,207
43912	-2,7635	-3,5038	-28,1	13,133
43913	-2,7638	-4,5007	-28,099	13,162
43914	-3,4872	-4,0197	-26,781	12,312
43915	-3,6655	-4,0156	-27,5	12,634
43916	-3,275	-3,5234	-27,179	12,542
43917	-3,2709	-4,5063	-27,184	12,572
43918	-3,9185	-4,0304	-25,973	11,841
43919	-4,1029	-4,027	-26,681	12,14
43920	-3,7068	-3,5431	-26,374	12,06
43921	-3,7036	-4,5134	-26,379	12,087
43922	-4,354	-4,0354	-25,163	11,396
43923	-4,5406	-4,0331	-25,867	11,679
43924	-4,1339	-3,5529	-25,565	11,605
43925	-4,1333	-4,517	-25,567	11,627
43926	-4,7924	-4,037	-24,357	10,979
43927	-4,9789	-4,0348	-25,057	11,248
43928	-4,5736	-3,5564	-24,757	11,174
43929	-4,5747	-4,5183	-24,759	11,195
43930	-5,2319	-4,0371	-23,547	10,588
43931	-5,419	-4,0349	-24,245	10,844
43932	-5,0432	-3,5273	-23,95	10,768
43933	-5,0101	-4,5186	-23,955	10,792
43934	-5,6752	-4,0363	-22,735	10,222
43935	-5,8645	-4,0344	-23,427	10,466
43936	-5,4514	-3,5568	-23,139	10,394
43937	-5,4537	-4,5185	-23,14	10,411
43938	-6,118	-4,0347	-21,922	9,8857
43939	-6,316	-4,0292	-22,608	10,115
43940	-5,8942	-3,5551	-22,329	10,044
43941	-5,8966	-4,5178	-22,329	10,06
43942	-6,5623	-4,0328	-21,103	9,5764
43943	-6,7641	-4,0254	-21,788	9,795
43944	-6,3372	-3,5522	-21,515	9,7216
43945	-6,3395	-4,5168	-21,515	9,7364
43946	-7,0185	-4,022	-20,274	9,296
43947	-7,213	-4,0223	-20,961	9,5035
43948	-6,7831	-3,5492	-20,69	9,4264
43949	-6,7852	-4,516	-20,69	9,4406
43950	-7,4664	-4,0209	-19,451	9,0524
43951	-7,6737	-4,0104	-20,128	9,2439
43952	-7,272	-3,5065	-19,85	9,1604
43953	-7,2385	-4,506	-19,863	9,1776
43954	-7,9052	-4,0295	-18,632	8,8466
43955	-8,1071	-4,0244	-19,31	9,0239
43956	-7,7096	-3,517	-19,031	8,9374
43957	-7,6809	-4,5149	-19,044	8,9531
43958	-8,364	-4,0207	-17,801	8,6782
43959	-8,5561	-4,0261	-18,483	8,8386
43960	-8,1571	-3,5178	-18,207	8,7509
43961	-8,1295	-4,5146	-18,219	8,765
43962	-8,8136	-4,0212	-16,977	8,5534
43963	-9,0214	-4,014	-17,646	8,693
43964	-8,6148	-3,5099	-17,376	8,6048
43965	-8,5864	-4,5061	-17,386	8,6171
43966	-9,2585	-4,0277	-16,157	8,4734
43967	-9,4661	-4,0208	-16,824	8,5915
43968	-9,0542	-3,52	-16,555	8,5028
43969	-9,0286	-4,5152	-16,571	8,5152
43970	-9,7094	-4,0302	-15,338	8,4403
43971	-9,9241	-4,0178	-15,994	8,5354
43972	-9,505	-3,5199	-15,731	8,4468
43973	-9,4835	-4,5126	-15,748	8,4587
43974	-10,157	-4,0379	-14,528	8,4549
43975	-10,368	-4,0291	-15,18	8,5258
43976	-9,9482	-3,5304	-14,914	8,4376
43977	-9,9304	-4,5176	-14,934	8,4495
43978	-15,939	-4,0278	-2,527	12,892
43979	-16,551	-4,035	-2,1737	13,345
43980	-16,017	-3,5164	-2,0874	13,016
43981	-16,126	-4,0286	-1,6056	13,153
43982	-16,068	-4,5166	-2,0863	13,111
43983	-10,615	-4,0379	-13,715	8,5198
43984	-10,818	-4,0382	-14,371	8,5641
43985	-10,382	-3,5641	-14,118	8,4754
43986	-10,383	-4,5204	-14,122	8,4893
43987	-15,692	-4,0277	-3,4026	12,552
43988	-16,32	-4,0315	-3,0659	13,02
43989	-15,782	-3,5123	-2,973	12,703
43990	-15,831	-4,5112	-2,971	12,789
43991	-11,072	-4,0447	-12,93	8,6322
43992	-11,282	-4,0343	-13,551	8,6533
43993	-10,862	-3,533	-13,271	8,5689
43994	-10,842	-4,5175	-13,322	8,5793
43995	-15,458	-4,0418	-4,2644	12,191
43996	-16,081	-4,039	-3,9433	12,646
43997	-15,591	-3,5657	-3,842	12,378
43998	-15,593	-4,5165	-3,8403	12,431
43999	-11,526	-4,0533	-12,161	8,7888
44000	-11,738	-4,0459	-12,771	8,788
44001	-11,321	-3,5609	-12,499	8,71
44002	-11,295	-4,5271	-12,553	8,7136
44003	-15,173	-4,0514	-5,1062	11,789
44004	-15,821	-4,0491	-4,8054	12,235
44005	-15,34	-3,5769	-4,6923	11,997
44006	-15,342	-4,5253	-4,6915	12,043
44007	-11,991	-4,0587	-11,399	8,9914
44008	-12,197	-4,0496	-11,989	8,9691
44009	-11,765	-3,5976	-11,747	8,8771
44010	-11,757	-4,5262	-11,781	8,8952
44011	-14,846	-4,0533	-5,93	11,368
44012	-15,496	-4,0508	-5,6487	11,783
44013	-15,011	-3,5796	-5,522	11,571
44014	-15,012	-4,5261	-5,5214	11,612
44015	-12,439	-4,0723	-10,647	9,2291
44016	-12,661	-4,0604	-11,231	9,1912
44017	-12,197	-3,6072	-11,044	9,0937
44018	-12,227	-4,5325	-11,027	9,1207
44019	-14,511	-4,0555	-6,7426	10,959
44020	-15,168	-4,0522	-6,4784	11,342
44021	-14,686	-3,5829	-6,3397	11,157
44022	-14,688	-4,5271	-6,3392	11,194
44023	-12,864	-4,0835	-9,8871	9,5036
44024	-13,1	-4,0738	-10,461	9,4561
44025	-12,589	-3,6421	-10,253	9,3372
44026	-12,667	-4,5398	-10,262	9,3807
44027	-14,145	-4,0584	-7,5439	10,561
44028	-14,81	-4,0539	-7,2975	10,911
44029	-14,331	-3,5873	-7,1467	10,75
44030	-14,333	-4,5284	-7,146	10,783
44031	-13,298	-4,0817	-9,1219	9,8186
44032	-13,557	-4,0718	-9,6838	9,7657
44033	-13,003	-3,7009	-9,5281	9,6194
44034	-13,105	-4,5437	-9,5016	9,6807
44035	-13,737	-4,0681	-8,3395	10,175
44036	-14,427	-4,0565	-8,105	10,501
44037	-13,953	-3,5932	-7,9423	10,361
44038	-13,956	-4,5301	-7,9418	10,391
44039	-13,981	-4,0689	-8,9096	10,106
44040	-13,477	-3,6367	-8,7508	9,9673
44041	-13,541	-4,538	-8,73	10,018
44042	-16,933	-4,0387	-2,7126	13,449
44043	-17,513	-4,0324	-2,3694	13,876
44044	-16,992	-3,5179	-2,2835	13,57
44045	-17,111	-4,0451	-1,8015	13,718
44046	-17,034	-4,5184	-2,2611	13,67
44047	-16,709	-4,0427	-3,6067	13,092
44048	-17,318	-4,0387	-3,2654	13,571
44049	-16,78	-3,5252	-3,1786	13,248
44050	-16,832	-4,5203	-3,164	13,348
44051	-16,444	-4,0463	-4,4843	12,671
44052	-17,066	-4,0429	-4,1582	13,153
44053	-16,585	-3,5692	-4,0506	12,887
44054	-16,587	-4,5225	-4,0493	12,947
44055	-16,144	-4,0484	-5,3479	12,212
44056	-16,745	-4,0358	-5,0505	12,651
44057	-16,299	-3,5728	-4,9199	12,44
44058	-16,301	-4,5238	-4,9193	12,492
44059	-15,817	-4,0497	-6,197	11,743
44060	-16,426	-4,0365	-5,9193	12,149
44061	-15,985	-3,5751	-5,7765	11,97
44062	-15,987	-4,5246	-5,7765	12,017
44063	-15,466	-4,0506	-7,0333	11,282
44064	-16,084	-4,0366	-6,7728	11,651
44065	-15,645	-3,5768	-6,6172	11,502
44066	-15,647	-4,5251	-6,6176	11,543
44067	-15,091	-4,0519	-7,8586	10,841
44068	-15,721	-4,0376	-7,6136	11,177
44069	-15,283	-3,5787	-7,4484	11,05
44070	-15,286	-4,5255	-7,449	11,087
44071	-14,671	-4,0572	-8,6751	10,423
44072	-15,358	-4,0484	-8,4392	10,742
44073	-14,893	-3,5819	-8,2674	10,623
44074	-14,897	-4,5264	-8,2682	10,656
44075	-14,24	-4,059	-9,4714	10,047
44076	-14,921	-4,0533	-9,2582	10,326
44077	-14,399	-3,5612	-9,1139	10,197
44078	-14,466	-4,5308	-9,0765	10,253
44079	-13,793	-4,0621	-10,258	9,7122
44080	-14,483	-4,0514	-10,056	9,9597
44081	-14,108	-3,5938	-9,8746	9,8945
44082	-14,035	-4,5282	-9,861	9,8965
44083	-13,322	-4,0619	-11,045	9,4126
44084	-14,003	-4,0577	-10,853	9,6317
44085	-13,514	-3,5887	-10,615	9,5424
44086	-13,563	-4,534	-10,65	9,5742
44087	-12,867	-4,0514	-11,822	9,1638
44088	-13,538	-4,0514	-11,646	9,3513
44089	-13,09	-3,5659	-11,426	9,273
44090	-13,101	-4,528	-11,437	9,2965
44091	-12,41	-4,0422	-12,599	8,9626
44092	-13,074	-4,0446	-12,435	9,1236
44093	-12,671	-3,5574	-12,152	9,0675
44094	-12,638	-4,5234	-12,218	9,0696
44095	-11,949	-4,0356	-13,392	8,8034
44096	-12,613	-4,0392	-13,23	8,9417
44097	-12,189	-3,5375	-12,951	8,8739
44098	-12,175	-4,5188	-13,	8,8868
44099	-11,485	-4,0347	-14,206	8,6911
44100	-12,15	-4,0348	-14,04	8,8061
44101	-11,729	-3,5287	-13,759	8,7383
44102	-11,712	-4,5168	-13,799	8,7505
44103	-11,03	-4,0293	-15,023	8,6289
44104	-11,689	-4,0333	-14,86	8,7197
44105	-11,253	-3,5564	-14,616	8,6471
44106	-11,254	-4,5179	-14,619	8,6631
44107	-10,583	-4,0167	-15,836	8,6149
44108	-11,241	-4,0205	-15,674	8,6822
44109	-10,819	-3,5187	-15,41	8,6108
44110	-10,8	-4,5115	-15,429	8,6244
44111	-10,132	-4,0109	-16,661	8,6475
44112	-10,787	-4,0154	-16,501	8,691
44113	-10,374	-3,5057	-16,231	8,6198
44114	-10,352	-4,5053	-16,253	8,634
44115	-9,6739	-4,0136	-17,493	8,7258
44116	-10,332	-4,013	-17,333	8,7455
44117	-9,9201	-3,5068	-17,066	8,6751
44118	-9,8944	-4,5056	-17,083	8,6895
44119	-9,2135	-4,0194	-18,329	8,8483
44120	-9,8754	-4,0128	-18,168	8,8438
44121	-9,4602	-3,5125	-17,904	8,7755
44122	-9,4374	-4,5079	-17,917	8,7904
44123	-8,758	-4,021	-19,161	9,0119
44124	-9,4138	-4,018	-19,006	8,9845
44125	-9,0073	-3,5118	-18,735	8,9176
44126	-8,9785	-4,5115	-18,75	8,9339
44127	-8,3143	-4,0139	-19,988	9,2124
44128	-8,9641	-4,0132	-19,838	9,1632
44129	-8,5608	-3,5074	-19,564	9,0988
44130	-8,527	-4,5095	-19,582	9,1173
44131	-7,8681	-4,0107	-20,815	9,449
44132	-8,5188	-4,0072	-20,667	9,3775
44133	-8,1135	-3,5055	-20,392	9,3167
44134	-8,0802	-4,5044	-20,408	9,3364
44135	-7,4148	-4,015	-21,646	9,7209
44136	-8,0529	-4,0187	-21,508	9,6312
44137	-7,6581	-3,5111	-21,225	9,5716
44138	-7,6299	-4,5064	-21,238	9,592
44139	-6,9621	-4,02	-22,473	10,024
44140	-7,6093	-4,0142	-22,333	9,9117
44141	-7,209	-3,5117	-22,055	9,8588
44142	-7,1799	-4,5086	-22,065	9,8797
44143	-6,5053	-4,0273	-23,3	10,36
44144	-7,1466	-4,0245	-23,169	10,229
44145	-6,757	-3,5171	-22,882	10,177
44146	-6,7285	-4,5114	-22,892	10,199
44147	-6,0516	-4,0322	-24,125	10,724
44148	-6,691	-4,0296	-23,996	10,574
44149	-6,273	-3,5492	-23,714	10,531
44150	-6,2753	-4,516	-23,715	10,549
44151	-5,6055	-4,0328	-24,945	11,116
44152	-6,2423	-4,0305	-24,822	10,949
44153	-5,858	-3,5246	-24,53	10,901
44154	-5,8279	-4,5163	-24,535	10,926
44155	-5,1655	-4,0326	-25,761	11,534
44156	-5,7961	-4,0312	-25,644	11,351
44157	-5,3816	-3,5506	-25,354	11,313
44158	-5,3831	-4,5165	-25,355	11,333
44159	-4,725	-4,0297	-26,575	11,982
44160	-5,3561	-4,0308	-26,458	11,781
44161	-4,9478	-3,5494	-26,165	11,742
44162	-4,9479	-4,5161	-26,167	11,765
44163	-4,2812	-4,0229	-27,399	12,467
44164	-4,9075	-4,0272	-27,279	12,247
44165	-4,5047	-3,5431	-26,98	12,205
44166	-4,5022	-4,5136	-26,983	12,232
44167	2,0286	-4,0384	-36,689	20,27
44168	2,0415	-4,0272	-37,376	21,176
44169	2,3767	-3,5231	-37,006	20,436
44170	2,3656	-4,5175	-37,002	20,342
44171	-3,8326	-4,0158	-28,244	13,
44172	-4,4593	-4,0199	-28,11	12,752
44173	-4,0683	-3,5301	-27,81	12,707
44174	-4,0633	-4,5093	-27,813	12,737
44175	1,3514	-4,0441	-36,058	20,01
44176	1,3617	-4,0315	-36,743	20,933
44177	1,6907	-3,5275	-36,381	20,293
44178	1,6878	-4,5209	-36,382	20,278
44179	-3,4063	-4,0164	-29,091	13,568
44180	-4,0163	-4,0148	-28,959	13,305
44181	-3,646	-3,5036	-28,677	13,262
44182	-3,5929	-4,5066	-28,661	13,298
44183	0,68489	-4,0494	-35,398	19,475
44184	0,69049	-4,0319	-36,079	20,353
44185	1,0155	-3,5317	-35,729	19,824
44186	1,0151	-4,5232	-35,734	19,875
44187	-3,0935	-4,0335	-30,015	14,192
44188	-3,6224	-4,0186	-29,821	13,893
44189	-3,204	-3,5373	-29,518	13,852
44190	-3,2077	-4,5098	-29,509	13,88
44191	3,5312e-002	-4,0549	-34,718	18,77
44192	2,8968e-002	-4,0411	-35,396	19,565
44193	0,35435	-3,5443	-35,053	19,144
44194	0,35469	-4,5262	-35,062	19,235
44195	-2,7514	-4,0408	-30,923	14,864
44196	-3,3054	-4,0348	-30,77	14,56
44197	-2,969	-3,5232	-30,478	14,489
44198	-2,9792	-4,5237	-30,521	14,556
44199	-0,5902	-4,0604	-33,999	17,963
44200	-0,61264	-4,044	-34,693	18,679
44201	-0,28294	-3,5895	-34,37	18,37
44202	-0,28407	-4,5287	-34,374	18,464
44203	-2,2726	-4,0353	-31,711	15,561
44204	-2,86	-4,0264	-31,605	15,261
44205	-2,5453	-3,5173	-31,302	15,162
44206	-2,5182	-4,5171	-31,351	15,255
44207	-1,186	-4,0651	-33,252	17,128
44208	-1,2281	-4,0475	-33,948	17,75
44209	-0,89808	-3,549	-33,619	17,509
44210	-0,8963	-4,5316	-33,635	17,609
44211	-1,7486	-4,0517	-32,488	16,32
44212	-2,3589	-4,026	-32,402	16,02
44213	-2,0365	-3,5241	-32,079	15,883
44214	-2,0186	-4,5182	-32,118	15,98
44215	-1,8106	-4,0441	-33,192	16,863
44216	-1,4812	-3,5431	-32,865	16,683
44217	-1,4762	-4,5335	-32,89	16,779
44218	-17,899	-4,0324	-2,9222	13,97
44219	-18,487	-4,0196	-2,59	14,412
44220	-17,965	-3,5161	-2,4992	14,095
44221	-18,083	-4,0397	-2,0347	14,224
44222	-18,	-4,514	-2,4729	14,195
44223	-17,675	-4,0388	-3,8169	13,603
44224	-18,288	-4,0327	-3,4707	14,116
44225	-17,752	-3,5236	-3,3931	13,779
44226	-17,805	-4,5184	-3,3668	13,886
44227	-17,366	-4,0324	-4,7244	13,107
44228	-17,987	-4,033	-4,3976	13,626
44229	-17,479	-3,5261	-4,293	13,332
44230	-17,544	-4,5204	-4,2671	13,442
44231	-17,027	-4,0238	-5,6219	12,568
44232	-17,653	-4,0242	-5,3144	13,051
44233	-17,14	-3,5152	-5,1992	12,794
44234	-17,22	-4,512	-5,1733	12,905
44235	-16,693	-4,0234	-6,495	12,041
44236	-17,324	-4,0216	-6,208	12,476
44237	-16,809	-3,5142	-6,0783	12,263
44238	-16,9	-4,5118	-6,0544	12,368
44239	-16,338	-4,0237	-7,3531	11,533
44240	-16,985	-4,0226	-7,084	11,922
44241	-16,459	-3,5128	-6,942	11,743
44242	-16,555	-4,5116	-6,9206	11,838
44243	-15,988	-4,0341	-8,1942	11,067
44244	-16,627	-4,0261	-7,9452	11,402
44245	-16,098	-3,5165	-7,7895	11,254
44246	-16,188	-4,5121	-7,772	11,336
44247	-15,609	-4,0445	-9,0223	10,636
44248	-16,261	-4,0371	-8,7913	10,93
44249	-15,744	-3,5294	-8,6221	10,812
44250	-15,82	-4,522	-8,6101	10,878
44251	-15,165	-4,0458	-9,8429	10,232
44252	-15,843	-4,0399	-9,6286	10,493
44253	-15,393	-3,5704	-9,4328	10,42
44254	-15,398	-4,5225	-9,4345	10,452
44255	-14,694	-4,047	-10,651	9,8726
44256	-15,372	-4,0418	-10,453	10,099
44257	-14,927	-3,5725	-10,249	10,035
44258	-14,932	-4,5233	-10,251	10,063
44259	-14,219	-4,0472	-11,454	9,5641
44260	-14,894	-4,0432	-11,262	9,7602
44261	-14,452	-3,5734	-11,049	9,7039
44262	-14,456	-4,5237	-11,051	9,7285
44263	-13,745	-4,0446	-12,259	9,3054
44264	-14,419	-4,0431	-12,076	9,4737
44265	-13,978	-3,5727	-11,855	9,42
44266	-13,982	-4,5234	-11,858	9,4428
44267	-13,276	-4,0417	-13,066	9,097
44268	-13,946	-4,0401	-12,887	9,2389
44269	-13,508	-3,5686	-12,659	9,1866
44270	-13,51	-4,5212	-12,662	9,2081
44271	-12,813	-4,0384	-13,879	8,9385
44272	-13,478	-4,0378	-13,696	9,0561
44273	-13,043	-3,5644	-13,468	9,0045
44274	-13,044	-4,5205	-13,471	9,0238
44275	-12,353	-4,0334	-14,693	8,8285
44276	-13,019	-4,0331	-14,52	8,9215
44277	-12,582	-3,5567	-14,282	8,87
44278	-12,583	-4,518	-14,286	8,8886
44279	-11,899	-4,0245	-15,511	8,767
44280	-12,561	-4,0286	-15,343	8,8358
44281	-12,122	-3,5488	-15,097	8,7844
44282	-12,123	-4,5154	-15,101	8,802
44283	-11,445	-4,0192	-16,34	8,7523
44284	-12,106	-4,0208	-16,175	8,7973
44285	-11,687	-3,5135	-15,906	8,7478
44286	-11,674	-4,5091	-15,925	8,7638
44287	-10,987	-4,0176	-17,174	8,7833
44288	-11,646	-4,021	-17,009	8,8045
44289	-11,232	-3,51	-16,74	8,7553
44290	-11,212	-4,5102	-16,761	8,7715
44291	-10,533	-4,0123	-18,008	8,8583
44292	-11,195	-4,0114	-17,84	8,8554
44293	-10,779	-3,5067	-17,576	8,808
44294	-10,755	-4,5074	-17,595	8,8246
44295	1,3746	-4,0203	-37,43	21,81
44296	1,3713	-4,0197	-38,137	22,934
44297	1,7196	-3,512	-37,76	22,226
44298	1,7114	-4,5096	-37,762	21,871
44299	-10,076	-4,0114	-18,845	8,9754
44300	-10,739	-4,0081	-18,678	8,9486
44301	-10,326	-3,5029	-18,414	8,9037
44302	-10,301	-4,5049	-18,429	8,9207
44303	0,70076	-4,0193	-36,764	21,259
44304	0,71184	-4,0241	-37,477	22,342
44305	1,0403	-3,5132	-37,109	21,784
44306	1,0357	-4,5106	-37,114	21,612
44307	-9,62	-4,0102	-19,682	9,1321
44308	-10,277	-4,0097	-19,52	9,0825
44309	-9,8693	-3,5023	-19,253	9,0401
44310	-9,8395	-4,5065	-19,271	9,0589
44311	3,4572e-002	-4,0236	-36,077	20,438
44312	3,2329e-002	-4,0186	-36,764	21,402
44313	0,3681	-3,5133	-36,43	20,991
44314	0,36644	-4,5087	-36,436	20,958
44315	-9,1686	-4,0066	-20,516	9,3254
44316	-9,8217	-4,0073	-20,359	9,2535
44317	-9,4122	-3,5029	-20,091	9,2151
44318	-9,3869	-4,5037	-20,105	9,2341
44319	-0,61899	-4,0302	-35,371	19,478
44320	-0,63512	-4,0261	-36,057	20,314
44321	-0,29486	-3,5255	-35,735	20,017
44322	-0,29578	-4,5149	-35,74	20,066
44323	-8,7035	-4,0152	-21,359	9,5573
44324	-9,3685	-4,005	-21,195	9,4595
44325	-8,9563	-3,5047	-20,928	9,4261
44326	-8,9302	-4,5029	-20,943	9,4469
44327	-1,2505	-4,0312	-34,642	18,475
44328	-1,2857	-4,0344	-35,343	19,198
44329	-0,93842	-3,5675	-35,019	18,983
44330	-0,94116	-4,5153	-35,023	19,066
44331	-8,2474	-4,0179	-22,196	9,8208
44332	-8,8994	-4,0164	-22,042	9,7037
44333	-8,4941	-3,5137	-21,769	9,6738
44334	-8,4649	-4,5123	-21,784	9,6963
44335	-1,8527	-4,0264	-33,888	17,496
44336	-1,9102	-4,0344	-34,598	18,105
44337	-1,5588	-3,529	-34,278	17,963
44338	-1,5573	-4,5158	-34,29	18,06
44339	-7,7938	-4,0188	-23,03	10,116
44340	-8,445	-4,0164	-22,878	9,977
44341	-8,0524	-3,5058	-22,599	9,9489
44342	-8,0169	-4,5056	-22,612	9,9735
44343	-2,4209	-4,0184	-33,106	16,575
44344	-2,4995	-4,0299	-33,823	17,089
44345	-2,1484	-3,5204	-33,5	16,993
44346	-2,1452	-4,5106	-33,52	17,088
44347	-7,3322	-4,0268	-23,865	10,445
44348	-7,9806	-4,0243	-23,723	10,286
44349	-7,5868	-3,5166	-23,44	10,263
44350	-7,5578	-4,5132	-23,453	10,288
44351	-2,9464	-4,017	-32,296	15,731
44352	-3,0485	-4,0281	-33,019	16,167
44353	-2,7017	-3,5144	-32,701	16,105
44354	-2,6961	-4,5078	-32,726	16,191
44355	-6,8817	-4,0278	-24,693	10,8
44356	-7,5234	-4,0253	-24,552	10,621
44357	-7,1044	-3,5423	-24,276	10,61
44358	-7,1066	-4,5137	-24,277	10,627
44359	-3,414	-4,0204	-31,452	14,966
44360	-3,5544	-4,0179	-32,169	15,329
44361	-3,2086	-3,5117	-31,878	15,303
44362	-3,2021	-4,5093	-31,902	15,374
44363	-6,4329	-4,0289	-25,52	11,187
44364	-7,0775	-4,0253	-25,382	10,984
44365	-6,6832	-3,5218	-25,101	10,973
44366	-6,6568	-4,5142	-25,109	11,
44367	-3,8343	-4,0199	-30,576	14,271
44368	-4,0065	-4,0276	-31,304	14,589
44369	-3,6509	-3,514	-31,015	14,577
44370	-3,6326	-4,5112	-31,024	14,633
44371	-5,9867	-4,0295	-26,341	11,601
44372	-6,6241	-4,0276	-26,212	11,381
44373	-6,2074	-3,5453	-25,932	11,381
44374	-6,2091	-4,5147	-25,932	11,401
44375	-4,2323	-4,0169	-29,689	13,64
44376	-4,4222	-4,0204	-30,417	13,925
44377	-4,0277	-3,5384	-30,13	13,932
44378	-4,0309	-4,5087	-30,124	13,964
44379	-5,5385	-4,0283	-27,163	12,05
44380	-6,1795	-4,0259	-27,033	11,805
44381	-5,7633	-3,5454	-26,749	11,809
44382	-5,7643	-4,5148	-26,75	11,831
44383	-4,643	-4,0188	-28,825	13,065
44384	-4,8328	-4,0183	-29,538	13,322
44385	-4,4299	-3,5268	-29,247	13,327
44386	-4,4276	-4,5082	-29,245	13,36
44387	-5,0856	-4,0242	-27,99	12,537
44388	-5,7289	-4,0232	-27,861	12,269
44389	-5,3135	-3,5423	-27,574	12,275
44390	-5,3128	-4,5136	-27,576	12,301
44391	-5,2756	-4,0199	-28,694	12,773
44392	-4,8613	-3,5338	-28,403	12,781
44393	-4,8584	-4,5106	-28,405	12,81
44394	0,70849	-4,0235	-38,184	23,449
44395	0,67316	-4,0264	-38,874	24,529
44396	1,0187	-3,5175	-38,527	24,144
44397	1,0488	-4,51	-38,534	23,392
44398	4,3401e-002	-4,0234	-37,477	22,475
44399	4,2902e-002	-4,0257	-38,153	23,554
44400	0,38722	-3,5444	-37,844	23,294
44401	0,38805	-4,5135	-37,849	22,835
44402	-0,63737	-4,0211	-36,744	21,283
44403	-0,64645	-4,0199	-37,42	22,255
44404	-0,29894	-3,5131	-37,113	22,079
44405	-0,29713	-4,5099	-37,113	21,878
44406	-1,3018	-4,0303	-36,03	20,048
44407	-1,3241	-4,0292	-36,694	20,836
44408	-0,96832	-3,5176	-36,402	20,758
44409	-0,97203	-4,5112	-36,394	20,716
44410	-1,9454	-4,0377	-35,299	18,846
44411	-1,9933	-4,0317	-35,979	19,49
44412	-1,6254	-3,5602	-35,671	19,452
44413	-1,6302	-4,5191	-35,674	19,504
44414	-2,557	-4,0379	-34,533	17,716
44415	-2,63	-4,0285	-35,228	18,238
44416	-2,2551	-3,531	-34,926	18,251
44417	-2,2606	-4,5186	-34,923	18,321
44418	-3,1271	-4,0396	-33,736	16,697
44419	-3,2252	-4,0292	-34,437	17,119
44420	-2,8519	-3,5278	-34,138	17,155
44421	-2,8534	-4,5193	-34,142	17,232
44422	-3,6566	-4,029	-32,892	15,779
44423	-3,7722	-4,0312	-33,607	16,137
44424	-3,4066	-3,5309	-33,321	16,187
44425	-3,4008	-4,5203	-33,331	16,262
44426	-4,1469	-4,0251	-32,021	14,965
44427	-4,287	-4,0194	-32,736	15,264
44428	-3,9247	-3,515	-32,455	15,317
44429	-3,9163	-4,5087	-32,462	15,379
44430	-4,5944	-4,0282	-31,145	14,254
44431	-4,762	-4,0273	-31,869	14,513
44432	-4,3972	-3,5266	-31,592	14,568
44433	-4,3814	-4,5165	-31,589	14,618
44434	-5,0227	-4,0218	-30,266	13,617
44435	-5,2066	-4,0212	-30,986	13,844
44436	-4,8044	-3,5386	-30,703	13,909
44437	-4,8074	-4,5117	-30,701	13,943
44438	-5,4654	-4,0194	-29,408	13,039
44439	-5,6481	-4,0194	-30,118	13,245
44440	-5,2383	-3,5306	-29,832	13,305
44441	-5,238	-4,5101	-29,831	13,336
44442	-5,9189	-4,019	-28,565	12,511
44443	-6,1007	-4,0193	-29,268	12,701
44444	-5,7223	-3,5119	-28,986	12,743
44445	-5,6885	-4,5093	-28,985	12,783
44446	-6,3699	-4,0207	-27,731	12,03
44447	-6,5535	-4,0204	-28,429	12,205
44448	-6,1738	-3,5118	-28,147	12,242
44449	-6,1367	-4,5096	-28,147	12,279
44450	-6,8169	-4,024	-26,903	11,59
44451	-7,0087	-4,0222	-27,596	11,751
44452	-6,6218	-3,5158	-27,314	11,784
44453	-6,5896	-4,5111	-27,321	11,819
44454	-7,2686	-4,0239	-26,073	11,182
44455	-7,4592	-4,0238	-26,767	11,335
44456	-7,0372	-3,5397	-26,491	11,374
44457	-7,0391	-4,5129	-26,491	11,394
44458	-7,7192	-4,0227	-25,241	10,806
44459	-7,9191	-4,0203	-25,926	10,947
44460	-7,5218	-3,5169	-25,651	10,971
44461	-7,4949	-4,5111	-25,66	11,
44462	-8,1718	-4,0227	-24,41	10,463
44463	-8,368	-4,0214	-25,095	10,597
44464	-7,9383	-3,5361	-24,828	10,624
44465	-7,9403	-4,5116	-24,828	10,641
44466	-8,6318	-4,0219	-23,571	10,146
44467	-8,8258	-4,0204	-24,256	10,274
44468	-8,4282	-3,5147	-23,981	10,284
44469	-8,4033	-4,5111	-23,992	10,309
44470	-9,097	-4,0149	-22,725	9,8588
44471	-9,2882	-4,0198	-23,413	9,9799
44472	-8,8586	-3,5334	-23,15	9,9914
44473	-8,8603	-4,5108	-23,15	10,008
44474	-9,5643	-4,0063	-21,879	9,6039
44475	-9,7577	-4,0102	-22,563	9,7147
44476	-9,3507	-3,5048	-22,293	9,7146
44477	-9,3216	-4,5041	-22,306	9,7378
44478	-10,022	-4,0058	-21,038	9,385
44479	-10,22	-4,0067	-21,718	9,4845
44480	-9,8097	-3,5024	-21,45	9,4793
44481	-9,7843	-4,5022	-21,464	9,5007
44482	-10,479	-4,0068	-20,198	9,2005
44483	-10,669	-4,0121	-20,88	9,2901
44484	-10,268	-3,5017	-20,609	9,278
44485	-10,237	-4,5036	-20,626	9,2993
44486	-10,94	-4,0064	-19,354	9,0515
44487	-11,139	-4,0071	-20,03	9,1261
44488	-10,726	-3,5024	-19,767	9,1119
44489	-10,703	-4,5032	-19,781	9,1312
44490	-11,4	-4,0073	-18,51	8,941
44491	-11,597	-4,0113	-19,188	9,0008
44492	-11,183	-3,5045	-18,925	8,9828
44493	-11,162	-4,5032	-18,937	9,001
44494	-11,853	-4,0148	-17,675	8,8714
44495	-12,058	-4,0128	-18,344	8,9135
44496	-11,641	-3,5055	-18,079	8,8927
44497	-11,624	-4,504	-18,095	8,9107
44498	-12,307	-4,0225	-16,844	8,8438
44499	-12,512	-4,0204	-17,506	8,8669
44500	-12,093	-3,5132	-17,243	8,8444
44501	-12,077	-4,5108	-17,26	8,8621
44502	-12,768	-4,0249	-16,007	8,8603
44503	-12,974	-4,0219	-16,669	8,8625
44504	-12,536	-3,5366	-16,426	8,8387
44505	-12,536	-4,5117	-16,427	8,8567
44506	-13,227	-4,0284	-15,17	8,9228
44507	-13,435	-4,0242	-15,827	8,9028
44508	-12,998	-3,5417	-15,584	8,8779
44509	-12,999	-4,5132	-15,586	8,8969
44510	-18,877	-4,02	-3,1384	14,521
44511	-19,401	-4,0207	-2,8558	15,014
44512	-18,975	-3,5121	-2,7264	14,669
44513	-19,08	-4,0151	-2,2463	14,702
44514	-18,999	-4,5057	-2,6788	14,745
44515	-13,683	-4,0324	-14,338	9,0329
44516	-13,891	-4,0276	-14,988	8,9893
44517	-13,453	-3,5481	-14,752	8,9636
44518	-13,455	-4,5152	-14,755	8,9836
44519	-18,6	-4,0269	-4,0513	14,097
44520	-19,194	-4,0213	-3,7245	14,689
44521	-18,767	-3,5465	-3,5772	14,376
44522	-18,771	-4,5143	-3,5746	14,442
44523	-14,148	-4,0362	-13,517	9,1921
44524	-14,35	-4,0312	-14,156	9,1236
44525	-13,911	-3,5546	-13,918	9,0981
44526	-13,912	-4,5173	-13,921	9,1194
44527	-18,274	-4,0248	-4,9875	13,536
44528	-18,872	-4,0215	-4,6662	14,111
44529	-18,392	-3,5206	-4,5486	13,805
44530	-18,453	-4,5126	-4,5172	13,916
44531	-14,619	-4,0386	-12,703	9,4012
44532	-14,82	-4,0343	-13,339	9,3068
44533	-14,381	-3,5591	-13,109	9,2809
44534	-14,383	-4,5189	-13,112	9,3039
44535	-17,95	-4,022	-5,9004	12,934
44536	-18,555	-4,019	-5,5944	13,446
44537	-18,072	-3,518	-5,4678	13,204
44538	-18,15	-4,5122	-5,437	13,322
44539	-15,094	-4,0392	-11,883	9,6634
44540	-15,286	-4,0357	-12,514	9,5421
44541	-14,853	-3,561	-12,292	9,5158
44542	-14,856	-4,5197	-12,294	9,5407
44543	-17,617	-4,0208	-6,797	12,338
44544	-18,218	-4,013	-6,5098	12,776
44545	-17,733	-3,5122	-6,3721	12,592
44546	-17,812	-4,5097	-6,3454	12,696
44547	-15,573	-4,038	-11,063	9,9798
44548	-15,765	-4,03	-11,688	9,8327
44549	-15,328	-3,5298	-11,454	9,8082
44550	-15,332	-4,5195	-11,472	9,8318
44551	-17,274	-4,025	-7,6761	11,777
44552	-17,897	-4,0179	-7,4054	12,158
44553	-17,393	-3,5121	-7,2552	12,012
44554	-17,476	-4,511	-7,2379	12,103
44555	-16,051	-4,0359	-10,239	10,353
44556	-16,241	-4,0253	-10,861	10,179
44557	-15,794	-3,5306	-10,644	10,146
44558	-15,813	-4,5185	-10,655	10,178
44559	-16,9	-4,029	-8,5424	11,254
44560	-17,574	-4,0259	-8,2894	11,593
44561	-17,039	-3,5144	-8,1225	11,475
44562	-17,118	-4,514	-8,1107	11,551
44563	-16,495	-4,0324	-9,3976	10,778
44564	-16,708	-4,0225	-10,022	10,587
44565	-16,241	-3,5251	-9,8201	10,538
44566	-16,288	-4,5174	-9,8227	10,583
44567	-17,14	-4,0213	-9,1629	11,054
44568	-16,652	-3,5151	-8,9761	10,981
44569	-16,716	-4,5151	-8,9708	11,041
44570	7,5667e-003	-4,0287	-38,842	24,645
44571	1,2508e-002	-4,0457	-39,404	25,43
44572	0,24812	-3,5272	-39,313	25,311
44573	0,16891	-4,2672	-39,726	25,803
44574	0,37548	-4,5164	-39,276	24,075
44575	-0,64695	-4,0222	-38,097	23,339
44576	-0,63904	-4,0284	-38,744	24,364
44577	-0,30213	-3,5178	-38,478	24,394
44578	-0,28872	-4,5122	-38,475	23,691
44579	-1,3332	-4,0279	-37,371	21,827
44580	-1,3402	-4,0309	-38,023	22,695
44581	-0,98667	-3,511	-37,758	22,888
44582	-0,98527	-4,51	-37,736	22,443
44583	-2,0155	-4,0306	-36,644	20,303
44584	-2,0416	-4,0342	-37,296	20,986
44585	-1,6685	-3,5268	-37,032	21,203
44586	-1,6733	-4,518	-37,013	21,04
44587	-2,6779	-4,0226	-35,908	18,91
44588	-2,7245	-4,0174	-36,599	19,463
44589	-2,3488	-3,5426	-36,282	19,616
44590	-2,3564	-4,5126	-36,285	19,617
44591	-3,2982	-4,0199	-35,132	17,666
44592	-3,3844	-4,0088	-35,835	18,072
44593	-2,9887	-3,5123	-35,545	18,271
44594	-2,9993	-4,5099	-35,532	18,306
44595	-3,8703	-4,0209	-34,307	16,579
44596	-3,9832	-4,0097	-35,025	16,9
44597	-3,5938	-3,5178	-34,744	17,08
44598	-3,597	-4,51	-34,732	17,136
44599	-4,4026	-4,0217	-33,451	15,638
44600	-4,5332	-4,0134	-34,17	15,898
44601	-4,1411	-3,5381	-33,883	16,058
44602	-4,1483	-4,5109	-33,889	16,117
44603	-4,9021	-4,0216	-32,584	14,825
44604	-5,0573	-4,0165	-33,294	15,033
44605	-4,6578	-3,5384	-33,02	15,19
44606	-4,6648	-4,5108	-33,024	15,237
44607	-5,3742	-4,0203	-31,711	14,114
44608	-5,5388	-4,0167	-32,424	14,298
44609	-5,1373	-3,5366	-32,148	14,437
44610	-5,1427	-4,5108	-32,15	14,476
44611	-5,832	-4,0188	-30,838	13,481
44612	-6,0136	-4,0161	-31,548	13,639
44613	-5,603	-3,5309	-31,271	13,769
44614	-5,6057	-4,5095	-31,272	13,803
44615	-6,2834	-4,0193	-29,978	12,914
44616	-6,47	-4,0168	-30,681	13,057
44617	-6,0572	-3,5288	-30,403	13,173
44618	-6,0582	-4,5093	-30,404	13,203
44619	-6,7353	-4,0207	-29,132	12,401
44620	-6,9246	-4,0185	-29,83	12,532
44621	-6,5079	-3,5313	-29,551	12,637
44622	-6,5086	-4,51	-29,552	12,664
44623	-7,1923	-4,0218	-28,294	11,932
44624	-7,38	-4,0197	-28,989	12,055
44625	-6,9607	-3,5334	-28,71	12,149
44626	-6,9619	-4,5107	-28,712	12,173
44627	-7,6511	-4,0219	-27,459	11,501
44628	-7,8415	-4,0202	-28,151	11,615
44629	-7,4211	-3,5343	-27,875	11,7
44630	-7,4227	-4,511	-27,876	11,721
44631	-8,1097	-4,0201	-26,62	11,104
44632	-8,2986	-4,0198	-27,313	11,213
44633	-7,8775	-3,5339	-27,041	11,289
44634	-7,8794	-4,5109	-27,042	11,308
44635	-8,5678	-4,019	-25,78	10,74
44636	-8,7602	-4,0177	-26,467	10,841
44637	-8,3642	-3,5131	-26,192	10,898
44638	-8,3381	-4,5092	-26,202	10,928
44639	-9,022	-4,0191	-24,94	10,41
44640	-9,2222	-4,0179	-25,625	10,502
44641	-8,7939	-3,5305	-25,361	10,563
44642	-8,7957	-4,5098	-25,362	10,58
44643	-9,4822	-4,0183	-24,098	10,108
44644	-9,6788	-4,0172	-24,783	10,195
44645	-9,2467	-3,529	-24,519	10,247
44646	-9,2483	-4,5093	-24,519	10,264
44647	-9,9489	-4,0151	-23,251	9,835
44648	-10,143	-4,0166	-23,936	9,9154
44649	-9,7146	-3,5279	-23,675	9,9595
44650	-9,7161	-4,509	-23,676	9,9761
44651	-10,413	-4,0106	-22,402	9,5938
44652	-10,609	-4,0136	-23,086	9,6657
44653	-10,198	-3,5083	-22,818	9,6973
44654	-10,176	-4,5061	-22,826	9,7196
44655	-10,867	-4,013	-21,559	9,3875
44656	-11,07	-4,012	-22,24	9,4488
44657	-10,659	-3,5063	-21,971	9,4741
44658	-10,635	-4,5045	-21,983	9,4962
44659	-19,719	-4,0221	-3,4419	15,129
44660	-20,223	-3,9956	-3,2195	15,849
44661	-20,004	-3,5299	-2,9882	15,512
44662	-20,422	-4,2668	-2,8332	16,062
44663	-20,089	-3,9686	-2,5386	15,348
44664	-19,925	-4,5151	-2,9044	15,438
44665	-11,329	-4,0123	-20,713	9,2126
44666	-11,525	-4,0156	-21,392	9,2644
44667	-11,111	-3,5103	-21,129	9,2852
44668	-11,089	-4,5084	-21,14	9,3061
44669	-19,466	-4,016	-4,3393	14,643
44670	-20,051	-4,0147	-4,0091	15,448
44671	-19,65	-3,5357	-3,8495	15,029
44672	-19,651	-4,507	-3,8433	15,071
44673	-11,796	-4,012	-19,864	9,0717
44674	-12,002	-4,0076	-20,535	9,1091
44675	-11,581	-3,5064	-20,277	9,1267
44676	-11,561	-4,5039	-20,293	9,147
44677	-19,153	-4,0157	-5,273	13,976
44678	-19,752	-4,0211	-4,9536	14,671
44679	-19,283	-3,5165	-4,8262	14,327
44680	-19,345	-4,509	-4,7894	14,436
44681	-12,254	-4,0168	-19,021	8,9691
44682	-12,457	-4,0152	-19,694	8,9934
44683	-12,022	-3,5251	-19,442	9,0081
44684	-12,022	-4,5081	-19,443	9,0252
44685	-18,822	-4,0101	-6,2037	13,255
44686	-19,423	-4,0139	-5,8947	13,826
44687	-18,948	-3,5084	-5,7658	13,58
44688	-19,024	-4,5068	-5,7273	13,704
44689	-12,716	-4,0183	-18,175	8,9043
44690	-12,924	-4,0166	-18,843	8,9121
44691	-12,486	-3,5273	-18,598	8,9236
44692	-12,486	-4,5088	-18,599	8,9413
44693	-18,498	-4,0101	-7,1182	12,573
44694	-19,091	-4,0089	-6,8136	13,04
44695	-18,599	-3,4988	-6,6883	12,859
44696	-18,697	-4,5033	-6,6545	12,979
44697	-13,179	-4,0197	-17,331	8,8804
44698	-13,385	-4,0171	-17,996	8,8702
44699	-12,96	-3,5133	-17,737	8,8783
44700	-12,946	-4,5096	-17,751	8,8972
44701	-18,197	-4,0188	-8,0186	11,957
44702	-18,777	-4,0119	-7,7299	12,333
44703	-18,294	-3,5082	-7,5867	12,219
44704	-18,384	-4,5068	-7,563	12,315
44705	-13,642	-4,0212	-16,489	8,8995
44706	-13,847	-4,019	-17,157	8,8691
44707	-13,411	-3,5316	-16,909	8,8761
44708	-13,412	-4,5102	-16,91	8,8953
44709	-17,815	-4,0182	-8,9099	11,38
44710	-18,465	-4,0185	-8,6441	11,702
44711	-18,047	-3,5399	-8,4613	11,664
44712	-18,051	-4,512	-8,4665	11,705
44713	-14,099	-4,0234	-15,645	8,9635
44714	-14,308	-4,0203	-16,309	8,9112
44715	-13,87	-3,535	-16,066	8,9171
44716	-13,871	-4,511	-16,068	8,9373
44717	-17,353	-4,0114	-9,7868	10,853
44718	-18,029	-4,0123	-9,5523	11,111
44719	-17,541	-3,5025	-9,3556	11,079
44720	-17,605	-4,5062	-9,3534	11,136
44721	-14,557	-4,0263	-14,807	9,0742
44722	-14,766	-4,0225	-15,464	8,9985
44723	-14,325	-3,5395	-15,22	9,0043
44724	-14,327	-4,5124	-15,222	9,0256
44725	-16,898	-4,0119	-10,644	10,406
44726	-17,567	-4,0092	-10,432	10,611
44727	-17,107	-3,5087	-10,218	10,603
44728	-17,154	-4,5052	-10,219	10,648
44729	-15,022	-4,0293	-13,979	9,2328
44730	-15,229	-4,0251	-14,63	9,132
44731	-14,785	-3,5445	-14,388	9,1383
44732	-14,787	-4,514	-14,391	9,1609
44733	-16,434	-4,0173	-11,485	10,026
44734	-17,106	-4,0118	-11,285	10,193
44735	-16,659	-3,512	-11,059	10,197
44736	-16,683	-4,5068	-11,07	10,229
44737	-15,486	-4,0314	-13,151	9,4417
44738	-15,693	-4,0276	-13,798	9,3149
44739	-15,254	-3,5484	-13,564	9,321
44740	-15,257	-4,5153	-13,567	9,3453
44741	-15,957	-4,0266	-12,319	9,7052
44742	-16,635	-4,0185	-12,126	9,8418
44743	-16,199	-3,5187	-11,89	9,851
44744	-16,198	-4,5105	-11,905	9,8757
44745	-16,156	-4,0291	-12,961	9,5501
44746	-15,713	-3,5502	-12,732	9,5556
44747	-15,716	-4,5161	-12,734	9,582
44748	-20,556	-3,9882	-3,7867	16,101
44749	-21,083	-3,956	-3,4502	17,541
44750	-20,662	-3,4926	-3,26	16,463
44751	-20,825	-4,2323	-3,0433	16,598
44752	-20,492	-3,934	-2,7486	15,859
44753	-20,75	-4,4805	-3,2942	16,632
44754	-20,337	-4,0198	-4,6234	15,386
44755	-20,924	-4,0347	-4,3069	16,6
44756	-20,454	-3,5157	-4,1638	15,885
44757	-20,51	-4,5076	-4,131	15,984
44758	-20,021	-4,0192	-5,5753	14,463
44759	-20,616	-4,0333	-5,2652	15,323
44760	-20,15	-3,5212	-5,1255	14,913
44761	-20,21	-4,5122	-5,09	15,04
44762	-19,691	-4,0127	-6,5046	13,573
44763	-20,293	-4,0284	-6,1995	14,217
44764	-19,816	-3,5128	-6,0711	13,964
44765	-19,894	-4,5071	-6,031	14,093
44766	-19,37	-4,0106	-7,4253	12,773
44767	-19,951	-4,018	-7,1103	13,269
44768	-19,476	-3,5051	-6,9856	13,114
44769	-19,58	-4,5056	-6,9511	13,238
44770	-19,046	-4,0115	-8,3554	12,058
44771	-19,601	-4,0153	-7,9635	12,502
44772	-19,179	-3,5099	-7,9119	12,369
44773	-19,248	-4,505	-7,8941	12,452
44774	-18,679	-4,0126	-9,2865	11,419
44775	-19,403	-4,0129	-9,0237	11,728
44776	-18,829	-3,5037	-8,8321	11,699
44777	-18,914	-4,5065	-8,8339	11,764
44778	-18,243	-4,0101	-10,197	10,86
44779	-18,932	-4,0074	-9,9758	11,076
44780	-18,446	-3,5064	-9,7523	11,106
44781	-18,507	-4,5061	-9,7507	11,158
44782	-17,775	-4,009	-11,073	10,391
44783	-18,446	-4,0099	-10,869	10,554
44784	-17,994	-3,5068	-10,638	10,598
44785	-18,026	-4,504	-10,643	10,637
44786	-17,307	-4,0131	-11,925	10,003
44787	-17,979	-4,0151	-11,733	10,128
44788	-17,545	-3,53	-11,51	10,173
44789	-17,548	-4,505	-11,509	10,206
44790	-16,834	-4,021	-12,768	9,6812
44791	-17,51	-4,0172	-12,579	9,7765
44792	-17,074	-3,5101	-12,333	9,8273
44793	-17,071	-4,508	-12,353	9,8508
44794	-16,363	-4,0252	-13,609	9,4179
44795	-17,039	-4,0196	-13,417	9,4883
44796	-16,594	-3,5405	-13,187	9,5313
44797	-16,596	-4,513	-13,189	9,5589
44798	-15,9	-4,0233	-14,449	9,209
44799	-16,573	-4,0208	-14,26	9,2542
44800	-16,127	-3,5385	-14,027	9,2964
44801	-16,129	-4,5122	-14,029	9,3219
44802	-15,438	-4,0212	-15,287	9,0513
44803	-16,112	-4,0185	-15,101	9,0729
44804	-15,67	-3,5352	-14,867	9,114
44805	-15,671	-4,5111	-14,869	9,1378
44806	-14,975	-4,0194	-16,127	8,9412
44807	-15,645	-4,0188	-15,948	8,9397
44808	-15,203	-3,5317	-15,704	8,9812
44809	-15,204	-4,5101	-15,705	9,0035
44810	-14,514	-4,0182	-16,976	8,876
44811	-15,186	-4,0176	-16,789	8,8533
44812	-14,744	-3,529	-16,548	8,8939
44813	-14,745	-4,5093	-16,55	8,9149
44814	-14,053	-4,0164	-17,822	8,8544
44815	-14,72	-4,0169	-17,644	8,8098
44816	-14,282	-3,5274	-17,402	8,8509
44817	-14,282	-4,5089	-17,403	8,8709
44818	-13,592	-4,0153	-18,664	8,8739
44819	-14,259	-4,0152	-18,485	8,8081
44820	-13,834	-3,5098	-18,225	8,8499
44821	-13,822	-4,5075	-18,244	8,8696
44822	-13,126	-4,0149	-19,516	8,9327
44823	-13,795	-4,0149	-19,337	8,845
44824	-13,361	-3,5242	-19,086	8,8897
44825	-13,361	-4,5078	-19,087	8,908
44826	-0,63409	-4,0454	-39,306	25,139
44827	-0,60921	-4,0131	-39,91	25,207
44828	-0,2276	-3,5423	-39,634	25,25
44829	-0,13596	-4,28	-39,902	26,05
44830	-0,30388	-4,5293	-39,696	23,94
44831	-12,663	-4,0108	-20,365	9,0277
44832	-13,33	-4,0123	-20,188	8,9191
44833	-12,89	-3,5219	-19,945	8,9683
44834	-12,891	-4,5071	-19,945	8,9857
44835	-1,3323	-4,037	-38,67	23,732
44836	-1,3234	-4,0374	-39,288	24,795
44837	-0,93527	-3,5423	-39,103	24,915
44838	-0,97044	-4,5161	-39,031	23,905
44839	-12,198	-4,0109	-21,214	9,1583
44840	-12,87	-4,0077	-21,033	9,0267
44841	-12,448	-3,5053	-20,775	9,077
44842	-12,429	-4,5037	-20,792	9,0981
44843	-2,0486	-4,0372	-37,948	21,883
44844	-2,0264	-4,0455	-38,595	22,628
44845	-1,7943	-3,564	-38,303	22,952
44846	-1,6859	-4,5209	-38,302	22,501
44847	-11,729	-4,0146	-22,072	9,3239
44848	-12,399	-4,0117	-21,891	9,1702
44849	-11,976	-3,5106	-21,634	9,2256
44850	-11,961	-4,5072	-21,644	9,2459
44851	-2,7505	-4,021	-37,25	20,18
44852	-2,7686	-4,0428	-37,883	20,707
44853	-2,3913	-3,5319	-37,649	21,233
44854	-2,4085	-4,5163	-37,587	20,888
44855	-11,266	-4,015	-22,923	9,5195
44856	-11,931	-4,0139	-22,749	9,3452
44857	-11,496	-3,523	-22,501	9,4102
44858	-11,497	-4,5074	-22,501	9,4266
44859	-3,431	-4,0036	-36,525	18,659
44860	-3,4847	-4,0013	-37,212	19,041
44861	-3,0825	-3,5219	-36,916	19,473
44862	-3,0925	-4,5048	-36,913	19,398
44863	-10,803	-4,0152	-23,771	9,7456
44864	-11,466	-4,0142	-23,599	9,5493
44865	-11,035	-3,5233	-23,345	9,6201
44866	-11,036	-4,5076	-23,346	9,6364
44867	-4,0694	-3,9986	-35,728	17,336
44868	-4,1773	-3,9967	-36,424	17,568
44869	-3,7489	-3,4965	-36,159	17,991
44870	-3,7694	-4,4988	-36,137	17,972
44871	-10,34	-4,0155	-24,621	10,002
44872	-11,006	-4,0144	-24,451	9,7818
44873	-10,569	-3,5236	-24,195	9,8622
44874	-10,57	-4,5076	-24,196	9,8786
44875	-4,6461	-4,0023	-34,888	16,243
44876	-4,7868	-3,9878	-35,592	16,399
44877	-4,3895	-3,4998	-35,311	16,709
44878	-4,3693	-4,4998	-35,319	16,787
44879	-9,879	-4,0161	-25,467	10,288
44880	-10,541	-4,0148	-25,302	10,045
44881	-10,108	-3,5245	-25,046	10,133
44882	-10,109	-4,5079	-25,046	10,15
44883	-5,1879	-4,0082	-34,013	15,311
44884	-5,3351	-3,9995	-34,721	15,446
44885	-4,9171	-3,5127	-34,451	15,73
44886	-4,9228	-4,5025	-34,457	15,78
44887	-9,4146	-4,0166	-26,312	10,604
44888	-10,078	-4,015	-26,148	10,336
44889	-9,6473	-3,5254	-25,888	10,432
44890	-9,6487	-4,5082	-25,888	10,449
44891	-5,6939	-4,0116	-33,133	14,52
44892	-5,8622	-4,0056	-33,837	14,626
44893	-5,4734	-3,5112	-33,572	14,851
44894	-5,4504	-4,5057	-33,575	14,916
44895	-8,9491	-4,0173	-27,16	10,953
44896	-9,6088	-4,0154	-26,997	10,659
44897	-9,1788	-3,5266	-26,735	10,765
44898	-9,1804	-4,5085	-26,735	10,783
44899	-6,1782	-4,0124	-32,261	13,835
44900	-6,3469	-4,0074	-32,966	13,935
44901	-5,9312	-3,5201	-32,695	14,149
44902	-5,9348	-4,5059	-32,698	14,185
44903	-8,489	-4,018	-28,006	11,331
44904	-9,147	-4,016	-27,85	11,011
44905	-8,7159	-3,5278	-27,584	11,129
44906	-8,7177	-4,5089	-27,584	11,148
44907	-6,6516	-4,0141	-31,391	13,225
44908	-6,8344	-4,0104	-32,092	13,31
44909	-6,4194	-3,5212	-31,823	13,5
44910	-6,4215	-4,5066	-31,825	13,532
44911	-8,0292	-4,0181	-28,847	11,743
44912	-8,6885	-4,0165	-28,693	11,391
44913	-8,2588	-3,5283	-28,426	11,522
44914	-8,2604	-4,5091	-28,427	11,542
44915	-7,1111	-4,016	-30,533	12,683
44916	-7,3033	-4,0132	-31,228	12,758
44917	-6,8807	-3,5239	-30,956	12,931
44918	-6,8818	-4,5075	-30,958	12,958
44919	-7,5693	-4,0175	-29,687	12,193
44920	-8,2252	-4,0165	-29,537	11,809
44921	-7,7968	-3,5281	-29,266	11,952
44922	-7,7981	-4,509	-29,267	11,974
44923	-7,766	-4,0155	-30,379	12,261
44924	-7,3396	-3,5266	-30,106	12,418
44925	-7,3405	-4,5085	-30,108	12,443
44926	4,9019	-1,5276	-45,185	17,135
44927	4,934	-2,5132	-45,057	17,17
44928	4,7773	-2,0384	-45,614	16,299
44929	5,3527	-2,0203	-45,371	14,882
44930	4,9493	-2,0441	-44,75	17,324
44931	4,4136	-2,0275	-45,027	22,176
44932	4,8256	-1,0087	-45,767	15,717
44933	4,8572	-0,75279	-44,812	18,09
44934	4,8813	-0,50177	-45,303	17,254
44935	4,4883	-1,0036	-45,16	21,54
44936	4,8936	-3,004	-45,599	15,636
44937	5,0189	-3,46	-45,066	16,69
44938	5,2083	-2,9675	-44,642	16,014
44939	5,5429	-2,9931	-45,224	14,278
44940	4,5204	-2,9891	-45,031	21,329
44941	4,5751	-3,1198	-46,605	14,013
44942	4,7337	-3,5235	-46,119	15,361
44943	4,7369	-2,5291	-46,155	15,174
44944	5,127	-3,0851	-46,254	13,481
44945	4,3152	-3,0182	-46,045	18,686
44946	4,3919	-2,6197	-47,109	13,025
44947	4,1677	-3,2223	-47,545	11,684
44948	4,3859	-3,6144	-47,037	13,343
44949	5,009	-3,1077	-47,133	11,519
44950	3,9729	-3,1047	-46,966	15,203
44951	3,943	-3,6274	-47,973	10,664
44952	4,1612	-4,0195	-47,465	12,057
44953	4,4649	-4,0511	-47,917	10,085
44954	3,9481	-4,0816	-48,152	10,14
44955	3,6983	-4,1435	-48,336	9,5722
44956	3,4029	-4,0278	-48,562	8,861
44957	3,5833	-3,6879	-48,606	9,1574
44958	3,5958	-4,278	-48,11	10,165
44959	4,0002	-4,5084	-47,778	11,503
44960	3,4751	-4,0094	-47,791	11,671
44961	4,4614	-1,0164	-46,683	14,094
44962	4,701	-1,5195	-46,196	15,231
44963	4,5678	-0,50694	-46,202	16,12
44964	4,2788	-1,0091	-46,089	18,816
44965	4,3141	-1,5258	-47,146	13,084
44966	3,963	-2,0705	-47,815	10,804
44967	4,5537	-2,029	-46,66	13,88
44968	5,1465	-2,0557	-47,276	10,981
44969	3,9606	-2,0181	-47,002	15,085
44970	3,7388	-2,6731	-48,251	9,8221
44971	3,5004	-3,022	-48,481	9,0928
44972	3,9356	-3,3629	-48,194	9,9909
44973	3,572	-3,2985	-48,648	9,0133
44974	4,2829	-3,1453	-48,15	9,909
44975	3,463	-3,1204	-47,834	11,518
44976	4,0421	-1,0159	-47,605	11,745
44977	4,211	-0,50941	-47,107	13,616
44978	3,8942	-1,0113	-47,005	15,405
44979	3,691	-1,5606	-48,274	9,7882
44980	3,2182	-2,0494	-48,791	8,3428
44981	4,2133	-2,1479	-48,677	8,4903
44982	3,2694	-2,0557	-48,07	10,933
44983	3,4443	-0,95083	-48,521	9,0932
44984	3,7586	-0,50646	-48,019	10,67
44985	3,4139	-1,0085	-47,858	11,5
44986	2,9715	-1,4397	-49,039	7,7625
44987	2,6593	-0,94265	-49,241	7,0724
44988	3,0682	-0,44437	-48,878	8,1445
44989	2,6609	-0,94614	-48,638	8,0881
44990	2,3677	-2,0398	-49,376	6,6693
44991	2,9799	-2,3982	-49,021	7,7491
44992	3,3867	-1,9851	-49,284	7,4081
44993	2,5807	-1,9968	-48,694	7,885
44994	2,0556	-1,5428	-49,579	6,0908
44995	1,3849	-0,99328	-49,682	5,2319
44996	1,8594	-1,2709	-49,808	5,8228
44997	1,7747	-0,98662	-49,417	5,3773
44998	2,4393	-0,49829	-49,46	6,6483
44999	1,8406	-0,99979	-49,121	5,3149
45000	1,2305	-1,9575	-49,786	5,119
45001	1,9816	-2,4163	-49,655	5,989
45002	1,9439	-1,9687	-49,971	5,8438
45003	2,6289	-2,1475	-49,958	6,0754
45004	1,6487	-1,8172	-49,885	5,5999
45005	2,0013	-2,2976	-50,007	5,9417
45006	1,6308	-2,0459	-49,198	5,1772
45007	0,55978	-1,408	-49,89	4,3213
45008	-3,2805e-002	-0,99232	-49,874	4,3059
45009	0,97806	-1,2676	-49,989	4,7521
45010	0,89338	-0,98332	-49,599	4,4404
45011	0,47358	-0,49499	-49,838	4,05
45012	0,49101	-0,99622	-49,417	2,9107
45013	1,369e-002	-1,9025	-49,857	4,3211
45014	0,74176	-2,3268	-49,845	4,4119
45015	0,98992	-1,7927	-50,097	4,9172
45016	0,51846	-1,824	-50,379	4,866
45017	1,0343	-1,6856	-50,015	4,8436
45018	1,3869	-2,166	-50,137	5,1405
45019	0,5482	-1,914	-49,444	3,0319
45020	-0,57889	-1,4868	-49,841	4,3081
45021	-1,0693	-0,99698	-49,788	4,8597
45022	-0,56633	-0,49732	-49,861	4,2163
45023	-0,52753	-0,99828	-49,427	2,9198
45024	-1,1115	-1,9947	-49,68	4,747
45025	-0,59797	-2,544	-49,753	4,1131
45026	-0,61928	-1,9934	-50,389	4,8698
45027	-0,53622	-1,9903	-49,384	2,9082
45028	-1,6019	-1,5049	-49,628	5,3036
45029	-2,0666	-1,0455	-49,568	5,9887
45030	-1,5455	-0,49966	-49,733	5,2948
45031	-1,4953	-1,0003	-49,216	4,8861
45032	-2,165	-2,0128	-49,257	6,3903
45033	-1,6984	-2,5105	-49,499	5,3865
45034	-1,7175	-1,944	-50,112	5,4944
45035	-1,5272	-2,0058	-49,151	4,9561
45036	-1,3223	-3,0321	-40,453	22,806
45037	-0,81101	-2,5244	-40,253	22,955
45038	-0,87404	-3,497	-40,249	23,889
45039	-1,1196	-3,075	-40,074	23,698
45040	-0,49242	-3,0262	-39,973	23,87
45041	-0,65272	-3,0133	-40,644	19,331
45042	-2,2693	-3,0424	-40,862	22,79
45043	-1,7924	-2,5193	-40,499	23,11
45044	-1,8467	-3,535	-40,653	23,799
45045	-2,0255	-3,0614	-40,411	23,205
45046	-1,6212	-3,0191	-40,954	21,269
45047	-4,3545	-3,5192	-42,568	20,939
45048	-4,5192	-3,9607	-41,999	19,772
45049	-4,7428	-3,9619	-42,594	19,053
45050	-4,7482	-3,7809	-43,294	18,721
45051	-3,8954	-3,9622	-42,112	22,355
45052	-4,4591	-4,1829	-42,921	21,025
45053	-4,251	-4,4503	-42,439	21,692
45054	-3,9377	-3,9496	-42,819	25,884
45055	-3,9246	-3,098	-42,17	21,435
45056	-3,0939	-3,0525	-41,386	22,701
45057	-3,4751	-2,561	-41,686	22,533
45058	-3,4655	-3,5409	-41,714	23,204
45059	-3,7365	-3,0918	-41,342	21,406
45060	-3,2334	-3,0288	-42,023	25,946
45061	-2,6297	-1,5533	-49,196	7,1406
45062	-3,273	-1,0889	-48,816	8,1035
45063	-2,7613	-0,99187	-48,92	7,9303
45064	-3,5657	-1,5502	-49,176	7,0969
45065	-2,4722	-0,54579	-49,573	6,3908
45066	-2,4193	-1,0462	-48,867	7,6844
45067	-4,7214	-3,054	-43,307	18,811
45068	-4,3618	-2,8028	-42,599	20,655
45069	-4,7121	-3,0612	-42,727	19,142
45070	-4,5648	-3,099	-42,115	19,342
45071	-4,7581	-2,7788	-42,941	18,86
45072	-3,9598	-3,0684	-42,893	25,573
45073	-2,8002	-2,4625	-48,865	7,8275
45074	-3,1865	-2,0758	-48,477	9,0234
45075	-2,8273	-2,0182	-49,628	6,8816
45076	-3,6316	-2,012	-48,93	7,3884
45077	-2,4846	-2,0078	-48,62	8,0628
45078	-4,9739	-2,9829	-44,573	16,971
45079	-5,1151	-3,3157	-44,033	17,065
45080	-4,9459	-2,6204	-43,978	18,069
45081	-5,4268	-2,4201	-43,801	15,89
45082	-5,3051	-2,9431	-43,638	16,268
45083	-5,6717	-2,95	-44,176	14,883
45084	-5,1022	-2,6949	-43,604	17,183
45085	-4,4748	-2,9843	-44,007	23,245
45086	-4,765	-2,998	-45,655	16,172
45087	-4,8605	-3,3644	-45,21	17,166
45088	-4,864	-2,4891	-45,137	17,336
45089	-5,3576	-2,9992	-45,313	14,757
45090	-4,4411	-2,9971	-45,088	21,789
45091	-4,4624	-3,0008	-46,605	14,39
45092	-4,6349	-3,495	-46,146	15,749
45093	-4,6591	-2,4976	-46,108	15,717
45094	-5,0838	-2,9985	-46,256	13,676
45095	-4,2657	-2,9994	-46,046	18,996
45096	2,5937	-2,7746	-49,3	6,9826
45097	2,9603	-3,4224	-49,07	7,5726
45098	3,246	-2,7784	-49,037	7,8677
45099	3,1407	-3,0824	-49,114	7,7533
45100	2,6708	-2,9042	-48,619	8,1029
45101	-3,9702	-3,0002	-47,54	11,982
45102	-4,2479	-3,5003	-47,068	13,666
45103	-4,2899	-2,5066	-47,057	13,567
45104	-4,7029	-2,9997	-47,186	12,039
45105	-3,9094	-3,0003	-46,968	15,503
45106	1,4929	-2,7856	-49,714	5,2147
45107	1,8907	-3,4868	-49,769	5,7989
45108	1,5664	-2,9716	-50,35	5,8373
45109	2,2759	-3,0084	-50,329	6,0397
45110	2,6653	-3,0512	-49,467	6,7812
45111	2,5369	-2,8529	-49,753	6,3869
45112	2,138	-2,6247	-50,006	6,0947
45113	1,7684	-2,8729	-49,197	5,2628
45114	-3,2841	-2,9546	-48,391	9,3477
45115	-3,649	-3,5011	-47,966	11,032
45116	-3,6704	-2,5678	-48,004	10,833
45117	-4,086	-2,9846	-48,179	9,8777
45118	-3,3286	-2,9994	-47,828	11,854
45119	0,1301	-2,9683	-49,742	4,1945
45120	0,75896	-3,4327	-49,816	4,3413
45121	0,54532	-2,9975	-50,303	4,8517
45122	1,5126	-2,6668	-50,066	5,132
45123	0,67493	-2,9147	-49,373	3,0627
45124	-2,3337	-2,9602	-49,107	6,7221
45125	-2,8676	-3,4574	-48,745	8,1741
45126	-3,13	-2,9204	-49,322	7,4279
45127	-2,5885	-2,9551	-48,536	8,3007
45128	-1,1849	-3,0597	-49,572	4,7484
45129	-0,74459	-3,6028	-49,785	4,2572
45130	-0,65651	-3,1726	-50,171	4,6445
45131	-1,1433	-3,37	-50,178	4,807
45132	-0,54462	-3,0551	-49,34	2,8135
45133	-1,8483	-3,5278	-49,372	5,6686
45134	-1,9327	-3,0578	-49,813	5,6421
45135	-1,7209	-3,3207	-50,04	5,5925
45136	-1,5903	-3,0056	-49,087	5,1364
45137	-24,3	-0,98879	5,7784	19,325
45138	-25,07	-0,98711	5,429	22,112
45139	-24,747	-1,48	5,9893	18,927
45140	-24,694	-0,49093	5,9404	18,866
45141	-21,72	-0,97497	4,6885	17,764
45142	-21,425	-1,0175	3,9927	17,796
45143	-21,274	-1,4837	4,5137	17,079
45144	-20,912	-0,97948	4,3167	16,531
45145	-21,328	-0,49219	4,4964	17,165
45146	-23,459	-0,9907	5,4455	19,501
45147	-24,128	-0,99246	5,1807	22,581
45148	-23,899	-1,4859	5,6425	19,663
45149	-23,905	-0,49785	5,6008	19,633
45150	-22,576	-0,97563	5,0749	18,887
45151	-22,25	-0,97418	4,4343	19,805
45152	-22,119	-1,4746	4,8958	18,39
45153	-22,165	-0,48278	4,8703	18,483
45154	-23,171	-0,98876	4,8589	21,666
45155	-23,004	-1,4827	5,2983	19,374
45156	-23,025	-0,49285	5,2591	19,416
45157	11,49	-3,5136	-26,87	9,906
45158	11,505	-4,5082	-26,868	9,9147
45159	5,8614	-3,9982	-41,478	15,103
45160	5,9934	-3,9945	-42,168	14,571
45161	5,5734	-3,4485	-41,967	15,703
45162	5,579	-4,4969	-41,929	15,292
45163	6,4078	-4,0086	-40,545	14,242
45164	6,5579	-3,996	-41,23	13,691
45165	6,1513	-3,468	-40,958	14,675
45166	6,1444	-4,5012	-40,998	14,34
45167	6,9167	-4,0144	-39,634	13,719
45168	7,0802	-4,0089	-40,323	13,226
45169	6,6655	-3,5266	-40,087	14,025
45170	6,6713	-4,5074	-40,093	13,801
45171	7,3876	-4,0095	-38,715	13,339
45172	7,5685	-4,0101	-39,413	12,898
45173	7,16	-3,5039	-39,128	13,576
45174	7,1621	-4,507	-39,175	13,457
45175	7,8386	-4,0024	-37,808	12,99
45176	8,036	-4,0046	-38,506	12,608
45177	7,6075	-3,5124	-38,257	13,195
45178	7,6131	-4,5025	-38,255	13,149
45179	8,294	-3,9951	-36,928	12,623
45180	8,4963	-4,001	-37,618	12,303
45181	8,0666	-3,496	-37,354	12,816
45182	8,062	-4,4999	-37,362	12,812
45183	8,7604	-3,9939	-36,06	12,239
45184	8,9591	-3,9962	-36,748	11,976
45185	8,5276	-3,4894	-36,485	12,43
45186	8,5239	-4,4953	-36,493	12,438
45187	10,767	-3,9868	34,353	11,7
45188	11,248	-3,9906	33,483	11,249
45189	11,458	-3,9907	34,171	11,249
45190	11,013	-3,4848	33,918	11,456
45191	10,564	-3,9872	33,665	11,641
45192	11,01	-4,4944	33,919	11,471
45193	10,281	-3,9853	35,221	12,201
45194	10,971	-3,9876	35,039	11,705
45195	10,526	-3,4793	34,788	11,931
45196	10,067	-3,982	34,533	12,134
45197	10,523	-4,4924	34,788	11,948
45198	9,2401	-3,9991	-35,195	11,846
45199	9,4378	-4,0011	-35,885	11,626
45200	9,0026	-3,4997	-35,626	12,036
45201	8,997	-4,4986	-35,627	12,051
45202	11,722	-3,9938	32,611	10,841
45203	11,931	-3,9937	33,297	10,836
45204	11,486	-3,4897	33,046	11,031
45205	11,044	-3,9919	32,793	11,203
45206	11,485	-4,4962	33,047	11,044
45207	9,8044	-3,987	36,09	12,756
45208	10,494	-3,9877	35,91	12,202
45209	10,041	-3,4774	35,656	12,457
45210	9,5791	-3,9795	35,399	12,678
45211	10,038	-4,4929	35,654	12,478
45212	9,7245	-4,0035	-34,334	11,459
45213	9,9144	-4,0023	-35,017	11,278
45214	9,4792	-3,4977	-34,762	11,648
45215	9,486	-4,5005	-34,769	11,655
45216	12,196	-3,9958	31,738	10,464
45217	12,405	-3,9958	32,423	10,454
45218	11,959	-3,4931	32,174	10,641
45219	11,517	-3,9953	31,922	10,806
45220	11,959	-4,4975	32,175	10,653
45221	9,3424	-3,9899	36,96	13,372
45222	10,021	-3,9914	36,78	12,752
45223	9,5712	-3,4931	36,539	13,042
45224	9,1024	-3,9794	36,262	13,285
45225	9,5701	-4,4941	36,522	13,062
45226	10,2	-4,0057	-33,474	11,093
45227	10,393	-4,0068	-34,157	10,933
45228	9,9583	-3,5045	-33,904	11,271
45229	9,9732	-4,503	-33,91	11,272
45230	12,669	-3,9969	30,865	10,116
45231	12,878	-3,997	31,549	10,098
45232	12,433	-3,4951	31,301	10,28
45233	11,993	-3,9971	31,051	10,44
45234	12,433	-4,4982	31,302	10,292
45235	8,9079	-4,004	37,85	14,055
45236	9,5613	-3,9949	37,651	13,359
45237	9,1162	-3,4922	37,401	13,686
45238	8,6613	-3,9863	37,131	13,953
45239	9,1154	-4,4958	37,394	13,719
45240	10,67	-4,0079	-32,613	10,746
45241	10,862	-4,0076	-33,293	10,605
45242	10,426	-3,5056	-33,043	10,918
45243	10,444	-4,5026	-33,046	10,917
45244	13,143	-3,9975	29,992	9,793
45245	13,351	-3,9977	30,675	9,7665
45246	12,906	-3,4961	30,428	9,9445
45247	12,466	-3,9979	30,18	10,103
45248	12,906	-4,4986	30,429	9,9569
45249	8,5103	-4,0196	38,751	14,797
45250	9,1301	-4,0118	38,545	14,025
45251	8,663	-3,5276	38,324	14,441
45252	8,2616	-4,0203	38,062	14,713
45253	8,704	-4,5081	38,293	14,438
45254	11,141	-4,0152	-31,752	10,415
45255	11,33	-4,0109	-32,431	10,29
45256	10,894	-3,5112	-32,183	10,58
45257	10,911	-4,5052	-32,184	10,58
45258	13,616	-3,9978	29,118	9,4929
45259	13,825	-3,998	29,8	9,4567
45260	13,38	-3,4968	29,555	9,6332
45261	12,94	-3,9984	29,307	9,7895
45262	13,38	-4,4988	29,555	9,6459
45263	8,1087	-4,044	39,669	15,651
45264	8,7328	-4,0206	39,438	14,728
45265	8,245	-3,5409	39,226	15,262
45266	7,9132	-4,0292	38,964	15,515
45267	8,3203	-4,5115	39,197	15,223
45268	11,608	-4,0194	-30,889	10,106
45269	11,8	-4,0192	-31,571	9,9885
45270	11,377	-3,5303	-31,321	10,25
45271	11,378	-4,51	-31,321	10,261
45272	14,09	-3,9979	28,243	9,2149
45273	14,298	-3,9982	28,925	9,168
45274	13,853	-3,4971	28,68	9,3443
45275	13,413	-3,9988	28,434	9,5
45276	13,853	-4,499	28,681	9,3573
45277	7,699	-4,0712	40,603	16,616
45278	8,3138	-4,0467	40,365	15,543
45279	7,8395	-3,5871	40,151	16,184
45280	7,4977	-4,0761	39,921	16,545
45281	7,9085	-4,5325	40,135	16,163
45282	12,069	-4,0182	-30,026	9,8186
45283	12,262	-4,0174	-30,705	9,707
45284	11,838	-3,5287	-30,458	9,954
45285	11,839	-4,5094	-30,458	9,9648
45286	14,563	-3,9979	27,368	8,9586
45287	14,771	-3,9981	28,049	8,8999
45288	14,326	-3,4971	27,806	9,0771
45289	13,882	-3,9989	27,56	9,2349
45290	14,327	-4,4989	27,806	9,0906
45291	7,2887	-4,0779	41,522	17,656
45292	7,904	-4,057	41,286	16,395
45293	7,5052	-3,6408	41,09	17,072
45294	7,1179	-4,0875	40,849	17,643
45295	7,5072	-4,5387	41,065	17,17
45296	12,529	-4,017	-29,162	9,5503
45297	12,723	-4,0171	-29,842	9,4424
45298	12,299	-3,5266	-29,594	9,6762
45299	12,299	-4,5088	-29,594	9,6872
45300	15,037	-3,9981	26,494	8,724
45301	15,244	-3,9981	27,174	8,6524
45302	14,8	-3,4972	26,931	8,8314
45303	14,356	-3,9989	26,687	8,9902
45304	14,8	-4,499	26,931	8,8454
45305	6,8407	-4,0703	42,448	18,837
45306	7,4728	-4,0614	42,198	17,302
45307	7,0499	-3,6035	41,953	18,241
45308	6,699	-4,0843	41,773	18,912
45309	7,0784	-4,5392	41,988	18,276
45310	12,99	-4,0161	-28,298	9,3011
45311	13,186	-4,0161	-28,976	9,1944
45312	12,76	-3,525	-28,73	9,4172
45313	12,76	-4,5082	-28,73	9,4285
45314	15,511	-3,9986	25,619	8,5116
45315	15,717	-3,9985	26,298	8,4261
45316	15,274	-3,4977	26,056	8,6075
45317	14,83	-3,9992	25,813	8,768
45318	15,274	-4,4991	26,056	8,6222
45319	6,4095	-4,0641	43,338	20,051
45320	7,0059	-4,0515	43,104	18,295
45321	6,588	-3,5786	42,858	19,525
45322	6,2346	-4,0603	42,708	20,459
45323	6,6049	-4,5312	42,916	19,519
45324	13,452	-4,0154	-27,433	9,0714
45325	13,648	-4,0154	-28,113	8,9639
45326	13,221	-3,5238	-27,866	9,1777
45327	13,221	-4,5078	-27,866	9,1892
45328	6,0366	-4,0626	44,173	21,031
45329	6,5915	-4,0662	43,972	19,143
45330	6,1864	-3,5789	43,721	20,751
45331	5,8211	-4,0566	43,608	22,079
45332	6,2141	-4,533	43,759	20,531
45333	5,4535	-4,0225	44,841	24,259
45334	6,1503	-4,0583	44,771	19,992
45335	5,8642	-3,5987	44,529	21,615
45336	5,4902	-4,0706	44,453	23,892
45337	5,8592	-4,5296	44,587	21,195
45338	15,984	-3,9993	24,744	8,3221
45339	16,19	-3,9991	25,422	8,2215
45340	15,747	-3,4988	25,181	8,4062
45341	15,304	-3,9998	24,939	8,569
45342	15,748	-4,4995	25,181	8,4215
45343	4,9494	-4,0008	45,693	25,801
45344	5,3548	-4,0786	45,4	23,882
45345	5,0926	-3,9891	44,357	26,122
45346	4,7386	-4,0036	44,736	29,32
45347	5,0484	-3,5403	45,037	27,155
45348	4,8606	-3,975	44,172	26,718
45349	5,0846	-4,034	44,707	26,724
45350	5,0846	-4,4929	45,184	25,838
45351	4,5239	-3,9947	45,049	34,499
45352	13,914	-4,0147	-26,569	8,8615
45353	14,111	-4,0148	-27,247	8,7513
45354	13,672	-3,5126	-27,005	8,9625
45355	13,683	-4,5075	-27,001	8,9696
45356	4,6699	-3,8455	46,807	23,428
45357	5,1703	-4,0747	46,459	22,034
45358	4,8412	-3,5093	46,241	25,209
45359	4,8558	-4,5078	46,313	23,617
45360	4,3668	-4,0093	46,126	33,807
45361	16,458	-4,	23,869	8,1567
45362	16,664	-3,9997	24,547	8,0396
45363	16,221	-3,4998	24,306	8,2283
45364	15,779	-4,0004	24,065	8,3939
45365	16,221	-4,4998	24,306	8,2444
45366	4,9379	-3,8563	47,399	19,908
45367	4,5608	-3,8327	47,992	19,602
45368	4,0258	-3,7666	48,057	19,821
45369	4,3773	-3,913	47,681	20,95
45370	4,4879	-3,3575	47,379	22,014
45371	4,5893	-4,3377	47,329	21,185
45372	4,0146	-3,8389	47,093	30,094
45373	14,373	-4,0126	-25,705	8,6735
45374	14,573	-4,0142	-26,383	8,5575
45375	14,145	-3,5219	-26,136	8,7576
45376	14,145	-4,5072	-26,136	8,7701
45377	16,932	-4,0007	22,995	8,0167
45378	17,137	-4,0003	23,671	7,8817
45379	16,695	-3,5008	23,431	8,075
45380	16,254	-4,0011	23,191	8,2437
45381	16,695	-4,5002	23,432	8,0919
45382	5,4383	-4,0855	47,051	18,501
45383	5,7513	-4,0368	47,665	16,295
45384	5,4555	-4,0326	47,932	16,728
45385	5,4832	-3,5629	47,47	17,519
45386	5,3772	-4,5186	47,491	17,385
45387	14,832	-4,0112	-24,842	8,5066
45388	15,034	-4,012	-25,518	8,3841
45389	14,593	-3,509	-25,278	8,5842
45390	14,604	-4,5054	-25,272	8,5929
45391	5,5757	-4,1526	46,166	20,014
45392	5,8594	-4,1135	47,049	17,171
45393	5,6655	-3,6932	46,607	18,713
45394	5,5725	-4,5669	46,645	18,49
45395	17,406	-4,0014	22,12	7,9037
45396	17,611	-4,001	22,796	7,7491
45397	17,169	-3,502	22,557	7,948
45398	16,727	-4,0016	22,319	8,1211
45399	17,169	-4,5005	22,557	7,9657
45400	6,0516	-4,1144	45,33	19,649
45401	6,2387	-4,1203	46,006	17,908
45402	5,7388	-3,6586	45,669	20,643
45403	5,833	-4,5857	45,779	19,321
45404	15,296	-4,0119	-23,978	8,36
45405	15,495	-4,0105	-24,653	8,2307
45406	15,056	-3,5096	-24,414	8,4261
45407	15,067	-4,5058	-24,407	8,4359
45408	6,7052	-4,062	44,57	18,126
45409	6,8339	-4,0583	45,218	16,923
45410	6,3106	-3,5904	44,885	19,339
45411	6,4589	-4,5287	44,992	18,257
45412	17,88	-4,0022	21,246	7,8195
45413	18,084	-4,0016	21,92	7,6436
45414	17,645	-3,5005	21,681	7,8477
45415	17,203	-4,0022	21,444	8,0262
45416	17,643	-4,5009	21,683	7,8673
45417	7,1879	-4,0535	43,739	17,419
45418	7,3508	-4,0492	44,394	16,406
45419	6,9361	-3,5584	44,134	17,876
45420	6,9689	-4,5333	44,185	17,6
45421	15,761	-4,0124	-23,115	8,2364
45422	15,96	-4,0112	-23,789	8,0973
45423	15,521	-3,5101	-23,551	8,2901
45424	15,532	-4,5061	-23,543	8,3014
45425	7,638	-4,0425	42,855	16,791
45426	7,8152	-4,0419	43,522	16,008
45427	7,3909	-3,5478	43,268	17,218
45428	7,4151	-4,5203	43,3	17,128
45429	18,354	-4,0031	20,371	7,7662
45430	18,558	-4,0023	21,045	7,567
45431	18,116	-3,5044	20,808	7,7791
45432	17,676	-4,0031	20,572	7,9625
45433	18,117	-4,5013	20,808	7,799
45434	8,0881	-4,0405	41,962	16,071
45435	8,2699	-4,0402	42,637	15,515
45436	7,8625	-3,5716	42,419	16,436
45437	7,869	-4,5223	42,417	16,473
45438	16,229	-4,0144	-22,246	8,138
45439	16,426	-4,0115	-22,924	7,9866
45440	15,987	-3,5105	-22,688	8,1781
45441	15,997	-4,5063	-22,679	8,1911
45442	8,5189	-4,0325	41,048	15,348
45443	8,7083	-4,0331	41,734	14,964
45444	8,3014	-3,5586	41,508	15,703
45445	8,3072	-4,5183	41,507	15,757
45446	18,827	-4,0039	19,497	7,7465
45447	19,031	-4,0033	20,17	7,5216
45448	18,59	-3,5057	19,934	7,7416
45449	18,15	-4,0039	19,699	7,9314
45450	18,59	-4,5017	19,934	7,7629
45451	8,938	-4,0233	40,134	14,643
45452	9,1382	-4,0254	40,826	14,377
45453	8,7251	-3,5466	40,591	14,98
45454	8,7306	-4,5142	40,589	15,029
45455	16,695	-4,0156	-21,376	8,0671
45456	16,893	-4,013	-22,054	7,9009
45457	16,454	-3,5121	-21,819	8,0922
45458	16,463	-4,508	-21,809	8,1071
45459	9,3526	-4,0128	39,232	13,977
45460	9,5655	-4,0164	39,924	13,788
45461	9,1408	-3,5314	39,682	14,292
45462	9,1453	-4,5091	39,679	14,329
45463	19,301	-4,0048	18,624	7,763
45464	19,505	-4,0039	19,295	7,5102
45465	19,066	-3,5033	19,058	7,7389
45466	18,625	-4,0048	18,827	7,9358
45467	19,064	-4,5022	19,06	7,7617
45468	9,7835	-4,0027	38,346	13,347
45469	9,9974	-4,007	39,035	13,219
45470	9,5574	-3,5143	38,789	13,649
45471	9,5598	-4,5037	38,785	13,676
45472	17,156	-4,0126	-20,515	8,0256
45473	17,358	-4,0123	-21,188	7,8422
45474	16,918	-3,5103	-20,954	8,035
45475	16,927	-4,5076	-20,943	8,0514
45476	10,24	-3,9963	37,472	12,756
45477	10,45	-3,9992	38,159	12,672
45478	10,007	-3,4996	37,913	13,034
45479	10,007	-4,499	37,908	13,054
45480	19,775	-4,0057	17,75	7,8194
45481	19,978	-4,0047	18,42	7,5358
45482	19,538	-3,5084	18,186	7,7742
45483	19,099	-4,0057	17,955	7,9789
45484	19,538	-4,5026	18,187	7,7986
45485	10,71	-3,992	36,6	12,213
45486	10,915	-3,9955	37,287	12,16
45487	10,474	-3,4914	37,041	12,467
45488	10,472	-4,4973	37,038	12,483
45489	17,617	-4,0096	-19,654	8,0153
45490	17,819	-4,0108	-20,328	7,8127
45491	17,38	-3,5081	-20,093	8,0076
45492	17,388	-4,5051	-20,083	8,026
45493	11,184	-3,9899	35,727	11,718
45494	11,393	-3,9921	36,415	11,679
45495	10,951	-3,4858	36,167	11,948
45496	10,948	-4,4947	36,166	11,961
45497	20,249	-4,0063	16,877	7,9196
45498	20,452	-4,005	17,546	7,602
45499	20,012	-3,5095	17,313	7,851
45500	19,574	-4,0063	17,083	8,0643
45501	20,012	-4,503	17,313	7,8773
45502	11,662	-3,9915	34,856	11,264
45503	11,866	-3,9928	35,539	11,237
45504	11,421	-3,4872	35,29	11,479
45505	11,419	-4,4952	35,289	11,49
45506	18,08	-4,0091	-18,788	8,0388
45507	18,284	-4,0085	-19,462	7,8137
45508	17,844	-3,5066	-19,227	8,0129
45509	17,852	-4,5045	-19,217	8,0331
45510	12,141	-3,9938	33,985	10,844
45511	12,345	-3,9947	34,667	10,821
45512	11,907	-3,4906	34,422	11,04
45513	11,905	-4,4963	34,422	11,05
45514	20,723	-4,0067	16,003	8,0686
45515	20,925	-4,0059	16,671	7,7138
45516	20,486	-3,5031	16,437	7,9748
45517	20,048	-4,0067	16,21	8,1965
45518	20,486	-4,5033	16,44	8,0023
45519	12,614	-3,9958	33,11	10,456
45520	12,819	-3,9964	33,791	10,433
45521	12,38	-3,4937	33,547	10,639
45522	12,378	-4,4975	33,547	10,649
45523	18,547	-4,0099	-17,919	8,099
45524	18,748	-4,0097	-18,597	7,8491
45525	18,309	-3,5059	-18,361	8,0529
45526	18,315	-4,5045	-18,352	8,0755
45527	13,087	-3,997	32,235	10,094
45528	13,291	-3,9977	32,915	10,067
45529	12,852	-3,4957	32,672	10,265
45530	12,851	-4,4983	32,672	10,276
45531	21,197	-4,0066	15,129	8,2725
45532	21,399	-4,0062	15,796	7,8763
45533	20,96	-3,5104	15,566	8,1481
45534	20,522	-4,0067	15,337	8,3808
45535	20,96	-4,5034	15,566	8,1789
45536	13,56	-3,9978	31,359	9,7539
45537	13,763	-3,9985	32,039	9,7214
45538	13,325	-3,4971	31,797	9,9147
45539	13,324	-4,4988	31,797	9,9252
45540	19,013	-4,011	-17,051	8,1996
45541	19,216	-4,0104	-17,728	7,9217
45542	18,781	-3,5164	-17,483	8,1324
45543	18,782	-4,5054	-17,484	8,1565
45544	14,033	-3,9983	30,484	9,4348
45545	14,235	-3,999	31,163	9,3938
45546	13,797	-3,4978	30,922	9,5854
45547	13,797	-4,4991	30,922	9,5965
45548	21,669	-4,0054	14,254	8,5391
45549	21,871	-4,0055	14,922	8,0966
45550	21,432	-3,5003	14,691	8,3817
45551	20,993	-4,0048	14,462	8,6249
45552	21,433	-4,5032	14,692	8,414
45553	14,506	-3,9984	29,608	9,1357
45554	14,708	-3,9991	30,287	9,0843
45555	14,27	-3,4981	30,046	9,2764
45556	14,269	-4,4992	30,046	9,288
45557	19,474	-4,0098	-16,193	8,3428
45558	19,681	-4,01	-16,862	8,0356
45559	19,244	-3,5175	-16,619	8,2542
45560	19,245	-4,5056	-16,619	8,2799
45561	14,978	-3,9984	28,731	8,8562
45562	15,181	-3,9992	29,41	8,7929
45563	14,742	-3,4981	29,17	8,9869
45564	14,742	-4,4992	29,169	8,9991
45565	22,141	-4,0026	13,377	8,8793
45566	22,344	-4,0035	14,046	8,3842
45567	21,905	-3,5074	13,817	8,6805
45568	21,466	-4,0038	13,586	8,935
45569	21,905	-4,5022	13,816	8,7162
45570	15,451	-3,9983	27,855	8,5963
45571	15,658	-3,9992	28,535	8,5177
45572	15,215	-3,498	28,293	8,717
45573	15,215	-4,4992	28,293	8,7298
45574	19,936	-4,0111	-15,335	8,5342
45575	20,143	-4,0095	-16,005	8,1928
45576	19,704	-3,5038	-15,775	8,415
45577	19,706	-4,5042	-15,761	8,4479
45578	15,924	-3,9985	26,978	8,3565
45579	16,129	-3,9991	27,656	8,2646
45580	15,688	-3,4981	27,417	8,4668
45581	15,687	-4,4992	27,416	8,4802
45582	22,606	-3,9996	12,489	9,3128
45583	22,815	-4,0012	13,167	8,7512
45584	22,375	-3,5027	12,939	9,0604
45585	21,933	-4,0006	12,702	9,3285
45586	22,376	-4,5004	12,937	9,0979
45587	16,397	-3,999	26,101	8,1373
45588	16,601	-3,9993	26,779	8,03
45589	16,161	-3,4985	26,54	8,2369
45590	16,16	-4,4994	26,54	8,251
45591	20,401	-4,0145	-14,471	8,7809
45592	20,607	-4,0125	-15,141	8,4024
45593	20,168	-3,5057	-14,915	8,6312
45594	20,168	-4,5069	-14,903	8,6665
45595	16,87	-3,9995	25,225	7,9398
45596	17,076	-4,	25,903	7,8148
45597	16,634	-3,4992	25,663	8,0281
45598	16,633	-4,4996	25,663	8,0429
45599	23,068	-3,9963	11,591	9,8592
45600	23,279	-3,998	12,273	9,2254
45601	22,839	-3,4972	12,043	9,5484
45602	22,394	-3,9982	11,807	9,8241
45603	22,839	-4,4992	12,041	9,5859
45604	17,343	-4,	24,348	7,7649
45605	17,549	-4,0003	25,026	7,6218
45606	17,107	-3,5	24,787	7,8414
45607	17,106	-4,4999	24,787	7,8569
45608	20,866	-4,0152	-13,613	9,086
45609	21,072	-4,0133	-14,277	8,6685
45610	20,633	-3,5068	-14,058	8,9026
45611	20,634	-4,5076	-14,04	8,9431
45612	17,816	-4,0006	23,472	7,6139
45613	18,022	-4,0007	24,149	7,4513
45614	17,58	-3,5007	23,91	7,678
45615	17,579	-4,5001	23,91	7,6942
45616	23,529	-3,9953	10,692	10,54
45617	23,743	-3,9943	11,378	9,8174
45618	23,299	-3,492	11,142	10,158
45619	22,86	-3,9978	10,905	10,44
45620	23,299	-4,4971	11,142	10,191
45621	18,289	-4,0011	22,596	7,4885
45622	18,494	-4,0011	23,272	7,3046
45623	18,053	-3,5015	23,034	7,5392
45624	18,053	-4,5004	23,034	7,5563
45625	21,326	-4,0138	-12,749	9,4652
45626	21,536	-4,0131	-13,418	8,9978
45627	21,096	-3,505	-13,202	9,2373
45628	21,098	-4,5076	-13,186	9,2801
45629	18,762	-4,0017	21,719	7,3902
45630	18,967	-4,0016	22,395	7,1833
45631	18,526	-3,5023	22,157	7,4267
45632	18,526	-4,5007	22,158	7,4447
45633	23,992	-3,9988	9,7905	11,392
45634	24,203	-3,9948	10,478	10,559
45635	23,758	-3,4975	10,239	10,921
45636	23,315	-3,9995	10,001	11,21
45637	23,759	-4,4982	10,242	10,943
45638	19,235	-4,0026	20,843	7,3213
45639	19,44	-4,002	21,518	7,0892
45640	18,999	-3,5034	21,281	7,3423
45641	18,999	-4,501	21,281	7,3615
45642	21,773	-4,0096	-11,882	9,932
45643	21,995	-4,0103	-12,55	9,4091
45644	21,553	-3,521	-12,314	9,6699
45645	21,555	-4,5062	-12,313	9,7053
45646	19,708	-4,0032	19,967	7,2841
45647	19,912	-4,0026	20,642	7,0248
45648	19,472	-3,5046	20,405	7,2883
45649	19,472	-4,5015	20,405	7,3088
45650	24,461	-4,0027	8,8921	12,468
45651	24,662	-3,998	9,5748	11,492
45652	24,221	-3,5054	9,3354	11,88
45653	23,8	-4,007	9,1077	12,172
45654	24,224	-4,5006	9,3392	11,881
45655	20,181	-4,0037	19,091	7,2816
45656	20,386	-4,0029	19,764	6,9918
45657	19,945	-3,5056	19,529	7,2674
45658	19,945	-4,5017	19,529	7,2894
45659	22,224	-4,0082	-11,022	10,493
45660	22,444	-4,0083	-11,684	9,9117
45661	21,994	-3,5121	-11,452	10,18
45662	21,992	-4,5034	-11,451	10,216
45663	20,655	-4,004	18,216	7,317
45664	20,858	-4,0034	18,888	6,9942
45665	20,418	-3,5066	18,653	7,2826
45666	20,418	-4,502	18,653	7,3063
45667	24,923	-4,0027	7,9926	13,866
45668	25,13	-4,0004	8,6823	12,647
45669	24,692	-3,5089	8,4426	13,093
45670	24,276	-4,0111	8,2121	13,419
45671	24,697	-4,5021	8,4451	13,06
45672	21,128	-4,0046	17,34	7,3948
45673	21,331	-4,0035	18,011	7,0354
45674	20,891	-3,5073	17,777	7,3376
45675	20,891	-4,502	17,778	7,3633
45676	22,697	-4,0258	-10,201	11,143
45677	22,904	-4,0112	-10,832	10,511
45678	22,454	-3,488	-10,615	10,777
45679	22,456	-4,5048	-10,593	10,829
45680	21,601	-4,0055	16,464	7,5203
45681	21,804	-4,0043	17,135	7,1204
45682	21,365	-3,5028	16,901	7,4371
45683	21,364	-4,5026	16,902	7,4653
45684	25,378	-3,9986	7,0789	15,759
45685	25,581	-3,9989	7,7833	14,13
45686	25,143	-3,506	7,541	14,698
45687	24,722	-4,0085	7,3039	15,126
45688	25,149	-4,5006	7,5401	14,613
45689	22,073	-4,0052	15,589	7,6993
45690	22,276	-4,0046	16,258	7,2549
45691	21,837	-3,5027	16,025	7,5874
45692	21,837	-4,5028	16,027	7,6178
45693	21,285	-4,0109	-5,79	15,535
45694	21,029	-4,0059	-5,1087	15,985
45695	20,862	-3,5225	-5,609	15,287
45696	20,86	-4,5059	-5,6041	15,301
45697	22,546	-4,0037	14,714	7,9406
45698	22,749	-4,0041	15,382	7,4463
45699	22,31	-3,5009	15,152	7,7942
45700	22,31	-4,5023	15,151	7,8278
45701	23,196	-4,0608	-9,4251	11,898
45702	23,382	-4,0326	-10,02	11,209
45703	22,844	-3,4079	-9,7716	11,53
45704	22,938	-4,5211	-9,8103	11,507
45705	23,018	-4,0021	13,837	8,2552
45706	23,221	-4,0028	14,505	7,7048
45707	22,781	-3,5065	14,276	8,069
45708	22,782	-4,5013	14,275	8,1051
45709	23,488	-3,9996	12,952	8,6624
45710	23,693	-4,0013	13,628	8,0425
45711	23,253	-3,5034	13,399	8,4222
45712	23,254	-4,5008	13,398	8,4611
45713	23,585	-4,0753	-8,5637	12,961
45714	23,84	-4,0557	-9,1997	12,088
45715	23,394	-3,692	-8,9448	12,429
45716	23,455	-4,5397	-9,0398	12,322
45717	23,954	-3,996	12,06	9,1823
45718	24,162	-3,9978	12,743	8,4817
45719	23,721	-3,4976	12,508	8,8832
45720	23,722	-4,4988	12,506	8,9236
45721	22,158	-4,0201	-6,1734	15,955
45722	21,901	-4,0103	-5,4972	16,877
45723	21,751	-3,366	-5,9396	15,917
45724	21,716	-4,505	-5,9774	15,81
45725	24,417	-3,9938	11,164	9,8361
45726	24,629	-3,9945	11,852	9,0441
45727	24,185	-3,4923	11,615	9,4642
45728	24,186	-4,4972	11,614	9,5028
45729	24,873	-3,994	10,263	10,659
45730	25,091	-3,9926	10,954	9,7606
45731	24,646	-3,491	10,714	10,198
45732	24,647	-4,4967	10,715	10,229
45733	23,652	-4,1905	-7,6033	14,43
45734	24,119	-4,0645	-8,224	13,431
45735	23,734	-3,6702	-8,088	13,647
45736	23,763	-4,5355	-8,0958	13,607
45737	25,331	-3,9957	9,3649	11,675
45738	25,546	-3,9946	10,056	10,653
45739	25,097	-3,4943	9,8085	11,123
45740	25,099	-4,4974	9,8104	11,138
45741	23,098	-4,1701	-6,7449	15,664
45742	22,787	-4,0199	-5,9072	17,449
45743	22,602	-3,5066	-6,3231	16,262
45744	22,608	-4,5151	-6,3708	16,123
45745	25,788	-3,9966	8,473	12,924
45746	26,006	-3,9943	9,1618	11,748
45747	25,56	-3,4965	8,9177	12,247
45748	25,563	-4,4983	8,9195	12,235
45749	25,882	-4,0066	6,1419	18,346
45750	26,031	-3,995	6,8796	16,061
45751	25,586	-3,493	6,6177	16,916
45752	25,176	-3,9942	6,381	17,553
45753	25,591	-4,498	6,6155	16,719
45754	26,233	-3,9952	7,584	14,457
45755	26,457	-3,9956	8,272	13,075
45756	26,011	-3,4965	8,0264	13,64
45757	26,012	-4,4983	8,0266	13,584
45758	26,484	-3,9955	5,4893	20,277
45759	26,534	-4,0068	5,9924	18,465
45760	26,173	-3,4905	5,6013	20,225
45761	26,146	-4,2547	5,1584	22,891
45762	25,748	-3,9619	5,3716	21,94
45763	26,069	-4,5086	5,6693	19,641
45764	26,683	-3,9952	6,7301	16,204
45765	26,906	-3,9969	7,4042	14,613
45766	26,456	-3,4947	7,1426	15,332
45767	26,454	-4,4969	7,1415	15,215
45768	26,922	-3,9589	4,8733	22,926
45769	27,13	-3,993	5,4514	19,771
45770	26,683	-3,5232	5,2855	21,175
45771	26,473	-4,233	4,9817	23,334
45772	26,074	-3,9402	5,1949	22,275
45773	26,686	-4,4869	5,1425	21,431
45774	27,18	-4,0043	5,9545	17,937
45775	27,369	-4,0032	6,5861	16,244
45776	26,92	-3,5023	6,3163	17,16
45777	26,911	-4,4982	6,3188	16,975
45778	27,443	-3,9884	4,0805	25,031
45779	27,512	-3,9883	4,6635	22,601
45780	26,584	-4,2181	4,5424	25,427
45781	26,883	-3,4957	4,6396	24,446
45782	26,186	-3,9253	4,7556	24,212
45783	27,062	-4,472	4,398	24,761
45784	26,724	-3,9735	4,0877	30,995
45785	27,72	-4,0224	5,2417	19,373
45786	27,887	-4,0207	5,8343	17,762
45787	27,468	-3,5027	5,6469	18,627
45788	27,436	-4,5061	5,5792	18,616
45789	28,182	-4,0385	3,3825	24,769
45790	28,212	-4,0436	3,9616	23,17
45791	27,864	-3,5393	3,7458	25,471
45792	27,814	-4,5164	3,7217	25,415
45793	27,561	-4,0178	3,5103	30,01
45794	28,281	-4,0435	4,5447	20,379
45795	28,421	-4,0387	5,1068	18,985
45796	27,974	-3,5712	4,9867	19,866
45797	27,985	-4,5163	4,8766	19,897
45798	28,758	-4,0322	2,6439	23,922
45799	28,819	-4,0438	3,232	23,049
45800	28,525	-3,5501	3,0331	24,488
45801	28,5	-4,522	3,0434	24,577
45802	28,252	-4,0238	2,8467	27,305
45803	28,849	-4,0488	3,8111	21,078
45804	28,97	-4,0553	4,3836	19,878
45805	28,569	-3,6566	4,1626	20,974
45806	28,556	-4,5271	4,1885	20,825
45807	29,245	-3,9836	2,4236	22,903
45808	29,011	-3,5949	2,2339	23,635
45809	29,148	-3,9914	1,7945	22,963
45810	29,034	-4,5102	2,2593	23,906
45811	28,772	-4,0122	2,0557	24,382
45812	29,306	-3,9951	3,0117	21,637
45813	29,489	-4,0451	3,6184	20,641
45814	29,123	-3,628	3,4164	21,551
45815	29,111	-4,5217	3,461	21,533
45816	29,052	-2,1068	3,3083	22,24
45817	28,222	-1,9974	3,4745	24,099
45818	28,562	-2,5576	3,0414	24,264
45819	28,72	-2,1027	2,6023	23,703
45820	28,29	-2,0315	2,8532	26,92
45821	21,646	-4,0053	-4,8159	17,426
45822	21,345	-3,9704	-4,0821	17,498
45823	21,171	-3,506	-4,5763	16,826
45824	21,212	-4,5001	-4,6205	16,828
45825	29,624	-3,9015	2,2433	21,973
45826	29,885	-3,9652	2,8308	21,204
45827	29,528	-3,5461	2,5887	21,987
45828	29,532	-4,4734	2,7068	22,043
45829	22,53	-4,0101	-5,231	18,417
45830	22,211	-4,0066	-4,5339	19,457
45831	22,076	-3,4956	-4,9913	18,143
45832	22,093	-4,5053	-5,0184	18,051
45833	21,91	-3,9717	-3,8001	19,75
45834	21,227	-4,2167	-3,131	17,627
45835	21,48	-3,4629	-3,4985	18,528
45836	21,523	-4,4703	-3,5795	18,658
45837	21,749	-3,9696	-3,1026	20,022
45838	30,071	-3,9482	1,7441	21,813
45839	30,145	-3,8045	2,1684	21,394
45840	29,952	-3,3963	1,8383	21,975
45841	29,527	-3,9093	1,6142	22,265
45842	29,871	-4,4281	2,0402	22,192
45843	23,757	-4,1529	-6,4554	17,134
45844	24,134	-4,1729	-7,2083	15,216
45845	23,612	-3,6517	-6,9989	15,602
45846	23,596	-4,655	-7,0195	15,459
45847	23,446	-4,0028	-5,6177	18,911
45848	23,134	-4,0052	-4,9723	21,118
45849	22,936	-3,5256	-5,5255	18,607
45850	22,956	-4,5048	-5,4799	18,627
45851	30,28	-4,1602	1,3518	21,803
45852	30,652	-4,0801	1,6963	21,273
45853	30,442	-3,6025	1,581	21,385
45854	30,352	-4,5201	1,6411	21,908
45855	22,815	-4,0018	-4,2752	22,216
45856	22,363	-3,4984	-4,0624	21,298
45857	22,367	-4,5014	-4,0381	21,26
45858	22,53	-4,0009	-3,6715	23,477
45859	24,069	-3,9915	-5,2962	21,863
45860	24,409	-3,9974	-5,9885	18,604
45861	23,95	-3,3929	-5,8584	18,944
45862	23,812	-4,498	-5,753	18,955
45863	30,004	-4,2951	0,83675	22,218
45864	30,709	-4,2495	1,0828	21,56
45865	30,21	-3,786	1,0565	21,908
45866	29,914	-4,2106	0,82443	22,164
45867	29,735	-4,1213	1,222	22,39
45868	30,124	-4,6401	1,1364	22,581
45869	23,756	-3,994	-4,6508	24,006
45870	23,297	-3,4911	-4,4992	23,608
45871	23,315	-4,5004	-4,4641	23,71
45872	23,442	-4,0003	-4,1209	26,862
45873	29,81	-4,1686	0,23299	22,198
45874	30,326	-4,1897	0,49546	21,949
45875	30,055	-3,9807	0,37527	22,008
45876	29,741	-4,2255	0,5564	22,443
45877	29,876	-3,7143	0,42048	22,222
45878	29,841	-4,6551	0,56307	22,945
45879	29,357	-4,1574	0,7648	21,862
45880	24,824	-3,9862	-4,8938	24,421
45881	24,216	-3,4807	-4,7878	24,889
45882	24,225	-4,4936	-4,7343	25,058
45883	24,366	-3,9937	-4,3859	29,351
45884	29,729	-4,0299	-0,6186	22,117
45885	30,034	-4,0404	-0,1548	22,131
45886	30,034	-3,8392	3,9536e-002	21,925
45887	29,72	-4,084	0,22067	22,226
45888	29,541	-3,9947	0,61821	21,92
45889	29,855	-3,5727	8,4745e-002	22,106
45890	29,746	-4,5135	-0,12428	22,857
45891	29,394	-4,0155	-4,9712e-002	21,049
45892	24,601	-4,047	-7,829	14,197
45893	24,375	-4,045	-8,86	12,544
45894	24,999	-4,0507	-8,5948	12,807
45895	24,605	-3,6604	-8,3379	13,277
45896	24,539	-4,529	-8,3253	13,274
45897	24,786	-4,0174	-6,7414	16,671
45898	25,258	-4,0328	-7,5059	14,687
45899	24,695	-3,5854	-7,3823	15,073
45900	24,668	-4,518	-7,2629	15,197
45901	25,164	-3,9921	-5,5861	21,361
45902	25,201	-3,9761	-6,3278	17,76
45903	24,868	-3,4104	-6,1708	18,345
45904	24,744	-4,4995	-6,096	18,334
45905	29,531	-4,0093	-1,6297	22,329
45906	30,091	-4,0028	-1,1095	22,129
45907	29,749	-3,5191	-1,1596	22,443
45908	29,63	-4,5164	-1,1219	23,162
45909	29,277	-4,0182	-1,0447	21,857
45910	26,013	-3,9941	-4,713	25,531
45911	25,843	-3,9896	-5,3093	22,262
45912	25,434	-3,4912	-4,9796	24,732
45913	25,439	-4,4926	-4,9259	24,718
45914	25,46	-3,993	-4,4788	30,351
45915	24,026	-4,0274	-9,7947	11,397
45916	24,676	-4,014	-9,5432	11,546
45917	24,24	-3,5231	-9,3935	11,824
45918	24,251	-4,5159	-9,3455	11,887
45919	29,058	-3,9932	-2,6017	22,786
45920	29,771	-3,9794	-2,4939	21,625
45921	29,947	-3,9805	-2,0516	21,93
45922	29,429	-3,5031	-2,0511	22,544
45923	29,371	-4,4928	-2,1297	23,033
45924	28,968	-3,9943	-1,9906	23,76
45925	26,675	-3,999	-4,7659	24,416
45926	27,213	-4,0028	-4,2397	25,221
45927	26,633	-3,5639	-4,4894	26,541
45928	26,579	-4,5015	-4,3891	27,106
45929	26,505	-4,0021	-4,089	32,071
45930	28,279	-4,0016	-3,5595	23,342
45931	29,155	-4,0003	-3,3052	21,935
45932	28,789	-3,4953	-3,0721	23,285
45933	28,683	-4,5003	-3,0623	23,774
45934	28,359	-4,0015	-2,8648	26,655
45935	26,505	-3,9945	-5,3622	20,929
45936	27,126	-4,0094	-5,1147	21,049
45937	26,761	-3,5253	-5,1039	21,877
45938	26,736	-4,4976	-5,0299	21,83
45939	27,664	-4,0131	-4,5885	21,962
45940	28,432	-4,0084	-4,2318	21,7
45941	27,849	-3,5847	-4,0532	23,89
45942	27,789	-4,5013	-4,0345	23,884
45943	27,555	-4,0022	-3,6654	28,971
45944	25,88	-3,9735	-6,051	18,708
45945	26,673	-3,9989	-5,7995	19,025
45946	26,214	-3,4721	-5,6199	20,223
45947	26,148	-4,4969	-5,6243	19,943
45948	27,294	-4,0138	-5,552	19,135
45949	28,015	-4,0052	-5,2252	19,27
45950	27,443	-3,5193	-5,1497	20,386
45951	27,509	-4,5118	-5,1293	20,047
45952	25,956	-3,969	-6,7081	16,573
45953	25,673	-3,9914	-7,0924	15,767
45954	25,578	-3,4165	-6,4304	17,521
45955	25,509	-4,4766	-6,4705	17,209
45956	26,749	-3,9944	-6,4566	16,903
45957	27,593	-4,0075	-6,1067	17,265
45958	27,044	-3,5303	-6,054	17,896
45959	27,087	-4,502	-5,9764	17,819
45960	23,59	-4,0179	-10,651	10,577
45961	24,263	-4,0156	-10,439	10,597
45962	23,827	-3,506	-10,252	10,911
45963	23,827	-4,5115	-10,23	10,956
45964	26,414	-3,995	-7,1938	15,244
45965	27,049	-4,0034	-7,0122	15,402
45966	26,471	-3,4925	-6,8842	15,996
45967	26,402	-4,4924	-6,9458	15,722
45968	23,125	-4,0113	-11,495	9,9282
45969	23,8	-4,0115	-11,299	9,8727
45970	23,357	-3,5039	-11,091	10,199
45971	23,353	-4,5064	-11,072	10,249
45972	26,131	-4,0175	-7,578	14,445
45973	26,787	-4,0854	-7,7098	14,034
45974	26,403	-3,5671	-7,5017	14,586
45975	26,426	-4,5026	-7,4286	14,626
45976	22,665	-4,009	-12,353	9,3869
45977	23,339	-4,0096	-12,153	9,2911
45978	22,897	-3,5155	-11,917	9,6281
45979	22,896	-4,5049	-11,918	9,6631
45980	25,655	-4,0365	-8,2717	13,303
45981	26,333	-4,1652	-8,1252	13,37
45982	25,799	-3,5845	-7,7028	14,305
45983	25,811	-4,5148	-7,7569	14,11
45984	22,204	-4,0096	-13,219	8,9401
45985	22,878	-4,0085	-13,022	8,8075
45986	22,435	-3,5152	-12,786	9,1329
45987	22,436	-4,5041	-12,786	9,1681
45988	25,299	-4,0196	-9,278	11,808
45989	25,951	-4,033	-9,0814	11,886
45990	25,477	-3,6154	-8,8873	12,304
45991	25,473	-4,5216	-8,8011	12,436
45992	21,743	-4,0112	-14,082	8,579
45993	22,415	-4,0101	-13,886	8,4194
45994	21,974	-3,5064	-13,66	8,7264
45995	21,975	-4,5055	-13,65	8,7668
45996	24,912	-4,0021	-10,187	10,744
45997	25,571	-3,9939	-9,9645	10,767
45998	25,126	-3,4885	-9,78	11,166
45999	25,126	-4,498	-9,7269	11,244
46000	21,279	-4,0113	-14,947	8,2887
46001	21,951	-4,0106	-14,75	8,1091
46002	21,51	-3,5039	-14,524	8,4045
46003	21,511	-4,5057	-14,515	8,4418
46004	24,473	-4,0092	-11,087	9,8919
46005	25,138	-4,0059	-10,873	9,827
46006	24,7	-3,4974	-10,674	10,226
46007	24,698	-4,5041	-10,647	10,287
46008	20,814	-4,0108	-15,811	8,0597
46009	21,486	-4,0088	-15,615	7,8633
46010	21,045	-3,503	-15,386	8,1492
46011	21,046	-4,5056	-15,379	8,1823
46012	24,015	-4,0098	-11,957	9,236
46013	24,688	-4,0086	-11,753	9,1003
46014	24,247	-3,5028	-11,539	9,505
46015	24,247	-4,5051	-11,526	9,5538
46016	20,349	-4,0096	-16,674	7,8844
46017	21,021	-4,0101	-16,48	7,6747
46018	20,58	-3,5051	-16,248	7,9505
46019	20,581	-4,5053	-16,243	7,9798
46020	23,552	-4,0092	-12,822	8,7116
46021	24,226	-4,0076	-12,621	8,5295
46022	23,782	-3,5151	-12,387	8,9396
46023	23,782	-4,5047	-12,388	8,9773
46024	19,884	-4,0093	-17,539	7,7563
46025	20,555	-4,009	-17,345	7,5352
46026	20,116	-3,5148	-17,106	7,8023
46027	20,117	-4,5043	-17,107	7,8278
46028	23,089	-4,0091	-13,689	8,2868
46029	23,763	-4,0074	-13,489	8,0725
46030	23,32	-3,5137	-13,256	8,4666
46031	23,321	-4,5045	-13,256	8,5036
46032	19,417	-4,0101	-18,405	7,6704
46033	20,088	-4,0096	-18,212	7,4396
46034	19,65	-3,5152	-17,973	7,6967
46035	19,65	-4,505	-17,973	7,7202
46036	22,624	-4,0095	-14,554	7,9494
46037	23,298	-4,0076	-14,355	7,7111
46038	22,856	-3,5056	-14,127	8,0863
46039	22,856	-4,5046	-14,123	8,1243
46040	18,952	-4,009	-19,27	7,6227
46041	19,622	-4,0098	-19,078	7,3831
46042	19,182	-3,5057	-18,842	7,6311
46043	19,184	-4,5051	-18,838	7,6531
46044	22,159	-4,0081	-15,419	7,6835
46045	22,832	-4,008	-15,22	7,4291
46046	22,391	-3,5147	-14,987	7,7912
46047	22,391	-4,5049	-14,987	7,8236
46048	18,486	-4,0096	-20,136	7,6098
46049	19,157	-4,008	-19,941	7,3616
46050	18,718	-3,5153	-19,703	7,6024
46051	18,719	-4,5039	-19,703	7,6221
46052	22,366	-4,0061	-16,087	7,2114
46053	21,693	-4,008	-16,284	7,4779
46054	21,925	-3,5131	-15,853	7,5578
46055	21,925	-4,5032	-15,853	7,5875
46056	23,04	-4,006	-15,888	6,9576
46057	23,714	-4,0049	-15,69	6,6193
46058	23,506	-4,0061	-15,021	7,1917
46059	23,274	-3,5121	-15,454	7,0487
46060	23,274	-4,5031	-15,454	7,0814
46061	23,247	-4,0048	-16,557	6,4405
46062	22,574	-4,0061	-16,755	6,7839
46063	22,807	-3,5119	-16,32	6,8481
46064	22,808	-4,5029	-16,321	6,8775
46065	23,921	-4,0037	-16,359	6,1033
46066	23,454	-4,0038	-17,226	5,9731
46067	24,126	-4,0024	-17,032	5,5465
46068	23,685	-3,5022	-16,797	6,015
46069	23,691	-4,5019	-16,784	6,0464
46070	24,388	-4,0035	-15,492	6,2923
46071	24,593	-4,0023	-16,165	5,6719
46072	24,152	-3,5015	-15,93	6,17
46073	24,157	-4,5018	-15,917	6,2072
46074	21,9	-4,0081	-16,952	7,0502
46075	21,226	-4,0094	-17,151	7,3249
46076	21,458	-3,5047	-16,72	7,3808
46077	21,46	-4,5048	-16,718	7,4085
46078	18,021	-4,0105	-21,001	7,6282
46079	18,69	-4,0104	-20,807	7,3721
46080	18,251	-3,5181	-20,568	7,6068
46081	18,252	-4,5057	-20,569	7,6247
46082	22,781	-4,0052	-17,424	6,3159
46083	22,107	-4,0062	-17,621	6,6614
46084	22,338	-3,5039	-17,191	6,7023
46085	22,341	-4,5033	-17,187	6,7293
46086	24,18	-4,0047	-14,823	6,8628
46087	23,972	-4,0059	-14,155	7,4983
46088	23,738	-3,5028	-14,594	7,312
46089	23,741	-4,503	-14,587	7,3511
46090	22,987	-4,0039	-18,094	5,8915
46091	23,659	-4,0025	-17,9	5,4716
46092	23,219	-3,5022	-17,664	5,9126
46093	23,224	-4,5019	-17,652	5,9393
46094	24,855	-4,0033	-14,625	6,553
46095	25,06	-4,0021	-15,297	5,8595
46096	24,619	-3,5009	-15,063	6,3892
46097	24,624	-4,5017	-15,049	6,4332
46098	21,433	-4,0075	-17,82	6,9363
46099	20,76	-4,0092	-18,019	7,2177
46100	20,992	-3,514	-17,585	7,2532
46101	20,993	-4,5046	-17,586	7,2779
46102	17,556	-4,0097	-21,866	7,6751
46103	18,225	-4,0089	-21,673	7,4107
46104	17,786	-3,518	-21,433	7,6404
46105	17,788	-4,5048	-21,434	7,6569
46106	22,314	-4,0048	-18,291	6,237
46107	21,64	-4,0058	-18,488	6,5829
46108	21,874	-3,5117	-18,054	6,6049
46109	21,874	-4,5029	-18,054	6,6284
46110	24,646	-4,0045	-13,956	7,1853
46111	24,437	-4,0058	-13,287	7,8926
46112	24,207	-3,5114	-13,72	7,6597
46113	24,207	-4,5029	-13,72	7,6999
46114	22,52	-4,0039	-18,961	5,851
46115	23,192	-4,0025	-18,767	5,4387
46116	22,752	-3,5028	-18,531	5,8545
46117	22,757	-4,5019	-18,52	5,8773
46118	25,32	-4,0026	-13,757	6,9031
46119	25,527	-4,0018	-14,43	6,1246
46120	25,085	-3,4997	-14,197	6,6865
46121	25,09	-4,5015	-14,182	6,739
46122	20,967	-4,0075	-18,686	6,8647
46123	20,293	-4,0092	-18,884	7,1514
46124	20,526	-3,514	-18,451	7,1684
46125	20,526	-4,5046	-18,451	7,1909
46126	25,11	-4,0039	-13,088	7,6055
46127	24,899	-4,0064	-12,417	8,3966
46128	24,671	-3,5112	-12,853	8,1014
46129	24,672	-4,5029	-12,853	8,1445
46130	21,847	-4,0048	-19,158	6,1971
46131	21,174	-4,0057	-19,355	6,5425
46132	21,407	-3,5116	-18,92	6,5475
46133	21,407	-4,5029	-18,921	6,5686
46134	17,091	-4,0101	-22,732	7,7489
46135	17,759	-4,0094	-22,539	7,476
46136	17,32	-3,5187	-22,299	7,702
46137	17,322	-4,5049	-22,299	7,7171
46138	22,053	-4,0039	-19,829	5,8455
46139	22,725	-4,0025	-19,635	5,4408
46140	22,285	-3,5024	-19,399	5,8339
46141	22,291	-4,5019	-19,387	5,8533
46142	25,783	-4,0022	-12,888	7,3658
46143	25,992	-4,0009	-13,563	6,4875
46144	25,551	-3,4987	-13,329	7,0837
46145	25,555	-4,5011	-13,314	7,1442
46146	20,5	-4,0075	-19,553	6,8298
46147	19,827	-4,0087	-19,749	7,1212
46148	20,059	-3,5057	-19,319	7,1215
46149	20,06	-4,5046	-19,317	7,1421
46150	25,572	-4,0046	-12,216	8,1498
46151	25,354	-4,0053	-11,54	9,0391
46152	25,129	-3,5111	-11,979	8,6691
46153	25,131	-4,5035	-11,978	8,7144
46154	21,38	-4,0048	-20,025	6,1912
46155	20,707	-4,0055	-20,222	6,5356
46156	20,94	-3,5115	-19,787	6,5256
46157	20,94	-4,5029	-19,787	6,5446
46158	16,625	-4,0103	-23,598	7,8472
46159	17,293	-4,01	-23,405	7,5655
46160	16,855	-3,519	-23,164	7,7889
46161	16,856	-4,5052	-23,165	7,8029
46162	21,586	-4,0038	-20,696	5,87
46163	22,258	-4,0025	-20,503	5,4729
46164	21,818	-3,5028	-20,266	5,8453
46165	21,824	-4,5019	-20,255	5,8619
46166	26,243	-4,0014	-12,014	7,9707
46167	26,456	-4,001	-12,692	6,9763
46168	26,014	-3,4977	-12,459	7,6046
46169	26,02	-4,5011	-12,445	7,6733
46170	20,034	-4,0067	-20,417	6,8275
46171	19,362	-4,0087	-20,613	7,1231
46172	19,593	-3,5138	-20,181	7,109
46173	19,594	-4,5041	-20,182	7,1275
46174	26,025	-4,0021	-11,338	8,8497
46175	25,797	-3,9977	-10,651	9,856
46176	25,579	-3,5064	-11,102	9,3859
46177	25,582	-4,5018	-11,1	9,4312
46178	20,913	-4,0045	-20,892	6,2148
46179	20,24	-4,0052	-21,089	6,5582
46180	20,473	-3,5111	-20,654	6,5349
46181	20,473	-4,5026	-20,654	6,552
46182	16,159	-4,0098	-24,464	7,968
46183	16,826	-4,0101	-24,273	7,6772
46184	16,389	-3,5188	-24,03	7,8991
46185	16,39	-4,5051	-24,031	7,9122
46186	21,119	-4,0038	-21,563	5,9209
46187	21,791	-4,0025	-21,37	5,5308
46188	21,351	-3,5026	-21,134	5,8845
46189	21,357	-4,5019	-21,122	5,8989
46190	26,696	-3,9981	-11,133	8,7532
46191	26,916	-4,0005	-11,819	7,6242
46192	26,474	-3,5026	-11,577	8,2929
46193	26,476	-4,5003	-11,572	8,3601
46194	19,567	-4,0072	-21,284	6,8543
46195	18,895	-4,0088	-21,479	7,1539
46196	19,127	-3,5146	-21,047	7,1266
46197	19,128	-4,5046	-21,048	7,1435
46198	26,468	-3,9937	-10,446	9,7444
46199	26,223	-4,0073	-9,7678	10,858
46200	26,022	-3,4829	-10,235	10,26
46201	26,016	-4,4959	-10,202	10,346
46202	20,446	-4,0045	-21,76	6,2646
46203	19,773	-4,0048	-21,956	6,6072
46204	20,005	-3,5041	-21,525	6,5716
46205	20,006	-4,5026	-21,521	6,5874
46206	15,697	-4,0113	-25,33	8,1086
46207	16,36	-4,0099	-25,139	7,8092
46208	15,923	-3,5182	-24,897	8,0311
46209	15,924	-4,5047	-24,897	8,0433
46210	20,652	-4,0038	-22,431	5,995
46211	21,324	-4,0025	-22,238	5,6111
46212	20,884	-3,5026	-22,001	5,9485
46213	20,89	-4,5019	-21,99	5,9607
46214	27,142	-3,9945	-10,262	9,7159
46215	27,37	-3,9972	-10,942	8,4678
46216	26,925	-3,4928	-10,71	9,146
46217	26,921	-4,4978	-10,69	9,2427
46218	19,1	-4,0064	-22,151	6,9072
46219	18,428	-4,0087	-22,346	7,2111
46220	18,66	-3,5144	-21,914	7,1718
46221	18,661	-4,5042	-21,914	7,1871
46222	26,897	-4,008	-9,5833	10,805
46223	26,629	-4,1617	-8,9348	11,98
46224	26,435	-3,5152	-9,354	11,348
46225	26,429	-4,5114	-9,3244	11,433
46226	19,979	-4,0042	-22,627	6,3376
46227	19,306	-4,0045	-22,823	6,6798
46228	19,537	-3,5028	-22,394	6,6337
46229	19,539	-4,5023	-22,389	6,6478
46230	15,234	-4,0136	-26,196	8,2689
46231	15,899	-4,0113	-26,004	7,9582
46232	15,46	-3,51	-25,766	8,1822
46233	15,467	-4,5067	-25,762	8,1913
46234	20,185	-4,0038	-23,299	6,0895
46235	20,857	-4,0025	-23,105	5,7112
46236	20,416	-3,5021	-22,869	6,034
46237	20,423	-4,5019	-22,858	6,0443
46238	27,589	-4,0058	-9,4331	10,807
46239	27,826	-3,9962	-10,082	9,4976
46240	27,369	-3,491	-9,838	10,216
46241	27,364	-4,4966	-9,833	10,286
46242	18,634	-4,0067	-23,018	6,9839
46243	17,962	-4,0093	-23,212	7,2923
46244	18,193	-3,5148	-22,78	7,242
46245	18,194	-4,5045	-22,781	7,2559
46246	27,322	-4,1596	-8,7846	11,944
46247	26,99	-4,2331	-8,2569	12,997
46248	26,906	-3,6331	-8,5372	12,542
46249	26,843	-4,6504	-8,5295	12,566
46250	19,512	-4,0042	-23,495	6,4314
46251	18,839	-4,0053	-23,69	6,7736
46252	19,07	-3,5028	-23,261	6,718
46253	19,072	-4,5022	-23,256	6,7307
46254	14,77	-4,0142	-27,061	8,4484
46255	15,431	-4,0128	-26,872	8,1273
46256	15,001	-3,5213	-26,629	8,351
46257	15,002	-4,5069	-26,629	8,3617
46258	19,718	-4,0038	-24,166	6,2021
46259	20,39	-4,0025	-23,973	5,8288
46260	19,949	-3,5017	-23,738	6,1385
46261	19,956	-4,5019	-23,726	6,1473
46262	28,056	-4,0143	-8,5959	12,086
46263	28,279	-4,0096	-9,2525	10,703
46264	27,836	-3,5	-9,0385	11,341
46265	27,825	-4,5092	-9,0095	11,454
46266	18,167	-4,0079	-23,884	7,0819
46267	17,495	-4,0099	-24,08	7,3955
46268	17,727	-3,5154	-23,647	7,335
46269	17,728	-4,5049	-23,647	7,3477
46270	27,724	-4,0879	-8,0682	13,091
46271	27,423	-4,0938	-7,5282	14,228
46272	27,199	-3,5898	-8,0411	13,316
46273	27,243	-4,5828	-7,8852	13,57
46274	19,045	-4,005	-24,362	6,5438
46275	18,372	-4,0062	-24,557	6,8866
46276	18,604	-3,5041	-24,127	6,8223
46277	18,605	-4,503	-24,123	6,8337
46278	14,307	-4,0148	-27,926	8,6453
46279	14,97	-4,0124	-27,736	8,3105
46280	14,533	-3,5118	-27,496	8,5415
46281	14,539	-4,5073	-27,493	8,5493
46282	19,251	-4,0039	-25,034	6,3309
46283	19,922	-4,0031	-24,844	5,9618
46284	19,483	-3,5026	-24,604	6,2601
46285	19,489	-4,5019	-24,593	6,2675
46286	28,509	-4,0063	-7,7523	13,514
46287	28,753	-4,0056	-8,3898	12,169
46288	28,309	-3,5102	-8,1955	12,719
46289	28,299	-4,5051	-8,1586	12,829
46290	17,7	-4,0082	-24,753	7,1997
46291	17,027	-4,0103	-24,949	7,5187
46292	17,259	-3,5158	-24,515	7,449
46293	17,26	-4,505	-24,515	7,4605
46294	28,207	-4,0123	-7,2123	14,599
46295	27,894	-4,0166	-6,6622	15,795
46296	27,781	-3,5582	-7,1205	14,913
46297	27,718	-4,5111	-7,0221	15,084
46298	18,578	-4,0051	-25,229	6,6729
46299	17,905	-4,0073	-25,423	7,0171
46300	18,137	-3,5047	-24,994	6,9447
46301	18,138	-4,5032	-24,99	6,955
46302	13,843	-4,0154	-28,791	8,8592
46303	14,505	-4,0126	-28,602	8,5104
46304	14,074	-3,5233	-28,359	8,7454
46305	14,074	-4,5076	-28,36	8,7548
46306	18,783	-4,0038	-25,902	6,4741
46307	19,455	-4,0024	-25,709	6,1086
46308	19,015	-3,5024	-25,472	6,3969
46309	19,022	-4,502	-25,461	6,4029
46310	28,928	-4,0048	-6,9401	14,937
46311	29,188	-4,0009	-7,5582	13,74
46312	28,728	-3,504	-7,3455	14,241
46313	28,718	-4,5012	-7,346	14,247
46314	17,232	-4,0093	-25,619	7,3353
46315	16,562	-4,0099	-25,814	7,6594
46316	16,793	-3,5166	-25,382	7,5819
46317	16,794	-4,5053	-25,382	7,5925
46318	28,615	-4,0091	-6,3901	16,077
46319	28,314	-3,9989	-5,7799	17,405
46320	28,159	-3,5459	-6,2956	16,446
46321	28,098	-4,5055	-6,2164	16,554
46322	18,11	-4,0059	-26,096	6,8171
46323	17,437	-4,0084	-26,29	7,163
46324	17,67	-3,5129	-25,856	7,0839
46325	17,671	-4,5041	-25,856	7,0928
46326	13,379	-4,0162	-29,657	9,0889
46327	14,041	-4,0142	-29,467	8,7248
46328	13,61	-3,5244	-29,224	8,9676
46329	13,611	-4,5078	-29,224	8,9763
46330	18,316	-4,0038	-26,771	6,6298
46331	18,987	-4,003	-26,58	6,2669
46332	18,548	-3,5027	-26,34	6,5472
46333	18,551	-4,5019	-26,333	6,5536
46334	29,35	-3,9907	-6,0803	16,331
46335	29,622	-4,0027	-6,7237	15,337
46336	29,159	-3,4972	-6,5233	15,666
46337	29,137	-4,5036	-6,5128	15,679
46338	16,767	-4,009	-26,484	7,486
46339	16,096	-4,0105	-26,68	7,8176
46340	16,328	-3,507	-26,249	7,7313
46341	16,329	-4,5046	-26,247	7,7412
46342	29,05	-3,9805	-5,4701	17,635
46343	28,782	-4,0005	-4,8685	18,803
46344	28,459	-3,5241	-5,3288	18,384
46345	28,554	-4,4933	-5,2836	18,249
46346	17,643	-4,0063	-26,964	6,9741
46347	16,97	-4,0089	-27,157	7,3224
46348	17,203	-3,507	-26,727	7,2369
46349	17,204	-4,5044	-26,723	7,245
46350	12,916	-4,0163	-30,521	9,3337
46351	13,573	-4,0153	-30,335	8,9547
46352	13,147	-3,5258	-30,09	9,2053
46353	13,148	-4,5084	-30,09	9,2135
46354	17,848	-4,004	-27,638	6,796
46355	18,52	-4,0031	-27,448	6,4354
46356	18,08	-3,5023	-27,208	6,7091
46357	18,084	-4,5019	-27,2	6,7141
46358	29,799	-3,9866	-5,2111	17,549
46359	30,071	-3,9843	-5,8277	16,868
46360	29,571	-3,481	-5,6608	17,007
46361	29,563	-4,4871	-5,6264	17,013
46362	16,299	-4,0105	-27,353	7,6527
46363	15,631	-4,011	-27,547	7,9908
46364	15,86	-3,5186	-27,115	7,899
46365	15,861	-4,5059	-27,115	7,9076
46366	29,532	-4,0066	-4,6094	18,776
46367	29,308	-4,0071	-3,9775	19,768
46368	28,982	-3,5465	-4,3994	19,599
46369	29,003	-4,5072	-4,3869	19,523
46370	17,176	-4,0066	-27,831	7,1424
46371	16,503	-4,0093	-28,024	7,4941
46372	16,736	-3,5144	-27,59	7,4034
46373	16,737	-4,5046	-27,591	7,4102
46374	12,453	-4,0172	-31,386	9,5931
46375	13,109	-4,0152	-31,2	9,1954
46376	12,684	-3,5265	-30,954	9,4577
46377	12,685	-4,508	-30,954	9,4656
46378	17,381	-4,0042	-28,506	6,9709
46379	18,053	-4,0033	-28,315	6,6117
46380	17,613	-3,5033	-28,075	6,8803
46381	17,617	-4,5021	-28,068	6,8842
46382	30,283	-3,9983	-4,3646	18,566
46383	30,527	-3,9979	-4,9961	18,003
46384	30,043	-3,4943	-4,8009	18,12
46385	30,031	-4,4995	-4,7792	18,142
46386	15,835	-4,0098	-28,218	7,8306
46387	15,168	-4,0101	-28,411	8,1773
46388	15,398	-3,5083	-27,981	8,0785
46389	15,398	-4,5051	-27,98	8,087
46390	30,059	-3,9987	-3,7326	19,741
46391	29,868	-3,9865	-3,1974	20,495
46392	29,611	-3,5005	-3,5302	20,367
46393	29,542	-4,5	-3,5306	20,516
46394	16,709	-4,0068	-28,699	7,3205
46395	16,037	-4,0078	-28,892	7,6761
46396	16,269	-3,5071	-28,462	7,581
46397	16,27	-4,5047	-28,458	7,587
46398	11,988	-4,0149	-32,25	9,867
46399	12,648	-4,0154	-32,064	9,4455
46400	12,22	-3,5284	-31,82	9,7244
46401	12,221	-4,5092	-31,82	9,7321
46402	16,915	-4,005	-29,372	7,1528
46403	17,586	-4,0034	-29,183	6,7943
46404	17,145	-3,5028	-28,943	7,06
46405	17,15	-4,5021	-28,935	7,0625
46406	30,759	-4,0136	-3,5258	19,484
46407	31,007	-3,9989	-4,1312	19,083
46408	30,539	-3,4943	-3,9462	19,125
46409	30,536	-4,4988	-3,9353	19,186
46410	15,37	-4,0081	-29,086	8,0209
46411	14,703	-4,0113	-29,278	8,378
46412	14,931	-3,5188	-28,846	8,2741
46413	14,932	-4,505	-28,846	8,281
46414	30,568	-4,0013	-2,9906	20,407
46415	30,324	-3,9742	-2,4207	20,875
46416	30,105	-3,444	-2,8123	20,905
46417	30,142	-4,4865	-2,8356	21,079
46418	16,243	-4,006	-29,566	7,5061
46419	15,571	-4,0076	-29,76	7,8678
46420	15,803	-3,5135	-29,326	7,7688
46421	15,804	-4,5031	-29,326	7,7735
46422	11,522	-4,0107	-33,112	10,154
46423	12,183	-4,0109	-32,926	9,709
46424	11,754	-3,5249	-32,681	10,005
46425	11,755	-4,5057	-32,682	10,013
46426	16,448	-4,0052	-30,24	7,3403
46427	17,119	-4,0041	-30,05	6,9809
46428	16,68	-3,5043	-29,809	7,2451
46429	16,683	-4,5029	-29,802	7,2467
46430	31,128	-4,0019	-2,6855	20,157
46431	31,442	-4,0179	-3,2878	19,942
46432	30,98	-3,495	-3,1309	19,939
46433	30,987	-4,5148	-3,1182	20,152
46434	14,904	-4,0108	-29,952	8,2227
46435	14,234	-4,0133	-30,146	8,5929
46436	14,465	-3,5207	-29,712	8,4819
46437	14,467	-4,5064	-29,713	8,4879
46438	30,884	-3,9748	-2,1155	20,873
46439	30,506	-3,974	-1,5314	21,311
46440	30,378	-3,2964	-1,8158	21,372
46441	30,501	-4,4877	-1,9917	21,561
46442	15,776	-4,0068	-30,434	7,6994
46443	15,105	-4,008	-30,627	8,0677
46444	15,336	-3,5073	-30,197	7,9654
46445	15,337	-4,5044	-30,193	7,9694
46446	11,054	-4,0087	-33,976	10,45
46447	11,716	-4,009	-33,79	9,9812
46448	11,282	-3,5098	-33,544	10,302
46449	11,289	-4,505	-33,546	10,304
46450	15,98	-4,0048	-31,108	7,5317
46451	16,652	-4,0036	-30,918	7,1703
46452	16,212	-3,5033	-30,678	7,4354
46453	16,216	-4,5023	-30,67	7,4359
46454	31,353	-3,9627	-1,8327	20,534
46455	31,734	-3,9752	-2,4179	20,336
46456	31,286	-3,3039	-2,2987	20,417
46457	31,29	-4,4871	-2,2277	20,778
46458	14,435	-4,0105	-30,821	8,4355
46459	13,765	-4,0142	-31,014	8,8191
46460	13,996	-3,522	-30,58	8,7031
46461	13,998	-4,5069	-30,581	8,7084
46462	30,975	-3,9619	-1,2486	21,193
46463	30,396	-4,0132	-0,64566	21,679
46464	30,478	-3,4135	-1,0089	21,613
46465	30,508	-4,4863	-1,1703	22,045
46466	15,309	-4,006	-31,301	7,8973
46467	14,638	-4,0084	-31,494	8,2742
46468	14,869	-3,5147	-31,059	8,1695
46469	14,871	-4,5036	-31,06	8,1723
46470	10,583	-4,0056	-34,84	10,757
46471	11,248	-4,0082	-34,655	10,259
46472	10,813	-3,5051	-34,407	10,604
46473	10,824	-4,5037	-34,411	10,604
46474	15,514	-4,0043	-31,975	7,7245
46475	16,185	-4,0037	-31,786	7,3598
46476	15,745	-3,5037	-31,545	7,6282
46477	15,749	-4,5024	-31,538	7,6276
46478	31,487	-3,9507	-1,0147	20,714
46479	31,931	-3,9732	-1,5477	20,56
46480	31,449	-3,3972	-1,4561	20,697
46481	31,458	-4,4756	-1,421	21,031
46482	13,969	-4,0122	-31,686	8,6552
46483	13,304	-4,0134	-31,877	9,0509
46484	13,533	-3,5135	-31,447	8,9316
46485	13,532	-4,5073	-31,446	8,9378
46486	30,908	-4,0021	-0,41178	21,359
46487	30,55	-4,0615	0,10768	21,69
46488	30,347	-3,4947	-0,10061	21,873
46489	30,279	-3,8526	-1,2513e-002	21,841
46490	30,459	-4,5269	-0,33933	22,317
46491	14,843	-4,0067	-32,168	8,0988
46492	14,172	-4,01	-32,359	8,4857
46493	14,403	-3,5077	-31,93	8,379
46494	14,404	-4,5049	-31,926	8,3815
46495	10,112	-4,0043	-35,707	11,063
46496	10,779	-4,0071	-35,522	10,54
46497	10,342	-3,5024	-35,27	10,913
46498	10,347	-4,5018	-35,274	10,915
46499	15,047	-4,0045	-32,842	7,9174
46500	15,718	-4,0031	-32,653	7,5474
46501	15,279	-3,5028	-32,412	7,8217
46502	15,282	-4,5018	-32,405	7,8203
46503	31,609	-3,9907	-0,21671	20,738
46504	32,046	-3,9801	-0,7147	20,711
46505	31,547	-3,2487	-0,67602	20,74
46506	31,554	-4,4752	-0,63267	21,152
46507	13,508	-4,0113	-32,55	8,8785
46508	12,843	-4,0114	-32,74	9,2908
46509	13,072	-3,5132	-32,309	9,1679
46510	13,071	-4,5062	-32,31	9,1739
46511	31,251	-4,0502	0,30275	21,158
46512	31,03	-4,1441	0,74147	21,224
46513	30,854	-3,5538	0,40614	21,449
46514	30,55	-3,8603	0,30202	21,591
46515	30,796	-4,5346	0,35096	21,977
46516	14,377	-4,0077	-33,034	8,3016
46517	13,707	-4,0084	-33,225	8,7
46518	13,938	-3,509	-32,795	8,5922
46519	13,938	-4,5051	-32,792	8,5947
46520	-2,0176	-4,0458	-39,213	23,705
46521	-2,0387	-4,0497	-39,787	24,532
46522	-1,2985	-4,0051	-39,892	24,799
46523	-1,5441	-3,5831	-39,718	24,758
46524	-1,6776	-4,5212	-39,541	23,687
46525	14,58	-4,006	-33,708	8,1086
46526	15,251	-4,0039	-33,521	7,7312
46527	14,812	-3,5042	-33,278	8,0145
46528	14,816	-4,5026	-33,272	8,0124
46529	31,761	-4,0683	0,60509	20,666
46530	32,133	-4,0314	0,35483	20,711
46531	31,687	-3,3711	0,15589	20,727
46532	31,669	-4,5155	0,16284	21,134
46533	-2,7465	-4,0511	-38,53	21,483
46534	-2,7319	-3,9879	-39,052	21,982
46535	-2,3678	-3,6437	-38,972	22,855
46536	-2,3623	-4,5246	-38,848	22,122
46537	13,043	-4,0085	-33,415	9,1093
46538	12,377	-4,0092	-33,605	9,5402
46539	12,609	-3,5217	-33,172	9,4129
46540	12,611	-4,5052	-33,173	9,4169
46541	31,541	-4,1622	1,0438	20,881
46542	31,081	-4,1695	1,4273	20,934
46543	31,217	-3,7193	0,95741	21,081
46544	31,066	-4,6095	1,0252	21,536
46545	13,911	-4,0067	-33,9	8,5042
46546	13,239	-4,0089	-34,092	8,9179
46547	13,471	-3,5157	-33,658	8,8097
46548	13,472	-4,5033	-33,659	8,8105
46549	9,6365	-4,0035	-36,572	11,369
46550	10,306	-4,0066	-36,39	10,817
46551	9,8819	-3,5094	-36,142	11,21
46552	9,8787	-4,5025	-36,142	11,217
46553	14,113	-4,0051	-34,575	8,2962
46554	14,784	-4,0047	-34,387	7,9093
46555	14,345	-3,5054	-34,144	8,2045
46556	14,349	-4,5034	-34,138	8,2018
46557	31,732	-4,0655	1,4112	20,557
46558	32,208	-4,0954	1,1664	20,588
46559	31,85	-3,5307	0,83766	20,643
46560	31,761	-4,5528	0,99216	21,014
46561	-3,4227	-4,065	-38,485	20,122
46562	-3,5029	-4,023	-37,845	19,608
46563	-3,1147	-3,5508	-38,257	20,759
46564	-3,1359	-4,5265	-38,169	20,295
46565	12,573	-4,0096	-34,281	9,3457
46566	11,91	-4,0085	-34,47	9,7937
46567	12,14	-3,5084	-34,038	9,6673
46568	12,144	-4,504	-34,039	9,6687
46569	-3,4082	-4,0018	-39,007	20,65
46570	-2,7531	-3,9918	-39,625	22,828
46571	-3,4127	-4,0371	-39,552	20,921
46572	-3,056	-3,5875	-39,233	21,821
46573	-3,0493	-4,4633	-39,28	21,212
46574	13,441	-4,0073	-34,768	8,7073
46575	12,772	-4,0078	-34,958	9,1338
46576	13,003	-3,5087	-34,528	9,0275
46577	13,003	-4,5056	-34,525	9,0291
46578	31,272	-4,0728	1,7947	20,788
46579	30,726	-3,9364	2,1207	20,811
46580	31,043	-3,6044	1,7194	20,863
46581	30,906	-4,56	1,7589	21,361
46582	13,646	-4,0041	-35,443	8,4788
46583	14,317	-4,0029	-35,256	8,0801
46584	13,877	-3,5027	-35,013	8,3903
46585	13,882	-4,5017	-35,007	8,3872
46586	-3,8929	-4,0731	-39,018	19,533
46587	-4,2405	-4,0417	-38,548	18,669
46588	-3,7159	-3,5713	-38,82	20,012
46589	-3,7289	-4,5385	-38,732	19,516
46590	31,528	-3,918	2,1903	20,334
46591	32,05	-4,0103	1,8368	20,453
46592	31,634	-3,4997	1,8473	20,539
46593	31,601	-4,5128	1,7977	20,838
46594	-2,8017	-4,062	-40,254	23,444
46595	-2,1386	-4,0446	-40,343	24,373
46596	-2,3174	-3,5709	-40,101	23,976
46597	-2,4042	-4,5285	-40,027	22,965
46598	-3,8974	-4,1083	-39,564	19,825
46599	-4,4062	-4,0867	-39,121	18,513
46600	-4,0896	-3,6281	-39,233	19,395
46601	-4,0379	-4,5345	-39,231	19,055
46602	12,109	-4,0067	-35,147	9,5787
46603	11,444	-4,0098	-35,338	10,046
46604	11,671	-3,5068	-34,905	9,9236
46605	11,678	-4,5045	-34,904	9,9227
46606	30,982	-3,7816	2,5163	20,492
46607	30,407	-3,8682	2,7559	20,509
46608	30,617	-3,2323	2,3318	20,83
46609	30,587	-4,3764	2,4562	20,993
46610	12,977	-4,0046	-35,634	8,9028
46611	12,307	-4,0052	-35,825	9,3442
46612	12,539	-3,5034	-35,394	9,2405
46613	12,539	-4,5022	-35,392	9,2419
46614	-3,4613	-4,1072	-40,181	21,568
46615	-4,058	-4,1149	-40,047	19,565
46616	-3,7736	-3,7353	-39,877	20,463
46617	-3,6911	-4,5737	-39,843	20,02
46618	13,179	-4,0046	-36,31	8,6543
46619	13,85	-4,0037	-36,123	8,2423
46620	13,41	-3,5026	-35,88	8,5698
46621	13,415	-4,5024	-35,873	8,5667
46622	31,243	-3,9755	3,0069	19,897
46623	31,839	-3,9019	2,667	20,19
46624	31,448	-3,334	2,6386	20,174
46625	31,4	-4,4052	2,6036	20,472
46626	9,1614	-4,0021	-37,439	11,662
46627	9,8289	-4,0041	-37,253	11,088
46628	9,3967	-3,4977	-36,996	11,525
46629	9,3943	-4,501	-37,003	11,524
46630	11,643	-4,0083	-36,015	9,8086
46631	10,973	-4,0094	-36,206	10,297
46632	11,205	-3,5068	-35,772	10,175
46633	11,212	-4,5053	-35,773	10,173
46634	30,668	-4,0621	3,2465	20,048
46635	30,069	-4,0152	3,4375	19,948
46636	30,252	-3,4615	3,0516	20,379
46637	30,283	-4,4918	3,1197	20,47
46638	12,51	-4,0052	-36,5	9,0934
46639	11,84	-4,0062	-36,69	9,5486
46640	12,071	-3,5043	-36,259	9,45
46641	12,071	-4,503	-36,257	9,451
46642	-3,5688	-4,0751	-40,75	21,82
46643	-2,9513	-4,0496	-40,814	23,478
46644	-3,1813	-3,5788	-40,436	22,512
46645	-3,1848	-4,5335	-40,502	21,803
46646	12,712	-4,0047	-37,176	8,821
46647	13,383	-4,0034	-36,99	8,395
46648	12,944	-3,5024	-36,746	8,741
46649	12,948	-4,5022	-36,74	8,7384
46650	30,858	-4,0912	3,7834	19,262
46651	31,471	-4,089	3,4901	19,8
46652	31,124	-3,5587	3,4299	19,679
46653	31,053	-4,5703	3,4287	19,83
46654	-2,6901	-2,5391	-41,06	22,806
46655	-2,7108	-3,5396	-41,112	23,686
46656	-2,9408	-3,0688	-40,734	22,509
46657	-2,4947	-3,0235	-41,392	24,021
46658	12,042	-4,0057	-37,366	9,274
46659	11,371	-4,0056	-37,556	9,7404
46660	11,17	-4,0073	-36,881	10,035
46661	11,604	-3,5121	-37,123	9,6503
46662	11,603	-4,5032	-37,123	9,6491
46663	30,259	-4,0443	3,9745	19,295
46664	29,611	-4,0515	4,1909	19,212
46665	29,883	-3,5735	3,8327	19,654
46666	29,85	-4,5234	3,8481	19,707
46667	12,245	-4,0047	-38,042	8,9778
46668	12,916	-4,0037	-37,857	8,5386
46669	12,477	-3,5028	-37,611	8,9031
46670	12,48	-4,5025	-37,607	8,9006
46671	-4,3236	-4,0521	-41,262	19,671
46672	-4,1654	-4,0829	-40,616	19,856
46673	-3,6999	-4,0536	-41,376	22,266
46674	-3,9709	-3,6045	-41,004	20,639
46675	-3,9407	-4,5417	-41,02	20,106
46676	30,439	-4,0362	4,5311	18,372
46677	31,098	-4,0301	4,2816	18,973
46678	30,643	-3,5496	4,0992	18,951
46679	30,669	-4,521	4,1705	18,876
46680	8,6936	-4,0032	-38,316	11,925
46681	9,3597	-4,0036	-38,123	11,33
46682	8,9303	-3,4981	-37,866	11,807
46683	8,9255	-4,5011	-37,876	11,795
46684	29,791	-4,0434	4,7475	18,402
46685	29,109	-4,0505	4,9457	18,363
46686	29,37	-3,6088	4,5755	18,871
46687	29,364	-4,5282	4,585	18,843
46688	10,7	-4,0056	-37,747	10,242
46689	10,027	-4,0056	-37,937	10,758
46690	10,499	-4,0073	-37,071	10,539
46691	10,265	-3,5103	-37,504	10,655
46692	10,264	-4,5032	-37,504	10,651
46693	-5,0963	-4,0103	-41,74	17,235
46694	-4,9347	-4,0278	-41,041	17,682
46695	-4,7295	-3,5405	-41,546	18,307
46696	-4,7062	-4,5104	-41,503	17,911
46697	11,574	-4,0046	-38,233	9,4422
46698	10,901	-4,0045	-38,423	9,9137
46699	11,135	-3,5098	-37,989	9,8355
46700	11,135	-4,5025	-37,99	9,8309
46701	29,972	-4,0268	5,3226	17,393
46702	30,651	-4,0204	5,0917	17,959
46703	30,199	-3,5332	4,9051	17,98
46704	30,217	-4,5153	4,9473	17,892
46705	11,777	-4,0033	-38,909	9,1236
46706	12,448	-4,0032	-38,724	8,6746
46707	12,01	-3,5016	-38,477	9,0549
46708	12,013	-4,5021	-38,474	9,0518
46709	8,2168	-4,0052	-39,205	12,169
46710	8,8895	-4,0043	-39,001	11,542
46711	8,458	-3,5079	-38,759	12,07
46712	8,4588	-4,5021	-38,758	12,028
46713	29,29	-4,0338	5,5208	17,397
46714	28,588	-4,037	5,6994	17,326
46715	28,86	-3,5492	5,3525	17,844
46716	28,845	-4,5224	5,3231	17,881
46717	-5,3199	-4,0114	-42,336	16,491
46718	-5,4177	-4,0123	-43,061	15,97
46719	-5,1003	-3,5038	-42,753	17,313
46720	-4,8701	-4,2442	-43,021	18,965
46721	-4,987	-4,5116	-42,787	17,66
46722	29,48	-4,0259	6,1284	16,254
46723	30,173	-4,0155	5,9113	16,79
46724	29,731	-3,5291	5,6992	16,952
46725	29,729	-4,5115	5,7345	16,851
46726	-5,7348	-3,9968	-41,513	15,44
46727	-5,8825	-3,9813	-42,22	14,856
46728	-5,4651	-3,5001	-41,972	16,082
46729	-5,4793	-4,4999	-41,985	15,688
46730	10,229	-4,0045	-38,614	10,427
46731	9,5555	-4,0047	-38,808	10,948
46732	9,792	-3,5082	-38,371	10,867
46733	9,7908	-4,5025	-38,371	10,852
46734	-4,7765	-4,0585	-40,395	17,834
46735	-4,5667	-4,0934	-39,604	18,273
46736	-4,3813	-3,6518	-40,178	18,98
46737	-4,3902	-4,5412	-40,212	18,444
46738	11,105	-4,0032	-39,1	9,5936
46739	10,431	-4,0039	-39,291	10,063
46740	10,666	-3,508	-38,856	10,
46741	10,666	-4,502	-38,856	9,9884
46742	28,778	-4,0291	6,307	16,172
46743	28,076	-4,0196	6,4659	16,079
46744	28,342	-3,5147	6,1131	16,716
46745	28,326	-4,5147	6,0784	16,691
46746	11,308	-4,0024	-39,777	9,258
46747	11,98	-4,0022	-39,592	8,8057
46748	11,543	-3,4997	-39,343	9,1962
46749	11,544	-4,5012	-39,341	9,1902
46750	28,986	-4,0205	6,9336	14,946
46751	29,684	-4,0174	6,7383	15,325
46752	29,236	-3,5245	6,5163	15,68
46753	29,23	-4,5144	6,5357	15,635
46754	-5,5732	-4,0143	-40,814	15,875
46755	-5,3577	-4,0261	-40,117	16,51
46756	-5,1892	-3,5521	-40,558	16,994
46757	-5,1709	-4,5174	-40,588	16,567
46758	7,732	-4,0046	-40,102	12,407
46759	8,4056	-4,0043	-39,887	11,735
46760	7,9723	-3,5114	-39,65	12,33
46761	7,9749	-4,5031	-39,651	12,237
46762	28,285	-4,011	7,0925	14,809
46763	27,593	-4,0048	7,2602	14,686
46764	27,834	-3,5205	6,8485	15,439
46765	27,827	-4,5049	6,8534	15,362
46766	9,7576	-4,004	-39,485	10,582
46767	9,0782	-4,0034	-39,683	11,109
46768	9,3196	-3,5065	-39,246	11,049
46769	9,3194	-4,5022	-39,247	11,013
46770	28,506	-4,0064	7,7511	13,526
46771	29,203	-4,008	7,5591	13,744
46772	28,75	-3,5145	7,3248	14,276
46773	28,742	-4,5061	7,3315	14,278
46774	10,634	-4,003	-39,968	9,7265
46775	9,9567	-4,0024	-40,161	10,187
46776	10,196	-3,506	-39,723	10,142
46777	10,195	-4,5018	-39,724	10,116
46778	-6,2092	-3,9891	-40,577	14,604
46779	-6,4062	-3,9885	-41,279	13,967
46780	-5,9698	-3,5007	-41,043	15,013
46781	-5,9835	-4,4969	-41,049	14,615
46782	10,838	-4,0017	-40,643	9,3824
46783	11,512	-4,002	-40,459	8,9362
46784	11,076	-3,5041	-40,207	9,3267
46785	11,076	-4,5012	-40,207	9,3147
46786	27,814	-4,0002	7,9188	13,352
46787	27,129	-3,9972	8,0922	13,259
46788	27,361	-3,5025	7,6642	13,98
46789	27,358	-4,4999	7,667	13,94
46790	-5,1479	-4,061	-39,326	16,924
46791	-4,7538	-4,0553	-38,651	17,657
46792	-4,7242	-3,5779	-39,059	17,958
46793	-4,7409	-4,5522	-39,133	17,577
46794	28,038	-3,9972	8,5961	12,099
46795	28,732	-4,0004	8,4087	12,148
46796	28,275	-3,5019	8,17	12,79
46797	28,27	-4,5003	8,1707	12,827
46798	7,9191	-4,0004	-40,781	11,915
46799	7,2303	-3,9963	-41,007	12,677
46800	7,4872	-3,5082	-40,547	12,594
46801	7,4891	-4,5015	-40,552	12,423
46802	-5,9937	-4,001	-39,881	15,228
46803	-5,7517	-3,9964	-39,166	15,813
46804	-5,6266	-3,5651	-39,671	16,082
46805	-5,5451	-4,5088	-39,634	15,962
46806	27,354	-3,9942	8,7695	11,961
46807	26,675	-3,9933	8,9607	11,917
46808	26,901	-3,4929	8,5153	12,566
46809	26,901	-4,4973	8,5174	12,562
46810	-4,3206	-3,9997	-37,908	18,125
46811	-4,2311	-3,9945	-37,111	17,988
46812	-3,8506	-3,4899	-37,559	18,91
46813	-3,9005	-4,4966	-37,498	18,666
46814	27,577	-3,9922	9,4623	10,773
46815	28,265	-3,9958	9,2713	10,683
46816	27,809	-3,4934	9,0223	11,392
46817	27,806	-4,4969	9,0216	11,448
46818	-6,6625	-3,977	-39,644	14,12
46819	-6,875	-3,9802	-40,348	13,539
46820	-6,467	-3,4847	-40,092	14,379
46821	-6,4349	-4,4922	-40,105	14,193
46822	-5,3577	-3,9908	-38,491	16,517
46823	-5,1261	-3,9834	-37,804	16,856
46824	-4,7996	-3,4733	-38,311	17,618
46825	-4,8009	-4,5031	-38,259	17,424
46826	9,2772	-4,0018	-40,36	10,713
46827	8,5927	-4,0001	-40,566	11,244
46828	8,8359	-3,5046	-40,121	11,213
46829	8,8362	-4,5012	-40,122	11,14
46830	26,899	-3,9913	9,6535	10,697
46831	26,222	-3,9932	9,8529	10,737
46832	26,449	-3,4894	9,4026	11,279
46833	26,449	-4,496	9,404	11,301
46834	10,16	-4,0011	-40,837	9,8421
46835	9,4769	-3,9994	-41,031	10,288
46836	9,719	-3,5026	-40,595	10,26
46837	9,7182	-4,5006	-40,597	10,212
46838	27,118	-3,9929	10,347	9,6135
46839	27,802	-3,9938	10,151	9,4114
46840	27,35	-3,49	9,9039	10,126
46841	27,348	-4,4953	9,9029	10,192
46842	10,367	-4,0006	-41,506	9,4985
46843	11,042	-4,0011	-41,326	9,0725
46844	10,607	-3,5021	-41,074	9,451
46845	10,606	-4,5005	-41,074	9,4265
46846	-6,4206	-3,9725	-38,93	14,695
46847	-6,1844	-3,9667	-38,234	15,166
46848	-5,9416	-3,4725	-38,797	15,577
46849	-5,9511	-4,4877	-38,676	15,433
46850	-5,0366	-3,9781	-37,007	16,674
46851	-4,8948	-3,9859	-36,288	16,661
46852	-4,6906	-3,3522	-36,782	17,15
46853	-4,5934	-4,4979	-36,728	17,256
46854	26,441	-3,9948	10,547	9,6324
46855	25,764	-3,9932	10,747	9,7608
46856	25,991	-3,4892	10,299	10,195
46857	25,992	-4,4972	10,299	10,233
46858	-7,1329	-3,9674	-38,737	13,681
46859	-7,3489	-3,9713	-39,43	13,191
46860	-6,8873	-3,4588	-39,188	13,958
46861	-6,8901	-4,4848	-39,184	13,837
46862	26,656	-3,9956	11,236	8,6626
46863	27,338	-3,9962	11,038	8,3681
46864	26,889	-3,4919	10,793	9,0668
46865	26,889	-4,4976	10,793	9,132
46866	-5,9528	-3,9593	-37,548	15,478
46867	-5,7726	-3,9634	-36,853	15,673
46868	-5,4471	-3,4191	-37,342	16,241
46869	-5,4878	-4,4802	-37,303	16,14
46870	8,7924	-3,9977	-41,237	10,819
46871	8,0951	-3,9929	-41,451	11,385
46872	8,3496	-3,4992	-41,007	11,348
46873	8,3492	-4,4989	-41,011	11,23
46874	7,4063	-3,9888	-41,676	12,147
46875	6,69	-3,9924	-41,92	13,154
46876	6,9869	-3,481	-41,393	12,912
46877	6,9715	-4,4948	-41,462	12,666
46878	9,6839	-3,9988	-41,7	9,9443
46879	8,9894	-3,9947	-41,899	10,372
46880	9,2371	-3,4976	-41,463	10,364
46881	9,2356	-4,4988	-41,464	10,283
46882	-6,8967	-3,9617	-38,041	14,141
46883	-6,6877	-3,9617	-37,353	14,486
46884	-6,4175	-3,439	-37,796	14,863
46885	-6,4177	-4,4791	-37,793	14,82
46886	9,8912	-3,9987	-42,373	9,6083
46887	10,573	-4,0004	-42,189	9,2185
46888	10,134	-3,5	-41,936	9,5703
46889	10,132	-4,5001	-41,936	9,5289
46890	25,979	-3,994	11,436	8,7767
46891	25,303	-3,9933	11,642	8,9718
46892	25,534	-3,4885	11,193	9,3145
46893	25,534	-4,496	11,192	9,3607
46894	-7,6223	-3,9681	-37,848	13,24
46895	-7,8344	-3,9693	-38,538	12,839
46896	-7,3791	-3,4512	-38,291	13,478
46897	-7,3757	-4,4826	-38,289	13,436
46898	26,19	-3,9961	12,123	7,9095
46899	26,87	-3,9971	11,921	7,5562
46900	26,424	-3,4933	11,681	8,2207
46901	26,424	-4,498	11,681	8,2834
46902	8,2921	-3,99	-42,112	10,938
46903	7,5694	-3,98	-42,34	11,574
46904	7,8443	-3,4856	-41,885	11,533
46905	7,8411	-4,494	-41,891	11,342
46906	-5,6309	-3,9712	-36,134	15,632
46907	-5,4759	-3,985	-35,425	15,625
46908	-5,2673	-3,4782	-35,868	16,
46909	-5,1953	-4,488	-35,874	16,128
46910	9,1967	-3,9946	-42,573	10,036
46911	8,4987	-3,9894	-42,765	10,451
46912	8,7465	-3,4901	-42,333	10,444
46913	8,7431	-4,496	-42,334	10,338
46914	-6,5075	-3,9657	-36,657	14,663
46915	-6,3251	-3,9728	-35,96	14,815
46916	-6,0567	-3,4548	-36,397	15,205
46917	-6,0574	-4,4831	-36,403	15,224
46918	9,4142	-3,997	-43,243	9,7011
46919	10,096	-3,9988	-43,057	9,376
46920	9,656	-3,4966	-42,807	9,6839
46921	9,6523	-4,4986	-42,805	9,6205
46922	-6,1701	-3,9866	-35,251	14,789
46923	-6,0095	-3,9969	-34,545	14,779
46924	-5,7879	-3,4901	-34,987	15,12
46925	-5,7417	-4,497	-34,992	15,208
46926	-7,4133	-3,9681	-37,159	13,574
46927	-7,218	-3,9709	-36,47	13,834
46928	-6,9609	-3,4517	-36,908	14,138
46929	-6,9577	-4,4826	-36,912	14,143
46930	-7,0355	-3,9779	-35,772	13,972
46931	-6,8516	-3,9842	-35,074	14,087
46932	-6,5928	-3,4734	-35,51	14,417
46933	-6,5928	-4,4896	-35,517	14,448
46934	25,515	-3,9953	12,329	8,0954
46935	24,838	-3,9963	12,535	8,3456
46936	25,072	-3,4928	12,092	8,6066
46937	25,073	-4,4973	12,091	8,6543
46938	-8,1248	-3,975	-36,966	12,798
46939	-8,3296	-3,9743	-37,654	12,474
46940	-7,8732	-3,4599	-37,405	13,024
46941	-7,8689	-4,4855	-37,406	13,019
46942	25,723	-3,9975	13,011	7,3242
46943	26,4	-3,9976	12,804	6,9343
46944	25,956	-3,4955	12,568	7,5624
46945	25,957	-4,4981	12,567	7,6196
46946	-7,9295	-3,9778	-36,277	13,048
46947	-7,734	-3,9811	-35,587	13,256
46948	-7,4807	-3,4675	-36,024	13,526
46949	-7,4783	-4,4883	-36,028	13,544
46950	6,8532	-3,9835	-42,584	12,588
46951	6,2028	-4,0045	-42,832	13,67
46952	6,2114	-3,5303	-42,331	13,992
46953	6,4061	-4,4976	-42,373	13,264
46954	-6,691	-3,9945	-34,368	14,061
46955	-6,5152	-4,0015	-33,669	14,055
46956	-6,3002	-3,4994	-34,106	14,351
46957	-6,2653	-4,4999	-34,11	14,42
46958	7,776	-3,9794	-42,993	11,089
46959	7,0528	-3,9875	-43,242	11,852
46960	7,3262	-3,4975	-42,768	11,69
46961	7,2978	-4,4859	-42,79	11,55
46962	-7,5501	-3,9874	-34,889	13,359
46963	-7,3608	-3,9929	-34,191	13,45
46964	-7,1101	-3,487	-34,625	13,739
46965	-7,1104	-4,4945	-34,631	13,769
46966	8,7162	-3,9918	-43,435	10,116
46967	8,0176	-3,987	-43,628	10,504
46968	8,2601	-3,4835	-43,199	10,533
46969	8,2542	-4,4934	-43,197	10,391
46970	-8,6278	-3,9826	-36,092	12,364
46971	-8,8294	-3,981	-36,778	12,098
46972	-8,384	-3,4711	-36,524	12,571
46973	-8,3808	-4,4895	-36,526	12,579
46974	8,9522	-3,9991	-44,092	9,7533
46975	9,6298	-3,9986	-43,919	9,5174
46976	9,1808	-3,4952	-43,672	9,7691
46977	9,1778	-4,4984	-43,667	9,6882
46978	-8,4322	-3,986	-35,402	12,563
46979	-8,2378	-3,9897	-34,71	12,729
46980	-7,9913	-3,4809	-35,143	12,972
46981	-7,9897	-4,4928	-35,147	12,994
46982	25,047	-3,9985	13,218	7,5684
46983	24,367	-3,9995	13,419	7,863
46984	24,603	-3,498	12,982	8,0596
46985	24,603	-4,499	12,98	8,1049
46986	6,4024	-4,0085	-43,49	12,954
46987	5,6414	-3,987	-43,806	14,977
46988	5,8592	-3,5792	-43,311	14,361
46989	5,4096	-4,2497	-43,708	16,512
46990	5,8666	-4,5069	-43,307	14,148
46991	25,252	-3,9996	13,893	6,8851
46992	25,93	-3,9995	13,688	6,4664
46993	25,49	-3,499	13,456	7,0542
46994	25,49	-4,4995	13,455	7,1047
46995	7,2943	-3,9952	-43,876	11,275
46996	6,5895	-3,9971	-44,132	12,07
46997	6,8836	-3,5428	-43,714	11,887
46998	6,7996	-4,5016	-43,679	11,857
46999	-9,3241	-3,9874	-35,91	11,725
47000	-9,1237	-3,9897	-35,224	11,947
47001	-8,8771	-3,4813	-35,655	12,148
47002	-8,8748	-4,4931	-35,658	12,161
47003	8,2536	-3,9944	-44,284	10,142
47004	7,5674	-3,9944	-44,487	10,502
47005	7,788	-3,4881	-44,067	10,559
47006	7,781	-4,4936	-44,059	10,431
47007	24,573	-4,0006	14,094	7,1757
47008	23,896	-4,002	14,297	7,4928
47009	24,131	-3,5026	13,859	7,6421
47010	24,132	-4,5005	13,858	7,6835
47011	8,5098	-4,0071	-44,932	9,7289
47012	9,1741	-4,0017	-44,766	9,6128
47013	8,7263	-3,501	-44,521	9,792
47014	8,7263	-4,5007	-44,509	9,702
47015	24,778	-4,0006	14,769	6,5633
47016	25,456	-4,0003	14,564	6,131
47017	25,015	-3,4988	14,33	6,6875
47018	25,016	-4,5001	14,332	6,7289
47019	-9,5258	-3,9859	-36,596	11,465
47020	-10,016	-3,9913	-35,731	11,142
47021	-10,223	-3,9905	-36,411	10,884
47022	-9,7761	-3,485	-36,16	11,299
47023	-9,7735	-4,4943	-36,162	11,306
47024	24,101	-4,002	14,972	6,878
47025	23,424	-4,0033	15,174	7,2107
47026	23,659	-3,5052	14,736	7,3214
47027	23,66	-4,5015	14,735	7,3585
47028	-7,185	-3,9999	-33,493	13,432
47029	-7,0032	-4,0053	-32,796	13,422
47030	-6,757	-3,5073	-33,23	13,713
47031	-6,759	-4,5015	-33,234	13,745
47032	24,307	-4,0017	15,648	6,3267
47033	24,983	-4,0005	15,443	5,8908
47034	24,542	-3,5002	15,207	6,4143
47035	24,543	-4,5005	15,209	6,4502
47036	-8,0485	-3,9952	-34,013	12,81
47037	-7,855	-4,	-33,32	12,884
47038	-7,6109	-3,4979	-33,748	13,142
47039	-7,6111	-4,4983	-33,752	13,169
47040	5,8286	-3,9757	-44,448	14,224
47041	5,1414	-3,9527	-44,698	16,496
47042	5,3309	-3,4602	-44,273	16,054
47043	5,054	-4,2229	-44,228	17,907
47044	5,302	-4,4801	-44,332	15,975
47045	-8,9293	-3,9934	-34,531	12,106
47046	-8,7266	-3,9971	-33,841	12,25
47047	-8,4871	-3,4928	-34,27	12,471
47048	-8,4859	-4,4968	-34,273	12,492
47049	6,8626	-3,9963	-44,743	11,316
47050	6,1871	-4,0031	-45,	12,127
47051	6,3321	-3,483	-44,593	12,26
47052	6,3727	-4,4956	-44,558	12,118
47053	23,63	-4,003	15,851	6,6581
47054	22,952	-4,0036	16,051	7,0017
47055	23,189	-3,501	15,615	7,0783
47056	23,188	-4,5018	15,613	7,1134
47057	7,8236	-4,0071	-45,135	10,093
47058	7,1468	-4,0128	-45,359	10,398
47059	7,3566	-3,5178	-44,929	10,505
47060	7,3539	-4,5008	-44,916	10,415
47061	23,834	-4,0015	16,526	6,1641
47062	24,511	-4,0012	16,323	5,7275
47063	24,07	-3,5011	16,087	6,2186
47064	24,071	-4,5012	16,089	6,2502
47065	8,0851	-4,0211	-45,775	9,6015
47066	8,7283	-4,0088	-45,619	9,604
47067	8,2854	-3,5102	-45,372	9,7187
47068	8,2932	-4,5064	-45,355	9,6306
47069	-9,8155	-3,9936	-35,045	11,358
47070	-9,6059	-3,996	-34,36	11,555
47071	-9,3744	-3,4915	-34,787	11,736
47072	-9,3727	-4,4966	-34,789	11,75
47073	5,4999	-3,9801	-45,25	14,464
47074	4,8589	-3,9795	-45,587	15,979
47075	4,9096	-4,2154	-44,6	18,011
47076	5,0064	-4,4726	-45,131	16,783
47077	4,4985	-3,9744	-45,033	21,74
47078	-9,0341	-3,9803	-37,466	11,78
47079	-9,731	-3,9854	-37,279	11,171
47080	-9,2813	-3,4769	-37,029	11,627
47081	-9,2781	-4,4915	-37,03	11,628
47082	6,4712	-4,0195	-45,616	11,236
47083	5,8361	-4,0146	-45,878	11,865
47084	6,0239	-3,5132	-45,407	12,171
47085	6,0027	-4,5075	-45,43	12,167
47086	23,156	-4,0021	16,727	6,5072
47087	22,48	-4,0035	16,929	6,8545
47088	22,716	-3,502	16,491	6,904
47089	22,716	-4,5018	16,49	6,9353
47090	7,4083	-4,0268	-45,998	9,912
47091	6,7591	-4,0414	-46,193	10,174
47092	6,9446	-3,5255	-45,802	10,32
47093	6,9487	-4,512	-45,783	10,292
47094	23,361	-4,0009	17,402	6,0632
47095	24,037	-4,0006	17,199	5,6305
47096	23,597	-3,5006	16,963	6,0917
47097	23,597	-4,5003	16,965	6,1195
47098	7,6569	-4,0117	-46,628	9,3653
47099	8,2934	-4,0161	-46,463	9,4515
47100	7,8512	-3,5257	-46,219	9,5384
47101	7,877	-4,5148	-46,195	9,4647
47102	-10,493	-3,9961	-34,869	10,825
47103	-10,709	-3,9952	-35,549	10,592
47104	-10,26	-3,4924	-35,298	10,977
47105	-10,258	-4,497	-35,3	10,985
47106	5,1951	-4,014	-46,215	13,457
47107	4,5444	-4,018	-46,552	14,382
47108	4,684	-4,5069	-46,091	15,901
47109	4,3026	-4,0084	-46,029	18,902
47110	22,684	-4,0023	17,604	6,4106
47111	22,007	-4,0033	17,806	6,7602
47112	22,244	-3,5018	17,369	6,7861
47113	22,244	-4,5017	17,367	6,8143
47114	6,1239	-4,0364	-46,455	10,802
47115	5,6428	-4,0649	-46,787	11,01
47116	5,5885	-3,5757	-46,35	11,788
47117	5,648	-4,5071	-46,299	11,83
47118	22,887	-4,0017	18,281	6,011
47119	23,564	-4,0008	18,077	5,5845
47120	23,124	-3,501	17,841	6,0175
47121	23,124	-4,5006	17,843	6,0425
47122	7,0077	-4,0263	-46,823	9,6302
47123	6,3813	-4,0527	-47,019	9,7899
47124	6,686	-3,4652	-46,604	9,9374
47125	6,5785	-4,5294	-46,584	10,057
47126	-7,6731	-4,0054	-32,623	12,864
47127	-7,4861	-4,0095	-31,928	12,853
47128	-7,2463	-3,5134	-32,356	13,111
47129	-7,2473	-4,5038	-32,359	13,139
47130	7,2229	-3,9864	-47,457	9,0767
47131	7,8503	-3,9958	-47,315	9,1412
47132	7,4183	-3,4925	-47,067	9,2526
47133	7,4539	-4,497	-47,041	9,2215
47134	-8,5331	-4,002	-33,148	12,315
47135	-8,34	-4,0058	-32,458	12,373
47136	-8,0989	-3,5071	-32,884	12,608
47137	-8,0989	-4,5016	-32,887	12,632
47138	22,211	-4,0026	18,483	6,361
47139	21,535	-4,003	18,684	6,7117
47140	21,771	-3,5052	18,244	6,718
47141	21,771	-4,5016	18,245	6,7425
47142	4,9921	-4,0689	-47,123	11,663
47143	4,3117	-4,5111	-46,988	13,933
47144	3,9555	-4,0123	-46,928	15,504
47145	22,414	-4,0019	19,159	6,0022
47146	23,091	-4,0014	18,957	5,5818
47147	22,651	-3,503	18,721	5,9891
47148	22,651	-4,5011	18,722	6,0118
47149	5,9002	-4,0812	-47,35	9,9671
47150	5,2959	-4,1005	-47,575	10,088
47151	5,6152	-3,5622	-47,219	10,437
47152	5,4557	-4,5578	-47,144	10,85
47153	-9,4031	-3,9998	-33,67	11,691
47154	-9,2011	-4,003	-32,986	11,813
47155	-8,9678	-3,5031	-33,406	12,015
47156	-8,9672	-4,5003	-33,41	12,033
47157	6,5966	-4,0128	-47,652	9,2334
47158	5,9776	-4,0411	-47,821	9,3062
47159	6,2255	-3,4488	-47,443	9,5499
47160	6,1968	-4,5234	-47,41	9,6493
47161	5,1964	-2,063	-46,239	13,292
47162	4,3054	-2,0144	-46,067	18,684
47163	6,7765	-3,9912	-48,225	8,7327
47164	7,4151	-4,	-48,134	8,8033
47165	6,9076	-3,4714	-47,776	8,9977
47166	7,0306	-4,4894	-47,829	8,9732
47167	-10,283	-3,9985	-34,185	11,016
47168	-10,073	-4,0006	-33,503	11,188
47169	-9,8397	-3,5002	-33,928	11,363
47170	-9,839	-4,4995	-33,931	11,377
47171	5,3732	-4,0604	-48,046	9,4522
47172	4,8066	-4,0677	-48,155	9,5982
47173	4,8048	-3,569	-48,094	9,7387
47174	5,	-4,5427	-47,839	10,137
47175	21,738	-4,0023	19,359	6,3534
47176	21,063	-4,0027	19,561	6,7035
47177	21,298	-3,5046	19,122	6,6913
47178	21,299	-4,5014	19,122	6,7137
47179	4,2898	-4,0982	-48,39	9,2849
47180	3,692	-4,2083	-48,558	8,8979
47181	3,9406	-3,8171	-48,374	9,472
47182	3,577	-3,7527	-48,827	8,482
47183	3,5896	-4,3428	-48,332	9,4812
47184	3,9784	-4,5732	-48,281	9,714
47185	21,942	-4,0016	20,035	6,0311
47186	22,618	-4,0012	19,833	5,6172
47187	22,178	-3,5016	19,596	6,0014
47188	22,178	-4,5008	19,598	6,0219
47189	6,1575	-4,0195	-48,394	8,7759
47190	5,5347	-4,0551	-48,521	8,7382
47191	5,6776	-3,3928	-48,291	8,9831
47192	5,7987	-4,5177	-48,143	9,1796
47193	4,9681	-4,0624	-48,63	8,8025
47194	4,3539	-4,1111	-48,714	8,6995
47195	3,925	-3,7045	-48,843	8,1547
47196	4,6035	-3,6681	-48,477	9,1338
47197	4,633	-4,525	-48,458	9,2043
47198	6,2885	-4,0204	-48,949	8,2992
47199	6,9332	-4,005	-48,873	8,3835
47200	6,5506	-3,415	-48,575	8,5551
47201	6,569	-4,5017	-48,572	8,6335
47202	-8,5416	-3,9755	-38,344	12,078
47203	-9,2461	-3,9804	-38,149	11,431
47204	-8,7939	-3,469	-37,901	11,936
47205	-8,7902	-4,4888	-37,902	11,923
47206	5,6656	-4,056	-49,076	8,2257
47207	5,0699	-4,1103	-49,126	8,177
47208	5,2721	-3,5616	-48,942	8,382
47209	5,3495	-4,5374	-48,809	8,5877
47210	21,266	-4,002	20,237	6,3817
47211	20,589	-4,0023	20,439	6,7317
47212	20,826	-3,5041	19,999	6,7026
47213	20,826	-4,5013	20,	6,7232
47214	-10,961	-3,9992	-34,008	10,517
47215	-11,177	-3,9988	-34,687	10,31
47216	-10,728	-3,4981	-34,438	10,667
47217	-10,727	-4,4991	-34,439	10,676
47218	21,468	-4,0016	20,914	6,093
47219	22,146	-4,001	20,71	5,6849
47220	21,706	-3,5013	20,474	6,048
47221	21,705	-4,5007	20,475	6,0668
47222	5,7752	-4,0703	-49,602	7,8362
47223	6,3805	-4,0355	-49,581	7,8823
47224	6,0529	-3,5414	-49,344	8,0159
47225	6,0595	-4,5186	-49,268	8,187
47226	3,7562	-4,2212	-48,882	8,2002
47227	3,1469	-4,1546	-48,967	7,7817
47228	3,3273	-3,8146	-49,011	8,0124
47229	3,3398	-4,4047	-48,515	9,1016
47230	3,469	-4,6351	-48,629	8,6932
47231	-8,0504	-3,9732	-39,231	12,353
47232	-8,7479	-3,9764	-39,031	11,677
47233	-8,2967	-3,4624	-38,787	12,239
47234	-8,2931	-4,4867	-38,786	12,198
47235	-8,153	-4,0098	-31,764	12,353
47236	-7,9582	-4,0127	-31,074	12,343
47237	-7,7243	-3,5186	-31,496	12,576
47238	-7,7249	-4,5057	-31,498	12,601
47239	4,4557	-4,159	-49,21	7,9784
47240	3,9221	-4,1175	-49,147	7,9801
47241	3,6412	-3,7656	-49,151	7,78
47242	4,1196	-3,8342	-49,034	8,106
47243	4,0838	-4,5861	-49,024	8,2893
47244	-9,008	-4,0068	-32,296	11,863
47245	-8,81	-4,0097	-31,605	11,913
47246	-8,5808	-3,5142	-32,027	12,123
47247	-8,581	-4,5041	-32,03	12,144
47248	5,1795	-4,1245	-49,653	7,751
47249	4,5727	-4,1419	-49,55	7,7165
47250	4,7786	-3,7312	-49,458	7,8782
47251	4,8685	-4,5729	-49,393	8,0305
47252	20,791	-4,002	21,116	6,4433
47253	20,117	-4,0021	21,317	6,7921
47254	20,353	-3,5035	20,878	6,7482
47255	20,353	-4,5011	20,878	6,7673
47256	-9,8707	-4,0038	-32,819	11,303
47257	-9,6687	-4,0065	-32,132	11,407
47258	-9,4345	-3,5098	-32,56	11,598
47259	-9,4349	-4,5027	-32,562	11,615
47260	20,995	-4,0014	21,792	6,1842
47261	21,671	-4,0011	21,59	5,7822
47262	21,232	-3,5012	21,352	6,1259
47263	21,23	-4,5009	21,354	6,1435
47264	5,2018	-4,0942	-50,174	7,3916
47265	5,8246	-4,0703	-50,21	7,4477
47266	5,4993	-3,6228	-49,904	7,5866
47267	5,5409	-4,5517	-49,888	7,7245
47268	-10,751	-4,0013	-33,327	10,684
47269	-10,541	-4,003	-32,646	10,836
47270	-10,306	-3,5049	-33,074	11,004
47271	-10,306	-4,5012	-33,076	11,016
47272	-8,6153	-4,0126	-30,915	11,896
47273	-8,422	-4,0145	-30,229	11,884
47274	-8,1908	-3,5221	-30,649	12,095
47275	-8,1916	-4,507	-30,65	12,117
47276	20,321	-4,0014	21,992	6,533
47277	19,645	-4,0018	22,194	6,882
47278	19,881	-3,503	21,755	6,8241
47279	19,881	-4,501	21,755	6,842
47280	-9,4708	-4,0094	-31,442	11,451
47281	-9,2754	-4,0115	-30,755	11,492
47282	-9,0381	-3,5178	-31,179	11,691
47283	-9,039	-4,5056	-31,181	11,71
47284	20,523	-4,0006	22,668	6,302
47285	21,2	-4,0007	22,466	5,905
47286	20,76	-3,5007	22,229	6,2311
47287	20,758	-4,5004	22,231	6,2477
47288	-7,5614	-3,9745	-40,133	12,613
47289	-8,2581	-3,975	-39,922	11,887
47290	-7,809	-3,4608	-39,678	12,522
47291	-7,8077	-4,4865	-39,676	12,424
47292	-10,339	-4,0057	-31,959	10,934
47293	-10,136	-4,0079	-31,278	11,028
47294	-9,9014	-3,5128	-31,701	11,206
47295	-9,9026	-4,5038	-31,703	11,221
47296	19,848	-4,0011	22,87	6,6506
47297	19,172	-4,0015	23,071	6,9995
47298	19,408	-3,501	22,632	6,9291
47299	19,409	-4,5008	22,632	6,9455
47300	-11,43	-4,0008	-33,147	10,216
47301	-11,645	-4,0007	-33,824	10,029
47302	-11,196	-3,5011	-33,577	10,362
47303	-11,195	-4,5002	-33,578	10,37
47304	20,05	-4,0003	23,546	6,4453
47305	20,727	-4,0005	23,344	6,0526
47306	20,288	-3,5001	23,107	6,3626
47307	20,285	-4,5002	23,108	6,3784
47308	-11,22	-4,0025	-32,466	10,363
47309	-11,01	-4,004	-31,788	10,501
47310	-10,775	-3,5069	-32,214	10,66
47311	-10,776	-4,5019	-32,216	10,671
47312	-7,072	-3,9796	-41,05	12,903
47313	-7,7695	-3,9773	-40,825	12,079
47314	-7,3128	-3,467	-40,59	12,815
47315	-7,3151	-4,488	-40,59	12,629
47316	4,5951	-4,1115	-50,071	7,3429
47317	4,0391	-4,1004	-49,487	7,6258
47318	4,0076	-3,9941	-49,855	7,2984
47319	4,2764	-3,7555	-49,862	7,38
47320	4,3658	-4,569	-49,798	7,5839
47321	19,375	-4,0008	23,747	6,7934
47322	18,7	-4,0013	23,949	7,1424
47323	18,935	-3,5005	23,509	7,0604
47324	18,936	-4,5007	23,51	7,0755
47325	4,6781	-4,0933	-50,605	7,0748
47326	5,1844	-4,0611	-50,786	7,0667
47327	4,8641	-3,6437	-50,506	7,1462
47328	4,9095	-4,5426	-50,453	7,2813
47329	19,578	-4,0003	24,424	6,6119
47330	20,254	-4,0004	24,222	6,2228
47331	19,815	-3,4999	23,984	6,5181
47332	19,812	-4,5001	23,986	6,5333
47333	-11,898	-4,0015	-32,286	9,9247
47334	-12,113	-4,0015	-32,961	9,7535
47335	-11,664	-3,5023	-32,716	10,065
47336	-11,664	-4,5006	-32,716	10,073
47337	-6,5539	-3,9731	-41,986	13,375
47338	-7,2757	-3,9805	-41,737	12,315
47339	-6,8255	-3,4703	-41,51	13,156
47340	-6,8291	-4,4916	-41,515	12,877
47341	3,7427	-3,9565	-49,64	7,4467
47342	3,3128	-4,0509	-49,233	7,3407
47343	3,4932	-3,7109	-49,276	7,6365
47344	3,7297	-3,7963	-49,408	7,5965
47345	3,7271	-4,5314	-49,396	7,6828
47346	18,902	-4,0007	24,625	6,9595
47347	18,227	-4,0011	24,826	7,3092
47348	18,462	-3,5003	24,387	7,2159
47349	18,464	-4,5006	24,388	7,2301
47350	4,0906	-3,9758	-50,388	6,9779
47351	3,1596	-3,8614	-50,16	6,6404
47352	3,6827	-3,5815	-50,144	6,9812
47353	3,7071	-4,4251	-50,112	7,1202
47354	19,105	-4,0004	25,302	6,8002
47355	19,781	-4,0002	25,1	6,4144
47356	19,342	-3,5001	24,863	6,6962
47357	19,339	-4,5002	24,864	6,7107
47358	3,811	-4,0738	-51,158	6,6134
47359	4,6348	-4,0634	-51,22	6,8096
47360	4,3262	-3,583	-50,822	6,8655
47361	4,3638	-4,5507	-50,838	6,9816
47362	-11,812	-4,0099	32,636	10,799
47363	-11,332	-4,0072	33,511	11,209
47364	-12,	-4,009	33,316	10,803
47365	-11,573	-3,5147	33,073	10,99
47366	-11,152	-4,0084	32,83	11,157
47367	-11,572	-4,5043	33,074	11,003
47368	18,43	-4,0007	25,503	7,1478
47369	17,755	-4,0008	25,704	7,4983
47370	17,991	-3,5001	25,264	7,394
47371	17,991	-4,5005	25,265	7,4078
47372	-9,0821	-4,0135	-30,069	11,474
47373	-8,8845	-4,0149	-29,383	11,462
47374	-8,6512	-3,5232	-29,807	11,659
47375	-8,6524	-4,5075	-29,808	11,678
47376	18,632	-4,0005	26,18	7,0092
47377	19,308	-4,0004	25,978	6,626
47378	18,869	-3,5	25,74	6,8951
47379	18,866	-4,5002	25,742	6,9093
47380	-9,9408	-4,0101	-30,592	11,064
47381	-9,7411	-4,0119	-29,904	11,103
47382	-9,5104	-3,5188	-30,329	11,283
47383	-9,5118	-4,506	-30,33	11,3
47384	2,9617	-4,0378	-51,607	6,3509
47385	2,8799	-3,9593	-50,93	6,3215
47386	3,5211	-4,0022	-51,915	6,4005
47387	3,3584	-3,5478	-51,406	6,453
47388	3,3353	-4,5231	-51,4	6,5674
47389	2,4517	-4,0341	-51,872	6,1946
47390	2,3888	-3,9957	-51,192	6,0744
47391	3,0354	-4,0232	-52,083	6,2815
47392	2,7973	-3,5193	-51,67	6,2536
47393	2,798	-4,5147	-51,633	6,3644
47394	-10,806	-4,0063	-31,106	10,59
47395	-10,603	-4,0082	-30,423	10,675
47396	-10,368	-3,5135	-30,852	10,841
47397	-10,37	-4,5041	-30,853	10,855
47398	1,911	-4,0374	-52,231	6,0764
47399	1,7908	-3,9813	-51,658	5,9495
47400	2,332	-4,0272	-52,456	6,1415
47401	2,1136	-3,5622	-51,951	6,0978
47402	2,2005	-4,5194	-52,027	6,2065
47403	2,307	-3,9173	-50,515	6,1295
47404	2,7297	-3,9557	-49,753	6,7473
47405	2,8615	-3,5905	-50,396	6,373
47406	2,9101	-3,6158	-49,797	6,957
47407	2,7525	-4,4363	-50,335	6,4382
47408	-11,688	-4,003	-31,607	10,058
47409	-11,478	-4,0044	-30,929	10,185
47410	-11,242	-3,5074	-31,359	10,335
47411	-11,243	-4,5021	-31,36	10,346
47412	1,7279	-3,9429	-50,978	5,8896
47413	1,8346	-4,0961	-50,3	5,6757
47414	2,2198	-3,6177	-50,86	6,0439
47415	2,6092	-3,6605	-49,998	6,7578
47416	2,049	-4,481	-50,718	6,0738
47417	1,3765	-4,0795	-52,242	5,97
47418	1,7263	-4,0303	-52,707	6,0603
47419	1,6208	-3,5603	-52,355	6,0225
47420	1,7314	-4,5179	-52,389	6,1151
47421	-12,285	-4,0111	31,76	10,425
47422	-12,473	-4,0106	32,441	10,423
47423	-12,05	-3,517	32,199	10,6
47424	-11,625	-4,011	31,953	10,761
47425	-12,05	-4,5056	32,199	10,612
47426	17,957	-4,0006	26,381	7,3571
47427	17,28	-4,0004	26,581	7,7096
47428	17,519	-3,5015	26,143	7,5937
47429	17,519	-4,5004	26,143	7,6073
47430	1,2562	-4,0235	-51,669	5,8692
47431	1,1783	-3,9846	-51,173	5,6919
47432	1,6165	-3,5812	-51,29	5,8822
47433	1,5134	-4,4619	-51,305	5,9136
47434	18,159	-4,0004	27,058	7,2378
47435	18,835	-4,0003	26,856	6,8568
47436	18,396	-3,5002	26,618	7,1145
47437	18,393	-4,5003	26,62	7,1281
47438	0,75971	-4,0961	-52,068	5,8918
47439	1,0244	-4,0752	-52,606	5,978
47440	1,0076	-3,6702	-52,157	5,8986
47441	1,1316	-4,5616	-52,141	6,007
47442	-12,366	-4,002	-31,424	9,6458
47443	-12,581	-4,002	-32,098	9,4865
47444	-12,132	-3,5032	-31,854	9,7793
47445	-12,132	-4,5009	-31,855	9,7876
47446	17,482	-4,0002	27,258	7,587
47447	16,806	-3,9999	27,458	7,9409
47448	17,045	-3,501	27,02	7,8154
47449	17,044	-4,5	27,02	7,8284
47450	-10,852	-4,0039	34,392	11,658
47451	-11,521	-4,0061	34,193	11,217
47452	-11,08	-3,5079	33,946	11,424
47453	-10,668	-4,0048	33,706	11,595
47454	-11,097	-4,5029	33,951	11,429
47455	17,686	-4,0003	27,935	7,4848
47456	18,362	-4,0002	27,734	7,1058
47457	17,924	-3,5	27,496	7,3525
47458	17,92	-4,5002	27,497	7,3659
47459	-12,754	-4,0102	30,881	10,079
47460	-12,943	-4,0102	31,562	10,069
47461	-12,519	-3,5167	31,321	10,242
47462	-12,094	-4,0109	31,075	10,398
47463	-12,52	-4,5055	31,321	10,253
47464	-5,9803	-3,9822	-42,945	14,308
47465	-6,7393	-3,9768	-42,665	12,744
47466	-6,2762	-3,4511	-42,455	13,765
47467	-6,2789	-4,4814	-42,463	13,46
47468	0,6818	-4,0572	-51,573	5,7127
47469	4,2661e-002	-4,0476	-52,013	5,8531
47470	0,30972	-4,0467	-52,562	5,929
47471	0,31183	-3,6005	-52,039	5,8422
47472	0,45663	-4,5345	-52,039	5,9477
47473	17,01	-4,	28,135	7,8348
47474	16,336	-4,	28,336	8,1894
47475	16,572	-3,5008	27,898	8,0558
47476	16,572	-4,4999	27,897	8,0681
47477	0,4728	-4,0355	-51,019	5,4919
47478	1,2851	-4,1378	-50,495	5,5134
47479	0,96074	-3,6226	-51,076	5,5813
47480	0,86776	-4,5227	-51,069	5,6113
47481	17,213	-4,0001	28,813	7,7496
47482	17,89	-4,0001	28,612	7,3721
47483	17,451	-3,4998	28,374	7,6087
47484	17,447	-4,5001	28,375	7,6215
47485	-0,16634	-4,0259	-51,46	5,6393
47486	-0,74912	-4,0537	-52,069	5,9035
47487	-0,55058	-4,0213	-52,502	5,9312
47488	-0,4184	-3,5217	-52,015	5,8511
47489	-0,35315	-4,5131	-51,97	5,926
47490	2,2573	-4,1346	-49,538	6,3225
47491	3,0436	-3,7722	-49,397	7,1328
47492	3,0319	-3,699	-49,237	7,3993
47493	3,0444	-4,289	-48,741	8,5582
47494	2,8664	-4,5195	-49,214	7,0995
47495	2,5629	-4,0207	-48,742	7,8531
47496	0,34453	-4,0316	-50,395	4,8382
47497	-0,46862	-4,0419	-50,904	5,5046
47498	0,13089	-3,5964	-50,882	5,3873
47499	5,6707e-003	-4,5128	-50,914	5,4743
47500	1,1568	-4,134	-49,871	4,8617
47501	2,4377	-3,7946	-49,582	6,4298
47502	1,5427	-4,6151	-49,926	5,3166
47503	1,5419	-4,1162	-49,311	4,9217
47504	-5,4231	-3,8314	-43,761	15,811
47505	-6,1907	-3,99	-43,581	13,585
47506	-5,6131	-3,4588	-43,366	15,154
47507	-5,134	-4,2334	-43,387	17,981
47508	-5,6598	-4,5007	-43,422	14,811
47509	-0,11574	-4,0671	-49,859	4,3987
47510	0,48046	-4,5189	-49,878	4,107
47511	0,56722	-4,0197	-49,414	2,9081
47512	-5,0017	-3,6971	-44,67	16,816
47513	-5,711	-3,8124	-44,359	14,547
47514	-4,8755	-4,0633	-43,722	18,858
47515	-5,1936	-4,3306	-44,252	16,481
47516	-4,5246	-3,8296	-44,071	23,04
47517	-4,7304	-3,8614	-45,701	16,348
47518	-5,3534	-3,8534	-45,379	14,752
47519	-4,8931	-4,3665	-45,241	17,096
47520	-4,4194	-3,8657	-45,124	21,91
47521	-10,367	-4,0006	35,276	12,159
47522	-11,041	-4,0023	35,074	11,67
47523	-10,599	-3,5044	34,827	11,895
47524	-10,18	-4,0013	34,588	12,082
47525	-10,616	-4,501	34,837	11,902
47526	-4,4204	-3,9946	-46,609	14,616
47527	-5,057	-3,9977	-46,291	13,74
47528	-4,6096	-4,4949	-46,152	16,086
47529	-4,2527	-3,9941	-46,058	19,119
47530	-13,221	-4,0083	29,999	9,7588
47531	-13,413	-4,0085	30,68	9,7388
47532	-12,987	-3,5148	30,441	9,9096
47533	-12,56	-4,0094	30,195	10,064
47534	-12,987	-4,5047	30,441	9,9214
47535	-3,9268	-4,0012	-47,494	12,321
47536	-4,6354	-4,0188	-47,158	12,333
47537	-4,1881	-4,4996	-47,049	14,111
47538	-3,8796	-3,999	-46,96	15,749
47539	16,539	-4,0001	29,014	8,0997
47540	15,861	-4,0001	29,213	8,4584
47541	16,102	-3,5008	28,776	8,3139
47542	16,102	-4,5001	28,776	8,3255
47543	-3,2326	-4,004	-48,319	9,589
47544	-4,0292	-4,0695	-48,079	10,239
47545	-3,616	-4,5015	-47,908	11,349
47546	-3,3138	-4,0012	-47,791	12,097
47547	16,736	-4,0003	29,692	8,0327
47548	17,416	-4,0002	29,49	7,6551
47549	16,977	-3,4996	29,252	7,8825
47550	16,973	-4,5	29,253	7,8946
47551	-9,5435	-4,0134	-29,219	11,086
47552	-9,3465	-4,0146	-28,537	11,075
47553	-9,1152	-3,5231	-28,958	11,254
47554	-9,1167	-4,5074	-28,959	11,272
47555	-2,3822	-4,0249	-49,01	7,0042
47556	-3,1627	-4,0763	-49,034	7,7357
47557	-2,8458	-4,5024	-48,695	8,3188
47558	-2,5501	-4,0024	-48,502	8,4637
47559	-10,403	-4,01	-29,736	10,709
47560	-10,206	-4,0116	-29,052	10,744
47561	-9,9688	-3,5187	-29,478	10,913
47562	-9,9704	-4,5059	-29,479	10,929
47563	-9,8806	-3,996	36,172	12,723
47564	-10,557	-3,9997	35,96	12,171
47565	-10,11	-3,5006	35,711	12,424
47566	-9,6905	-3,9973	35,477	12,63
47567	-10,128	-4,4996	35,724	12,433
47568	-1,408	-4,0708	-49,586	5,1752
47569	-2,2091	-4,0915	-49,635	5,9505
47570	-1,8067	-3,838	-49,979	5,7522
47571	-1,964	-4,5225	-49,307	5,8314
47572	-1,6751	-4,0228	-49,026	5,2851
47573	-11,274	-4,0063	-30,246	10,267
47574	-11,07	-4,0081	-29,566	10,347
47575	-10,834	-3,5134	-29,992	10,501
47576	-10,836	-4,5041	-29,993	10,515
47577	16,058	-4,0003	29,891	8,3862
47578	15,384	-3,9999	30,089	8,746
47579	15,623	-3,499	29,65	8,5941
47580	15,62	-4,5	29,65	8,6061
47581	-0,92888	-4,0774	-50,368	5,0293
47582	-1,3244	-4,0903	-50,087	5,0908
47583	-1,2806	-3,8638	-50,254	5,1041
47584	-0,94962	-4,5483	-49,895	4,5784
47585	-0,68059	-4,0488	-49,416	3,0512
47586	16,262	-4,0003	30,569	8,3298
47587	16,94	-4,0004	30,369	7,9545
47588	16,501	-3,4999	30,13	8,1738
47589	16,497	-4,5003	30,132	8,185
47590	-1,0514	-4,0697	-51,513	5,7737
47591	-1,4201	-4,0776	-50,995	5,749
47592	-0,84079	-3,6472	-50,754	5,479
47593	-1,3276	-3,8446	-50,761	5,715
47594	-0,94076	-4,5291	-50,918	5,6402
47595	-12,156	-4,0033	-30,746	9,7691
47596	-11,948	-4,0046	-30,068	9,8875
47597	-11,711	-3,5077	-30,498	10,029
47598	-11,712	-4,5022	-30,499	10,04
47599	-1,6187	-4,0623	-51,968	6,0104
47600	-1,3461	-4,0496	-52,534	6,0164
47601	-1,1343	-3,6114	-52,162	5,9717
47602	-1,1476	-4,5406	-52,036	6,0304
47603	15,588	-3,9998	30,767	8,6838
47604	14,911	-3,9998	30,966	9,0485
47605	15,148	-3,5002	30,527	8,8897
47606	15,147	-4,4999	30,527	8,8997
47607	-13,688	-4,0059	29,111	9,461
47608	-13,88	-4,0064	29,795	9,4315
47609	-13,454	-3,5115	29,557	9,6006
47610	-13,027	-4,0072	29,312	9,7535
47611	-13,455	-4,5036	29,556	9,6127
47612	15,792	-3,9999	31,446	8,6394
47613	16,469	-3,9999	31,245	8,265
47614	16,03	-3,4996	31,007	8,4771
47615	16,026	-4,4999	31,008	8,4873
47616	-12,834	-4,0024	-30,561	9,3809
47617	-13,048	-4,0023	-31,235	9,2302
47618	-12,6	-3,5037	-30,992	9,507
47619	-12,6	-4,5011	-30,993	9,5156
47620	-9,3913	-3,9914	37,078	13,368
47621	-10,073	-3,9945	36,858	12,732
47622	-9,6322	-3,4932	36,612	13,016
47623	-9,2059	-3,9916	36,382	13,252
47624	-9,6417	-4,4964	36,628	13,036
47625	15,114	-3,9999	31,644	8,9978
47626	14,438	-3,9997	31,843	9,3672
47627	14,675	-3,5001	31,404	9,2007
47628	14,674	-4,4999	31,404	9,2099
47629	-1,8156	-4,0905	-50,714	5,8477
47630	-2,1255	-4,111	-50,136	6,0406
47631	-1,7231	-3,8575	-50,48	5,81
47632	-1,7669	-4,542	-50,314	5,7598
47633	15,316	-4,0002	32,325	8,9646
47634	15,996	-4,	32,123	8,5892
47635	15,557	-3,4997	31,884	8,7951
47636	15,553	-4,5	31,886	8,8043
47637	-1,9873	-4,0702	-51,45	6,0187
47638	-2,3425	-4,0806	-50,895	6,1566
47639	-1,8546	-3,5894	-51,061	5,9415
47640	-1,7718	-3,864	-50,881	5,8917
47641	-1,8471	-4,5485	-51,06	5,9963
47642	-14,155	-4,0039	28,214	9,185
47643	-14,348	-4,0042	28,901	9,1441
47644	-13,921	-3,5077	28,666	9,3138
47645	-13,493	-4,0047	28,424	9,4668
47646	-13,921	-4,5024	28,666	9,3266
47647	-2,5439	-4,0348	-51,667	6,1858
47648	-2,2745	-4,035	-52,232	6,127
47649	-2,1063	-3,5601	-51,75	6,0831
47650	-2,0844	-4,5217	-51,796	6,1679
47651	14,639	-4,	32,523	9,3272
47652	13,966	-3,9992	32,72	9,7014
47653	14,202	-3,4997	32,281	9,5275
47654	14,202	-4,4998	32,281	9,5358
47655	-10,009	-4,0129	-28,37	10,729
47656	-9,8067	-4,0141	-27,687	10,72
47657	-9,5748	-3,5224	-28,114	10,885
47658	-9,5763	-4,5072	-28,115	10,902
47659	14,844	-4,	33,202	9,2992
47660	15,52	-4,0003	33,003	8,9254
47661	15,078	-3,5005	32,764	9,1284
47662	15,077	-4,5002	32,765	9,1347
47663	-10,873	-4,0098	-28,883	10,378
47664	-10,671	-4,0112	-28,2	10,413
47665	-10,439	-3,5181	-28,625	10,566
47666	-10,441	-4,5057	-28,626	10,581
47667	-8,8856	-3,9874	37,993	14,127
47668	-9,5783	-3,9908	37,763	13,373
47669	-9,1458	-3,486	37,518	13,696
47670	-8,7121	-3,989	37,296	13,976
47671	-9,14	-4,4951	37,534	13,74
47672	-2,6524	-4,1011	-50,317	6,3449
47673	-2,9896	-4,1428	-49,658	6,9053
47674	-2,2936	-3,6216	-50,075	6,1428
47675	-2,0817	-3,8845	-50,303	6,082
47676	-2,5141	-4,569	-49,901	6,4057
47677	-11,745	-4,0064	-29,389	9,9643
47678	-11,536	-4,0081	-28,71	10,044
47679	-11,303	-3,5131	-29,139	10,185
47680	-11,305	-4,504	-29,14	10,198
47681	-2,8991	-4,0451	-51,113	6,3659
47682	-3,2284	-4,0662	-50,535	6,5781
47683	-2,7989	-3,6098	-50,699	6,4
47684	-2,2501	-3,8476	-50,661	6,0733
47685	-2,7409	-4,5321	-50,676	6,4311
47686	14,171	-3,9993	33,399	9,6661
47687	13,495	-3,9984	33,596	10,051
47688	13,732	-3,499	33,159	9,8696
47689	13,731	-4,4995	33,159	9,8769
47690	-3,3624	-4,0301	-51,411	6,435
47691	-3,1397	-4,0291	-51,992	6,3094
47692	-2,9606	-3,5409	-51,578	6,2984
47693	-2,9363	-4,5131	-51,546	6,3902
47694	14,375	-3,9995	34,079	9,6413
47695	15,051	-3,9998	33,879	9,2661
47696	14,612	-3,4993	33,639	9,4655
47697	14,612	-4,4998	33,642	9,4696
47698	-12,626	-4,0037	-29,884	9,4961
47699	-12,417	-4,0049	-29,209	9,6106
47700	-12,183	-3,508	-29,637	9,7398
47701	-12,185	-4,5024	-29,637	9,7507
47702	13,7	-3,9986	34,276	10,019
47703	13,023	-3,9973	34,473	10,418
47704	13,261	-3,4978	34,035	10,228
47705	13,26	-4,4989	34,034	10,234
47706	-4,1627	-4,0352	-51,128	6,694
47707	-3,6917	-4,0512	-50,834	6,6924
47708	-3,9237	-4,0269	-51,695	6,5255
47709	-3,7899	-3,534	-51,244	6,5874
47710	-3,6512	-4,517	-51,299	6,6332
47711	-4,8582	-4,0293	-50,903	6,9413
47712	-4,477	-4,1068	-50,512	7,0794
47713	-4,7339	-4,0227	-51,354	6,7622
47714	-4,5818	-3,5374	-50,919	6,8526
47715	-4,4252	-4,5182	-50,993	6,8999
47716	13,904	-3,9994	34,958	9,9926
47717	14,578	-3,9998	34,758	9,6143
47718	14,141	-3,4989	34,517	9,8141
47719	14,14	-4,4997	34,519	9,8164
47720	-5,2618	-4,0356	-50,564	7,2043
47721	-5,3505	-4,0117	-51,045	6,9672
47722	-5,1893	-3,4849	-50,806	6,9898
47723	-5,0782	-4,5111	-50,818	7,1194
47724	-4,0059	-4,1228	-50,218	7,0273
47725	-3,5656	-4,108	-49,876	7,1729
47726	-3,6462	-3,598	-50,409	6,7884
47727	-3,6134	-4,5342	-50,334	6,8908
47728	-13,302	-4,0029	-29,698	9,131
47729	-13,516	-4,0027	-30,371	8,9859
47730	-13,067	-3,5045	-30,129	9,2493
47731	-13,068	-4,5013	-30,13	9,2581
47732	13,227	-3,9981	35,155	10,384
47733	12,55	-3,996	35,35	10,803
47734	12,788	-3,4962	34,912	10,604
47735	12,786	-4,4983	34,911	10,609
47736	-4,8806	-4,1131	-50,173	7,271
47737	-4,5859	-4,1563	-49,595	7,77
47738	-4,3995	-3,7325	-50,072	7,272
47739	-4,419	-4,5886	-50,069	7,3973
47740	13,432	-3,9991	35,838	10,349
47741	14,106	-3,9999	35,637	9,9642
47742	13,67	-3,4993	35,399	10,169
47743	13,668	-4,4998	35,399	10,17
47744	-14,623	-4,0031	27,315	8,9307
47745	-14,816	-4,003	27,999	8,8772
47746	-14,389	-3,5049	27,762	9,0478
47747	-13,959	-4,0029	27,524	9,2021
47748	-14,389	-4,5016	27,762	9,0614
47749	-5,5873	-4,0487	-49,932	7,6232
47750	-5,7691	-4,0334	-50,494	7,2631
47751	-5,4325	-3,5693	-50,238	7,3524
47752	-5,3274	-4,5245	-50,255	7,4702
47753	12,754	-3,997	36,032	10,76
47754	12,075	-3,995	36,226	11,208
47755	12,315	-3,4943	35,788	10,998
47756	12,313	-4,4976	35,788	11,003
47757	-8,3749	-3,9825	38,923	15,017
47758	-9,069	-3,9849	38,678	14,123
47759	-8,6293	-3,4778	38,453	14,522
47760	-8,2069	-3,9859	38,225	14,838
47761	-8,6288	-4,4923	38,454	14,573
47762	12,957	-3,9985	36,716	10,709
47763	13,633	-3,9994	36,515	10,311
47764	13,198	-3,4982	36,277	10,528
47765	13,195	-4,4994	36,277	10,527
47766	-4,1455	-4,1416	-49,253	7,715
47767	-3,9594	-4,1418	-48,795	8,5422
47768	-3,4251	-3,5392	-49,612	7,3301
47769	-3,6084	-4,5739	-49,264	7,8278
47770	12,278	-3,9965	36,909	11,149
47771	11,598	-3,9956	37,102	11,637
47772	11,839	-3,4934	36,665	11,414
47773	11,838	-4,4974	36,664	11,418
47774	-10,469	-4,0124	-27,516	10,402
47775	-10,272	-4,0138	-26,833	10,393
47776	-10,036	-3,5215	-27,258	10,544
47777	-10,037	-4,5069	-27,259	10,561
47778	12,477	-3,9985	37,592	11,072
47779	13,159	-3,999	37,393	10,651
47780	12,721	-3,4976	37,155	10,89
47781	12,719	-4,4991	37,154	10,886
47782	-11,335	-4,0095	-28,026	10,076
47783	-11,135	-4,0112	-27,346	10,111
47784	-10,9	-3,5174	-27,773	10,252
47785	-10,901	-4,5055	-27,774	10,267
47786	11,797	-3,9976	37,784	11,552
47787	11,126	-3,9983	37,975	12,088
47788	11,36	-3,4959	37,542	11,857
47789	11,359	-4,4982	37,539	11,861
47790	-5,2926	-4,0919	-49,353	7,9921
47791	-5,0025	-4,0813	-48,644	8,788
47792	-4,9168	-3,7098	-49,14	8,238
47793	-4,8214	-4,5677	-49,165	8,3106
47794	12,004	-3,9998	38,469	11,427
47795	12,68	-3,9993	38,27	10,978
47796	12,237	-3,4986	38,03	11,256
47797	12,235	-4,4994	38,029	11,25
47798	-6,0445	-4,0387	-49,164	8,1697
47799	-6,2242	-4,0351	-49,764	7,751
47800	-5,8144	-3,5806	-49,67	7,8015
47801	-5,7833	-4,5242	-49,528	8,0168
47802	11,333	-4,0006	38,659	11,955
47803	10,664	-4,0035	38,848	12,558
47804	10,892	-3,5019	38,412	12,316
47805	10,893	-4,5002	38,41	12,322
47806	-12,209	-4,0066	-28,53	9,6871
47807	-12,004	-4,0082	-27,852	9,7637
47808	-11,767	-3,5129	-28,278	9,8946
47809	-11,768	-4,504	-28,279	9,9077
47810	11,536	-4,0027	39,349	11,769
47811	12,213	-4,0007	39,148	11,276
47812	11,774	-3,5015	38,91	11,601
47813	11,773	-4,5004	38,909	11,594
47814	-15,095	-4,0038	26,427	8,6981
47815	-15,289	-4,0034	27,109	8,6306
47816	-14,858	-3,5053	26,867	8,8044
47817	-14,427	-4,0027	26,624	8,9597
47818	-14,858	-4,5016	26,868	8,8187
47819	10,868	-4,0056	39,537	12,365
47820	10,21	-4,0106	39,727	13,045
47821	10,432	-3,5126	39,289	12,797
47822	10,435	-4,5033	39,286	12,807
47823	-13,093	-4,0041	-29,023	9,2428
47824	-12,884	-4,0053	-28,349	9,3549
47825	-12,649	-3,5084	-28,779	9,4748
47826	-12,65	-4,5026	-28,78	9,4859
47827	11,066	-4,0073	40,225	12,099
47828	11,74	-4,0028	40,028	11,544
47829	11,299	-3,5069	39,788	11,942
47830	11,3	-4,5023	39,788	11,935
47831	-7,8525	-3,9768	39,861	16,08
47832	-8,559	-3,9802	39,6	14,987
47833	-8,1213	-3,4724	39,388	15,473
47834	-7,6948	-3,9824	39,17	15,866
47835	-8,1211	-4,4902	39,391	15,548
47836	-10,938	-4,0125	-26,663	10,1
47837	-10,74	-4,0138	-25,983	10,094
47838	-10,506	-3,5212	-26,407	10,231
47839	-10,507	-4,5069	-26,408	10,247
47840	10,408	-4,0123	40,415	12,773
47841	9,7657	-4,0185	40,615	13,536
47842	9,9818	-3,5252	40,171	13,291
47843	9,9856	-4,5073	40,169	13,307
47844	-11,805	-4,0098	-27,171	9,796
47845	-11,601	-4,0115	-26,492	9,834
47846	-11,368	-3,5177	-26,918	9,9606
47847	-11,369	-4,5056	-26,918	9,9754
47848	10,609	-4,0085	41,103	12,387
47849	11,268	-4,0063	40,904	11,768
47850	10,832	-3,5093	40,664	12,259
47851	10,831	-4,505	40,662	12,258
47852	-13,77	-4,0034	-28,835	8,8968
47853	-13,983	-4,0032	-29,507	8,7546
47854	-13,535	-3,5051	-29,266	9,0069
47855	-13,536	-4,5016	-29,267	9,0161
47856	9,9665	-4,0147	41,303	13,145
47857	9,3276	-4,026	41,511	14,006
47858	9,5298	-3,5199	41,067	13,793
47859	9,5458	-4,5113	41,062	13,801
47860	-12,679	-4,0069	-27,671	9,4292
47861	-12,47	-4,0086	-26,993	9,5077
47862	-12,238	-3,5135	-27,423	9,6248
47863	-12,24	-4,5042	-27,424	9,6379
47864	10,161	-4,0071	41,986	12,616
47865	10,817	-4,0044	41,783	11,912
47866	10,382	-3,506	41,543	12,521
47867	10,386	-4,5035	41,543	12,52
47868	-15,571	-4,0056	25,547	8,4865
47869	-15,764	-4,0049	26,23	8,4054
47870	-15,333	-3,5075	25,986	8,5819
47871	-14,9	-4,0039	25,74	8,7394
47872	-15,332	-4,5022	25,986	8,5971
47873	9,5216	-4,0185	42,194	13,473
47874	8,89	-4,0327	42,409	14,422
47875	9,094	-3,5219	41,956	14,251
47876	9,1094	-4,5148	41,96	14,257
47877	-13,561	-4,0046	-28,16	9,0066
47878	-13,352	-4,0058	-27,486	9,1187
47879	-13,118	-3,509	-27,917	9,2281
47880	-13,119	-4,5028	-27,917	9,2395
47881	9,7062	-4,0086	42,87	12,775
47882	10,358	-4,005	42,664	11,982
47883	9,9267	-3,5055	42,424	12,729
47884	9,9342	-4,5037	42,427	12,724
47885	-7,3129	-3,9662	40,806	17,334
47886	-8,0332	-3,973	40,535	16,002
47887	-7,5847	-3,4627	40,327	16,631
47888	-7,1592	-3,9759	40,117	17,119
47889	-7,5839	-4,4865	40,332	16,734
47890	-4,8163	-4,0815	-48,187	9,4109
47891	-4,7378	-4,0871	-47,744	10,317
47892	-4,4662	-3,553	-48,293	9,4798
47893	-4,4484	-4,5679	-48,192	9,8308
47894	9,0747	-4,0229	43,085	13,721
47895	8,4471	-4,0396	43,305	14,745
47896	8,6518	-3,5307	42,842	14,654
47897	8,6707	-4,518	42,858	14,629
47898	-5,7544	-4,0281	-48,455	8,8237
47899	-5,4779	-4,0567	-47,744	9,6729
47900	-5,2265	-3,5639	-48,206	9,279
47901	-5,3307	-4,5136	-48,229	9,3018
47902	9,2477	-4,0124	43,753	12,837
47903	9,8942	-4,0088	43,547	11,964
47904	9,4686	-3,5089	43,304	12,858
47905	9,4818	-4,5049	43,313	12,83
47906	-6,5666	-4,0184	-48,383	8,6543
47907	-6,7496	-4,0213	-49,011	8,2945
47908	-6,3413	-3,5018	-48,797	8,4317
47909	-6,2997	-4,5146	-48,769	8,5451
47910	8,6201	-4,0291	43,972	13,858
47911	7,9781	-4,0376	44,177	15,005
47912	8,1965	-3,5366	43,725	14,974
47913	8,2234	-4,5216	43,751	14,866
47914	-14,237	-4,0039	-27,971	8,6789
47915	-14,451	-4,0036	-28,642	8,5372
47916	-14,003	-3,5059	-28,403	8,7806
47917	-14,003	-4,5018	-28,403	8,7902
47918	8,779	-4,016	44,631	12,802
47919	9,4333	-4,0101	44,427	11,839
47920	9,0027	-3,5161	44,185	12,89
47921	9,0237	-4,5075	44,198	12,811
47922	-16,053	-4,0083	24,678	8,296
47923	-16,242	-4,0071	25,359	8,2003
47924	-15,812	-3,5111	25,107	8,3806
47925	-15,378	-4,0063	24,864	8,5413
47926	-15,811	-4,5034	25,108	8,3964
47927	8,137	-4,0245	44,836	13,948
47928	7,4795	-4,0455	45,043	15,21
47929	7,7097	-3,5416	44,587	15,263
47930	7,7419	-4,5159	44,617	15,019
47931	-6,7028	-4,0193	41,678	18,985
47932	-7,4941	-3,9612	41,475	17,161
47933	-7,0451	-3,4446	41,27	17,969
47934	-6,6072	-3,9577	41,054	18,626
47935	-7,0418	-4,4796	41,279	18,116
47936	8,3153	-4,03	45,502	12,657
47937	8,961	-4,0124	45,303	11,652
47938	8,5241	-3,523	45,06	12,836
47939	8,5516	-4,5086	45,074	12,685
47940	-11,403	-4,0127	-25,811	9,8273
47941	-11,207	-4,0137	-25,132	9,8249
47942	-10,972	-3,5212	-25,557	9,9481
47943	-10,972	-4,5069	-25,557	9,9639
47944	-5,3994	-4,0623	-47,302	10,565
47945	-5,272	-4,0219	-46,84	11,463
47946	-5,0904	-3,5182	-47,277	11,063
47947	-5,052	-4,5192	-47,257	11,261
47948	-12,267	-4,0103	-26,314	9,5441
47949	-12,065	-4,0116	-25,639	9,5845
47950	-11,832	-3,5181	-26,065	9,6985
47951	-11,833	-4,5058	-26,065	9,7132
47952	-6,2901	-4,0469	-47,672	9,4096
47953	-6,0709	-4,0518	-47,047	10,035
47954	-5,8496	-3,5667	-47,455	9,8507
47955	-5,8402	-4,5431	-47,462	9,9086
47956	7,6579	-4,051	45,709	13,919
47957	7,021	-4,0642	45,894	15,183
47958	7,1955	-3,5659	45,461	15,468
47959	7,2262	-4,5295	45,482	15,104
47960	-7,0699	-4,006	-47,589	9,027
47961	-7,2768	-4,006	-48,235	8,7423
47962	-6,8672	-3,5	-47,972	8,8786
47963	-6,835	-4,5038	-47,991	8,9293
47964	7,8667	-4,0479	46,36	12,497
47965	8,4994	-4,0273	46,175	11,409
47966	8,0512	-3,5321	45,935	12,695
47967	8,0895	-4,5214	45,936	12,463
47968	-13,144	-4,0075	-26,809	9,1955
47969	-12,938	-4,0089	-26,134	9,275
47970	-12,7	-3,5141	-26,562	9,3826
47971	-12,701	-4,5044	-26,563	9,3959
47972	7,2299	-4,0611	46,545	13,762
47973	6,5224	-4,0812	46,889	15,054
47974	6,7521	-3,6318	46,316	15,377
47975	6,8158	-4,5346	46,307	14,896
47976	-16,533	-4,0112	23,821	8,1294
47977	-16,726	-4,0101	24,498	8,0154
47978	-16,296	-3,5159	24,247	8,2007
47979	-15,862	-4,0096	23,999	8,3649
47980	-16,295	-4,505	24,248	8,2171
47981	7,4074	-4,0455	47,207	12,496
47982	8,0393	-4,0335	47,033	11,26
47983	7,627	-3,5458	46,791	12,522
47984	7,644	-4,5264	46,783	12,322
47985	-14,029	-4,0051	-27,297	8,7893
47986	-13,816	-4,0062	-26,626	8,9051
47987	-13,585	-3,5099	-27,055	9,0023
47988	-13,586	-4,503	-27,055	9,014
47989	-5,9435	-4,0114	-46,586	10,952
47990	-5,68	-3,9896	-45,969	12,085
47991	-5,5059	-3,5012	-46,401	11,9
47992	-5,4908	-4,5028	-46,418	12,013
47993	6,7	-4,0657	47,551	13,792
47994	6,1723	-4,0648	47,663	14,969
47995	6,3082	-3,6416	47,334	15,154
47996	6,3193	-4,5466	47,298	14,832
47997	-6,8506	-4,0109	-46,964	9,6363
47998	-6,6131	-4,0126	-46,32	10,201
47999	-6,4168	-3,5087	-46,727	10,093
48000	-6,3992	-4,5087	-46,753	10,103
48001	6,9329	-4,033	47,998	12,727
48002	7,5689	-4,0273	47,884	11,335
48003	7,1534	-3,5436	47,629	12,626
48004	7,1659	-4,519	47,619	12,482
48005	-7,5323	-4,0066	-46,752	9,3412
48006	-7,7534	-4,0041	-47,409	9,099
48007	-7,3259	-3,4994	-47,154	9,2294
48008	-7,308	-4,5022	-47,174	9,2079
48009	6,4052	-4,0321	48,11	13,908
48010	5,8198	-4,0322	48,123	15,318
48011	6,1392	-3,6122	47,911	14,83
48012	6,0838	-4,5182	47,898	14,818
48013	-6,2246	-4,0416	42,54	20,461
48014	-6,8806	-4,0141	42,337	18,661
48015	-6,2835	-3,4901	42,147	20,136
48016	-5,9748	-4,0193	41,944	20,635
48017	-6,4136	-4,5396	42,157	19,918
48018	6,3993	-4,0229	48,682	13,316
48019	7,075	-4,0166	48,635	11,742
48020	6,7041	-3,5122	48,47	12,807
48021	6,6851	-4,514	48,389	12,916
48022	5,814	-4,0229	48,694	14,752
48023	5,0784	-4,0089	48,525	16,294
48024	5,4687	-3,5985	48,315	15,992
48025	5,4966	-4,514	48,425	15,742
48026	-14,705	-4,0043	-27,107	8,4781
48027	-14,918	-4,0041	-27,777	8,3345
48028	-14,471	-3,5067	-27,539	8,5709
48029	-14,471	-4,5021	-27,539	8,5811
48030	-5,928	-3,9504	43,595	21,579
48031	-6,511	-3,9837	43,265	19,613
48032	-5,947	-3,4478	43,127	21,55
48033	-5,5433	-4,3379	43,569	23,485
48034	-5,4941	-3,9481	43,013	23,007
48035	-5,9368	-4,5019	43,12	21,558
48036	5,6974	-4,0053	49,317	14,263
48037	6,4525	-4,0173	49,338	12,561
48038	6,1933	-3,4386	49,114	13,344
48039	6,081	-4,5089	49,102	13,806
48040	-5,414	-3,8399	44,555	24,549
48041	-6,1295	-3,9272	44,325	20,645
48042	-5,7338	-3,3621	44,24	22,511
48043	-5,3857	-4,2845	44,16	24,084
48044	-5,5982	-4,4485	44,237	22,957
48045	4,9619	-3,9914	49,148	15,904
48046	4,3521	-3,9951	48,678	17,42
48047	4,6482	-3,5065	48,597	17,124
48048	4,4491	-4,0702	48,349	18,291
48049	4,6231	-4,495	48,644	17,107
48050	-4,8383	-3,8813	45,59	27,057
48051	-5,5583	-3,8643	45,18	23,102
48052	-5,0293	-4,2274	44,529	26,422
48053	-5,1348	-3,3353	44,908	26,282
48054	-4,9802	-3,8375	43,973	25,863
48055	-5,0898	-4,3914	45,068	25,727
48056	-4,5288	-3,8905	44,96	34,222
48057	-4,3617	-3,9802	46,757	26,514
48058	-5,1043	-3,9801	46,533	23,046
48059	-4,6323	-3,4775	46,244	27,711
48060	-4,6537	-4,4899	46,262	26,306
48061	-4,2517	-3,9889	46,105	35,554
48062	5,2228	-3,9951	50,028	14,575
48063	4,7485	-4,0188	49,679	15,621
48064	5,7768	-4,0035	49,991	13,476
48065	5,3005	-3,4436	49,541	14,857
48066	5,2709	-4,4964	49,651	15,098
48067	-3,8149	-3,9768	47,619	23,934
48068	-4,3844	-3,9823	47,561	22,477
48069	-4,0612	-3,4127	47,256	26,232
48070	-4,1086	-4,4904	47,231	25,361
48071	-3,824	-3,9897	47,056	32,664
48072	4,8756	-3,9918	50,501	14,769
48073	5,3982	-3,9961	50,659	13,711
48074	5,1279	-3,4739	50,358	14,407
48075	5,1136	-4,4987	50,436	14,684
48076	4,1387	-4,0225	49,209	17,298
48077	3,817	-3,929	48,743	17,971
48078	4,1685	-4,0754	48,367	18,813
48079	4,1714	-3,5133	48,581	18,189
48080	3,9851	-4,5002	48,715	17,906
48081	4,4012	-4,0155	50,151	15,856
48082	3,8724	-4,014	49,787	16,7
48083	4,2691	-3,4868	49,723	16,353
48084	4,2059	-4,5224	49,722	16,876
48085	-3,2145	-3,992	48,507	20,219
48086	-3,7839	-3,9831	48,299	20,452
48087	-3,5767	-3,4555	48,159	21,11
48088	-3,513	-4,4865	48,023	21,865
48089	-3,2612	-3,9861	47,815	26,872
48090	4,164	-4,0244	50,755	15,518
48091	4,7934	-3,9934	50,995	14,601
48092	4,5767	-3,4773	50,521	15,159
48093	4,5239	-4,4931	50,613	15,593
48094	-16,997	-4,0112	22,962	7,9937
48095	-17,198	-4,0123	23,642	7,8585
48096	-16,772	-3,5193	23,393	8,0473
48097	-16,336	-4,0124	23,145	8,2167
48098	-16,772	-4,5063	23,394	8,0643
48099	3,5507	-3,9205	49,321	17,494
48100	3,6351	-4,023	50,392	16,473
48101	3,1475	-3,9914	49,987	16,857
48102	3,6752	-3,4943	49,827	16,658
48103	3,4816	-4,4917	49,902	17,49
48104	3,1515	-3,9551	48,878	17,755
48105	3,9141	-4,0041	48,413	18,631
48106	3,7173	-3,4348	48,617	18,606
48107	3,3687	-4,4288	48,826	18,156
48108	3,277	-3,9297	48,222	23,604
48109	3,3687	-4,0334	51,041	16,178
48110	3,9725	-4,042	51,371	15,571
48111	3,8196	-3,5232	50,885	15,792
48112	3,7314	-4,5313	50,93	16,389
48113	-11,87	-4,0125	-24,96	9,5814
48114	-11,67	-4,0134	-24,279	9,5854
48115	-11,441	-3,5207	-24,706	9,6925
48116	-11,442	-4,5068	-24,706	9,7083
48117	-6,3496	-3,9908	-45,703	11,352
48118	-6,0626	-3,9686	-45,069	12,316
48119	-5,8505	-3,4881	-45,483	12,49
48120	-5,8815	-4,4868	-45,533	12,341
48121	-12,736	-4,0103	-25,459	9,3145
48122	-12,533	-4,0114	-24,782	9,3597
48123	-12,296	-3,518	-25,213	9,4618
48124	-12,297	-4,5058	-25,213	9,4766
48125	-7,2947	-4,0083	-46,108	9,9122
48126	-7,0429	-3,9998	-45,461	10,432
48127	-6,8497	-3,5061	-45,874	10,346
48128	-6,8326	-4,5039	-45,894	10,334
48129	2,7483	-4,0259	49,544	17,592
48130	2,1407	-4,0281	49,248	16,584
48131	2,8006	-3,5364	48,877	18,583
48132	2,6054	-4,5262	49,017	18,334
48133	2,5046	-4,0268	48,631	19,181
48134	-7,981	-4,0033	-45,893	9,5848
48135	-8,2151	-4,0055	-46,553	9,4289
48136	-7,7732	-3,5	-46,301	9,5193
48137	-7,7583	-4,5044	-46,325	9,4453
48138	2,8811	-4,0018	50,637	16,694
48139	2,261	-4,0031	50,305	16,678
48140	2,8471	-3,5046	50,008	16,993
48141	2,7114	-4,4997	50,192	17,647
48142	-13,61	-4,0077	-25,951	8,9835
48143	-13,408	-4,009	-25,274	9,0654
48144	-13,174	-3,5143	-25,705	9,1594
48145	-13,175	-4,5045	-25,705	9,173
48146	2,5463	-4,0059	51,313	16,41
48147	3,1861	-4,0051	51,652	16,313
48148	3,0527	-3,4972	51,144	16,342
48149	2,9529	-4,5021	51,172	16,954
48150	1,9263	-4,0071	50,982	16,799
48151	1,6534	-4,0052	50,009	16,468
48152	1,1411	-4,0069	50,726	16,309
48153	1,822	-3,5053	50,466	16,951
48154	1,7095	-4,5033	50,482	17,718
48155	-14,492	-4,0055	-26,436	8,5927
48156	-14,28	-4,0065	-25,766	8,7121
48157	-14,044	-3,5103	-26,197	8,8007
48158	-14,045	-4,5032	-26,197	8,8129
48159	1,6596	-4,0079	51,662	16,585
48160	2,3	-4,0059	51,957	16,828
48161	2,1394	-3,5018	51,462	16,558
48162	2,0441	-4,5038	51,453	17,097
48163	1,0039	-4,0051	49,648	15,622
48164	1,5672	-3,5027	49,53	15,969
48165	1,5408	-4,5019	49,484	16,842
48166	1,4781	-4,0022	49,135	14,718
48167	0,95313	-4,0093	52,016	16,92
48168	0,87443	-4,0077	51,406	16,685
48169	1,4428	-4,0092	52,264	17,273
48170	1,2364	-3,496	51,84	16,808
48171	1,207	-4,5041	51,786	17,254
48172	-15,173	-4,0047	-26,243	8,295
48173	-15,385	-4,0044	-26,912	8,1474
48174	-14,939	-3,5071	-26,675	8,3785
48175	-14,939	-4,5022	-26,675	8,3894
48176	0,49157	-4,0068	50,365	16,029
48177	-8,1838e-002	-4,0052	49,776	15,427
48178	0,49346	-3,5058	49,78	15,623
48179	0,47125	-4,5032	49,731	16,449
48180	0,47273	-4,0032	49,37	13,01
48181	0,34096	-4,0094	52,091	17,
48182	0,73214	-4,0071	52,519	17,652
48183	0,69227	-3,5153	52,211	17,03
48184	0,62779	-4,5052	52,133	17,387
48185	0,26226	-4,0077	51,481	16,759
48186	-0,23698	-4,0044	50,899	15,934
48187	0,58173	-3,5451	50,932	16,69
48188	0,47163	-4,5036	50,893	17,419
48189	-0,58086	-4,0079	51,922	16,631
48190	-3,5407e-002	-4,0068	52,458	17,672
48191	2,6537e-002	-3,5456	52,068	16,991
48192	-7,9693e-002	-4,5042	51,909	17,355
48193	-17,453	-4,0092	22,097	7,8878
48194	-17,656	-4,0109	22,776	7,7325
48195	-17,215	-3,5101	22,534	7,9322
48196	-16,789	-4,0087	22,286	8,1019
48197	-17,225	-4,5049	22,532	7,9462
48198	-12,332	-4,0122	-24,102	9,3635
48199	-12,131	-4,0131	-23,424	9,3742
48200	-11,896	-3,5203	-23,852	9,4692
48201	-11,897	-4,5066	-23,852	9,485
48202	-13,204	-4,0101	-24,597	9,1102
48203	-12,999	-4,0111	-23,924	9,1618
48204	-12,767	-3,5175	-24,351	9,2489
48205	-12,768	-4,5056	-24,351	9,264
48206	-1,0801	-4,0045	51,34	16,786
48207	-1,5267	-4,0151	51,811	16,74
48208	-1,0793	-4,0085	52,303	17,344
48209	-0,97034	-3,4985	52,028	16,893
48210	-1,17	-4,5037	51,843	17,192
48211	-0,81039	-4,0028	50,311	16,12
48212	-1,1613	-4,008	49,675	15,904
48213	-0,61579	-3,5021	49,86	15,894
48214	-0,63187	-4,502	49,732	16,561
48215	-0,55812	-4,0016	49,377	13,036
48216	-14,077	-4,0078	-25,089	8,7933
48217	-13,875	-4,009	-24,414	8,8808
48218	-13,64	-3,5141	-24,842	8,9631
48219	-13,641	-4,5045	-24,843	8,9772
48220	-1,4368	-4,0122	51,308	16,653
48221	-1,5215	-4,0032	50,668	16,535
48222	-0,92578	-3,5258	50,853	16,729
48223	-0,96367	-4,5008	50,798	17,509
48224	-1,8725	-4,0084	50,032	16,727
48225	-2,2979	-4,0116	49,3	16,863
48226	-1,7289	-3,5062	49,608	16,712
48227	-1,6916	-4,506	49,533	17,478
48228	-1,5569	-4,0062	49,153	14,774
48229	-2,177	-4,0287	51,603	16,59
48230	-1,8748	-4,0189	52,199	17,152
48231	-1,7478	-3,5343	51,805	16,74
48232	-1,8834	-4,5114	51,779	17,193
48233	-6,7559	-3,9776	-44,827	11,425
48234	-6,4785	-3,971	-44,179	12,234
48235	-6,2676	-3,4467	-44,502	12,419
48236	-6,2626	-4,4817	-44,637	12,299
48237	-14,961	-4,0057	-25,573	8,4135
48238	-14,752	-4,0067	-24,901	8,5371
48239	-14,513	-3,5105	-25,335	8,6158
48240	-14,514	-4,5033	-25,336	8,6287
48241	-7,7291	-3,9948	-45,246	10,113
48242	-7,4763	-3,9883	-44,593	10,537
48243	-7,2628	-3,4881	-45,027	10,548
48244	-7,2546	-4,4958	-45,031	10,459
48245	-2,2617	-4,0196	50,962	16,716
48246	-2,4349	-4,0219	50,416	16,796
48247	-2,0067	-3,545	50,506	16,831
48248	-2,0265	-4,5024	50,477	17,648
48249	-8,4278	-3,9936	-45,03	9,7339
48250	-8,6697	-3,9989	-45,688	9,6013
48251	-8,2119	-3,4981	-45,459	9,7158
48252	-8,2037	-4,499	-45,462	9,6283
48253	-2,8202	-4,0229	51,288	16,376
48254	-2,5683	-4,0201	51,931	16,678
48255	-2,3638	-3,5572	51,452	16,442
48256	-2,4705	-4,5173	51,427	16,926
48257	-15,641	-4,0051	-25,379	8,1306
48258	-15,853	-4,0048	-26,047	7,9768
48259	-15,407	-3,5077	-25,81	8,2043
48260	-15,407	-4,5024	-25,811	8,2159
48261	-2,8603	-4,025	49,684	17,549
48262	-2,9935	-4,0251	50,742	16,634
48263	-3,1688	-4,0598	50,097	16,865
48264	-2,7673	-3,5685	50,331	16,766
48265	-2,8328	-4,5195	50,311	17,524
48266	-3,473	-4,0022	48,825	17,995
48267	-3,2121	-4,0458	49,447	17,52
48268	-3,0396	-3,5739	49,017	18,29
48269	-2,9115	-4,5056	49,029	18,652
48270	-2,5893	-4,0055	48,662	18,972
48271	-3,5432	-4,0174	50,942	16,084
48272	-3,3291	-4,0096	51,63	16,195
48273	-3,1195	-3,5378	51,17	16,319
48274	-3,1913	-4,5056	51,138	16,793
48275	-4,3534	-3,9886	48,24	18,87
48276	-4,1706	-4,0061	48,985	17,809
48277	-4,1093	-3,4995	48,678	18,349
48278	-4,0118	-4,4967	48,617	18,967
48279	-3,7186	-4,052	50,297	16,538
48280	-3,9097	-4,0497	49,607	16,866
48281	-3,5165	-3,623	49,826	16,951
48282	-3,5885	-4,5403	49,876	17,52
48283	-17,914	-4,0064	21,229	7,8087
48284	-18,113	-4,0095	21,908	7,6334
48285	-17,674	-3,5061	21,668	7,8382
48286	-17,25	-4,0085	21,42	8,0124
48287	-17,684	-4,5042	21,665	7,8534
48288	-4,1893	-4,0371	50,574	15,735
48289	-4,1076	-4,0153	51,21	15,485
48290	-3,9001	-3,5286	50,778	15,83
48291	-3,9572	-4,5117	50,745	16,294
48292	-4,8811	-3,9953	48,263	17,731
48293	-5,127	-3,9822	47,337	18,701
48294	-4,6061	-3,4599	47,834	19,433
48295	-4,6902	-4,4919	47,785	19,
48296	-12,798	-4,0119	-23,247	9,173
48297	-12,601	-4,011	-22,567	9,1901
48298	-12,365	-3,5199	-22,996	9,2704
48299	-12,366	-4,5065	-22,997	9,2865
48300	-4,3804	-4,0348	49,883	16,184
48301	-4,6983	-4,0128	49,008	16,474
48302	-4,4264	-3,5238	49,34	16,732
48303	-4,3134	-4,5094	49,318	17,163
48304	-13,67	-4,01	-23,742	8,9325
48305	-13,465	-4,0109	-23,066	8,9913
48306	-13,229	-3,517	-23,498	9,066
48307	-13,23	-4,5055	-23,498	9,0815
48308	-4,9449	-4,0287	50,029	14,972
48309	-4,7639	-4,0277	50,806	14,781
48310	-4,5402	-3,528	50,382	15,37
48311	-4,5927	-4,5254	50,267	15,786
48312	-7,1989	-3,9818	-43,945	11,372
48313	-6,9498	-3,9847	-43,301	11,987
48314	-6,7425	-3,4625	-43,684	12,158
48315	-6,6937	-4,4893	-43,753	11,999
48316	-5,2629	-4,0066	49,153	15,46
48317	-5,6046	-4,0181	48,267	15,546
48318	-5,1612	-3,4916	48,752	15,994
48319	-5,0961	-4,5033	48,598	16,439
48320	-8,175	-3,9871	-44,376	10,164
48321	-7,9292	-3,9895	-43,72	10,536
48322	-7,6956	-3,4764	-44,167	10,589
48323	-7,6913	-4,4925	-44,16	10,466
48324	-14,55	-4,0079	-24,226	8,6245
48325	-14,344	-4,0091	-23,555	8,7212
48326	-14,109	-3,5141	-23,985	8,7901
48327	-14,11	-4,5045	-23,986	8,8047
48328	-8,8773	-3,9868	-44,164	9,7756
48329	-9,1171	-3,9931	-44,823	9,6264
48330	-8,6683	-3,4871	-44,579	9,8082
48331	-8,6519	-4,4946	-44,598	9,7137
48332	-5,7805	-4,0105	49,362	14,075
48333	-5,6379	-4,005	50,141	13,677
48334	-5,3153	-3,4954	49,726	14,641
48335	-5,4298	-4,5033	49,589	14,833
48336	-15,433	-4,0061	-24,707	8,2537
48337	-15,221	-4,0071	-24,039	8,3861
48338	-15,001	-3,5033	-24,458	8,446
48339	-14,987	-4,5034	-24,47	8,4654
48340	-6,1223	-4,022	48,475	14,228
48341	-6,3687	-4,0539	48,793	13,306
48342	-6,3301	-4,0136	49,566	12,633
48343	-6,1168	-3,565	49,192	13,465
48344	-6,1173	-4,5072	49,036	13,746
48345	-7,6801	-3,9924	-43,077	11,161
48346	-7,4612	-3,9843	-42,416	11,675
48347	-7,1974	-3,463	-42,875	11,852
48348	-7,1936	-4,4954	-42,876	11,652
48349	-6,3634	-4,0442	47,728	14,416
48350	-5,8506	-4,005	47,341	16,664
48351	-6,0727	-3,5285	47,866	15,043
48352	-5,9738	-4,5148	47,891	15,081
48353	-8,6315	-3,9893	-43,508	10,15
48354	-8,4013	-3,9851	-42,848	10,499
48355	-8,1611	-3,4753	-43,292	10,57
48356	-8,1571	-4,497	-43,289	10,43
48357	-6,6099	-4,0762	48,046	13,49
48358	-6,9169	-4,061	48,451	12,329
48359	-6,8727	-4,0576	49,002	11,863
48360	-6,5421	-3,5954	48,584	13,1
48361	-6,6646	-4,5467	48,549	12,865
48362	-9,3395	-3,9839	-43,294	9,733
48363	-9,5738	-3,9901	-43,957	9,5409
48364	-9,1248	-3,4843	-43,712	9,791
48365	-9,1027	-4,4922	-43,73	9,7117
48366	-6,9875	-4,0389	47,678	12,963
48367	-6,6699	-4,0333	47,06	14,515
48368	-6,5645	-3,5511	47,585	14,11
48369	-6,6155	-4,5295	47,583	13,821
48370	-7,2946	-4,0237	48,083	11,8
48371	-7,4357	-4,0219	48,62	10,882
48372	-7,1425	-3,5408	48,388	11,818
48373	-7,2609	-4,5143	48,409	11,547
48374	-13,268	-4,01	-22,386	9,0095
48375	-13,07	-4,0086	-21,71	9,0366
48376	-12,849	-3,5067	-22,129	9,0975
48377	-12,832	-4,5045	-22,141	9,1186
48378	-16,109	-4,0057	-24,515	7,9859
48379	-16,321	-4,0053	-25,182	7,8238
48380	-15,875	-3,5084	-24,946	8,0491
48381	-15,875	-4,5027	-24,947	8,0617
48382	-14,139	-4,01	-22,879	8,7806
48383	-13,937	-4,0111	-22,206	8,8476
48384	-13,7	-3,5168	-22,634	8,9078
48385	-13,701	-4,5054	-22,635	8,9239
48386	-7,5042	-4,014	47,339	12,107
48387	-7,7241	-4,0158	47,947	10,912
48388	-7,2411	-3,5269	47,733	12,32
48389	-7,4232	-4,5094	47,723	11,81
48390	-6,1571	-3,9941	46,673	16,758
48391	-5,8244	-3,9631	46,123	18,921
48392	-5,5701	-3,4594	46,836	18,645
48393	-5,595	-4,4903	46,774	18,081
48394	-15,014	-4,0083	-23,368	8,483
48395	-14,812	-4,009	-22,693	8,5875
48396	-14,576	-3,5143	-23,123	8,6434
48397	-14,577	-4,5046	-23,124	8,6589
48398	-7,1866	-4,0084	46,721	13,662
48399	-6,8912	-3,9932	46,136	15,212
48400	-6,6828	-3,4967	46,552	15,299
48401	-6,7243	-4,5038	46,537	14,825
48402	-8,1824	-3,977	-42,187	11,016
48403	-7,9732	-3,9782	-41,512	11,49
48404	-7,716	-3,4623	-41,967	11,631
48405	-7,7147	-4,4889	-41,97	11,441
48406	-7,8306	-4,0127	46,433	12,473
48407	-8,0679	-4,0157	47,082	11,12
48408	-7,6231	-3,5052	46,899	12,361
48409	-7,6574	-4,5046	46,857	12,183
48410	-9,1093	-3,9798	-42,633	10,083
48411	-8,8896	-3,9775	-41,966	10,43
48412	-8,6451	-3,4662	-42,41	10,507
48413	-8,6423	-4,4881	-42,409	10,389
48414	-6,5586	-3,9623	45,585	17,378
48415	-6,2738	-3,9515	44,95	19,261
48416	-6,0827	-3,3919	45,414	19,504
48417	-6,059	-4,4729	45,436	19,025
48418	-9,8169	-3,9841	-42,42	9,6459
48419	-10,051	-3,9895	-43,083	9,3987
48420	-9,5851	-3,4795	-42,856	9,7164
48421	-9,5763	-4,4917	-42,857	9,6528
48422	-7,5353	-3,9975	45,847	14,024
48423	-7,2555	-3,9759	45,241	15,494
48424	-7,1497	-3,4881	45,735	15,151
48425	-7,0437	-4,4894	45,684	15,252
48426	-15,897	-4,0067	-23,848	8,1182
48427	-15,69	-4,0074	-23,177	8,259
48428	-15,451	-3,5117	-23,612	8,3132
48429	-15,452	-4,5037	-23,612	8,3277
48430	-8,2143	-4,0078	45,532	12,836
48431	-8,4524	-4,0081	46,194	11,491
48432	-8,0091	-3,4999	45,982	12,743
48433	-8,0124	-4,5081	45,96	12,598
48434	-18,377	-4,0046	20,357	7,7595
48435	-18,577	-4,0055	21,035	7,5605
48436	-18,138	-3,5036	20,797	7,7724
48437	-17,713	-4,0066	20,551	7,9531
48438	-18,146	-4,5022	20,794	7,7899
48439	-8,6804	-3,9787	-41,291	10,904
48440	-8,4661	-3,9778	-40,614	11,354
48441	-8,2479	-3,4746	-41,04	11,444
48442	-8,2198	-4,4893	-41,062	11,336
48443	-6,9707	-3,9651	44,606	17,375
48444	-6,7125	-3,9605	43,995	18,718
48445	-6,4849	-3,4006	44,525	19,125
48446	-6,4829	-4,4787	44,444	18,954
48447	-9,5972	-3,9818	-41,753	9,9935
48448	-9,3791	-3,9801	-41,08	10,349
48449	-9,1395	-3,4701	-41,522	10,421
48450	-9,1368	-4,4894	-41,522	10,337
48451	-7,9344	-3,9861	44,926	14,306
48452	-7,6728	-3,9707	44,301	15,584
48453	-7,5047	-3,4597	44,741	15,573
48454	-7,4528	-4,4865	44,749	15,54
48455	-10,3	-3,9861	-41,546	9,5362
48456	-10,527	-3,9904	-42,212	9,2446
48457	-10,065	-3,4814	-41,982	9,6075
48458	-10,058	-4,4924	-41,983	9,5663
48459	-8,6388	-3,9936	44,667	13,029
48460	-8,8793	-4,001	45,319	11,792
48461	-8,4314	-3,4879	45,109	12,964
48462	-8,4161	-4,4997	45,103	12,911
48463	-16,577	-4,0064	-23,651	7,8623
48464	-16,788	-4,006	-24,317	7,6898
48465	-16,343	-3,5094	-24,082	7,9144
48466	-16,343	-4,503	-24,083	7,9279
48467	-7,4146	-3,9661	43,689	16,913
48468	-7,1669	-3,9562	43,061	17,88
48469	-6,9243	-3,4286	43,521	18,371
48470	-6,9112	-4,4818	43,518	18,364
48471	-13,739	-4,0097	-21,53	8,8763
48472	-13,536	-4,0093	-20,856	8,9156
48473	-13,317	-3,5052	-21,271	8,9605
48474	-13,299	-4,504	-21,287	8,9818
48475	-8,3772	-3,9782	44,042	14,305
48476	-8,1327	-3,9684	43,404	15,328
48477	-7,9038	-3,462	43,86	15,515
48478	-7,8928	-4,4843	43,853	15,5
48479	-14,61	-4,0101	-22,02	8,6557
48480	-14,406	-4,0116	-21,35	8,7345
48481	-14,173	-3,5172	-21,778	8,7784
48482	-14,173	-4,5056	-21,778	8,7952
48483	-9,0959	-3,9847	43,792	13,068
48484	-9,3317	-3,9929	44,448	11,999
48485	-8,8701	-3,4864	44,233	13,086
48486	-8,8615	-4,4939	44,231	13,073
48487	-7,885	-3,9585	42,776	16,275
48488	-7,6719	-3,956	42,134	16,901
48489	-7,4078	-3,4301	42,595	17,41
48490	-7,3974	-4,4744	42,597	17,486
48491	-15,488	-4,0081	-22,502	8,3642
48492	-15,281	-4,0097	-21,834	8,4813
48493	-15,059	-3,506	-22,252	8,5193
48494	-15,047	-4,5044	-22,264	8,5388
48495	-8,8514	-3,9749	43,155	14,087
48496	-8,626	-3,9699	42,506	14,857
48497	-8,3799	-3,4567	42,959	15,114
48498	-8,3725	-4,4841	42,956	15,149
48499	-9,1648	-3,9792	-40,403	10,799
48500	-8,9555	-3,9781	-39,722	11,213
48501	-8,7107	-3,467	-40,168	11,319
48502	-8,7084	-4,4885	-40,168	11,244
48503	-9,576	-3,9814	42,908	12,953
48504	-9,7958	-3,988	43,576	12,095
48505	-9,3386	-3,4769	43,354	13,034
48506	-9,3302	-4,4908	43,354	13,051
48507	-10,082	-3,9845	-40,874	9,892
48508	-9,8683	-3,9832	-40,199	10,246
48509	-9,6242	-3,4745	-40,638	10,323
48510	-9,6213	-4,4908	-40,638	10,274
48511	-8,4129	-3,9674	41,864	15,462
48512	-8,2144	-3,9681	41,204	15,867
48513	-7,9514	-3,4487	41,667	16,335
48514	-7,9464	-4,4816	41,671	16,416
48515	-10,785	-3,9902	-40,672	9,414
48516	-11,005	-3,9922	-41,341	9,0955
48517	-10,549	-3,4848	-41,108	9,4846
48518	-10,542	-4,4938	-41,109	9,462
48519	-9,3507	-3,9764	42,259	13,717
48520	-9,1353	-3,9746	41,604	14,281
48521	-8,8844	-3,4608	42,057	14,565
48522	-8,8795	-4,4858	42,057	14,61
48523	-16,369	-4,007	-22,981	8,0034
48524	-16,159	-4,0081	-22,316	8,1566
48525	-15,937	-3,5049	-22,734	8,193
48526	-15,924	-4,5037	-22,746	8,2122
48527	-10,065	-3,9826	42,021	12,728
48528	-10,283	-3,9882	42,687	12,07
48529	-9,8288	-3,4769	42,461	12,847
48530	-9,8218	-4,4906	42,462	12,867
48531	-18,846	-4,0057	19,483	7,7427
48532	-19,046	-4,0044	20,161	7,5176
48533	-18,611	-3,5118	19,921	7,7362
48534	-18,176	-4,0041	19,68	7,9261
48535	-18,612	-4,5023	19,92	7,7572
48536	-9,6591	-3,9821	-39,518	10,659
48537	-9,4524	-3,9812	-38,837	11,034
48538	-9,2059	-3,4712	-39,277	11,146
48539	-9,2027	-4,4897	-39,277	11,109
48540	-8,9368	-3,9752	40,944	14,668
48541	-8,7397	-3,9765	40,274	14,937
48542	-8,4851	-3,4619	40,735	15,351
48543	-8,4824	-4,4865	40,738	15,421
48544	-10,572	-3,9889	-39,998	9,7673
48545	-10,361	-3,9868	-39,324	10,11
48546	-10,119	-3,4797	-39,76	10,193
48547	-10,115	-4,4924	-39,76	10,168
48548	-9,8498	-3,9808	41,365	13,286
48549	-9,643	-3,9803	40,7	13,688
48550	-9,3948	-3,469	41,149	13,967
48551	-9,3911	-4,4888	41,15	14,005
48552	-11,264	-3,9938	-39,803	9,2846
48553	-11,482	-3,9955	-40,47	8,9555
48554	-11,034	-3,4899	-40,236	9,3514
48555	-11,027	-4,4965	-40,237	9,3426
48556	-10,554	-3,9861	41,135	12,44
48557	-10,767	-3,99	41,805	11,959
48558	-10,313	-3,4809	41,578	12,59
48559	-10,309	-4,4921	41,579	12,601
48560	-17,045	-4,0071	-22,787	7,7612
48561	-17,256	-4,0067	-23,452	7,5762
48562	-16,811	-3,5106	-23,218	7,8014
48563	-16,811	-4,5034	-23,219	7,8159
48564	-9,446	-3,9815	40,029	13,941
48565	-9,2531	-3,9826	39,355	14,115
48566	-8,9989	-3,4719	39,807	14,485
48567	-8,997	-4,49	39,81	14,536
48568	-14,203	-4,0112	-20,676	8,7758
48569	-13,999	-4,0123	-20,008	8,8283
48570	-13,779	-3,5069	-20,418	8,857
48571	-13,767	-4,5052	-20,432	8,8771
48572	-10,348	-3,9856	40,47	12,835
48573	-10,145	-3,9854	39,799	13,116
48574	-9,8978	-3,4768	40,248	13,385
48575	-9,8949	-4,4915	40,249	13,411
48576	-15,076	-4,0112	-21,163	8,5616
48577	-14,87	-4,0123	-20,496	8,6534
48578	-14,637	-3,5185	-20,92	8,6814
48579	-14,638	-4,506	-20,921	8,6991
48580	-11,045	-3,9901	40,248	12,114
48581	-11,251	-3,9926	40,921	11,78
48582	-10,804	-3,4858	40,689	12,28
48583	-10,8	-4,4941	40,691	12,282
48584	-9,9524	-3,9865	39,125	13,276
48585	-9,7617	-3,9883	38,448	13,388
48586	-9,5109	-3,4793	38,9	13,716
48587	-9,5092	-4,4926	38,901	13,75
48588	-15,952	-4,0097	-21,647	8,2747
48589	-15,748	-4,0108	-20,976	8,4042
48590	-15,513	-3,5163	-21,405	8,4307
48591	-15,514	-4,5052	-21,405	8,4479
48592	-10,843	-3,99	39,578	12,388
48593	-10,645	-3,99	38,902	12,578
48594	-10,398	-3,4837	39,349	12,831
48595	-10,396	-4,4939	39,35	12,847
48596	-10,154	-3,986	-38,642	10,484
48597	-9,9429	-3,9854	-37,962	10,825
48598	-9,7055	-3,4772	-38,396	10,938
48599	-9,7021	-4,4916	-38,397	10,924
48600	-11,532	-3,994	39,363	11,771
48601	-11,736	-3,9951	40,038	11,545
48602	-11,291	-3,4905	39,805	11,947
48603	-11,29	-4,496	39,805	11,941
48604	-11,053	-3,9918	-39,129	9,6266
48605	-10,846	-3,9914	-38,452	9,9504
48606	-10,609	-3,4858	-38,887	10,038
48607	-10,606	-4,4944	-38,888	10,027
48608	-10,454	-3,9919	38,225	12,678
48609	-10,26	-3,9939	37,543	12,752
48610	-10,017	-3,4868	37,992	13,039
48611	-10,015	-4,4957	37,993	13,062
48612	-11,742	-3,9961	-38,934	9,1441
48613	-11,952	-3,9966	-39,604	8,8237
48614	-11,505	-3,4934	-39,368	9,2186
48615	-11,5	-4,4974	-39,37	9,2159
48616	-11,334	-3,9941	38,688	11,954
48617	-11,137	-3,9948	38,01	12,081
48618	-10,897	-3,4903	38,454	12,314
48619	-10,895	-4,4961	38,455	12,323
48620	-16,834	-4,0082	-22,122	7,915
48621	-16,624	-4,0092	-21,459	8,0818
48622	-16,389	-3,5139	-21,889	8,1081
48623	-16,39	-4,5044	-21,889	8,1244
48624	-12,014	-3,9971	38,48	11,42
48625	-12,214	-3,9972	39,158	11,274
48626	-11,775	-3,4951	38,921	11,599
48627	-11,774	-4,4979	38,922	11,591
48628	-19,314	-4,007	18,607	7,7626
48629	-19,515	-4,0055	19,284	7,5083
48630	-19,076	-3,504	19,048	7,7371
48631	-18,644	-4,0067	18,805	7,9339
48632	-19,08	-4,5034	19,045	7,7594
48633	-10,635	-3,9909	-37,771	10,29
48634	-10,428	-3,99	-37,093	10,593
48635	-10,187	-3,484	-37,526	10,716
48636	-10,184	-4,4939	-37,527	10,714
48637	-10,942	-3,9968	37,328	12,145
48638	-10,749	-3,9982	36,646	12,192
48639	-10,502	-3,4954	37,085	12,453
48640	-10,511	-4,4981	37,092	12,461
48641	-11,535	-3,9958	-38,257	9,4663
48642	-11,327	-3,9957	-37,582	9,769
48643	-11,089	-3,4923	-38,015	9,8655
48644	-11,086	-4,497	-38,016	9,8628
48645	-11,817	-3,9978	37,802	11,54
48646	-11,62	-3,9987	37,122	11,624
48647	-11,377	-3,4964	37,561	11,845
48648	-11,382	-4,4986	37,564	11,845
48649	-12,22	-3,9986	-38,064	8,991
48650	-12,43	-3,9985	-38,735	8,6858
48651	-11,987	-3,4972	-38,498	9,0671
48652	-11,982	-4,4988	-38,5	9,0679
48653	-12,493	-3,9993	37,598	11,062
48654	-12,692	-3,999	38,276	10,971
48655	-12,253	-3,498	38,037	11,245
48656	-12,259	-4,4992	38,037	11,234
48657	-17,513	-4,0079	-21,923	7,6844
48658	-17,723	-4,0073	-22,588	7,4846
48659	-17,279	-3,5117	-22,354	7,7118
48660	-17,279	-4,5038	-22,355	7,7273
48661	-11,427	-4,0001	36,439	11,66
48662	-11,232	-4,0014	35,758	11,692
48663	-10,988	-3,5005	36,197	11,927
48664	-10,998	-4,5001	36,2	11,931
48665	-14,665	-4,0135	-19,829	8,7083
48666	-14,462	-4,0148	-19,157	8,7757
48667	-14,229	-3,5221	-19,585	8,789
48668	-14,229	-4,5071	-19,586	8,8074
48669	-12,296	-4,0002	36,918	11,139
48670	-12,099	-4,0012	36,238	11,194
48671	-11,856	-3,5002	36,677	11,404
48672	-11,863	-4,5001	36,676	11,402
48673	-15,542	-4,0119	-20,309	8,4979
48674	-15,337	-4,0132	-19,641	8,6047
48675	-15,101	-3,5197	-20,071	8,6161
48676	-15,101	-4,5064	-20,072	8,6345
48677	-12,97	-4,0025	36,718	10,702
48678	-13,168	-4,0004	37,396	10,646
48679	-12,729	-3,5002	37,156	10,886
48680	-12,734	-4,5001	37,157	10,877
48681	-11,904	-4,0025	35,556	11,216
48682	-11,711	-4,0045	34,875	11,237
48683	-11,462	-3,5041	35,312	11,457
48684	-11,476	-4,5013	35,315	11,458
48685	-16,421	-4,0104	-20,788	8,2126
48686	-16,217	-4,0116	-20,117	8,3578
48687	-15,982	-3,5173	-20,546	8,3681
48688	-15,982	-4,5056	-20,547	8,3863
48689	-12,773	-4,0036	36,038	10,75
48690	-12,575	-4,0035	35,358	10,789
48691	-12,334	-3,5032	35,796	10,987
48692	-12,338	-4,5012	35,797	10,988
48693	-11,12	-3,9949	-36,904	10,07
48694	-10,916	-3,9944	-36,229	10,339
48695	-10,675	-3,4905	-36,658	10,468
48696	-10,672	-4,4961	-36,659	10,47
48697	-13,444	-4,0038	35,84	10,342
48698	-13,644	-4,0031	36,518	10,306
48699	-13,205	-3,5035	36,278	10,524
48700	-13,209	-4,5024	36,28	10,519
48701	-12,012	-3,9985	-37,39	9,2918
48702	-11,806	-3,9989	-36,716	9,569
48703	-11,57	-3,4976	-37,15	9,6708
48704	-11,567	-4,4987	-37,15	9,6716
48705	-12,382	-4,0056	34,677	10,802
48706	-12,189	-4,0079	33,998	10,819
48707	-11,942	-3,5075	34,434	11,022
48708	-11,953	-4,5032	34,437	11,025
48709	-12,693	-4,0004	-37,198	8,8305
48710	-12,902	-4,0004	-37,868	8,5463
48711	-12,464	-3,5005	-37,633	8,9082
48712	-12,459	-4,4998	-37,635	8,91
48713	-13,246	-4,0038	35,159	10,374
48714	-13,047	-4,0061	34,48	10,405
48715	-12,807	-3,5051	34,918	10,594
48716	-12,811	-4,5024	34,92	10,596
48717	-17,303	-4,0089	-21,26	7,852
48718	-17,093	-4,01	-20,598	8,0346
48719	-16,858	-3,5149	-21,028	8,0458
48720	-16,859	-4,5048	-21,028	8,0634
48721	-13,916	-4,0041	34,962	9,9864
48722	-14,115	-4,0022	35,639	9,9597
48723	-13,677	-3,5031	35,399	10,165
48724	-13,68	-4,5014	35,401	10,163
48725	-19,782	-4,0071	17,731	7,8226
48726	-19,984	-4,0059	18,408	7,5366
48727	-19,544	-3,5024	18,175	7,7748
48728	-19,11	-4,005	17,934	7,9804
48729	-19,548	-4,5036	18,169	7,7999
48730	-11,603	-3,9984	-36,041	9,8349
48731	-11,394	-3,998	-35,366	10,08
48732	-11,162	-3,4965	-35,797	10,205
48733	-11,16	-4,4982	-35,798	10,209
48734	-12,855	-4,0085	33,801	10,415
48735	-12,661	-4,0098	33,121	10,433
48736	-12,427	-3,515	33,559	10,616
48737	-12,427	-4,5047	33,56	10,625
48738	-12,487	-4,0007	-36,524	9,1056
48739	-12,279	-4,0011	-35,851	9,3603
48740	-12,048	-3,5021	-36,284	9,4636
48741	-12,045	-4,5001	-36,284	9,4656
48742	-13,718	-4,0064	34,283	10,01
48743	-13,518	-4,0074	33,603	10,04
48744	-13,282	-3,512	34,041	10,217
48745	-13,282	-4,5037	34,041	10,222
48746	-13,163	-4,0017	-36,331	8,6618
48747	-13,371	-4,0011	-37,001	8,401
48748	-12,933	-3,503	-36,766	8,7449
48749	-12,928	-4,5006	-36,769	8,7465
48750	-14,389	-4,0052	34,085	9,6348
48751	-14,588	-4,0034	34,762	9,6099
48752	-14,152	-3,5073	34,523	9,8087
48753	-14,153	-4,5027	34,524	9,8102
48754	-17,981	-4,0088	-21,059	7,6339
48755	-18,191	-4,008	-21,723	7,4169
48756	-17,747	-3,5129	-21,491	7,6473
48757	-17,747	-4,5041	-21,491	7,6641
48758	-13,324	-4,0087	32,923	10,051
48759	-13,131	-4,0097	32,243	10,073
48760	-12,895	-3,5158	32,682	10,245
48761	-12,896	-4,505	32,682	10,254
48762	-15,134	-4,0145	-18,969	8,675
48763	-14,926	-4,0156	-18,307	8,7597
48764	-14,694	-3,5236	-18,727	8,754
48765	-14,695	-4,5077	-18,728	8,7734
48766	-14,189	-4,0061	33,405	9,6574
48767	-13,99	-4,0066	32,724	9,6895
48768	-13,752	-3,5118	33,164	9,8599
48769	-13,753	-4,5036	33,164	9,866
48770	-16,012	-4,0128	-19,449	8,4668
48771	-15,804	-4,0141	-18,786	8,5909
48772	-15,572	-3,5212	-19,209	8,584
48773	-15,573	-4,5068	-19,209	8,6035
48774	-14,861	-4,0045	33,207	9,2909
48775	-15,059	-4,0032	33,885	9,263
48776	-14,622	-3,5046	33,645	9,461
48777	-14,625	-4,5025	33,646	9,4634
48778	-13,797	-4,0077	32,043	9,7048
48779	-13,602	-4,0085	31,361	9,7335
48780	-13,365	-3,5152	31,803	9,8955
48781	-13,366	-4,5047	31,803	9,9048
48782	-16,889	-4,0113	-19,928	8,1814
48783	-16,685	-4,0126	-19,259	8,3446
48784	-16,45	-3,5186	-19,687	8,3375
48785	-16,451	-4,506	-19,688	8,3569
48786	-14,662	-4,005	32,526	9,3158
48787	-14,462	-4,0053	31,843	9,355
48788	-14,225	-3,5104	32,283	9,5163
48789	-14,226	-4,503	32,283	9,5234
48790	-12,071	-4,0008	-35,176	9,6028
48791	-11,861	-4,0003	-34,502	9,8255
48792	-11,629	-3,5005	-34,934	9,9511
48793	-11,628	-4,4998	-34,934	9,9564
48794	-15,331	-4,0031	32,325	8,9569
48795	-15,532	-4,0025	33,005	8,9195
48796	-15,093	-3,5035	32,766	9,1208
48797	-15,097	-4,502	32,767	9,1248
48798	-12,955	-4,0021	-35,658	8,914
48799	-12,747	-4,0026	-34,986	9,1475
48800	-12,515	-3,5048	-35,418	9,2538
48801	-12,513	-4,501	-35,418	9,2561
48802	-14,267	-4,006	31,161	9,378
48803	-14,071	-4,0065	30,477	9,4158
48804	-13,835	-3,5128	30,92	9,5668
48805	-13,837	-4,5037	30,92	9,5767
48806	-13,63	-4,0042	-35,468	8,4857
48807	-13,839	-4,0019	-36,134	8,2474
48808	-13,4	-3,5045	-35,9	8,5732
48809	-13,396	-4,5011	-35,902	8,5743
48810	-15,131	-4,0034	31,643	8,9894
48811	-14,93	-4,0034	30,957	9,038
48812	-14,693	-3,5047	31,403	9,1914
48813	-14,696	-4,5022	31,402	9,1985
48814	-17,772	-4,0099	-20,398	7,8175
48815	-17,563	-4,0112	-19,738	8,0182
48816	-17,328	-3,5164	-20,167	8,0131
48817	-17,328	-4,5053	-20,168	8,032
48818	-15,798	-4,0011	31,44	8,6354
48819	-16,002	-4,0016	32,123	8,5858
48820	-15,563	-3,5022	31,884	8,7917
48821	-15,567	-4,5012	31,886	8,7969
48822	-14,734	-4,004	30,273	9,0707
48823	-14,539	-4,0046	29,585	9,1181
48824	-14,303	-3,5098	30,035	9,2597
48825	-14,304	-4,5028	30,034	9,2702
48826	-20,25	-4,0067	16,855	7,9267
48827	-20,454	-4,0056	17,532	7,6057
48828	-20,014	-3,5027	17,3	7,8542
48829	-19,579	-4,0056	17,061	8,0692
48830	-20,016	-4,5035	17,293	7,8825
48831	-15,598	-4,0011	30,755	8,6778
48832	-15,398	-4,0017	30,063	8,7373
48833	-15,162	-3,5049	30,513	8,8811
48834	-15,164	-4,5012	30,512	8,8901
48835	-12,538	-4,0022	-34,312	9,367
48836	-12,329	-4,0014	-33,638	9,5703
48837	-12,096	-3,5024	-34,07	9,6951
48838	-12,095	-4,5005	-34,07	9,7005
48839	-16,265	-3,9992	30,552	8,3275
48840	-16,471	-4,0001	31,24	8,2636
48841	-16,03	-3,5012	30,997	8,476
48842	-16,031	-4,4999	30,997	8,4835
48843	-13,422	-4,0047	-34,796	8,7166
48844	-13,214	-4,0035	-34,12	8,931
48845	-12,982	-3,5062	-34,553	9,0387
48846	-12,981	-4,5016	-34,553	9,041
48847	-15,203	-4,0023	29,375	8,7803
48848	-15,009	-4,0032	28,686	8,8392
48849	-14,773	-3,5065	29,136	8,9702
48850	-14,774	-4,5018	29,136	8,9816
48851	-14,096	-4,0062	-34,605	8,3033
48852	-14,305	-4,0039	-35,271	8,0852
48853	-13,867	-3,5068	-35,037	8,394
48854	-13,863	-4,503	-35,039	8,395
48855	-16,065	-3,9998	29,86	8,3813
48856	-15,869	-4,0011	29,17	8,4521
48857	-15,63	-3,5025	29,613	8,5882
48858	-15,631	-4,5005	29,614	8,5982
48859	-18,449	-4,0099	-20,196	7,6119
48860	-18,659	-4,0089	-20,858	7,3753
48861	-18,215	-3,5146	-20,627	7,6101
48862	-18,215	-4,5046	-20,628	7,6283
48863	-16,734	-3,9988	29,663	8,0327
48864	-16,938	-3,9989	30,355	7,9547
48865	-16,498	-3,4995	30,109	8,174
48866	-16,498	-4,4993	30,107	8,1831
48867	-15,596	-4,0152	-18,124	8,6787
48868	-15,391	-4,0163	-17,456	8,783
48869	-15,156	-3,5244	-17,884	8,7568
48870	-15,157	-4,508	-17,885	8,7773
48871	-15,675	-4,002	28,482	8,5073
48872	-15,482	-4,0032	27,793	8,5795
48873	-15,244	-3,5047	28,237	8,7009
48874	-15,244	-4,5014	28,237	8,7134
48875	-16,477	-4,0138	-18,596	8,4711
48876	-16,27	-4,015	-17,933	8,6146
48877	-16,034	-3,5222	-18,362	8,5881
48878	-16,035	-4,5073	-18,363	8,6089
48879	-16,538	-4,0002	28,973	8,0984
48880	-16,344	-4,0019	28,284	8,1839
48881	-16,106	-3,5025	28,726	8,3097
48882	-16,107	-4,5006	28,727	8,3208
48883	-13,005	-4,0027	-33,446	9,1312
48884	-12,796	-4,002	-32,773	9,3189
48885	-12,563	-3,5033	-33,206	9,441
48886	-12,563	-4,5009	-33,206	9,4466
48887	-17,208	-4,	28,782	7,7514
48888	-17,411	-3,9996	29,469	7,6567
48889	-16,971	-3,4999	29,222	7,8845
48890	-16,97	-4,4996	29,22	7,895
48891	-13,889	-4,005	-33,93	8,5151
48892	-13,681	-4,0041	-33,254	8,7138
48893	-13,449	-3,5068	-33,687	8,821
48894	-13,448	-4,5019	-33,687	8,8236
48895	-16,151	-4,0031	27,595	8,2529
48896	-15,958	-4,0044	26,912	8,3397
48897	-15,721	-3,5058	27,349	8,4497
48898	-15,721	-4,5018	27,35	8,4631
48899	-14,564	-4,0048	-33,735	8,1155
48900	-14,772	-4,004	-34,404	7,9144
48901	-14,333	-3,5072	-34,17	8,2088
48902	-14,33	-4,5032	-34,172	8,2098
48903	-17,013	-4,0018	28,092	7,8324
48904	-16,819	-4,0037	27,405	7,934
48905	-16,58	-3,5049	27,84	8,0507
48906	-16,581	-4,5013	27,841	8,0627
48907	-17,358	-4,0125	-19,069	8,1832
48908	-17,151	-4,0138	-18,407	8,3661
48909	-16,918	-3,5204	-18,829	8,3412
48910	-16,919	-4,5066	-18,83	8,362
48911	-17,685	-4,0019	27,91	7,4855
48912	-17,886	-4,0007	28,592	7,3735
48913	-17,447	-3,502	28,345	7,6103
48914	-17,446	-4,5004	28,344	7,6215
48915	-16,627	-4,0049	26,722	8,0182
48916	-16,435	-4,0064	26,042	8,1205
48917	-16,196	-3,5084	26,473	8,2205
48918	-16,196	-4,5026	26,474	8,2346
48919	-18,24	-4,0112	-19,536	7,8138
48920	-18,032	-4,0125	-18,878	8,035
48921	-17,797	-3,5184	-19,307	8,0124
48922	-17,797	-4,5059	-19,308	8,0328
48923	-17,491	-4,0038	27,223	7,5832
48924	-17,298	-4,0057	26,539	7,7013
48925	-17,058	-3,5078	26,968	7,8093
48926	-17,058	-4,5023	26,969	7,822
48927	-13,472	-4,0034	-32,581	8,8984
48928	-13,263	-4,0023	-31,909	9,0742
48929	-13,031	-3,5039	-32,341	9,1924
48930	-13,03	-4,5011	-32,341	9,1982
48931	-18,165	-4,0039	27,043	7,2349
48932	-18,363	-4,0018	27,727	7,1059
48933	-17,924	-3,5043	27,475	7,3529
48934	-17,924	-4,5015	27,476	7,364
48935	-14,357	-4,0039	-33,059	8,3115
48936	-14,148	-4,0046	-32,388	8,498
48937	-13,916	-3,5074	-32,821	8,6039
48938	-13,915	-4,5022	-32,821	8,6068
48939	-17,107	-4,0072	25,859	7,8016
48940	-16,916	-4,0088	25,179	7,9204
48941	-16,675	-3,5119	25,609	8,0107
48942	-16,674	-4,5037	25,61	8,0255
48943	-15,033	-4,0034	-32,864	7,9237
48944	-15,24	-4,0025	-33,533	7,736
48945	-14,801	-3,5058	-33,299	8,0187
48946	-14,798	-4,5017	-33,301	8,0201
48947	-17,973	-4,0059	26,359	7,3497
48948	-17,778	-4,0079	25,679	7,4876
48949	-17,539	-3,5113	26,107	7,5848
48950	-17,539	-4,5034	26,108	7,5981
48951	-13,939	-4,0035	-31,716	8,6708
48952	-13,73	-4,0026	-31,044	8,8381
48953	-13,497	-3,5041	-31,477	8,9515
48954	-13,497	-4,5012	-31,477	8,9577
48955	-18,645	-4,0057	26,175	7,0023
48956	-18,842	-4,0034	26,852	6,8534
48957	-18,406	-3,5068	26,61	7,1093
48958	-18,406	-4,5025	26,611	7,121
48959	-14,824	-4,0041	-32,193	8,1075
48960	-14,62	-4,0048	-31,521	8,2829
48961	-14,383	-3,5077	-31,955	8,3891
48962	-14,382	-4,5023	-31,955	8,3926
48963	-17,587	-4,0096	24,999	7,605
48964	-17,391	-4,0111	24,319	7,7448
48965	-17,158	-3,5162	24,748	7,8201
48966	-17,158	-4,5051	24,749	7,8355
48967	-15,501	-4,0036	-31,997	7,73
48968	-15,708	-4,0026	-32,666	7,5517
48969	-15,269	-3,506	-32,432	7,8256
48970	-15,265	-4,5018	-32,434	7,8276
48971	-18,45	-4,0078	25,494	7,1376
48972	-18,25	-4,0094	24,818	7,2984
48973	-18,017	-3,5146	25,249	7,3818
48974	-18,017	-4,5045	25,25	7,3955
48975	-14,411	-4,0038	-30,85	8,4474
48976	-14,197	-4,003	-30,179	8,6121
48977	-13,964	-3,5046	-30,612	8,72
48978	-13,964	-4,5014	-30,612	8,7266
48979	-19,114	-4,0066	25,302	6,7948
48980	-19,315	-4,0041	25,98	6,622
48981	-18,882	-3,5089	25,74	6,8877
48982	-18,883	-4,5033	25,739	6,8996
48983	-15,297	-4,0043	-31,326	7,9027
48984	-15,091	-4,0051	-30,655	8,0733
48985	-14,859	-3,5082	-31,088	8,1733
48986	-14,858	-4,5024	-31,088	8,1775
48987	-18,053	-4,011	24,138	7,4372
48988	-17,856	-4,012	23,456	7,5971
48989	-17,624	-3,5188	23,89	7,6594
48990	-17,624	-4,506	23,89	7,6753
48991	-15,969	-4,0038	-31,13	7,5364
48992	-16,176	-4,0031	-31,798	7,3636
48993	-15,736	-3,5064	-31,565	7,6316
48994	-15,733	-4,5019	-31,567	7,6345
48995	-18,914	-4,0083	24,625	6,9536
48996	-18,715	-4,0092	23,946	7,1347
48997	-18,481	-3,5156	24,385	7,2065
48998	-18,482	-4,5049	24,386	7,2207
48999	-14,878	-4,0042	-29,984	8,2354
49000	-14,664	-4,0034	-29,314	8,3972
49001	-14,431	-3,5052	-29,746	8,4991
49002	-14,431	-4,5016	-29,746	8,5063
49003	-19,581	-4,0062	24,425	6,6095
49004	-19,782	-4,0042	25,103	6,4133
49005	-19,346	-3,5056	24,865	6,6938
49006	-19,345	-4,5034	24,864	6,707
49007	-15,764	-4,0046	-30,459	7,7044
49008	-15,558	-4,0055	-29,788	7,8733
49009	-15,325	-3,5088	-30,221	7,9694
49010	-15,324	-4,5027	-30,221	7,9744
49011	-18,518	-4,0102	23,264	7,2942
49012	-18,315	-4,0112	22,588	7,4775
49013	-18,087	-3,5188	23,022	7,525
49014	-18,088	-4,506	23,023	7,5414
49015	-16,436	-4,004	-30,263	7,345
49016	-16,644	-4,0033	-30,93	7,1738
49017	-16,203	-3,5067	-30,698	7,4386
49018	-16,2	-4,502	-30,7	7,4424
49019	-19,383	-4,007	23,746	6,7892
49020	-19,178	-4,0077	23,07	6,9969
49021	-18,947	-3,5144	23,508	7,0544
49022	-18,948	-4,5042	23,508	7,0691
49023	-15,344	-4,0046	-29,117	8,0329
49024	-15,131	-4,0038	-28,448	8,1946
49025	-14,898	-3,5058	-28,881	8,2899
49026	-14,898	-4,5018	-28,881	8,2978
49027	-20,054	-4,0048	23,547	6,4433
49028	-20,255	-4,0035	24,225	6,2219
49029	-19,817	-3,5049	23,987	6,5167
49030	-19,818	-4,5028	23,986	6,5301
49031	-16,23	-4,0048	-29,592	7,5115
49032	-16,024	-4,0057	-28,921	7,6813
49033	-15,792	-3,5091	-29,354	7,7729
49034	-15,791	-4,5028	-29,354	7,7787
49035	-20,718	-4,0058	15,98	8,0799
49036	-20,923	-4,0051	16,656	7,7203
49037	-20,482	-3,5108	16,417	7,9835
49038	-20,047	-4,0068	16,186	8,2053
49039	-20,484	-4,5032	16,417	8,0115
49040	-16,903	-4,0041	-29,396	7,1577
49041	-17,111	-4,0034	-30,063	6,9846
49042	-16,67	-3,5069	-29,831	7,2486
49043	-16,667	-4,502	-29,833	7,2534
49044	-18,918	-4,0111	-19,333	7,621
49045	-19,126	-4,0096	-19,995	7,3622
49046	-18,683	-3,5164	-19,764	7,6027
49047	-18,683	-4,5053	-19,764	7,6223
49048	-15,811	-4,0049	-28,251	7,8411
49049	-15,598	-4,0042	-27,582	8,0053
49050	-15,365	-3,5064	-28,015	8,0935
49051	-15,365	-4,502	-28,015	8,1021
49052	-18,975	-4,0088	22,393	7,1802
49053	-18,777	-4,0085	21,714	7,3843
49054	-18,54	-3,5075	22,154	7,4208
49055	-18,542	-4,5052	22,153	7,4375
49056	-16,696	-4,005	-28,725	7,3252
49057	-16,488	-4,0056	-28,055	7,4999
49058	-16,258	-3,5093	-28,487	7,5849
49059	-16,257	-4,5029	-28,487	7,5916
49060	-19,848	-4,0055	22,871	6,6501
49061	-19,645	-4,0058	22,194	6,8819
49062	-19,405	-3,5121	22,634	6,9306
49063	-19,407	-4,5035	22,634	6,9463
49064	-17,367	-4,0058	-28,532	6,9766
49065	-17,577	-4,0034	-29,196	6,7977
49066	-17,138	-3,5023	-28,959	7,0628
49067	-17,133	-4,5021	-28,967	7,0691
49068	-20,526	-4,0035	22,669	6,3004
49069	-20,728	-4,0025	23,347	6,0518
49070	-20,288	-3,5064	23,109	6,3618
49071	-20,29	-4,502	23,108	6,3758
49072	-16,275	-4,0049	-27,386	7,6624
49073	-16,065	-4,0045	-26,716	7,8303
49074	-15,832	-3,5068	-27,149	7,9108
49075	-15,832	-4,5022	-27,149	7,9202
49076	-16,066	-4,016	-17,265	8,7223
49077	-15,856	-4,0171	-16,609	8,8476
49078	-15,626	-3,5254	-17,027	8,8005
49079	-15,626	-4,5083	-17,028	8,8223
49080	-17,158	-4,0064	-27,863	7,1493
49081	-16,952	-4,0049	-27,189	7,3291
49082	-16,722	-3,5092	-27,622	7,4083
49083	-16,721	-4,5028	-27,622	7,4159
49084	-16,945	-4,0149	-17,744	8,5122
49085	-16,736	-4,016	-17,083	8,6776
49086	-16,506	-3,5237	-17,502	8,6312
49087	-16,506	-4,5077	-17,503	8,6534
49088	-17,834	-4,0052	-27,664	6,8015
49089	-18,041	-4,0041	-28,332	6,6165
49090	-17,602	-3,5037	-28,095	6,8845
49091	-17,598	-4,5037	-28,102	6,8916
49092	-16,742	-4,0045	-26,519	7,4955
49093	-16,533	-4,005	-25,85	7,6708
49094	-16,299	-3,5074	-26,283	7,7429
49095	-16,299	-4,5024	-26,283	7,7533
49096	-17,825	-4,0138	-18,216	8,2198
49097	-17,617	-4,015	-17,557	8,4251
49098	-17,383	-3,5222	-17,984	8,3801
49099	-17,383	-4,5072	-17,984	8,4022
49100	-17,628	-4,0037	-26,991	6,9795
49101	-17,42	-4,0044	-26,321	7,1689
49102	-17,189	-3,5089	-26,754	7,2415
49103	-17,188	-4,5022	-26,754	7,2502
49104	-21,186	-4,0043	15,104	8,288
49105	-21,392	-4,0041	15,78	7,886
49106	-20,95	-3,5091	15,542	8,162
49107	-20,517	-4,0068	15,307	8,3947
49108	-20,952	-4,5026	15,542	8,1924
49109	-18,303	-4,0031	-26,793	6,6341
49110	-18,511	-4,0021	-27,461	6,439
49111	-18,072	-3,5016	-27,223	6,712
49112	-18,067	-4,5015	-27,23	6,72
49113	-18,709	-4,0124	-18,675	7,8436
49114	-18,501	-4,0138	-18,019	8,0878
49115	-18,266	-3,5204	-18,448	8,0462
49116	-18,266	-4,5066	-18,448	8,0681
49117	-19,447	-4,0055	21,515	7,0864
49118	-19,246	-4,0053	20,838	7,3175
49119	-19,008	-3,5047	21,278	7,3386
49120	-19,011	-4,5032	21,277	7,3568
49121	-17,21	-4,0049	-25,653	7,3431
49122	-17,	-4,0057	-24,985	7,5281
49123	-16,767	-3,5084	-25,417	7,5912
49124	-16,766	-4,5026	-25,417	7,6025
49125	-20,323	-4,0037	21,992	6,5318
49126	-20,119	-4,0042	21,316	6,791
49127	-19,882	-3,5037	21,756	6,8236
49128	-19,881	-4,5023	21,755	6,8418
49129	-18,095	-4,0038	-26,124	6,822
49130	-17,889	-4,0059	-25,453	7,0219
49131	-17,656	-3,5095	-25,887	7,0878
49132	-17,655	-4,5022	-25,887	7,0975
49133	-20,998	-4,0027	21,79	6,1825
49134	-21,2	-4,0018	22,469	5,9044
49135	-20,76	-3,5025	22,231	6,2306
49136	-20,762	-4,5015	22,229	6,2456
49137	-18,77	-4,0034	-25,926	6,4784
49138	-18,979	-4,0029	-26,593	6,27
49139	-18,539	-3,502	-26,356	6,5501
49140	-18,535	-4,5016	-26,363	6,5592
49141	-16,527	-4,017	-16,427	8,8063
49142	-16,32	-4,0162	-15,761	8,9568
49143	-16,086	-3,527	-16,189	8,8857
49144	-16,087	-4,5088	-16,19	8,9089
49145	-19,386	-4,0107	-18,47	7,6642
49146	-19,595	-4,011	-19,13	7,3806
49147	-19,151	-3,5183	-18,901	7,6278
49148	-19,152	-4,5058	-18,902	7,649
49149	-17,409	-4,016	-16,897	8,5931
49150	-17,202	-4,0147	-16,234	8,7836
49151	-16,967	-3,525	-16,663	8,7135
49152	-16,967	-4,5082	-16,664	8,7373
49153	-19,918	-4,004	20,639	7,0227
49154	-19,716	-4,0042	19,962	7,2819
49155	-19,479	-3,5099	20,401	7,2859
49156	-19,48	-4,5021	20,401	7,3059
49157	-17,679	-4,0066	-24,785	7,2061
49158	-17,467	-4,0063	-24,119	7,4037
49159	-17,234	-3,5094	-24,552	7,457
49160	-17,234	-4,503	-24,552	7,4693
49161	-20,795	-4,0031	21,114	6,4418
49162	-20,591	-4,0039	20,439	6,731
49163	-20,352	-3,5068	20,878	6,7484
49164	-20,353	-4,5019	20,878	6,7669
49165	-18,564	-4,0054	-25,256	6,677
49166	-18,357	-4,0074	-24,585	6,8905
49167	-18,124	-3,5114	-25,019	6,9479
49168	-18,124	-4,5036	-25,019	6,9587
49169	-21,47	-4,0023	20,912	6,0918
49170	-21,673	-4,0015	21,59	5,7813
49171	-21,233	-3,5019	21,353	6,1252
49172	-21,234	-4,5012	21,351	6,1416
49173	-19,238	-4,0031	-25,059	6,3349
49174	-19,446	-4,0032	-25,726	6,1115
49175	-19,006	-3,5021	-25,49	6,3999
49176	-19,001	-4,5018	-25,496	6,4099
49177	-18,293	-4,0151	-17,36	8,2952
49178	-18,085	-4,0163	-16,704	8,5252
49179	-17,851	-3,5239	-17,129	8,4589
49180	-17,851	-4,5078	-17,13	8,4827
49181	-21,653	-4,0026	14,228	8,5586
49182	-21,861	-4,0027	14,904	8,1097
49183	-21,418	-3,5064	14,666	8,3991
49184	-20,978	-4,0049	14,428	8,6452
49185	-21,419	-4,5017	14,666	8,4318
49186	-18,146	-4,0071	-23,919	7,0877
49187	-17,934	-4,0069	-23,253	7,2993
49188	-17,701	-3,5102	-23,686	7,3419
49189	-17,701	-4,5033	-23,686	7,3553
49190	-19,178	-4,0122	-17,814	7,91
49191	-18,97	-4,0128	-17,157	8,1811
49192	-18,735	-3,5224	-17,589	8,1175
49193	-18,735	-4,5073	-17,59	8,1411
49194	-19,031	-4,0051	-24,389	6,5475
49195	-18,824	-4,0076	-23,718	6,7771
49196	-18,591	-3,5046	-24,15	6,8255
49197	-18,591	-4,5038	-24,152	6,837
49198	-20,389	-4,004	19,762	6,991
49199	-20,186	-4,0044	19,086	7,281
49200	-19,949	-3,5031	19,526	7,2661
49201	-19,95	-4,5021	19,524	7,288
49202	-19,704	-4,0025	-24,192	6,2057
49203	-19,914	-4,0027	-24,858	5,9646
49204	-19,473	-3,5015	-24,622	6,2627
49205	-19,465	-4,5013	-24,633	6,2753
49206	-21,266	-4,0031	20,237	6,3814
49207	-21,062	-4,003	19,562	6,7034
49208	-20,826	-3,5024	20,001	6,7023
49209	-20,826	-4,5019	20,001	6,7233
49210	-16,995	-4,0139	-15,568	8,9379
49211	-16,785	-4,016	-14,912	9,1136
49212	-16,56	-3,5105	-15,313	9,0224
49213	-16,555	-4,5074	-15,335	9,0434
49214	-21,942	-4,0019	20,036	6,0309
49215	-22,145	-4,0014	20,712	5,6848
49216	-21,705	-3,5015	20,475	6,0479
49217	-21,707	-4,5011	20,473	6,0661
49218	-17,878	-4,015	-16,041	8,7185
49219	-17,669	-4,0152	-15,382	8,9355
49220	-17,444	-3,5081	-15,783	8,8471
49221	-17,437	-4,5065	-15,81	8,867
49222	-19,855	-4,009	-17,606	7,7452
49223	-20,063	-4,0095	-18,267	7,4331
49224	-19,62	-3,5186	-18,037	7,6885
49225	-19,62	-4,5049	-18,038	7,7115
49226	-18,613	-4,0074	-23,053	6,9886
49227	-18,402	-4,0074	-22,387	7,2166
49228	-18,168	-3,5108	-22,82	7,2476
49229	-18,168	-4,5036	-22,82	7,2621
49230	-18,762	-4,014	-16,501	8,4133
49231	-18,551	-4,0179	-15,854	8,6695
49232	-18,32	-3,526	-16,277	8,5798
49233	-18,32	-4,5085	-16,278	8,6053
49234	-19,497	-4,005	-23,522	6,4347
49235	-19,291	-4,0077	-22,852	6,6827
49236	-19,057	-3,5042	-23,283	6,7209
49237	-19,057	-4,5038	-23,285	6,7335
49238	-20,859	-4,0034	18,885	6,9943
49239	-20,656	-4,0045	18,209	7,3184
49240	-20,42	-3,5018	18,65	7,2824
49241	-20,421	-4,5024	18,648	7,3067
49242	-20,171	-4,002	-23,325	6,0927
49243	-20,38	-4,0024	-23,991	5,8313
49244	-19,939	-3,5013	-23,756	6,141
49245	-19,932	-4,5011	-23,766	6,1543
49246	-21,738	-4,0018	19,361	6,3534
49247	-21,534	-4,0025	18,686	6,7114
49248	-21,298	-3,5008	19,124	6,691
49249	-21,298	-4,5011	19,124	6,7137
49250	-19,647	-4,0096	-16,949	8,0179
49251	-19,438	-4,0106	-16,296	8,3178
49252	-19,209	-3,5091	-16,71	8,2348
49253	-19,204	-4,5055	-16,729	8,2564
49254	-22,413	-4,0015	19,159	6,0029
49255	-22,616	-4,0011	19,836	5,6175
49256	-22,177	-3,5027	19,598	6,0018
49257	-22,178	-4,5008	19,597	6,0221
49258	-19,08	-4,0078	-22,186	6,9108
49259	-18,869	-4,0081	-21,522	7,1577
49260	-18,635	-3,5118	-21,954	7,1759
49261	-18,635	-4,5039	-21,955	7,1917
49262	-22,12	-4,0007	13,352	8,9011
49263	-22,33	-4,0013	14,027	8,4
49264	-21,886	-3,5035	13,79	8,7024
49265	-21,442	-4,0027	13,557	8,9573
49266	-21,887	-4,5009	13,79	8,7375
49267	-19,964	-4,0048	-22,655	6,3403
49268	-19,757	-4,0081	-21,985	6,6094
49269	-19,524	-3,5045	-22,416	6,636
49270	-19,524	-4,5039	-22,418	6,65
49271	-21,331	-4,0035	18,009	7,0364
49272	-21,127	-4,004	17,333	7,3981
49273	-20,89	-3,507	17,771	7,34
49274	-20,891	-4,5021	17,771	7,3656
49275	-20,638	-4,0018	-22,458	5,9976
49276	-20,847	-4,0021	-23,124	5,7133
49277	-20,406	-3,5008	-22,889	6,0358
49278	-20,399	-4,5009	-22,899	6,0501
49279	-22,21	-4,0022	18,484	6,3615
49280	-22,006	-4,0027	17,81	6,7596
49281	-21,769	-3,5045	18,248	6,7176
49282	-21,77	-4,5014	18,248	6,7421
49283	-20,323	-4,0082	-16,745	7,8676
49284	-20,531	-4,0081	-17,403	7,5244
49285	-20,094	-3,5052	-17,163	7,7909
49286	-20,089	-4,5041	-17,176	7,8139
49287	-22,886	-4,0018	18,28	6,0126
49288	-23,089	-4,001	18,958	5,5828
49289	-22,649	-3,5006	18,721	5,99
49290	-22,65	-4,5007	18,719	6,0132
49291	-22,587	-3,9981	12,476	9,3281
49292	-22,798	-3,9998	13,151	8,7684
49293	-22,353	-3,5004	12,915	9,0839
49294	-21,908	-3,9996	12,677	9,3507
49295	-22,353	-4,4998	12,914	9,1203
49296	-17,459	-4,0174	-14,726	9,1149
49297	-17,25	-4,0152	-14,068	9,3198
49298	-17,024	-3,5113	-14,47	9,2035
49299	-17,017	-4,5086	-14,494	9,2246
49300	-21,802	-4,0032	17,133	7,122
49301	-21,598	-4,0033	16,456	7,5254
49302	-21,361	-3,5063	16,894	7,4416
49303	-21,362	-4,5019	16,894	7,4694
49304	-18,342	-4,0181	-15,195	8,8893
49305	-18,132	-4,0193	-14,542	9,1347
49306	-17,907	-3,5132	-14,94	9,0222
49307	-17,899	-4,5087	-14,966	9,0429
49308	-22,682	-4,0024	17,605	6,4112
49309	-22,479	-4,0025	16,933	6,8535
49310	-22,242	-3,5041	17,371	6,7862
49311	-22,242	-4,5013	17,371	6,8135
49312	-19,547	-4,0084	-21,32	6,8566
49313	-19,336	-4,0086	-20,657	7,1248
49314	-19,103	-3,5132	-21,088	7,1292
49315	-19,103	-4,5043	-21,089	7,1462
49316	-23,359	-4,0021	17,4	6,0658
49317	-23,562	-4,0014	18,078	5,5859
49318	-23,122	-3,5027	17,84	6,0194
49319	-23,123	-4,5011	17,839	6,0452
49320	-20,431	-4,0051	-21,788	6,2667
49321	-20,222	-4,007	-21,121	6,5598
49322	-19,991	-3,5049	-21,549	6,5733
49323	-19,991	-4,5042	-21,551	6,5889
49324	-19,227	-4,0145	-15,649	8,5762
49325	-19,015	-4,02	-15,008	8,8608
49326	-18,782	-3,5288	-15,429	8,747
49327	-18,782	-4,5094	-15,43	8,7744
49328	-21,1	-4,0051	-21,599	5,9239
49329	-21,314	-4,0022	-22,257	5,6126
49330	-20,873	-3,5008	-22,022	5,9498
49331	-20,866	-4,501	-22,032	5,9652
49332	-22,274	-4,0026	16,256	7,2572
49333	-22,068	-4,0024	15,58	7,7067
49334	-21,832	-3,5051	16,018	7,5935
49335	-21,833	-4,5015	16,018	7,624
49336	-20,115	-4,0091	-16,092	8,1689
49337	-19,904	-4,011	-15,444	8,5001
49338	-19,676	-3,5074	-15,852	8,3943
49339	-19,671	-4,505	-15,874	8,4158
49340	-23,155	-4,0022	16,727	6,5082
49341	-22,951	-4,0022	16,056	7,
49342	-22,715	-3,5036	16,494	6,9036
49343	-22,715	-4,5012	16,494	6,9339
49344	-17,923	-4,0172	-13,884	9,3433
49345	-17,715	-4,0157	-13,227	9,5788
49346	-17,488	-3,5062	-13,623	9,4375
49347	-17,481	-4,5066	-13,65	9,4581
49348	-23,83	-4,002	16,522	6,1692
49349	-24,034	-4,0013	17,2	5,6327
49350	-23,594	-3,5026	16,962	6,0942
49351	-23,595	-4,501	16,961	6,1237
49352	-18,806	-4,0211	-14,354	9,1089
49353	-18,594	-4,0192	-13,697	9,3881
49354	-18,363	-3,5322	-14,121	9,241
49355	-18,363	-4,5106	-14,122	9,2699
49356	-23,053	-3,9949	11,6	9,858
49357	-23,266	-3,9975	12,274	9,2293
49358	-22,808	-3,4835	12,08	9,5298
49359	-22,372	-3,995	11,802	9,833
49360	-22,82	-4,4983	12,038	9,5942
49361	-22,745	-4,002	15,379	7,4495
49362	-22,538	-4,0015	14,703	7,9503
49363	-22,303	-3,5034	15,142	7,8029
49364	-22,303	-4,501	15,141	7,8363
49365	-19,692	-4,0165	-14,802	8,787
49366	-19,477	-4,0221	-14,163	9,1045
49367	-19,249	-3,5323	-14,585	8,9617
49368	-19,249	-4,5105	-14,586	8,9912
49369	-23,627	-4,002	15,85	6,6607
49370	-23,423	-4,0018	15,179	7,2083
49371	-23,187	-3,5031	15,618	7,0776
49372	-23,187	-4,501	15,617	7,1114
49373	-20,79	-4,0084	-15,888	8,0353
49374	-20,999	-4,0074	-16,542	7,658
49375	-20,561	-3,5054	-16,303	7,9356
49376	-20,556	-4,5041	-16,316	7,9599
49377	-24,302	-4,0019	15,643	6,3328
49378	-24,507	-4,0013	16,322	5,7316
49379	-24,066	-3,5024	16,084	6,2235
49380	-24,066	-4,501	16,083	6,2573
49381	-20,579	-4,0103	-15,24	8,3678
49382	-20,365	-4,0148	-14,598	8,7327
49383	-20,14	-3,5094	-15,001	8,6022
49384	-20,135	-4,506	-15,024	8,6237
49385	-20,011	-4,0072	-20,458	6,8285
49386	-19,804	-4,0094	-19,792	7,1209
49387	-19,57	-3,5143	-20,224	7,1097
49388	-19,57	-4,5043	-20,224	7,1283
49389	-23,524	-3,9908	10,72	10,514
49390	-23,734	-3,9946	11,397	9,8035
49391	-23,285	-3,4876	11,211	10,099
49392	-22,836	-3,9903	10,926	10,428
49393	-23,286	-4,4966	11,161	10,179
49394	-20,891	-4,0071	-20,932	6,2172
49395	-20,686	-4,0076	-20,259	6,536
49396	-20,456	-3,5042	-20,687	6,5355
49397	-20,455	-4,5029	-20,688	6,5528
49398	-18,386	-4,0178	-13,041	9,6275
49399	-18,182	-4,0192	-12,387	9,8961
49400	-17,951	-3,5114	-12,791	9,7227
49401	-17,945	-4,5091	-12,814	9,745
49402	-21,566	-4,006	-20,733	5,872
49403	-21,775	-4,0046	-21,399	5,5335
49404	-21,336	-3,5044	-21,162	5,8864
49405	-21,329	-4,5042	-21,172	5,9029
49406	-19,265	-4,0203	-13,506	9,3867
49407	-19,051	-4,0196	-12,853	9,6993
49408	-18,829	-3,5112	-13,249	9,5324
49409	-18,822	-4,5087	-13,279	9,5524
49410	-21,254	-4,0156	-15,044	8,25
49411	-21,466	-4,0129	-15,687	7,8382
49412	-21,026	-3,5084	-15,449	8,1277
49413	-21,022	-4,5043	-15,465	8,1517
49414	-23,216	-4,0013	14,503	7,7086
49415	-23,008	-4,0004	13,826	8,2665
49416	-22,773	-3,5017	14,265	8,0794
49417	-22,773	-4,5005	14,265	8,1155
49418	-20,15	-4,0204	-13,959	9,0526
49419	-19,929	-4,0242	-13,321	9,4067
49420	-19,705	-3,5355	-13,74	9,2342
49421	-19,704	-4,5116	-13,741	9,2654
49422	-24,099	-4,0017	14,972	6,8793
49423	-23,895	-4,0012	14,302	7,4897
49424	-23,659	-3,5027	14,741	7,3183
49425	-23,659	-4,5008	14,74	7,3558
49426	-23,999	-3,9923	9,8249	11,351
49427	-24,206	-3,9908	10,513	10,521
49428	-23,803	-3,5172	10,343	10,807
49429	-23,329	-3,9846	10,033	11,18
49430	-23,757	-4,4942	10,281	10,902
49431	-24,774	-4,0016	14,765	6,5692
49432	-24,979	-4,0012	15,444	5,8939
49433	-24,538	-3,5022	15,206	6,4183
49434	-24,538	-4,5009	15,204	6,4573
49435	-21,04	-4,0202	-14,402	8,6161
49436	-20,823	-4,0224	-13,764	9,0189
49437	-20,599	-3,5171	-14,16	8,862
49438	-20,596	-4,5089	-14,181	8,8844
49439	-18,847	-4,021	-12,2	9,972
49440	-18,651	-4,016	-11,53	10,284
49441	-18,415	-3,5318	-11,967	10,064
49442	-18,417	-4,5101	-11,964	10,098
49443	-23,687	-4,0004	13,626	8,0467
49444	-23,478	-3,9992	12,95	8,6689
49445	-23,243	-3,5003	13,389	8,4346
49446	-23,243	-4,5	13,388	8,4731
49447	-19,715	-4,0236	-12,668	9,7223
49448	-19,504	-4,0193	-12,005	10,078
49449	-19,278	-3,5336	-12,437	9,8618
49450	-19,277	-4,5109	-12,435	9,896
49451	-24,571	-4,0011	14,095	7,1774
49452	-24,367	-4,0002	13,424	7,8591
49453	-24,131	-3,5018	13,864	7,6385
49454	-24,131	-4,5004	13,863	7,68
49455	-20,479	-4,0098	-19,593	6,829
49456	-20,271	-4,0097	-18,927	7,1486
49457	-20,037	-3,516	-19,358	7,1206
49458	-20,038	-4,5052	-19,358	7,1408
49459	-25,246	-4,0009	13,887	6,8945
49460	-25,451	-4,0009	14,566	6,1344
49461	-25,01	-3,5017	14,328	6,6928
49462	-25,01	-4,5007	14,326	6,7377
49463	-21,362	-4,0064	-20,06	6,1912
49464	-21,154	-4,0076	-19,394	6,541
49465	-20,919	-3,5143	-19,827	6,5251
49466	-20,92	-4,5047	-19,827	6,5438
49467	-20,602	-4,0262	-13,125	9,3753
49468	-20,374	-4,026	-12,483	9,7724
49469	-20,154	-3,5401	-12,901	9,5656
49470	-20,153	-4,5127	-12,902	9,5989
49471	-22,037	-4,0041	-19,861	5,8451
49472	-22,246	-4,0023	-20,527	5,4738
49473	-21,806	-3,503	-20,29	5,8456
49474	-21,8	-4,5018	-20,299	5,863
49475	-21,715	-4,0212	-14,201	8,5228
49476	-21,929	-4,0212	-14,846	8,0672
49477	-21,489	-3,5163	-14,605	8,3704
49478	-21,485	-4,5113	-14,627	8,3927
49479	-21,498	-4,0234	-13,563	8,927
49480	-21,278	-4,0235	-12,925	9,3728
49481	-21,052	-3,5418	-13,347	9,1687
49482	-21,051	-4,5135	-13,349	9,2015
49483	-24,466	-3,9974	8,9155	12,436
49484	-24,671	-3,9954	9,6062	11,455
49485	-24,273	-3,4544	9,3722	11,833
49486	-23,803	-4,0005	9,1516	12,115
49487	-24,23	-4,4981	9,3731	11,839
49488	-24,158	-3,999	12,748	8,4798
49489	-23,947	-3,9972	12,072	9,1743
49490	-23,713	-3,4983	12,512	8,8842
49491	-23,713	-4,4992	12,511	8,9239
49492	-20,946	-4,0075	-18,728	6,8611
49493	-20,739	-4,0086	-18,064	7,2115
49494	-20,504	-3,5164	-18,494	7,1647
49495	-20,505	-4,5046	-18,495	7,1868
49496	-25,042	-4,	13,217	7,5725
49497	-24,835	-3,9984	12,541	8,3415
49498	-24,603	-3,5002	12,986	8,0555
49499	-24,603	-4,4998	12,985	8,1005
49500	-21,829	-4,0053	-19,194	6,1952
49501	-21,622	-4,0056	-18,527	6,5787
49502	-21,387	-3,513	-18,96	6,5449
49503	-21,388	-4,5029	-18,961	6,5656
49504	-25,717	-3,9994	13,009	7,3298
49505	-25,923	-4,0003	13,687	6,4724
49506	-25,481	-3,5006	13,45	7,0652
49507	-25,482	-4,5002	13,448	7,1169
49508	-22,505	-4,0037	-18,994	5,8489
49509	-22,713	-4,0028	-19,66	5,4403
49510	-22,273	-3,5038	-19,424	5,8329
49511	-22,267	-4,5023	-19,433	5,8521
49512	-22,173	-4,0249	-13,368	8,8567
49513	-22,392	-4,0212	-13,996	8,3627
49514	-21,945	-3,5371	-13,777	8,6676
49515	-21,945	-4,5099	-13,78	8,7003
49516	-24,926	-3,9948	7,9969	13,861
49517	-25,133	-4,0004	8,6964	12,619
49518	-24,69	-3,5014	8,4582	13,067
49519	-24,269	-4,0058	8,2251	13,397
49520	-24,695	-4,4993	8,4593	13,039
49521	-19,308	-4,0143	-11,335	10,396
49522	-19,135	-4,0072	-10,648	10,762
49523	-18,877	-3,5066	-11,082	10,498
49524	-18,889	-4,5059	-11,095	10,529
49525	-24,625	-3,9966	11,865	9,0339
49526	-24,415	-3,9946	11,19	9,8094
49527	-24,174	-3,4856	11,673	9,4151
49528	-24,182	-4,498	11,633	9,4861
49529	-20,163	-4,0217	-11,819	10,132
49530	-19,987	-4,0178	-11,138	10,542
49531	-19,74	-3,513	-11,549	10,297
49532	-19,732	-4,5084	-11,575	10,318
49533	-25,51	-3,9978	12,333	8,093
49534	-25,303	-3,9956	11,655	8,9569
49535	-25,067	-3,4969	12,098	8,6025
49536	-25,068	-4,4986	12,097	8,6502
49537	-21,414	-4,0067	-17,863	6,9295
49538	-21,207	-4,0073	-17,2	7,3141
49539	-20,976	-3,5047	-17,624	7,2463
49540	-20,973	-4,504	-17,63	7,2706
49541	-26,189	-3,9968	12,131	7,9008
49542	-26,395	-3,999	12,809	6,9328
49543	-25,953	-3,4983	12,572	7,5594
49544	-25,953	-4,4992	12,57	7,6185
49545	-22,297	-4,004	-18,327	6,2327
49546	-22,09	-4,0047	-17,662	6,6537
49547	-21,858	-3,5038	-18,089	6,5996
49548	-21,855	-4,5027	-18,095	6,6227
49549	-21,05	-4,0233	-12,282	9,7728
49550	-20,843	-4,0257	-11,643	10,212
49551	-20,609	-3,5197	-12,025	9,9859
49552	-20,594	-4,5133	-12,064	10,
49553	-22,973	-4,0032	-18,127	5,887
49554	-23,183	-4,0027	-18,789	5,4363
49555	-22,741	-3,5025	-18,556	5,8519
49556	-22,736	-4,5013	-18,565	5,8733
49557	-19,814	-4,0107	-10,451	10,914
49558	-19,656	-4,0077	-9,7129	11,371
49559	-19,353	-3,5025	-10,192	11,024
49560	-19,385	-4,5013	-10,2	11,06
49561	-21,953	-4,025	-12,73	9,3037
49562	-21,719	-4,0287	-12,119	9,7831
49563	-21,511	-3,5208	-12,474	9,578
49564	-21,497	-4,51	-12,513	9,5915
49565	-20,667	-4,0218	-10,962	10,625
49566	-20,585	-4,0281	-10,236	11,137
49567	-20,247	-3,5184	-10,717	10,779
49568	-20,228	-4,5094	-10,699	10,829
49569	-25,093	-3,9936	10,98	9,7292
49570	-24,877	-3,9938	10,294	10,624
49571	-24,646	-3,491	10,744	10,164
49572	-24,646	-4,4966	10,743	10,198
49573	-21,883	-4,0053	-16,999	7,0385
49574	-21,676	-4,0118	-16,341	7,4604
49575	-21,444	-3,5047	-16,761	7,37
49576	-21,441	-4,5033	-16,771	7,3942
49577	-25,982	-3,9946	11,453	8,7554
49578	-25,765	-3,9924	10,763	9,7434
49579	-25,538	-3,4922	11,215	9,2847
49580	-25,538	-4,497	11,214	9,3346
49581	-22,766	-4,0038	-17,462	6,3081
49582	-22,558	-4,0089	-16,802	6,7702
49583	-22,326	-3,504	-17,225	6,6942
49584	-22,324	-4,502	-17,229	6,7201
49585	-26,657	-3,9952	11,247	8,645
49586	-26,868	-3,997	11,931	7,5461
49587	-26,425	-3,4946	11,694	8,205
49588	-26,425	-4,4976	11,692	8,2688
49589	-23,441	-4,0052	-17,261	5,9652
49590	-23,651	-4,0034	-17,922	5,4673
49591	-23,209	-3,503	-17,69	5,9075
49592	-23,203	-4,5018	-17,699	5,9317
49593	-21,512	-4,0311	-11,479	10,224
49594	-21,342	-4,0303	-10,911	10,663
49595	-21,114	-3,532	-11,186	10,471
49596	-21,052	-4,5124	-11,234	10,476
49597	-25,55	-3,9927	10,076	10,634
49598	-25,338	-3,9983	9,3872	11,642
49599	-25,056	-3,4893	9,7616	11,172
49600	-25,107	-4,4973	9,8407	11,101
49601	-22,625	-4,0322	-12,546	9,26
49602	-22,85	-4,0276	-13,165	8,7196
49603	-22,406	-3,5234	-12,924	9,0492
49604	-22,401	-4,515	-12,96	9,0631
49605	-26,44	-3,993	10,557	9,619
49606	-26,222	-3,99	9,8645	10,718
49607	-26,013	-3,4933	10,342	10,121
49608	-25,993	-4,4954	10,312	10,218
49609	-22,392	-4,0359	-11,935	9,7403
49610	-22,168	-4,038	-11,327	10,266
49611	-21,956	-3,5288	-11,676	10,025
49612	-21,934	-4,5187	-11,737	10,022
49613	-27,119	-3,9924	10,356	9,5977
49614	-27,335	-3,9964	11,047	8,3552
49615	-26,888	-3,4921	10,804	9,0494
49616	-26,889	-4,4976	10,802	9,1186
49617	-25,587	-4,0039	7,7835	14,131
49618	-25,373	-3,9835	7,0591	15,783
49619	-25,15	-3,4924	7,5373	14,707
49620	-24,728	-3,9983	7,3023	15,129
49621	-25,156	-4,4955	7,5344	14,624
49622	-26,011	-3,9956	9,1754	11,716
49623	-25,794	-4,0094	8,483	12,901
49624	-25,565	-3,4913	8,9303	12,241
49625	-25,565	-4,501	8,9307	12,213
49626	-22,35	-4,0155	-16,144	7,1919
49627	-22,141	-4,0184	-15,489	7,6551
49628	-21,911	-3,5128	-15,904	7,5399
49629	-21,91	-4,5085	-15,912	7,5662
49630	-26,901	-3,9894	9,6637	10,675
49631	-26,681	-4,0022	8,98	11,882
49632	-26,478	-3,4841	9,423	11,233
49633	-26,452	-4,4946	9,4174	11,276
49634	-23,232	-4,0103	-16,602	6,4269
49635	-23,024	-4,013	-15,943	6,937
49636	-22,793	-3,5104	-16,366	6,8334
49637	-22,791	-4,507	-16,375	6,8595
49638	-27,579	-3,9898	9,4669	10,764
49639	-27,8	-3,9933	10,159	9,3976
49640	-27,351	-3,4879	9,9127	10,109
49641	-27,35	-4,4948	9,91	10,179
49642	-23,908	-4,0072	-16,397	6,0913
49643	-24,118	-4,005	-17,056	5,5398
49644	-23,676	-3,5051	-16,825	6,0069
49645	-23,671	-4,5034	-16,833	6,0343
49646	-23,07	-4,0359	-11,721	9,7561
49647	-23,301	-4,0286	-12,33	9,1657
49648	-22,858	-3,5271	-12,095	9,5033
49649	-22,85	-4,5172	-12,133	9,5113
49650	-26,464	-4,016	8,2875	13,049
49651	-26,247	-4,0183	7,5771	14,47
49652	-25,969	-3,5606	7,9696	13,744
49653	-26,019	-4,5084	8,0264	13,583
49654	-27,359	-4,0026	8,7832	11,94
49655	-27,141	-4,0162	8,1043	13,24
49656	-26,947	-3,5624	8,6011	12,404
49657	-26,903	-4,5077	8,5315	12,54
49658	-21,997	-4,0372	-10,759	10,706
49659	-21,261	-4,0366	-10,185	11,17
49660	-21,779	-4,0381	-10,195	11,191
49661	-21,565	-3,5588	-10,561	10,877
49662	-21,55	-4,5179	-10,592	10,904
49663	-28,037	-3,992	8,5897	12,109
49664	-28,262	-3,9934	9,2747	10,678
49665	-27,806	-3,493	9,064	11,322
49666	-27,808	-4,495	9,0239	11,442
49667	-26,033	-3,998	6,8528	16,096
49668	-25,753	-3,9748	5,9866	19,171
49669	-25,608	-3,5137	6,5469	17,077
49670	-25,161	-3,9895	6,3453	17,644
49671	-25,59	-4,488	6,5838	16,777
49672	-22,846	-4,0379	-11,113	10,284
49673	-22,604	-4,0422	-10,523	10,857
49674	-22,386	-3,5313	-10,902	10,54
49675	-22,379	-4,5193	-10,925	10,561
49676	-26,924	-4,0185	7,3939	14,633
49677	-26,72	-4,0135	6,708	16,224
49678	-26,439	-3,5815	7,0928	15,442
49679	-26,472	-4,51	7,1186	15,259
49680	-26,44	-3,9903	5,8419	19,25
49681	-26,283	-3,9591	5,1743	22,068
49682	-25,987	-3,5122	5,3585	21,625
49683	-26,218	-4,2832	4,9974	23,243
49684	-25,633	-3,9523	5,2116	22,95
49685	-25,967	-4,4868	5,5099	20,517
49686	-27,819	-4,0056	7,9108	13,367
49687	-27,605	-4,008	7,236	14,73
49688	-27,396	-3,5673	7,7492	13,8
49689	-27,366	-4,5086	7,6588	13,955
49690	-22,815	-4,0159	-15,288	7,3997
49691	-22,606	-4,0212	-14,64	7,9068
49692	-22,372	-3,5311	-15,063	7,7578
49693	-22,373	-4,5099	-15,065	7,7886
49694	-28,499	-3,9987	7,7246	13,576
49695	-28,726	-3,9959	8,4035	12,156
49696	-28,265	-3,4983	8,1974	12,732
49697	-28,267	-4,497	8,1555	12,853
49698	-23,699	-4,0098	-15,738	6,6005
49699	-23,49	-4,0121	-15,082	7,1635
49700	-23,257	-3,5236	-15,507	7,0275
49701	-23,258	-4,506	-15,509	7,0583
49702	-27,4	-4,003	6,5501	16,293
49703	-27,222	-4,0122	5,9003	18,032
49704	-26,946	-3,51	6,3082	17,149
49705	-26,952	-4,5036	6,2785	17,05
49706	-24,375	-4,0083	-15,533	6,2754
49707	-24,585	-4,0055	-16,19	5,6623
49708	-24,143	-3,5065	-15,96	6,1586
49709	-24,138	-4,5038	-15,968	6,1899
49710	-28,284	-4,0011	7,0499	14,89
49711	-28,091	-4,0013	6,3938	16,222
49712	-27,818	-3,4965	6,8794	15,42
49713	-27,837	-4,4994	6,8059	15,447
49714	-23,502	-4,037	-10,898	10,362
49715	-23,75	-4,032	-11,497	9,7098
49716	-23,287	-3,5596	-11,306	10,026
49717	-23,29	-4,5186	-11,309	10,056
49718	-28,957	-4,0084	6,8593	15,078
49719	-29,192	-4,0019	7,5364	13,788
49720	-28,723	-3,505	7,336	14,262
49721	-28,731	-4,5017	7,2938	14,349
49722	-23,281	-4,0174	-14,434	7,6697
49723	-23,07	-4,024	-13,793	8,2255
49724	-22,838	-3,536	-14,213	8,0404
49725	-22,839	-4,5113	-14,215	8,0738
49726	-20,428	-4,0251	-9,4977	11,603
49727	-19,959	-4,0167	-8,6317	12,139
49728	-20,368	-4,0295	-8,8364	12,119
49729	-19,853	-3,5404	-9,2136	11,706
49730	-19,927	-4,5064	-9,2257	11,756
49731	-24,165	-4,0106	-14,877	6,8366
49732	-23,955	-4,0132	-14,225	7,4581
49733	-23,723	-3,5262	-14,649	7,2839
49734	-23,724	-4,5061	-14,651	7,318
49735	-27,065	-3,9809	5,2328	20,862
49736	-26,839	-3,9278	4,6412	24,462
49737	-26,565	-3,4825	5,0886	22,34
49738	-26,585	-4,2687	4,7822	23,976
49739	-26,681	-4,4723	4,9586	22,373
49740	-24,841	-4,0075	-14,67	6,5295
49741	-25,052	-4,0064	-15,325	5,8466
49742	-24,61	-3,5077	-15,096	6,3738
49743	-24,605	-4,5045	-15,102	6,4098
49744	-21,447	-4,0389	-9,7793	11,505
49745	-21,166	-4,0452	-9,2919	11,901
49746	-20,878	-3,5626	-9,7118	11,519
49747	-20,868	-4,5187	-9,7761	11,504
49748	-27,913	-4,0105	5,744	17,955
49749	-27,733	-4,0318	5,0379	19,922
49750	-27,314	-3,5368	5,6498	18,8
49751	-27,512	-4,5086	5,4924	18,78
49752	-20,4	-4,0334	-8,2424	12,555
49753	-20,183	-4,0227	-7,6485	12,972
49754	-19,963	-3,5066	-8,0755	12,547
49755	-20,047	-4,5103	-8,0777	12,613
49756	-22,385	-4,0431	-9,9587	11,348
49757	-22,073	-4,0491	-9,3984	11,892
49758	-21,932	-3,6206	-9,7537	11,551
49759	-21,965	-4,5202	-9,7889	11,544
49760	-28,764	-4,0085	6,2033	16,374
49761	-28,694	-4,0084	5,6077	17,42
49762	-28,314	-3,5056	6,0414	16,895
49763	-28,345	-4,5019	5,9817	16,892
49764	-21,107	-4,0496	-8,6305	12,427
49765	-20,977	-4,0395	-8,0054	12,978
49766	-20,855	-3,5862	-8,4307	12,541
49767	-20,809	-4,5231	-8,447	12,547
49768	-23,26	-4,0412	-10,308	10,938
49769	-22,996	-4,0486	-9,729	11,582
49770	-22,875	-3,5931	-10,103	11,202
49771	-22,799	-4,5229	-10,134	11,199
49772	-29,515	-4,0102	6,0485	16,367
49773	-29,65	-4,0086	6,6724	15,434
49774	-29,202	-3,5064	6,4638	15,763
49775	-29,183	-4,5067	6,4248	15,826
49776	-21,792	-4,0554	-8,911	12,308
49777	-21,67	-4,0695	-8,3495	12,874
49778	-21,369	-3,5961	-8,7566	12,372
49779	-21,405	-4,5265	-8,8141	12,358
49780	-20,76	-4,0288	-7,4114	13,415
49781	-20,553	-4,0338	-6,8052	13,874
49782	-20,34	-3,5227	-7,2822	13,325
49783	-20,411	-4,5124	-7,2487	13,43
49784	-23,93	-4,0355	-10,079	11,098
49785	-24,187	-4,0301	-10,662	10,383
49786	-23,709	-3,5591	-10,485	10,693
49787	-23,714	-4,5184	-10,487	10,719
49788	-22,684	-4,0546	-9,1688	12,133
49789	-22,438	-4,0549	-8,6054	12,771
49790	-22,177	-3,5901	-9,0426	12,235
49791	-22,18	-4,5289	-9,0079	12,297
49792	-21,541	-4,0594	-7,7243	13,446
49793	-21,337	-4,0391	-7,118	14,054
49794	-21,078	-3,5282	-7,5586	13,435
49795	-21,212	-4,5164	-7,5531	13,524
49796	-30,096	-4,0115	5,4139	17,298
49797	-29,446	-4,0101	5,4529	17,429
49798	-30,224	-4,0051	5,874	16,841
49799	-29,823	-3,5158	5,6888	16,95
49800	-29,695	-4,5035	5,6777	16,922
49801	-23,385	-4,042	-8,9117	12,504
49802	-23,667	-4,0429	-9,5006	11,745
49803	-23,199	-3,5857	-9,3312	11,974
49804	-23,187	-4,5257	-9,3297	12,002
49805	-22,316	-4,069	-8,0439	13,355
49806	-22,12	-4,0622	-7,4446	14,092
49807	-21,979	-3,559	-7,9067	13,426
49808	-21,936	-4,543	-7,885	13,451
49809	-30,242	-4,0217	4,7301	18,217
49810	-30,692	-4,008	5,2288	17,798
49811	-30,374	-3,477	5,1364	17,691
49812	-30,34	-4,5079	5,0523	17,767
49813	-23,743	-4,0198	-13,584	8,0127
49814	-23,526	-4,024	-12,949	8,6247
49815	-23,302	-3,5188	-13,349	8,4074
49816	-23,3	-4,5127	-13,371	8,43
49817	-23,139	-4,0423	-8,3482	13,149
49818	-22,899	-4,0584	-7,7713	13,967
49819	-22,701	-3,5391	-8,206	13,281
49820	-22,666	-4,526	-8,1882	13,298
49821	-24,63	-4,0101	-14,018	7,1481
49822	-24,417	-4,0166	-13,373	7,8341
49823	-24,19	-3,5102	-13,784	7,621
49824	-24,189	-4,5071	-13,795	7,6532
49825	-28,515	-4,0298	4,9015	19,482
49826	-29,592	-4,0204	4,7691	18,209
49827	-28,975	-3,6837	5,273	17,932
49828	-29,037	-4,5066	5,1826	18,03
49829	-25,306	-4,0084	-13,809	6,8686
49830	-25,516	-4,0041	-14,465	6,105
49831	-25,076	-3,5044	-14,232	6,6662
49832	-25,072	-4,503	-14,238	6,7079
49833	-24,05	-4,036	-8,6831	12,751
49834	-23,768	-4,0327	-8,0747	13,702
49835	-23,621	-3,5347	-8,4688	13,087
49836	-23,566	-4,5163	-8,5191	12,996
49837	-28,467	-4,0381	4,2872	20,668
49838	-27,507	-3,9786	4,4463	23,646
49839	-28,042	-3,5567	4,6503	20,8
49840	-28,139	-4,5232	4,6412	20,373
49841	-24,2	-4,0209	-12,738	8,4444
49842	-23,981	-4,0248	-12,106	9,1186
49843	-23,757	-3,5196	-12,506	8,8532
49844	-23,755	-4,5114	-12,527	8,875
49845	-30,395	-4,0253	3,8376	19,21
49846	-29,543	-4,0288	4,1548	19,625
49847	-30,781	-4,0154	4,3894	18,772
49848	-30,241	-3,518	4,3394	18,796
49849	-30,156	-4,5138	4,3091	18,791
49850	-30,73	-4,0129	2,891	20,166
49851	-30,136	-4,0206	3,2772	20,354
49852	-31,205	-4,011	3,4791	19,815
49853	-30,743	-3,5377	3,3631	19,785
49854	-30,639	-4,5115	3,3855	19,965
49855	-31,096	-4,017	1,9061	20,564
49856	-30,459	-4,0172	2,4597	20,997
49857	-31,435	-4,0013	2,5472	20,393
49858	-30,98	-3,4052	2,4321	20,662
49859	-30,913	-4,5014	2,467	20,837
49860	-25,093	-4,0149	-13,163	7,5502
49861	-24,878	-4,019	-12,521	8,3103
49862	-24,652	-3,5133	-12,931	8,0447
49863	-24,651	-4,5095	-12,948	8,0738
49864	-25,77	-4,0105	-12,95	7,3135
49865	-25,982	-4,0072	-13,602	6,4587
49866	-25,541	-3,5086	-13,371	7,0525
49867	-25,54	-4,5054	-13,379	7,0953
49868	-31,512	-4,0407	1,1155	20,778
49869	-31,012	-4,094	1,3808	21,267
49870	-31,88	-4,0188	1,6056	20,594
49871	-31,482	-3,5339	1,5322	20,7
49872	-31,392	-4,5157	1,5319	21,033
49873	-24,659	-4,0229	-11,89	8,9822
49874	-24,435	-4,0251	-11,261	9,7291
49875	-24,207	-3,5427	-11,684	9,3848
49876	-24,211	-4,5134	-11,685	9,4195
49877	-29,284	-4,0242	3,5944	20,537
49878	-28,489	-4,0221	3,8245	22,659
49879	-29,034	-3,4789	4,1571	20,142
49880	-28,966	-4,515	3,9914	20,462
49881	-25,554	-4,0146	-12,307	8,0674
49882	-25,339	-4,0173	-11,663	8,9139
49883	-25,108	-3,5309	-12,092	8,5673
49884	-25,112	-4,5095	-12,092	8,6106
49885	-24,331	-4,0368	-9,272	11,991
49886	-24,625	-4,0254	-9,8266	11,206
49887	-24,177	-3,5206	-9,6221	11,558
49888	-24,146	-4,5171	-9,6714	11,518
49889	-26,233	-4,0097	-12,087	7,8934
49890	-26,446	-4,007	-12,741	6,9321
49891	-26,004	-3,5173	-12,516	7,5518
49892	-26,005	-4,5051	-12,516	7,6075
49893	-29,866	-4,025	2,8459	20,979
49894	-29,151	-4,019	3,037	22,407
49895	-29,711	-3,61	3,2563	20,643
49896	-29,596	-4,5092	3,1897	21,058
49897	-31,14	-4,1034	1,0953	21,163
49898	-31,607	-4,0317	0,47187	20,783
49899	-32,057	-4,0334	0,87247	20,685
49900	-31,716	-3,5921	0,93674	20,655
49901	-31,63	-4,525	0,85333	21,116
49902	-30,375	-4,0942	1,9343	21,189
49903	-29,662	-4,026	2,2773	22,142
49904	-30,106	-3,6924	2,4817	21,281
49905	-30,085	-4,5158	2,4106	21,724
49906	-25,115	-4,0195	-11,034	9,6578
49907	-24,882	-4,02	-10,41	10,49
49908	-24,654	-3,539	-10,838	10,064
49909	-24,66	-4,5117	-10,838	10,095
49910	-25,022	-4,0314	-8,9955	12,218
49911	-24,685	-4,0373	-8,4002	13,22
49912	-24,55	-3,5264	-8,7999	12,597
49913	-24,516	-4,5197	-8,8725	12,485
49914	-26,018	-4,0124	-11,442	8,731
49915	-25,794	-4,0134	-10,799	9,6746
49916	-25,568	-3,5262	-11,233	9,241
49917	-25,571	-4,5078	-11,231	9,2858
49918	-30,121	-4,0965	1,1377	21,98
49919	-30,636	-4,104	0,7549	21,432
49920	-30,595	-3,9246	1,4298	21,605
49921	-30,558	-4,5783	1,3194	22,156
49922	-26,695	-4,008	-11,218	8,6395
49923	-26,911	-4,0063	-11,873	7,5603
49924	-26,466	-3,515	-11,651	8,2065
49925	-26,467	-4,5046	-11,65	8,2689
49926	-31,567	-3,8782	-0,38816	20,671
49927	-31,104	-4,0323	0,13146	21,358
49928	-32,053	-4,018	7,2125e-002	20,73
49929	-31,525	-3,503	0,13017	20,931
49930	-31,564	-4,5067	0,11807	21,204
49931	-25,561	-4,0138	-10,174	10,502
49932	-25,316	-4,02	-9,5501	11,433
49933	-25,107	-3,5114	-9,9624	10,934
49934	-25,104	-4,5083	-9,9818	10,932
49935	-30,152	-4,0142	-0,97822	22,071
49936	-29,886	-4,1158	-1,1321	22,266
49937	-29,774	-4,0241	-0,45626	22,091
49938	-29,563	-4,0301	-1,544	22,216
49939	-29,686	-3,5173	-0,97501	22,302
49940	-29,871	-4,0828	-1,288	22,156
49941	-29,569	-4,0948	-1,3212	22,48
49942	-29,793	-4,5068	-0,78531	22,825
49943	-29,32	-4,0056	-0,97116	21,991
49944	-26,471	-4,009	-10,574	9,5701
49945	-26,244	-4,0159	-9,9232	10,626
49946	-26,019	-3,5172	-10,362	10,094
49947	-26,022	-4,5056	-10,361	10,135
49948	-25,999	-4,0221	-9,2995	11,55
49949	-25,748	-4,0334	-8,5734	12,795
49950	-25,533	-3,5164	-9,0957	11,998
49951	-25,533	-4,5118	-9,1073	11,978
49952	-27,158	-4,0073	-10,347	9,5758
49953	-27,374	-4,0048	-11,003	8,3755
49954	-26,928	-3,5043	-10,777	9,0481
49955	-26,927	-4,5035	-10,778	9,1119
49956	-31,053	-3,8788	-0,93191	21,227
49957	-30,619	-4,1341	-1,1651	21,571
49958	-30,268	-4,0557	-1,6754	21,236
49959	-30,59	-4,033	-0,41229	21,49
49960	-30,526	-3,5665	-0,99392	21,754
49961	-30,266	-4,0833	-1,2836	21,83
49962	-30,627	-4,5073	-0,75889	22,096
49963	-29,859	-4,2644	-1,425	22,339
49964	-30,353	-4,2358	-1,319	21,774
49965	-29,999	-4,1849	-1,4374	22,112
49966	-29,698	-4,1969	-1,4706	22,428
49967	-30,024	-4,609	-1,2339	22,583
49968	-31,521	-3,9154	-1,1859	20,725
49969	-32,045	-3,8701	-0,87699	20,646
49970	-31,574	-3,3845	-0,83872	20,741
49971	-31,565	-4,3715	-0,79524	21,102
49972	-30,119	-4,3239	-1,7943	21,844
49973	-29,536	-4,1788	-1,8369	22,588
49974	-29,844	-4,2314	-1,5809	22,335
49975	-29,543	-4,2434	-1,6142	22,668
49976	-29,655	-4,6554	-1,6318	23,014
49977	-29,294	-4,1542	-1,2641	21,776
49978	-26,931	-4,0141	-9,6959	10,612
49979	-26,72	-4,0258	-9,0464	11,77
49980	-26,474	-3,5126	-9,4686	11,167
49981	-26,474	-4,5103	-9,4702	11,193
49982	-31,087	-4,1707	-1,4192	21,087
49983	-30,613	-4,2953	-1,6883	21,252
49984	-30,709	-3,6831	-1,4267	21,232
49985	-30,338	-4,2028	-1,4749	21,729
49986	-30,667	-4,6268	-1,3237	21,847
49987	-27,63	-4,0087	-9,476	10,712
49988	-27,84	-4,0051	-10,133	9,4042
49989	-27,393	-3,5053	-9,9056	10,088
49990	-27,391	-4,5038	-9,9082	10,148
49991	-31,371	-4,066	-1,9103	20,549
49992	-31,924	-4,0569	-1,6157	20,582
49993	-31,508	-3,5981	-1,5319	20,63
49994	-31,473	-4,5438	-1,5238	21,034
49995	-30,896	-4,1906	-2,1794	20,902
49996	-30,262	-4,2168	-2,1985	21,475
49997	-30,566	-3,7491	-2,1014	21,078
49998	-30,259	-4,2445	-1,8067	21,635
49999	-30,471	-4,6685	-2,0728	21,59
50000	-28,104	-4,008	-8,6139	12,03
50001	-27,418	-4,0204	-8,8265	11,84
50002	-28,313	-4,0074	-9,2663	10,657
50003	-27,866	-3,5191	-9,0331	11,337
50004	-27,868	-4,5049	-9,0408	11,378
50005	-31,051	-3,9192	-2,6908	20,215
50006	-31,703	-4,0324	-2,484	20,352
50007	-31,383	-3,575	-2,3672	20,383
50008	-31,239	-4,5221	-2,37	20,744
50009	-28,578	-4,0101	-7,7512	13,495
50010	-27,914	-4,0223	-7,9856	13,193
50011	-28,783	-4,0036	-8,4069	12,124
50012	-28,326	-3,494	-8,1839	12,734
50013	-28,347	-4,5031	-8,1916	12,753
50014	-30,673	-3,8944	-3,4737	19,522
50015	-30,417	-3,9454	-2,7099	20,834
50016	-31,355	-3,8971	-3,2652	19,942
50017	-30,92	-3,4133	-3,0494	20,022
50018	-30,856	-4,397	-3,132	20,106
50019	-30,277	-4,0002	-4,3402	18,579
50020	-30,014	-4,004	-3,7404	19,86
50021	-30,999	-4,0003	-4,1284	19,094
50022	-30,532	-3,501	-3,9035	19,164
50023	-30,478	-4,4974	-3,9544	19,171
50024	-29,018	-4,0007	-6,8907	15,008
50025	-28,376	-4,0168	-7,1149	14,738
50026	-29,259	-4,0101	-7,5323	13,778
50027	-28,794	-3,4934	-7,3216	14,258
50028	-28,822	-4,507	-7,3203	14,275
50029	-29,434	-3,9937	-6,0238	16,406
50030	-28,744	-3,9892	-6,2376	16,327
50031	-29,689	-3,9958	-6,6744	15,432
50032	-29,177	-3,4732	-6,5751	15,581
50033	-29,234	-4,4938	-6,4539	15,764
50034	-29,85	-4,0027	-5,1787	17,568
50035	-29,179	-3,9698	-5,1858	17,996
50036	-30,125	-4,0006	-5,8069	16,899
50037	-29,66	-3,4873	-5,5933	17,092
50038	-29,643	-4,4999	-5,5869	17,04
50039	-29,548	-3,9757	-4,513	18,874
50040	-30,552	-4,0037	-4,98	18,019
50041	-30,083	-3,4971	-4,7425	18,16
50042	-30,04	-4,5028	-4,7783	18,118
50043	-20,079	-0,99864	-9,4815	11,567
50044	-19,736	-0,99386	-8,8464	11,946
50045	-19,606	-1,4851	-9,2901	11,61
50046	-19,59	-0,49621	-9,2888	11,649
50047	-21,068	-1,0021	-9,8933	11,381
50048	-20,812	-0,9995	-9,198	11,924
50049	-20,568	-1,5063	-9,7051	11,487
50050	-20,567	-0,50243	-9,6742	11,546
50051	-22,014	-0,99357	-10,362	11,017
50052	-21,822	-0,98976	-9,7155	11,604
50053	-21,596	-1,4905	-10,106	11,236
50054	-21,57	-0,49963	-10,112	11,275
50055	-22,911	-0,98686	-10,851	10,495
50056	-22,701	-0,97945	-10,213	11,131
50057	-22,469	-1,4886	-10,654	10,739
50058	-22,458	-0,49395	-10,612	10,813
50059	-23,597	-0,97971	-10,667	10,56
50060	-23,353	-1,4961	-11,126	10,167
50061	-23,36	-0,49291	-11,086	10,234
50062	-29,758	-4,0549	-2,9766	20,818
50063	-29,68	-4,0717	-2,2411	22,237
50064	-30,06	-3,6232	-2,4492	21,481
50065	-29,988	-4,1243	-1,9852	21,752
50066	-29,973	-4,5483	-2,6079	21,55
50067	-29,285	-3,9795	-3,9132	20,037
50068	-29,118	-4,003	-3,2993	22,061
50069	-29,566	-3,5015	-3,4879	20,568
50070	-29,502	-4,5065	-3,5702	20,609
50071	-27,909	-3,8572	-4,5856	21,949
50072	-28,49	-3,9654	-5,3996	17,882
50073	-28,878	-3,9429	-4,52	19,262
50074	-28,675	-3,3683	-4,9307	18,692
50075	-28,037	-3,1478	-4,5884	21,697
50076	-28,665	-4,47	-4,9392	18,639
50077	-26,794	-3,9936	-4,6284	24,374
50078	-27,299	-3,8378	-5,0124	21,694
50079	-26,213	-3,8128	-4,4568	26,231
50080	-26,829	-3,3792	-4,3104	27,008
50081	-27,552	-3,8262	-4,1537	24,254
50082	-27,191	-3,4538	-4,5093	23,957
50083	-26,769	-3,8542	-4,5097	25,084
50084	-27,235	-3,0651	-4,3841	24,771
50085	-27,232	-4,3872	-4,4669	23,681
50086	-26,761	-3,887	-4,0611	31,01
50087	-26,671	-4,1398	-5,2165	21,653
50088	-26,267	-4,1521	-5,0879	22,779
50089	-26,59	-3,7124	-4,9749	23,141
50090	-26,458	-4,0735	-4,7569	24,612
50091	-26,535	-4,6064	-4,925	22,936
50092	-25,981	-4,1065	-4,4234	30,118
50093	-27,88	-3,946	-5,8265	17,689
50094	-28,102	-4,0052	-6,4619	16,105
50095	-28,272	-3,4381	-6,1349	16,708
50096	-28,326	-4,4954	-5,9839	16,892
50097	-27,176	-3,9839	-5,6005	18,921
50098	-27,348	-3,9786	-6,0836	17,424
50099	-27,416	-3,4978	-5,5922	18,795
50100	-27,528	-4,4506	-5,6454	18,254
50101	-26,707	-4,0819	-5,8191	18,701
50102	-26,918	-3,6092	-5,592	19,306
50103	-26,872	-4,5334	-5,5487	19,334
50104	-20,887	-4,0425	-5,8894	15,013
50105	-21,131	-4,044	-6,5118	14,55
50106	-20,698	-3,5413	-6,3737	14,37
50107	-20,771	-4,5214	-6,3472	14,481
50108	-21,443	-4,0344	-5,6007	15,967
50109	-21,203	-4,0482	-4,9487	16,418
50110	-21,001	-3,5312	-5,4496	15,615
50111	-21,054	-4,5211	-5,4172	15,721
50112	-21,687	-4,036	-6,2231	15,445
50113	-21,917	-4,0419	-6,8382	14,728
50114	-21,502	-3,54	-6,6869	14,651
50115	-21,58	-4,5227	-6,6772	14,735
50116	-22,266	-4,0588	-5,9382	16,483
50117	-21,992	-4,0356	-5,3186	17,329
50118	-21,825	-3,5269	-5,7872	16,239
50119	-21,863	-4,5133	-5,7595	16,319
50120	-22,496	-4,0647	-6,5533	15,725
50121	-22,703	-4,0516	-7,172	14,723
50122	-22,291	-3,5625	-7,0117	14,778
50123	-22,326	-4,5192	-6,9943	14,81
50124	-23,086	-4,0617	-6,2811	16,702
50125	-22,844	-4,0556	-5,6746	18,09
50126	-22,672	-3,5674	-6,1186	16,706
50127	-22,687	-4,5455	-6,1024	16,704
50128	-23,294	-4,0486	-6,8998	15,682
50129	-23,527	-4,0488	-7,4978	14,528
50130	-23,064	-3,588	-7,3116	14,733
50131	-23,102	-4,5324	-7,3462	14,657
50132	-23,89	-4,0513	-6,6411	16,452
50133	-23,681	-4,032	-6,0193	18,258
50134	-23,495	-3,529	-6,4517	16,776
50135	-23,477	-4,5162	-6,469	16,632
50136	-24,123	-4,0515	-7,2392	15,3
50137	-24,403	-4,034	-7,7919	14,173
50138	-23,987	-3,5271	-7,6244	14,484
50139	-23,924	-4,5164	-7,6878	14,309
50140	-24,696	-4,0769	-6,9806	15,901
50141	-24,5	-4,0584	-6,3786	17,586
50142	-24,327	-3,5545	-6,7939	16,382
50143	-24,255	-4,5351	-6,8468	16,084
50144	-24,975	-4,0594	-7,5333	14,781
50145	-25,411	-4,0392	-7,9781	13,801
50146	-24,881	-3,5294	-7,9036	14,038
50147	-24,832	-4,5176	-7,9819	13,846
50148	-25,42	-4,0804	-7,2067	15,38
50149	-25,292	-4,0744	-6,7146	16,751
50150	-25,153	-3,5679	-7,0984	15,74
50151	-25,066	-4,5418	-7,1682	15,455
50152	-25,855	-4,0602	-7,6515	14,4
50153	-25,927	-4,0836	-7,0327	15,729
50154	-25,857	-3,6032	-7,2813	15,194
50155	-25,711	-4,5386	-7,3161	15,022
50156	-26,468	-4,0371	-8,3203	12,997
50157	-26,359	-4,0633	-7,6729	14,229
50158	-25,972	-3,5784	-8,031	13,635
50159	-25,97	-4,5216	-8,0833	13,515
50160	-27,228	-4,0347	-8,1983	13,043
50161	-26,969	-3,5026	-8,5954	12,397
50162	-26,96	-4,5155	-8,6091	12,397
50163	-23,387	-0,9723	-10,029	11,197
50164	-24,066	-0,96594	-9,817	11,369
50165	-23,815	-1,4862	-10,284	10,877
50166	-23,831	-0,48679	-10,245	10,941
50167	-22,509	-0,97563	-9,5663	11,718
50168	-23,18	-0,96258	-9,4131	11,91
50169	-22,982	-1,4435	-9,8542	11,439
50170	-22,94	-0,4855	-9,8048	11,509
50171	-23,859	-0,95622	-9,2008	12,084
50172	-24,503	-0,96052	-8,991	12,346
50173	-24,299	-1,4273	-9,3808	11,837
50174	-24,301	-0,47914	-9,3893	11,832
50175	-22,321	-0,9709	-8,9997	12,324
50176	-21,566	-0,98719	-9,0202	12,151
50177	-22,037	-1,4594	-9,3064	11,972
50178	-22,046	-0,49013	-9,3129	11,994
50179	-22,992	-0,95784	-8,8465	12,516
50180	-23,642	-0,9425	-8,6172	12,893
50181	-23,409	-1,418	-8,9977	12,363
50182	-23,419	-0,47707	-9,0121	12,358
50183	-22,814	-0,9487	-8,307	13,202
50184	-22,281	-0,96725	-8,3408	12,994
50185	-22,543	-1,3989	-8,6619	12,701
50186	-22,568	-0,48077	-8,6808	12,698
50187	-20,47	-0,99471	-8,5629	12,319
50188	-20,028	-0,99045	-7,9613	12,665
50189	-19,898	-1,4963	-8,3438	12,33
50190	-19,883	-0,49765	-8,4041	12,323
50191	-21,043	-0,99233	-8,2033	12,803
50192	-21,525	-0,98355	-8,3613	12,833
50193	-21,098	-1,5173	-8,6979	12,374
50194	-21,033	-0,49706	-8,745	12,352
50195	-24,287	-0,94681	-8,4075	13,154
50196	-24,891	-0,96846	-8,1817	13,562
50197	-24,686	-1,4728	-8,6213	12,848
50198	-24,717	-0,48138	-8,5735	12,892
50199	-20,601	-0,98806	-7,6017	13,18
50200	-20,35	-0,98988	-7,0053	13,573
50201	-20,218	-1,4999	-7,4519	13,127
50202	-20,173	-0,4928	-7,5185	13,095
50203	-23,464	-0,93336	-8,0777	13,583
50204	-24,027	-0,93042	-7,8157	14,167
50205	-23,866	-1,3949	-8,1919	13,517
50206	-23,869	-0,46543	-8,2222	13,435
50207	-21,511	-0,98175	-7,8429	13,308
50208	-21,22	-0,99029	-7,2325	13,862
50209	-21,112	-1,5381	-7,6494	13,366
50210	-21,029	-0,49526	-7,6849	13,322
50211	-22,527	-0,95442	-7,967	13,529
50212	-23,145	-0,94709	-7,5744	14,341
50213	-23,055	-1,4027	-7,9461	13,722
50214	-23,06	-0,46793	-7,9332	13,73
50215	-22,153	-0,97243	-7,5008	14,037
50216	-21,964	-1,4842	-7,9675	13,351
50217	-21,993	-0,48648	-8,0009	13,342
50218	-27,712	-4,029	-7,3494	14,482
50219	-27,119	-4,0609	-7,5509	14,244
50220	-27,455	-3,5429	-7,7601	13,757
50221	-27,488	-4,5193	-7,7844	13,692
50222	-27,57	-4,0378	-6,7189	15,827
50223	-27,825	-3,5282	-6,8637	15,405
50224	-27,973	-4,5098	-6,9112	15,215
50225	-24,631	-0,95207	-7,59	14,569
50226	-25,24	-0,96441	-7,3355	15,19
50227	-25,049	-1,4823	-7,7904	14,244
50228	-25,091	-0,48708	-7,7602	14,228
50229	-20,97	-0,9921	-6,6361	14,298
50230	-20,694	-0,98402	-6,0306	14,693
50231	-20,554	-1,5027	-6,4787	14,16
50232	-20,517	-0,49708	-6,5163	14,135
50233	-23,707	-0,94415	-7,3124	14,929
50234	-24,334	-0,9569	-7,0183	15,853
50235	-24,146	-1,4555	-7,4603	14,828
50236	-24,185	-0,46499	-7,4093	14,867
50237	-21,863	-0,98097	-6,8904	14,627
50238	-21,567	-0,97604	-6,3535	15,142
50239	-21,425	-1,5004	-6,7611	14,505
50240	-21,397	-0,49503	-6,8096	14,442
50241	-22,772	-0,96511	-7,1082	14,875
50242	-23,387	-0,96992	-6,7977	15,951
50243	-23,237	-1,453	-7,2484	14,943
50244	-23,222	-0,47916	-7,203	14,966
50245	-22,451	-0,96055	-6,58	15,622
50246	-22,303	-1,5155	-6,9822	14,831
50247	-22,296	-0,48595	-7,0482	14,712
50248	-26,977	-4,0697	-6,9205	15,609
50249	-26,431	-4,0867	-7,0541	15,541
50250	-26,783	-3,6595	-7,2712	14,949
50251	-26,75	-4,5417	-7,3175	14,751
50252	-26,88	-4,0765	-6,3022	17,202
50253	-27,154	-3,6375	-6,5819	16,334
50254	-27,223	-4,528	-6,5268	16,306
50255	-21,291	-0,96796	-5,748	15,586
50256	-21,032	-0,98565	-5,0781	16,029
50257	-20,888	-1,4939	-5,5437	15,385
50258	-20,86	-0,48694	-5,5692	15,336
50259	-22,155	-0,95562	-6,0431	16,176
50260	-21,894	-0,96123	-5,4343	16,932
50261	-21,743	-1,4779	-5,8796	15,986
50262	-21,722	-0,48102	-5,9269	15,878
50263	-24,943	-0,96925	-6,7638	16,456
50264	-25,68	-1,0431	-6,406	17,655
50265	-25,394	-1,4232	-6,9015	16,185
50266	-25,403	-0,47733	-6,9002	16,03
50267	-23,066	-0,96536	-6,2696	16,716
50268	-22,777	-0,96823	-5,7102	17,894
50269	-22,608	-1,4703	-6,1463	16,582
50270	-22,588	-0,4746	-6,1594	16,473
50271	-24,014	-0,98268	-6,5036	16,869
50272	-24,66	-0,98568	-6,1855	18,41
50273	-24,469	-1,4941	-6,6513	16,798
50274	-24,47	-0,49192	-6,6112	16,776
50275	-23,717	-0,98556	-5,952	18,536
50276	-23,541	-1,4921	-6,3918	16,98
50277	-23,498	-0,49076	-6,3721	16,888
50278	-26,333	-4,0935	-6,4358	17,149
50279	-25,799	-4,0775	-6,5406	17,082
50280	-26,209	-3,6512	-6,7701	16,336
50281	-26,106	-4,545	-6,7933	16,163
50282	-26,303	-4,0942	-5,6906	19,845
50283	-26,662	-3,6532	-6,1999	17,651
50284	-26,511	-4,5485	-6,0766	17,877
50285	-25,397	-1,0595	-5,8277	19,544
50286	-26,11	-1,0744	-5,4119	21,807
50287	-25,903	-1,5651	-5,9797	18,944
50288	-25,813	-0,56578	-5,9667	18,821
50289	-24,363	-0,98856	-5,634	20,033
50290	-25,008	-0,98917	-5,2896	22,862
50291	-24,842	-1,4902	-5,7607	20,06
50292	-24,803	-0,49377	-5,7391	19,851
50293	-23,428	-0,98842	-5,3926	19,713
50294	-24,059	-0,99257	-5,108	22,837
50295	-23,903	-1,4535	-5,561	20,076
50296	-23,883	-0,4948	-5,5098	20,067
50297	-21,635	-0,97893	-4,7644	17,484
50298	-21,423	-1,0813	-3,9629	17,781
50299	-21,212	-1,5033	-4,5651	16,925
50300	-21,209	-0,49871	-4,5976	16,845
50301	-22,516	-0,97384	-5,1014	18,724
50302	-23,128	-0,98653	-4,8566	21,512
50303	-22,971	-1,4916	-5,2632	19,443
50304	-22,958	-0,49363	-5,2525	19,322
50305	-22,244	-0,98205	-4,4916	19,751
50306	-22,036	-1,453	-4,9581	18,078
50307	-22,066	-0,48022	-4,9418	18,108
50308	-25,769	-4,0782	-5,7954	19,78
50309	-25,097	-4,0558	-6,1126	18,406
50310	-25,53	-3,6163	-6,2859	17,985
50311	-25,419	-4,5326	-6,3003	17,729
50312	-25,686	-3,9713	-4,9163	25,165
50313	-26,094	-3,6411	-5,4681	20,855
50314	-26,242	-4,0127	-4,9693	23,465
50315	-25,966	-4,5457	-5,4129	21,141
50316	-21,752	-4,0493	-4,6666	17,887
50317	-21,452	-4,0026	-3,9705	17,867
50318	-21,302	-3,5409	-4,4894	17,215
50319	-21,363	-4,5271	-4,47	17,29
50320	-22,571	-4,0324	-5,0551	18,986
50321	-22,251	-4,0352	-4,4265	19,849
50322	-22,119	-3,5317	-4,8742	18,467
50323	-22,159	-4,5223	-4,8523	18,544
50324	-23,439	-4,0259	-5,4129	19,636
50325	-23,157	-4,0183	-4,8397	21,704
50326	-22,994	-3,5183	-5,2545	19,553
50327	-23,009	-4,5101	-5,2379	19,51
50328	-24,292	-4,0391	-5,7568	19,359
50329	-24,047	-4,0237	-5,1383	22,632
50330	-23,888	-3,534	-5,5761	19,932
50331	-23,855	-4,5158	-5,5886	19,679
50332	-25,014	-3,9489	-5,2335	23,87
50333	-24,739	-3,5536	-5,9168	19,182
50334	-24,671	-4,5233	-5,9455	18,874
50335	-21,452	-3,4719	-3,3139	18,537
50336	-21,951	-3,9885	-3,7303	20,022
50337	-21,282	-4,2273	-3,064	17,823
50338	-20,95	-3,929	-2,7693	17,035
50339	-21,582	-4,4755	-3,4809	18,957
50340	-21,772	-3,9767	-3,0607	20,2
50341	-21,418	-2,5097	-3,2509	18,468
50342	-21,882	-3,004	-3,5998	19,79
50343	-21,302	-3,0103	-3,8328	17,441
50344	-21,03	-3,0085	-3,1237	17,433
50345	-20,977	-2,4959	-3,0235	17,247
50346	-20,888	-2,9959	-2,649	16,956
50347	-21,684	-2,998	-2,9045	20,02
50348	-22,381	-3,5205	-4,0163	21,547
50349	-22,837	-4,0211	-4,2112	22,585
50350	-22,408	-4,513	-3,9655	21,679
50351	-22,543	-4,0139	-3,6401	23,653
50352	-21,556	-1,5959	-3,3419	18,943
50353	-21,933	-2,0112	-3,7	19,9
50354	-21,345	-2,0179	-3,9441	17,551
50355	-21,05	-2,0261	-3,2909	17,487
50356	-21,032	-2,0128	-3,1177	17,372
50357	-20,867	-2,0079	-2,736	16,968
50358	-21,74	-2,0151	-2,9994	20,171
50359	-22,398	-2,5054	-4,0489	21,57
50360	-22,853	-3,0168	-4,2383	22,701
50361	-22,249	-3,017	-4,464	19,896
50362	-22,565	-3,0088	-3,6673	23,807
50363	-23,308	-3,5174	-4,4332	24,032
50364	-23,765	-4,016	-4,5651	24,622
50365	-23,321	-4,5082	-4,4199	24,044
50366	-23,446	-4,0088	-4,0859	27,12
50367	-22,031	-1,0845	-3,6901	20,302
50368	-21,116	-1,5821	-3,1146	17,699
50369	-21,315	-0,8317	-3,0143	18,056
50370	-21,598	-0,58262	-3,4724	19,009
50371	-21,825	-1,0848	-2,9971	20,561
50372	-22,408	-1,4997	-4,0482	21,569
50373	-22,846	-2,0005	-4,2578	22,562
50374	-22,2	-1,9707	-4,5147	19,62
50375	-22,562	-1,9995	-3,674	23,717
50376	-23,301	-2,5119	-4,4472	23,967
50377	-23,807	-3,1835	-4,5255	25,146
50378	-23,146	-3,0175	-4,848	21,721
50379	-23,443	-3,0102	-4,0869	27,162
50380	-24,264	-3,6821	-4,6574	26,036
50381	-24,769	-3,9335	-4,6151	26,958
50382	-24,24	-4,5079	-4,7228	25,117
50383	-24,367	-4,0082	-4,3341	29,736
50384	-22,856	-0,99474	-4,2468	22,586
50385	-22,398	-0,50184	-4,0189	21,477
50386	-22,576	-1,0038	-3,6677	23,752
50387	-23,295	-1,4955	-4,4564	23,84
50388	-23,764	-2,0099	-4,5947	24,502
50389	-23,137	-2,0005	-4,863	21,62
50390	-23,441	-2,0039	-4,1006	27,071
50391	-24,27	-2,6816	-4,673	25,995
50392	-24,863	-3,2772	-4,5068	28,156
50393	-24,105	-3,1925	-5,0952	23,221
50394	-24,414	-3,175	-4,294	30,315
50395	-23,759	-0,99068	-4,572	24,539
50396	-23,303	-0,49291	-4,423	23,9
50397	-23,438	-0,99457	-4,0968	27,001
50398	-24,229	-1,5051	-4,7103	25,518
50399	-24,73	-2,0004	-4,7487	25,822
50400	-24,073	-1,966	-5,1633	22,67
50401	-24,375	-2,0084	-4,3499	29,723
50402	-24,704	-0,99318	-4,7636	25,485
50403	-24,256	-0,49777	-4,666	25,671
50404	-24,374	-0,99916	-4,3315	29,811
50405	-25,205	-1,4884	-4,802	26,157
50406	-25,721	-1,004	-4,8738	24,949
50407	-25,198	-0,4954	-4,8333	25,351
50408	-25,333	-0,99652	-4,4029	31,227
50409	-25,323	-2,596	-4,5826	28,48
50410	-25,84	-1,9856	-4,7653	25,604
50411	-25,039	-1,9895	-5,2732	23,314
50412	-25,7	-2,2787	-5,1743	23,402
50413	-25,357	-1,9938	-4,3696	31,61
50414	-25,368	-3,5285	-4,4645	29,629
50415	-25,984	-3,0949	-4,318	29,287
50416	-25,093	-3,1333	-5,1477	24,825
50417	-25,776	-3,1983	-5,0162	25,094
50418	-25,793	-2,8885	-4,9883	25,32
50419	-25,924	-3,57	-4,5174	27,614
50420	-25,449	-3,1034	-4,1837	33,752
50421	-25,876	-3,8926	-4,5853	26,809
50422	-25,172	-4,4256	-4,7742	26,096
50423	-25,4	-3,9257	-4,2518	32,796
50424	-21,932	-3,9644	3,8712	19,752
50425	-21,372	-3,4625	3,5815	18,125
50426	-21,028	-4,0952	3,2903	17,227
50427	-21,323	-3,9659	4,1313	17,407
50428	-21,034	-3,9721	3,4436	17,363
50429	-20,882	-3,9376	2,8243	16,772
50430	-21,504	-4,4654	3,6322	18,527
50431	-21,735	-3,9672	3,1572	19,907
50432	-22,848	-3,9995	4,2865	22,337
50433	-22,395	-3,4986	4,0706	21,345
50434	-22,22	-4,0055	4,5342	19,501
50435	-22,39	-4,499	4,0527	21,28
50436	-22,567	-4,0004	3,6884	23,603
50437	-23,801	-4,0033	4,6691	23,883
50438	-23,297	-3,5001	4,4867	23,693
50439	-23,12	-4,0021	4,924	21,229
50440	-23,295	-4,5006	4,4844	23,551
50441	-23,439	-4,0021	4,1157	26,901
50442	-24,081	-4,0053	5,2868	21,868
50443	-24,273	-3,5059	4,818	24,798
50444	-24,83	-3,9682	4,9409	24,381
50445	-24,284	-4,5027	4,8258	24,363
50446	-24,415	-4,004	4,4097	29,266
50447	-23,864	-3,4993	5,7149	19,355
50448	-23,399	-4,004	5,5418	19,068
50449	-23,642	-4,0145	6,1862	17,675
50450	-24,293	-4,004	5,9161	18,806
50451	-23,84	-4,5025	5,7263	19,11
50452	-26,357	-1,5012	-4,8371	24,79
50453	-27,134	-1,0166	-4,4843	23,296
50454	-26,482	-0,99601	-4,9052	23,745
50455	-26,713	-1,2313	-4,7702	23,785
50456	-26,642	-0,99772	-4,455	26,339
50457	-26,104	-0,50864	-4,9849	23,501
50458	-26,342	-1,0095	-4,3254	29,941
50459	-27,529	-3,9626	3,9836	25,188
50460	-27,049	-3,522	4,4384	25,268
50461	-26,774	-4,2519	4,4643	25,682
50462	-26,189	-3,921	4,6785	24,837
50463	-27,134	-4,4555	4,3146	25,187
50464	-26,725	-3,9557	4,0309	31,598
50465	-28,356	-4,0169	3,2671	24,105
50466	-28,113	-3,4998	3,8835	23,501
50467	-27,952	-4,5071	3,6325	25,02
50468	-27,653	-4,007	3,467	29,625
50469	-28,948	-4,0199	2,4684	23,286
50470	-28,701	-3,5156	2,9272	23,783
50471	-28,617	-4,5098	2,8911	24,297
50472	-28,339	-4,0094	2,77	26,963
50473	-26,502	-2,4845	-4,5007	27,072
50474	-27,205	-1,9891	-4,4646	23,758
50475	-26,15	-1,9918	-5,4049	21,858
50476	-26,311	-2,2781	-5,171	22,78
50477	-26,592	-2,2742	-5,0534	22,944
50478	-26,794	-2,014	-4,9268	23,115
50479	-26,807	-1,7152	-4,695	24,227
50480	-26,907	-2,1704	-4,5744	24,67
50481	-26,919	-1,8051	-4,6686	24,121
50482	-26,516	-2,2563	-4,9647	23,709
50483	-26,436	-1,993	-4,2507	30,854
50484	-29,408	-4,0282	1,4807	22,418
50485	-29,222	-3,5238	2,0773	22,997
50486	-29,165	-4,5101	2,0565	23,527
50487	-28,878	-4,0094	1,9511	24,032
50488	-27,241	-2,9825	-3,9514	26,679
50489	-26,625	-3,098	-4,6569	25,67
50490	-26,362	-2,7776	-4,9098	24,623
50491	-26,492	-3,459	-4,4389	27,149
50492	-26,958	-2,6699	-4,3132	26,695
50493	-26,485	-2,9922	-3,9898	33,12
50494	-29,696	-4,0354	0,49248	22,243
50495	-29,595	-3,5451	1,0396	22,364
50496	-29,563	-4,5181	1,0122	23,046
50497	-29,243	-4,0171	0,93425	21,822
50498	-28,521	-3,9119	-4,0882	21,705
50499	-29,113	-3,4517	-4,1136	19,796
50500	-28,204	-3,1508	-4,3185	21,952
50501	-29,021	-4,4729	-4,2808	19,624
50502	-30,212	-4,0429	0,10967	22,1
50503	-29,766	-3,5244	8,5165e-002	22,235
50504	-29,746	-4,5172	8,9327e-002	22,984
50505	-29,395	-4,016	3,3508e-002	21,109
50506	-28,354	-3,9355	-3,4743	23,375
50507	-27,963	-3,4295	-3,7947	24,609
50508	-27,68	-3,1169	-4,1565	24,035
50509	-27,967	-4,439	-3,862	23,819
50510	-27,634	-3,9385	-3,6098	28,897
50511	-30,731	-3,6616	0,23696	21,85
50512	-30,622	-4,5257	0,22157	22,283
50513	-29,04	-4,0198	-2,5639	22,901
50514	-28,727	-3,4906	-3,0009	23,516
50515	-28,639	-4,4965	-3,0418	23,858
50516	-28,351	-3,9958	-2,8384	26,715
50517	-29,315	-3,528	-2,0635	22,825
50518	-29,677	-4,0993	-1,8493	22,362
50519	-29,375	-4,1113	-1,8825	22,709
50520	-29,266	-4,5233	-2,1968	23,265
50521	-28,955	-4,0223	-1,9832	23,736
50522	-21,835	-2,9966	3,7809	19,55
50523	-21,357	-2,4923	3,4454	18,189
50524	-21,235	-2,9942	4,0393	17,219
50525	-20,908	-3,0084	3,3507	17,068
50526	-20,938	-3,6267	3,2123	17,019
50527	-20,835	-2,9894	2,8475	16,765
50528	-21,645	-2,9989	3,0785	19,679
50529	-22,844	-2,9991	4,2709	22,432
50530	-22,391	-2,4943	4,0517	21,46
50531	-22,225	-2,9987	4,5054	19,639
50532	-22,558	-3,0013	3,6755	23,697
50533	-23,768	-3,0027	4,6356	24,23
50534	-23,305	-2,494	4,4863	23,776
50535	-23,137	-2,9959	4,9198	21,374
50536	-23,442	-3,001	4,112	27,008
50537	-24,869	-3,1271	4,905	24,612
50538	-24,245	-2,5112	4,7754	25,149
50539	-24,056	-3,	5,246	22,214
50540	-24,378	-3,0044	4,3794	29,534
50541	-26,287	-3,1904	4,7879	24,078
50542	-25,475	-2,7594	4,9526	25,327
50543	-25,138	-3,1338	5,5448	21,706
50544	-25,781	-3,1492	5,1749	23,21
50545	-25,939	-2,8959	5,0154	23,926
50546	-25,427	-3,5894	5,028	24,614
50547	-25,493	-3,1248	4,4965	30,344
50548	-27,633	-3,0593	4,3383	23,099
50549	-26,996	-2,5269	4,2912	26,623
50550	-26,945	-2,5063	4,7502	23,315
50551	-27,584	-3,1001	4,6424	22,361
50552	-26,723	-2,8386	4,781	23,694
50553	-28,336	-2,7454	4,6243	20,84
50554	-26,775	-3,0768	4,8857	22,978
50555	-26,745	-3,067	4,1466	30,329
50556	-28,458	-2,9985	3,5436	22,5
50557	-28,066	-2,4186	4,0262	23,12
50558	-28,658	-2,9566	4,2161	21,005
50559	-28,898	-2,6716	4,4091	20,116
50560	-27,734	-2,9928	3,7071	27,739
50561	-28,337	-2,9847	-3,3213	24,185
50562	-27,944	-2,4872	-3,9153	24,201
50563	-28,555	-2,9693	-3,8202	22,712
50564	-27,646	-2,6684	-4,0251	24,772
50565	-27,6	-2,9904	-3,4777	29,95
50566	-28,975	-3,0195	2,536	22,913
50567	-28,714	-2,5042	3,003	23,534
50568	-29,261	-3,1066	3,1465	21,968
50569	-28,358	-3,0055	2,8078	26,6
50570	-29,002	-2,9989	-2,5005	22,782
50571	-28,759	-2,4933	-2,9671	23,487
50572	-29,175	-2,9891	-3,1895	21,946
50573	-28,369	-2,9938	-2,816	26,514
50574	-29,409	-3,0407	1,6361	22,28
50575	-29,217	-2,5196	2,1546	22,874
50576	-29,665	-3,1902	2,2816	21,983
50577	-28,886	-3,0132	1,9829	23,74
50578	-29,438	-3,0151	-1,4945	22,166
50579	-29,271	-2,4987	-2,0044	22,788
50580	-29,695	-3,0796	-2,2716	21,952
50581	-28,901	-3,0041	-1,9404	23,724
50582	-29,666	-3,0341	0,63223	21,843
50583	-29,584	-2,5396	1,199	22,325
50584	-30,07	-3,3732	1,3317	21,797
50585	-29,237	-3,0262	1,0603	21,48
50586	-29,678	-3,0176	-0,43358	21,807
50587	-29,62	-2,5146	-0,94203	22,146
50588	-30,06	-3,0696	-0,99071	21,904
50589	-29,249	-3,0096	-0,96258	21,463
50590	-29,757	-2,5114	0,12504	22,057
50591	-30,285	-3,1431	0,21246	21,855
50592	-29,371	-3,0062	4,9736e-002	20,666
50593	-5,5843	-1,7558	43,869	23,306
50594	-5,7007	-1,7415	44,532	22,777
50595	-5,3359	-1,987	44,607	25,024
50596	-5,2625	-1,8052	44,818	25,403
50597	-29,027	-1,9931	-2,4711	22,778
50598	-28,791	-1,5008	-2,9575	23,556
50599	-28,367	-1,9958	-3,5611	22,764
50600	-29,225	-2,0086	-3,1876	22,004
50601	-28,385	-1,9992	-2,803	26,605
50602	-29,453	-1,9981	-1,452	22,065
50603	-29,29	-1,4916	-1,9742	22,834
50604	-29,786	-1,9437	-2,1034	21,976
50605	-28,912	-1,9936	-1,9223	23,692
50606	-29,698	-2,0085	-0,38341	21,787
50607	-29,629	-1,5002	-0,90273	22,286
50608	-30,078	-1,9914	-0,90478	21,87
50609	-29,255	-2,0037	-0,93619	21,439
50610	-29,675	-2,017	0,69178	21,873
50611	-29,735	-1,499	0,1863	22,223
50612	-30,241	-1,939	0,3133	21,862
50613	-29,386	-2,0037	7,5619e-002	20,684
50614	-29,391	-2,0186	1,7175	22,338
50615	-29,56	-1,5059	1,2544	22,547
50616	-29,989	-1,9634	1,4547	21,801
50617	-29,231	-2,0121	1,096	21,516
50618	-28,955	-2,0044	2,6217	22,915
50619	-29,19	-1,5035	2,2292	23,064
50620	-29,571	-1,9629	2,3817	22,117
50621	-28,873	-2,0055	2,0305	23,755
50622	-28,322	-1,9244	3,4856	23,368
50623	-28,679	-1,4877	3,0582	23,678
50624	-29,157	-1,9048	3,2616	21,977
50625	-28,35	-1,9984	2,8476	26,496
50626	-27,429	-1,8862	3,9791	26,364
50627	-27,856	-1,361	3,9215	24,314
50628	-27,804	-1,8231	4,524	21,925
50629	-28,508	-1,9341	4,1054	21,801
50630	-28,769	-2,1047	4,3122	20,94
50631	-27,604	-1,9261	3,6108	28,925
50632	-26,184	-2,0959	4,4559	26,816
50633	-26,872	-1,4296	4,0999	28,9
50634	-26,871	-1,9001	4,4878	25,671
50635	-26,649	-2,2324	4,5187	26,007
50636	-28,262	-2,1392	4,3619	23,288
50637	-26,67	-1,961	3,8846	33,316
50638	-24,85	-2,1435	4,8229	25,349
50639	-25,447	-1,6317	4,9002	25,606
50640	-25,124	-2,1245	5,4605	22,349
50641	-25,883	-2,1319	5,1874	23,229
50642	-25,911	-2,4076	4,9457	24,506
50643	-25,464	-2,1364	4,4269	31,039
50644	-23,781	-2,0025	4,6261	24,352
50645	-24,301	-1,5026	4,7539	25,387
50646	-24,073	-1,996	5,2158	22,39
50647	-24,385	-2,0092	4,3668	29,662
50648	-22,852	-1,9892	4,2671	22,51
50649	-23,32	-1,4904	4,4662	23,938
50650	-23,153	-1,9844	4,9055	21,479
50651	-23,445	-1,996	4,1145	27,002
50652	-21,913	-1,99	3,7162	19,878
50653	-22,377	-1,4861	4,0193	21,479
50654	-22,247	-1,9864	4,4808	19,794
50655	-22,561	-1,9964	3,6683	23,766
50656	-21,49	-1,5206	3,4354	18,652
50657	-21,34	-1,9868	3,9564	17,553
50658	-21,065	-1,9834	3,2478	17,496
50659	-20,921	-1,9923	2,7612	17,019
50660	-21,718	-1,9973	3,0196	20,088
50661	-28,407	-1,0095	-3,5083	22,933
50662	-27,354	-0,99533	-4,4774	22,846
50663	-27,983	-1,5046	-4,1119	23,195
50664	-27,584	-1,2306	-4,3423	23,209
50665	-27,514	-0,99703	-4,0271	26,145
50666	-28,131	-0,50795	-4,055	22,316
50667	-27,641	-1,0085	-3,673	28,705
50668	-29,054	-0,99918	-2,4606	22,841
50669	-28,816	-0,50159	-2,993	23,455
50670	-28,403	-1,0019	-2,8049	26,625
50671	-29,466	-0,99364	-1,425	22,339
50672	-29,301	-0,4976	-1,9762	23,325
50673	-28,922	-0,99763	-1,9085	23,962
50674	-29,665	-0,99072	-0,33302	22,069
50675	-29,619	-0,49604	-0,88504	23,04
50676	-29,259	-0,9958	-0,92114	21,827
50677	-21,954	-1,0167	3,7386	20,04
50678	-21,286	-0,77965	3,0839	17,873
50679	-21,161	-1,0363	3,4451	17,717
50680	-21,587	-0,52528	3,4902	18,983
50681	-21,777	-1,0274	3,0672	20,256
50682	-29,62	-0,98791	0,74893	22,232
50683	-29,686	-0,49467	0,23214	23,014
50684	-29,349	-0,99416	0,11291	21,07
50685	-22,845	-0,98731	4,2183	22,599
50686	-22,406	-0,4914	3,9703	21,647
50687	-22,542	-0,99325	3,6418	23,67
50688	-29,358	-0,99086	1,7661	22,64
50689	-29,514	-0,49324	1,2692	23,245
50690	-29,212	-0,99273	1,1174	21,929
50691	-23,84	-0,99052	4,594	24,593
50692	-23,337	-0,49591	4,4205	24,109
50693	-23,456	-0,99747	4,0912	27,153
50694	-28,913	-0,98686	2,6658	23,268
50695	-29,146	-0,49762	2,2335	23,574
50696	-28,858	-0,99742	2,059	24,058
50697	-24,898	-0,99078	4,8312	25,191
50698	-24,337	-0,49461	4,6976	25,637
50699	-24,432	-0,99587	4,3577	29,804
50700	-28,213	-0,92435	3,494	23,902
50701	-28,613	-0,48924	3,0819	24,038
50702	-28,321	-0,98933	2,8646	26,825
50703	-26,135	-0,96538	4,5443	26,509
50704	-25,436	-0,49617	4,8822	25,12
50705	-25,463	-0,99714	4,4443	30,7
50706	-27,299	-0,90432	4,0423	26,537
50707	-27,727	-0,43511	3,9677	24,35
50708	-27,523	-0,93549	3,6036	29,514
50709	-26,675	-0,46921	4,2347	28,234
50710	-26,62	-0,96989	3,956	33,068
50711	-5,3173	-0,98955	51,139	13,534
50712	-5,9891	-1,0003	50,608	12,479
50713	-5,6944	-1,5011	50,887	12,936
50714	-5,6626	-0,50105	50,904	13,217
50715	-6,0129	-1,001	51,264	12,111
50716	-4,569	-0,9829	51,596	14,651
50717	-4,9742	-1,4858	51,355	14,051
50718	-4,9349	-0,48851	51,388	14,383
50719	-5,2561	-0,98847	51,804	13,604
50720	-6,5932	-0,99338	50,006	11,579
50721	-6,3144	-1,5248	50,34	11,926
50722	-6,3084	-0,49928	50,349	12,118
50723	-6,6833	-0,9993	50,653	10,792
50724	-3,7801	-0,99445	51,983	15,687
50725	-4,2128	-1,4944	51,832	15,177
50726	-4,1763	-0,49439	51,804	15,49
50727	-4,4522	-0,99436	52,264	15,123
50728	-7,1393	-0,98802	49,318	10,915
50729	-6,9224	-1,4945	49,662	11,087
50730	-6,8729	-0,49411	49,692	11,334
50731	-7,3083	-0,99412	49,97	9,7002
50732	-2,9591	-1,0102	52,319	16,572
50733	-3,3919	-1,4972	52,163	16,153
50734	-3,3745	-0,50006	52,165	16,47
50735	-3,6056	-1,	52,652	16,53
50736	-7,6621	-0,98937	48,554	10,42
50737	-7,4341	-1,4951	48,941	10,565
50738	-7,3612	-0,49392	48,963	10,795
50739	-7,8498	-0,99392	49,21	9,004
50740	-2,137	-0,98561	52,592	17,329
50741	-2,5559	-1,5093	52,477	17,016
50742	-2,5444	-0,51012	52,477	17,288
50743	-2,7285	-1,0101	52,975	17,77
50744	-1,2879	-0,9632	52,802	17,912
50745	-1,7248	-1,4786	52,721	17,702
50746	-1,7162	-0,47548	52,7	17,946
50747	-1,8485	-0,97542	53,21	18,744
50748	-0,41222	-0,96671	52,909	18,234
50749	-0,8889	-1,3589	52,88	18,178
50750	-0,82014	-0,48772	52,852	18,385
50751	-0,92113	-0,98766	53,376	19,432
50752	0,45154	-0,968	52,879	18,16
50753	7,0872e-003	-1,4789	52,921	18,295
50754	5,8902e-002	-0,47899	52,867	18,453
50755	-2,7591e-004	-0,97893	53,416	19,615
50756	1,3261	-0,98074	52,739	17,767
50757	0,86476	-1,4797	52,85	18,114
50758	0,90798	-0,48901	52,789	18,244
50759	0,92003	-0,98896	53,348	19,358
50760	2,1964	-0,98691	52,519	17,185
50761	1,758	-1,4917	52,695	17,631
50762	1,7711	-0,49173	52,613	17,776
50763	1,8473	-0,99168	53,182	18,68
50764	3,0531	-0,99131	52,242	16,433
50765	2,6094	-1,4892	52,418	16,918
50766	2,6223	-0,49518	52,361	17,146
50767	2,7495	-0,99514	52,94	17,701
50768	-8,172	-0,99179	47,724	10,149
50769	-7,9383	-1,4954	48,157	10,185
50770	-7,9335	-0,49546	48,158	10,189
50771	-8,3699	-0,99546	48,403	8,7582
50772	-8,6403	-0,99296	46,856	10,221
50773	-8,4046	-1,4963	47,294	10,145
50774	-8,4108	-0,49634	47,29	10,072
50775	-8,8435	-0,99634	47,53	8,8988
50776	-9,1128	-0,99318	45,983	10,455
50777	-8,8721	-1,4966	46,418	10,358
50778	-8,8713	-0,49663	46,422	10,293
50779	-9,3115	-0,99663	46,655	9,0959
50780	-9,5934	-0,99311	45,106	10,718
50781	-9,353	-1,4913	45,548	10,6
50782	-9,3559	-0,49655	45,549	10,555
50783	-9,7892	-0,99655	45,779	9,4222
50784	-10,068	-0,99327	44,225	10,978
50785	-9,826	-1,4966	44,662	10,884
50786	-9,8363	-0,49656	44,668	10,843
50787	-10,265	-0,99656	44,9	9,8442
50788	-10,537	-0,99395	43,345	11,177
50789	-10,297	-1,4967	43,782	11,114
50790	-10,306	-0,49671	43,786	11,089
50791	-10,737	-0,99671	44,02	10,265
50792	-11,002	-0,99525	42,465	11,287
50793	-10,768	-1,4972	42,903	11,263
50794	-10,772	-0,49724	42,906	11,244
50795	-11,207	-0,99724	43,141	10,6
50796	-11,469	-0,99677	41,586	11,298
50797	-11,235	-1,498	42,024	11,32
50798	-11,231	-0,49801	42,026	11,306
50799	-11,674	-0,99801	42,262	10,814
50800	-11,942	-0,99807	40,708	11,214
50801	-11,708	-1,4988	41,146	11,278
50802	-11,704	-0,49876	41,148	11,26
50803	-12,147	-0,99876	41,384	10,893
50804	-12,415	-0,99895	39,83	11,054
50805	-12,181	-1,4993	40,268	11,154
50806	-12,177	-0,49931	40,27	11,135
50807	-12,62	-0,99931	40,506	10,853
50808	-12,889	-0,99935	38,951	10,832
50809	-12,654	-1,4996	39,39	10,96
50810	-12,65	-0,49964	39,392	10,942
50811	-13,093	-0,99964	39,628	10,715
50812	-13,363	-0,99968	38,072	10,562
50813	-13,128	-1,4997	38,511	10,71
50814	-13,124	-0,49972	38,513	10,696
50815	-13,567	-0,99972	38,749	10,5
50816	-13,835	-0,99984	37,195	10,26
50817	-13,601	-1,5	37,633	10,42
50818	-13,597	-0,49996	37,635	10,41
50819	-14,04	-0,99996	37,871	10,23
50820	-14,307	-0,99973	36,318	9,9349
50821	-14,073	-1,5003	36,756	10,103
50822	-14,069	-0,49987	36,758	10,097
50823	-14,512	-0,99987	36,994	9,9223
50824	-14,78	-0,99974	35,44	9,5951
50825	-14,545	-1,4999	35,878	9,7671
50826	-14,542	-0,49986	35,88	9,765
50827	-14,984	-0,99986	36,115	9,589
50828	-15,252	-0,9998	34,562	9,2491
50829	-15,018	-1,5004	35,	9,422
50830	-15,015	-0,49988	35,001	9,4227
50831	-15,457	-0,99988	35,237	9,2415
50832	-15,725	-0,99989	33,684	8,9024
50833	-15,49	-1,5003	34,122	9,074
50834	-15,488	-0,49993	34,123	9,0768
50835	-15,93	-0,99993	34,359	8,888
50836	-16,198	-0,99992	32,806	8,5596
50837	-15,963	-1,5004	33,244	8,7279
50838	-15,961	-0,49996	33,245	8,7324
50839	-16,403	-0,99996	33,481	8,5345
50840	-16,671	-0,99986	31,928	8,2242
50841	-16,437	-1,5	32,365	8,3868
50842	-16,434	-0,49995	32,368	8,3936
50843	-16,876	-0,99995	32,603	8,1855
50844	-17,144	-0,99976	31,05	7,8987
50845	-16,91	-1,4999	31,487	8,0555
50846	-16,907	-0,49991	31,49	8,0634
50847	-17,349	-0,99991	31,725	7,8444
50848	-17,617	-0,99966	30,172	7,5853
50849	-17,383	-1,4999	30,609	7,7353
50850	-17,38	-0,49985	30,612	7,7441
50851	-17,822	-0,99985	30,847	7,5137
50852	-18,09	-0,99959	29,294	7,2854
50853	-17,856	-1,4998	29,731	7,4281
50854	-17,853	-0,4998	29,733	7,4376
50855	-18,295	-0,9998	29,969	7,1952
50856	-18,563	-0,99958	28,415	7,0007
50857	-18,329	-1,4998	28,853	7,1352
50858	-18,326	-0,49979	28,855	7,1453
50859	-18,768	-0,99979	29,091	6,8904
50860	-19,036	-0,99957	27,537	6,7317
50861	-18,8	-1,4999	27,974	6,8589
50862	-18,798	-0,49979	27,977	6,8687
50863	-19,24	-0,99979	28,212	6,6007
50864	-19,509	-0,99955	26,659	6,4794
50865	-19,275	-1,4998	27,097	6,5968
50866	-19,272	-0,49978	27,099	6,6081
50867	-19,713	-0,99978	27,334	6,3263
50868	-19,982	-0,99954	25,781	6,2451
50869	-19,746	-1,4998	26,221	6,3539
50870	-19,744	-0,49977	26,221	6,365
50871	-20,186	-0,99977	26,456	6,0686
50872	-20,455	-0,99952	24,903	6,0295
50873	-20,219	-1,4998	25,343	6,1286
50874	-20,217	-0,49976	25,343	6,1401
50875	-20,659	-0,99976	25,578	5,8283
50876	-20,928	-0,99949	24,025	5,8335
50877	-20,691	-1,5001	24,465	5,9228
50878	-20,69	-0,49975	24,465	5,9344
50879	-21,132	-0,99975	24,7	5,6058
50880	-21,401	-0,99947	23,147	5,6582
50881	-21,164	-1,4999	23,587	5,7366
50882	-21,163	-0,49974	23,587	5,7489
50883	-21,605	-0,99974	23,822	5,402
50884	-21,874	-0,99944	22,269	5,5049
50885	-21,637	-1,4998	22,709	5,5716
50886	-21,636	-0,49973	22,709	5,5847
50887	-22,078	-0,99973	22,944	5,2179
50888	-22,347	-0,9994	21,391	5,3753
50889	-22,11	-1,4997	21,83	5,4288
50890	-22,109	-0,49971	21,831	5,4434
50891	-22,551	-0,99971	22,066	5,0546
50892	-22,819	-0,9994	20,514	5,2717
50893	-22,583	-1,4996	20,952	5,3114
50894	-22,582	-0,49969	20,953	5,3271
50895	-23,024	-0,99969	21,188	4,9136
50896	-23,292	-0,99922	19,637	5,197
50897	-23,055	-1,4995	20,075	5,2209
50898	-23,055	-0,49971	20,076	5,2382
50899	-23,496	-0,99971	20,31	4,7972
50900	-23,765	-0,99882	18,759	5,155
50901	-23,528	-1,4989	19,197	5,1606
50902	-23,528	-0,49951	19,198	5,1802
50903	-23,969	-0,99951	19,432	4,7081
50904	-24,238	-0,99841	17,882	5,1508
50905	-24,001	-1,4984	18,32	5,1352
50906	-24,001	-0,49931	18,32	5,1577
50907	-24,442	-0,99931	18,555	4,6505
50908	-24,711	-0,99762	17,003	5,1933
50909	-24,475	-1,4991	17,442	5,1505
50910	-24,474	-0,4991	17,443	5,1769
50911	-24,915	-0,9991	17,677	4,6298
50912	-25,185	-0,99661	16,123	5,2923
50913	-24,948	-1,4985	16,562	5,2171
50914	-24,947	-0,49852	16,563	5,2481
50915	-25,388	-0,99852	16,797	4,656
50916	-25,659	-0,99583	15,25	5,4551
50917	-25,421	-1,4981	15,684	5,3442
50918	-25,42	-0,49809	15,685	5,3813
50919	-25,861	-0,99809	15,919	4,7383
50920	-26,132	-0,99532	14,38	5,7014
50921	-25,895	-1,4977	14,81	5,5434
50922	-25,896	-0,49774	14,819	5,5806
50923	-26,335	-0,99774	15,046	4,8882
50924	-26,6	-0,99504	13,515	6,0576
50925	-26,368	-1,4976	13,936	5,8415
50926	-26,368	-0,49758	13,951	5,8808
50927	-26,808	-0,99758	14,172	5,1327
50928	-27,065	-0,99491	12,649	6,555
50929	-26,832	-1,4948	13,079	6,2525
50930	-26,835	-0,49747	13,083	6,3097
50931	-27,276	-0,99747	13,303	5,4977
50932	-27,537	-0,99599	11,768	7,2415
50933	-27,3	-1,4946	12,205	6,8325
50934	-27,303	-0,49745	12,209	6,8994
50935	-27,746	-0,99745	12,428	6,0249
50936	-27,999	-0,99715	10,895	8,1376
50937	-27,772	-1,496	11,321	7,6203
50938	-27,772	-0,49854	11,33	7,6922
50939	-28,22	-0,99854	11,543	6,7676
50940	-28,453	-0,99837	10,03	9,2776
50941	-28,227	-1,4967	10,459	8,631
50942	-28,227	-0,49861	10,465	8,7093
50943	-28,681	-0,99861	10,677	7,7555
50944	-28,912	-1,0008	9,1555	10,69
50945	-28,689	-1,4992	9,5834	9,9206
50946	-28,687	-0,49976	9,5894	9,9977
50947	-29,147	-0,99976	9,8	9,0683
50948	-29,374	-1,0032	8,2793	12,343
50949	-29,147	-1,5023	8,7128	11,471
50950	-29,145	-0,50105	8,715	11,539
50951	-29,613	-1,0011	8,924	10,732
50952	-29,839	-1,005	7,4007	14,138
50953	-29,613	-1,5044	7,8355	13,245
50954	-29,606	-0,50217	7,8388	13,277
50955	-30,081	-1,0022	8,0456	12,748
50956	-30,319	-1,0063	6,5165	15,898
50957	-30,083	-1,5061	6,9509	15,1
50958	-30,069	-0,5028	6,9634	15,055
50959	-30,552	-1,0028	7,1673	15,012
50960	-30,795	-1,0065	5,6409	17,337
50961	-30,572	-1,5051	6,0754	16,785
50962	-30,549	-0,50348	6,0849	16,672
50963	-31,033	-1,0035	6,2833	17,292
50964	-31,251	-1,0041	4,7863	18,464
50965	-31,06	-1,503	5,178	18,042
50966	-31,008	-0,50302	5,2274	17,827
50967	-31,501	-1,003	5,4135	19,071
50968	-31,667	-0,99996	3,9331	19,432
50969	-31,517	-1,5011	4,3264	19,114
50970	-31,455	-0,5011	4,3804	18,986
50971	-31,962	-1,0011	4,5517	19,725
50972	-32,006	-0,9955	3,0868	19,981
50973	-31,849	-1,4893	3,5203	19,864
50974	-31,834	-0,49886	3,5161	19,978
50975	-32,366	-0,9988	3,6737	19,826
50976	-32,307	-0,99031	2,2328	20,211
50977	-32,205	-1,4963	2,649	20,131
50978	-32,127	-0,49664	2,6839	20,351
50979	-32,681	-0,99663	2,7908	20,168
50980	-32,53	-0,9891	1,3678	20,417
50981	-32,465	-1,4867	1,798	20,373
50982	-32,426	-0,49367	1,804	20,57
50983	-32,955	-0,99369	1,8744	20,531
50984	-32,59	-0,98945	0,50541	20,511
50985	-32,604	-1,4931	0,93567	20,509
50986	-32,572	-0,49544	0,97795	20,755
50987	-33,098	-0,99547	0,95756	20,787
50988	-32,559	-0,99098	-0,40075	20,489
50989	-32,614	-1,494	3,4027e-002	20,525
50990	-32,562	-0,49401	9,4277e-002	20,792
50991	-33,111	-0,99403	2,9915e-002	20,842
50992	-32,497	-0,99295	-1,3257	20,405
50993	-32,549	-1,495	-0,87256	20,506
50994	-32,523	-0,49697	-0,86319	20,762
50995	-33,066	-0,99697	-0,93505	20,761
50996	-32,35	-0,99241	-2,1898	20,242
50997	-32,46	-1,4967	-1,7808	20,35
50998	-32,442	-0,49598	-1,7712	20,58
50999	-32,95	-0,996	-1,8765	20,514
51000	-32,089	-0,99424	-3,0047	20,002
51001	-32,251	-1,4966	-2,6172	20,171
51002	-32,252	-0,49643	-2,6053	20,376
51003	-32,724	-0,99645	-2,7661	20,179
51004	-31,738	-0,99679	-3,8289	19,494
51005	-31,928	-1,4989	-3,4194	19,884
51006	-31,948	-0,49781	-3,3993	20,026
51007	-32,4	-0,99784	-3,6343	19,824
51008	-31,319	-0,99775	-4,6981	18,571
51009	-31,527	-1,4987	-4,2604	19,15
51010	-31,995	-0,99898	-4,4951	19,752
51011	-31,538	-0,49898	-4,2387	19,164
51012	3,8725	-0,98417	51,89	15,551
51013	3,4707	-1,4918	52,107	16,045
51014	3,4716	-0,49613	52,044	16,323
51015	3,6402	-0,9961	52,623	16,454
51016	-30,873	-0,99513	-5,588	17,464
51017	-31,099	-1,4988	-5,1455	18,081
51018	-31,536	-0,99877	-5,3827	19,131
51019	-31,109	-0,49877	-5,1403	17,989
51020	4,6815	-0,97585	51,497	14,496
51021	4,2741	-1,4826	51,723	15,071
51022	4,2778	-0,48804	51,645	15,37
51023	4,4731	-0,98805	52,217	15,059
51024	-30,406	-0,99294	-6,4624	16,041
51025	-30,64	-1,4964	-6,0248	16,905
51026	-31,078	-0,99635	-6,2582	17,379
51027	-30,656	-0,49635	-6,028	16,838
51028	5,4538	-0,9712	51,041	13,333
51029	5,0443	-1,4878	51,357	13,943
51030	5,1187	-0,48782	51,219	14,141
51031	5,3129	-0,98783	51,773	13,512
51032	-29,926	-0,99625	-7,3232	14,306
51033	-30,16	-1,4941	-6,894	15,231
51034	-30,601	-0,99658	-7,1259	15,122
51035	-30,166	-0,49658	-6,8979	15,201
51036	6,1281	-0,96342	50,547	12,227
51037	5,7824	-1,4698	50,804	12,813
51038	5,8304	-0,48339	50,749	12,956
51039	6,0604	-0,9834	51,221	12,023
51040	-29,458	-1,	-8,1795	12,531
51041	-29,694	-1,4997	-7,7517	13,421
51042	-30,131	-0,99967	-7,9873	12,882
51043	-29,69	-0,49967	-7,7467	13,461
51044	6,7334	-0,97278	49,98	11,243
51045	6,426	-1,4701	50,297	11,698
51046	6,4776	-0,48003	50,312	11,748
51047	6,7459	-0,98006	50,661	10,637
51048	-28,994	-0,9996	-9,0387	10,876
51049	-29,222	-1,4983	-8,6143	11,64
51050	-29,665	-1,0003	-8,8501	10,869
51051	-29,227	-0,50034	-8,602	11,731
51052	7,2596	-0,98876	49,317	10,596
51053	7,1016	-1,5001	49,574	10,705
51054	7,0208	-0,49275	49,728	10,858
51055	7,3608	-0,99279	49,964	9,5539
51056	-28,528	-0,99795	-9,9039	9,4463
51057	-28,762	-1,4992	-9,4793	10,07
51058	-29,199	-0,99925	-9,7144	9,1977
51059	-28,765	-0,49925	-9,4644	10,184
51060	7,7054	-0,998	48,576	10,291
51061	7,4974	-1,495	48,973	10,376
51062	7,5308	-0,49601	48,96	10,371
51063	7,8974	-0,99601	49,242	8,8442
51064	-28,062	-0,99738	-10,774	8,2665
51065	-28,293	-1,4984	-10,343	8,7665
51066	-28,732	-0,9987	-10,583	7,8645
51067	-28,298	-0,4987	-10,333	8,8694
51068	8,1273	-1,0099	47,724	10,251
51069	7,9109	-1,5071	48,161	10,245
51070	8,357	-1,002	48,406	8,7793
51071	7,9191	-0,50199	48,137	10,237
51072	-27,596	-0,99697	-11,641	7,3424
51073	-27,829	-1,4987	-11,217	7,7105
51074	-28,266	-0,99868	-11,452	6,8435
51075	-27,832	-0,49868	-11,202	7,8158
51076	8,5781	-1,0128	46,847	10,365
51077	8,3723	-1,5079	47,29	10,226
51078	8,811	-1,0079	47,527	8,978
51079	8,3327	-0,5079	47,278	10,264
51080	-27,129	-0,99672	-12,506	6,6373
51081	-27,361	-1,4975	-12,078	6,9157
51082	-27,799	-0,99829	-12,318	6,0878
51083	-27,365	-0,49829	-12,068	7,0009
51084	9,0608	-1,0098	45,978	10,56
51085	8,8408	-1,5049	46,415	10,421
51086	9,2801	-1,0049	46,653	9,1609
51087	8,801	-0,50494	46,411	10,435
51088	-26,663	-0,99704	-13,372	6,1063
51089	-26,895	-1,4979	-12,943	6,3089
51090	-27,332	-0,99843	-13,185	5,5356
51091	-26,898	-0,49843	-12,935	6,3809
51092	9,5617	-1,0063	45,098	10,787
51093	9,3272	-1,5049	45,542	10,658
51094	9,7666	-1,0049	45,78	9,4651
51095	9,3032	-0,50487	45,544	10,661
51096	-26,196	-0,99762	-14,24	5,7144
51097	-26,428	-1,4988	-13,811	5,8583
51098	-26,865	-0,99861	-14,052	5,1421
51099	-26,431	-0,49861	-13,802	5,9188
51100	10,054	-1,0016	44,218	11,01
51101	9,8176	-1,5041	44,653	10,91
51102	10,254	-1,0014	44,895	9,8697
51103	9,811	-0,50145	44,657	10,897
51104	-25,728	-0,99774	-15,111	5,4317
51105	-25,961	-1,4985	-14,678	5,5317
51106	-26,398	-0,99901	-14,92	4,8693
51107	-25,964	-0,49901	-14,67	5,5814
51108	10,533	-0,99906	43,34	11,188
51109	10,292	-1,5002	43,783	11,122
51110	10,731	-1,0002	44,021	10,272
51111	10,296	-0,50018	43,783	11,107
51112	-25,261	-0,99744	-15,981	5,2372
51113	-25,493	-1,4987	-15,555	5,2971
51114	-25,931	-0,99873	-15,79	4,6891
51115	-25,497	-0,49873	-15,541	5,3423
51116	11,004	-0,99835	42,46	11,29
51117	10,773	-1,4981	42,896	11,264
51118	11,207	-0,99888	43,138	10,604
51119	10,774	-0,49888	42,897	11,25
51120	11,473	-0,9998	41,587	11,295
51121	11,236	-1,4995	42,026	11,319
51122	11,675	-0,99947	42,264	10,814
51123	11,237	-0,49947	42,024	11,303
51124	11,947	-1,0014	40,709	11,21
51125	11,709	-1,502	41,146	11,278
51126	12,149	-1,0003	41,386	10,891
51127	11,711	-0,50033	41,146	11,255
51128	-24,794	-0,99742	-16,849	5,1128
51129	-25,026	-1,4987	-16,423	5,1455
51130	-25,463	-0,99871	-16,658	4,5822
51131	-25,03	-0,49871	-16,408	5,1826
51132	-24,327	-0,99829	-17,716	5,0434
51133	-24,56	-1,4986	-17,285	5,0563
51134	-24,996	-0,99871	-17,526	4,5308
51135	-24,563	-0,49871	-17,276	5,0845
51136	12,417	-1,0022	39,829	11,052
51137	12,183	-1,501	40,27	11,152
51138	12,622	-1,001	40,508	10,851
51139	12,185	-0,50103	40,269	11,13
51140	-23,86	-0,99829	-18,583	5,0174
51141	-24,093	-1,4993	-18,152	5,0126
51142	-24,529	-0,99959	-18,392	4,5237
51143	-24,096	-0,49959	-18,143	5,0361
51144	12,89	-1,002	38,951	10,831
51145	12,653	-1,5011	39,39	10,96
51146	13,092	-1,0011	39,628	10,715
51147	12,65	-0,50115	39,387	10,943
51148	-23,393	-0,99829	-19,451	5,0277
51149	-23,625	-1,4985	-19,02	5,0077
51150	-24,062	-0,99871	-19,261	4,5508
51151	-23,629	-0,49871	-19,011	5,0269
51152	13,366	-1,0015	38,072	10,561
51153	13,129	-1,5009	38,513	10,709
51154	13,568	-1,0009	38,751	10,5
51155	13,131	-0,50088	38,512	10,692
51156	-22,926	-0,99913	-20,317	5,0685
51157	-23,158	-1,4993	-19,886	5,0359
51158	-23,595	-0,99958	-20,127	4,6079
51159	-23,162	-0,49958	-19,877	5,052
51160	13,839	-1,0006	37,194	10,258
51161	13,601	-1,5011	37,631	10,42
51162	14,04	-1,0006	37,871	10,23
51163	13,603	-0,50064	37,632	10,407
51164	-22,459	-0,99826	-21,186	5,1338
51165	-22,691	-1,4992	-20,753	5,0906
51166	-23,128	-0,99955	-20,995	4,6885
51167	-22,695	-0,49955	-20,745	5,1043
51168	-21,992	-0,99743	-22,055	5,2213
51169	-22,224	-1,4982	-21,622	5,1685
51170	-22,661	-0,99871	-21,864	4,7894
51171	-22,228	-0,49871	-21,614	5,1802
51172	-21,524	-0,99748	-22,923	5,3284
51173	-21,757	-1,4981	-22,49	5,267
51174	-22,194	-0,99872	-22,732	4,9087
51175	-21,761	-0,49872	-22,482	5,2773
51176	-21,058	-0,99809	-23,788	5,4525
51177	-21,29	-1,4981	-23,357	5,3836
51178	-21,726	-0,99876	-23,6	5,0435
51179	-21,293	-0,49876	-23,35	5,3923
51180	-20,591	-0,99855	-24,654	5,5912
51181	-20,823	-1,4988	-24,223	5,5158
51182	-21,259	-0,99933	-24,465	5,1923
51183	-20,827	-0,49933	-24,215	5,5234
51184	14,312	-0,99985	36,315	9,9317
51185	14,076	-1,5	36,754	10,101
51186	14,514	-1,	36,994	9,9213
51187	14,077	-0,5	36,756	10,093
51188	-20,124	-0,99798	-25,523	5,7422
51189	-20,357	-1,4986	-25,09	5,6615
51190	-20,792	-0,99922	-25,332	5,3526
51191	-20,36	-0,49922	-25,083	5,6679
51192	14,785	-0,99961	35,435	9,5916
51193	14,549	-1,4996	35,874	9,765
51194	14,987	-0,99985	36,114	9,5876
51195	14,55	-0,49985	35,875	9,7606
51196	-19,656	-0,99751	-26,394	5,9043
51197	-19,889	-1,498	-25,959	5,8189
51198	-20,325	-0,99877	-26,203	5,5229
51199	-19,893	-0,49877	-25,953	5,8241
51200	15,258	-0,99945	34,559	9,2459
51201	15,022	-1,4995	34,996	9,4196
51202	15,46	-0,99977	35,236	9,24
51203	15,023	-0,49977	34,997	9,4182
51204	-19,189	-0,99748	-27,261	6,0758
51205	-19,423	-1,498	-26,826	5,9863
51206	-19,858	-0,99874	-27,07	5,7019
51207	-19,425	-0,49874	-26,821	5,9907
51208	15,732	-0,99938	33,681	8,8986
51209	15,494	-1,4994	34,119	9,0717
51210	15,932	-0,99968	34,359	8,8869
51211	15,495	-0,49968	34,12	9,0727
51212	-18,722	-0,99746	-28,129	6,2546
51213	-18,957	-1,4987	-27,696	6,161
51214	-19,391	-0,99873	-27,938	5,8876
51215	-18,958	-0,49873	-27,688	6,1655
51216	-18,255	-0,99745	-28,997	6,4387
51217	-18,49	-1,4987	-28,564	6,3435
51218	-18,924	-0,99872	-28,806	6,078
51219	-18,491	-0,49872	-28,556	6,3467
51220	-17,788	-0,99745	-29,864	6,6262
51221	-18,022	-1,498	-29,428	6,531
51222	-18,456	-0,99872	-29,673	6,2709
51223	-18,024	-0,49872	-29,424	6,5322
51224	-17,321	-0,99745	-30,732	6,8147
51225	-17,555	-1,4979	-30,296	6,7199
51226	-17,989	-0,99872	-30,541	6,4641
51227	-17,557	-0,49872	-30,291	6,7199
51228	-16,854	-0,99745	-31,6	7,0021
51229	-17,087	-1,4986	-31,164	6,9091
51230	-17,522	-0,99872	-31,409	6,6551
51231	-17,09	-0,49872	-31,159	6,9077
51232	16,207	-0,99938	32,802	8,5548
51233	15,969	-1,4995	33,24	8,7244
51234	16,407	-0,99969	33,48	8,5324
51235	15,97	-0,49969	33,241	8,7273
51236	-16,387	-0,99742	-32,468	7,1862
51237	-16,62	-1,4986	-32,032	7,0956
51238	-17,055	-0,99872	-32,276	6,8413
51239	-16,623	-0,49872	-32,027	7,0933
51240	16,679	-0,99936	31,923	8,2195
51241	16,442	-1,4994	32,362	8,3839
51242	16,88	-0,99968	32,602	8,1833
51243	16,443	-0,49968	32,363	8,3885
51244	-15,92	-0,99734	-33,335	7,3645
51245	-16,153	-1,4985	-32,9	7,2777
51246	-16,588	-0,9987	-33,144	7,0199
51247	-16,156	-0,4987	-32,894	7,2743
51248	17,152	-0,99935	31,045	7,8942
51249	16,915	-1,4994	31,484	8,0527
51250	17,353	-0,99968	31,723	7,8423
51251	16,915	-0,49968	31,484	8,0585
51252	-15,453	-0,99724	-34,203	7,535
51253	-15,686	-1,4984	-33,767	7,4527
51254	-16,121	-0,99864	-34,012	7,1884
51255	-15,69	-0,49865	-33,762	7,4487
51256	-14,986	-0,99717	-35,071	7,6959
51257	-15,219	-1,4984	-34,635	7,6189
51258	-15,654	-0,99859	-34,879	7,3443
51259	-15,223	-0,49859	-34,63	7,6145
51260	-14,519	-0,99718	-35,938	7,8461
51261	-14,752	-1,4983	-35,502	7,7747
51262	-15,187	-0,99858	-35,747	7,4857
51263	-14,756	-0,49858	-35,498	7,7702
51264	17,625	-0,99936	30,167	7,5809
51265	17,388	-1,4994	30,606	7,7325
51266	17,826	-0,99968	30,845	7,5115
51267	17,388	-0,49968	30,606	7,7393
51268	-14,052	-0,99726	-36,806	7,9852
51269	-14,285	-1,4982	-36,37	7,9191
51270	-14,72	-0,9986	-36,615	7,6119
51271	-14,289	-0,4986	-36,365	7,9152
51272	18,097	-0,99937	29,288	7,2812
51273	17,86	-1,4994	29,728	7,4255
51274	18,298	-0,99968	29,967	7,1931
51275	17,86	-0,49968	29,728	7,433
51276	-13,585	-0,99735	-37,674	8,1147
51277	-13,819	-1,4987	-37,241	8,0518
51278	-14,252	-0,99865	-37,482	7,7237
51279	-13,821	-0,49866	-37,233	8,0499
51280	18,57	-0,99943	28,41	6,9967
51281	18,333	-1,4995	28,849	7,1328
51282	18,771	-0,99969	29,088	6,8884
51283	18,333	-0,49969	28,849	7,1409
51284	-13,117	-0,99731	-38,541	8,2373
51285	-13,352	-1,4987	-38,108	8,1766
51286	-13,785	-0,99869	-38,35	7,8244
51287	-13,354	-0,49869	-38,101	8,1762
51288	19,041	-0,99942	27,533	6,7285
51289	18,805	-1,4996	27,971	6,8557
51290	19,244	-0,99974	28,21	6,5987
51291	18,806	-0,49974	27,971	6,8645
51292	-12,65	-0,99702	-39,409	8,3585
51293	-12,884	-1,4986	-38,976	8,2969
51294	-13,318	-0,99861	-39,218	7,9205
51295	-12,887	-0,49861	-38,968	8,2981
51296	19,513	-0,99939	26,655	6,477
51297	19,277	-1,4995	27,094	6,5954
51298	19,716	-0,99968	27,333	6,3251
51299	19,277	-0,49968	27,094	6,6047
51300	-12,186	-0,99661	-40,272	8,4835
51301	-12,417	-1,4984	-39,844	8,4195
51302	-12,851	-0,99841	-40,085	8,0227
51303	-12,419	-0,49841	-39,836	8,4213
51304	19,987	-0,9995	25,777	6,2426
51305	19,75	-1,4996	26,216	6,352
51306	20,188	-0,99971	26,454	6,0674
51307	19,75	-0,49971	26,215	6,3618
51308	-11,726	-0,99634	-41,132	8,622
51309	-11,954	-1,4982	-40,707	8,5514
51310	-12,387	-0,9982	-40,949	8,1437
51311	-11,962	-0,4982	-40,693	8,5487
51312	20,46	-0,99957	24,898	6,0268
51313	20,223	-1,4997	25,337	6,1266
51314	20,662	-0,99979	25,575	5,8268
51315	20,223	-0,49979	25,336	6,1369
51316	-11,262	-0,9964	-41,991	8,786
51317	-11,489	-1,4981	-41,571	8,7053
51318	-11,923	-0,99814	-41,813	8,3038
51319	-11,502	-0,49815	-41,551	8,6951
51320	20,933	-0,99957	24,019	5,831
51321	20,696	-1,4997	24,459	5,9204
51322	21,135	-0,99978	24,697	5,6043
51323	20,696	-0,49978	24,458	5,9314
51324	-10,796	-0,99659	-42,849	8,9773
51325	-11,022	-1,4951	-42,421	8,8916
51326	-11,456	-0,99825	-42,675	8,5209
51327	-11,036	-0,49825	-42,406	8,8688
51328	21,405	-0,99957	23,141	5,656
51329	21,168	-1,4997	23,581	5,7344
51330	21,608	-0,9998	23,819	5,4007
51331	21,169	-0,4998	23,58	5,7461
51332	-10,331	-0,99653	-43,708	9,1829
51333	-10,556	-1,495	-43,28	9,1004
51334	-10,99	-0,99834	-43,538	8,8009
51335	-10,57	-0,49834	-43,262	9,0628
51336	21,878	-0,99949	22,263	5,5032
51337	21,641	-1,4997	22,703	5,5697
51338	22,08	-0,99977	22,94	5,2167
51339	21,642	-0,49977	22,701	5,5824
51340	-9,8687	-0,99597	-44,566	9,3694
51341	-10,09	-1,4948	-44,141	9,3122
51342	-10,524	-0,99819	-44,402	9,1298
51343	-10,106	-0,49819	-44,121	9,2564
51344	22,35	-0,99953	21,385	5,3741
51345	22,113	-1,4997	21,825	5,4279
51346	22,553	-0,99971	22,062	5,0537
51347	22,114	-0,49971	21,823	5,4417
51348	-9,4114	-0,9949	-45,417	9,481
51349	-9,6294	-1,4949	-45,	9,4796
51350	-10,06	-0,99778	-45,263	9,4591
51351	-9,6488	-0,49778	-44,971	9,4062
51352	22,823	-0,9997	20,507	5,2708
51353	22,586	-1,4998	20,946	5,3104
51354	23,026	-0,99982	21,184	4,9129
51355	22,587	-0,49982	20,945	5,3257
51356	-8,9595	-0,99274	-46,263	9,453
51357	-9,1721	-1,4944	-45,855	9,5361
51358	-9,5991	-0,99711	-46,122	9,7012
51359	-9,196	-0,49711	-45,817	9,4511
51360	23,296	-0,99958	19,628	5,1966
51361	23,059	-1,5	20,068	5,2202
51362	23,499	-0,99988	20,306	4,7967
51363	23,06	-0,49988	20,067	5,2374
51364	-8,5141	-0,98843	-47,104	9,237
51365	-8,7079	-1,4956	-46,735	9,4013
51366	-9,1437	-0,99562	-46,972	9,7377
51367	-8,75	-0,49562	-46,656	9,3385
51368	23,769	-0,99939	18,75	5,1555
51369	23,532	-1,4998	19,19	5,1604
51370	23,972	-0,9997	19,427	4,7079
51371	23,533	-0,4997	19,188	5,1802
51372	-8,0638	-0,99118	-47,922	8,9036
51373	-8,2726	-1,4825	-47,543	9,0742
51374	-8,6891	-0,9928	-47,826	9,447
51375	-8,3133	-0,4928	-47,49	9,0478
51376	24,241	-0,99951	17,872	5,1528
51377	24,005	-1,4997	18,312	5,1358
51378	24,444	-0,99969	18,549	4,6509
51379	24,005	-0,49969	18,31	5,1587
51380	-7,5996	-1,0008	-48,703	8,5128
51381	-7,7717	-1,3536	-48,358	8,7098
51382	-8,2273	-0,99837	-48,656	8,6977
51383	-7,8709	-0,49837	-48,295	8,7599
51384	24,714	-0,9994	16,994	5,1961
51385	24,477	-1,4998	17,435	5,1521
51386	24,917	-0,99982	17,671	4,6312
51387	24,478	-0,49982	17,432	5,1795
51388	-7,1	-0,9966	-49,436	8,0247
51389	-7,3306	-1,501	-49,138	8,256
51390	-7,3688	-0,50244	-49,02	8,4062
51391	-7,7389	-1,0025	-49,458	7,9396
51392	25,187	-0,99914	16,115	5,2955
51393	24,95	-1,4996	16,557	5,2187
51394	25,39	-0,99958	16,793	4,6574
51395	24,951	-0,49958	16,553	5,2514
51396	-6,5187	-0,97832	-50,095	7,5461
51397	-6,8067	-1,2843	-49,744	7,7823
51398	-6,8297	-0,49415	-49,711	7,9044
51399	-7,1842	-0,9942	-50,194	7,4636
51400	25,66	-0,99885	15,237	5,4643
51401	25,423	-1,4989	15,677	5,3475
51402	25,863	-0,99956	15,914	4,7404
51403	25,423	-0,49956	15,675	5,386
51404	-5,9114	-0,9717	-50,711	7,1599
51405	-6,2173	-1,4603	-50,482	7,2804
51406	-6,2109	-0,48417	-50,347	7,4729
51407	-6,5418	-0,98418	-50,859	7,1139
51408	26,132	-0,99817	14,358	5,7212
51409	25,896	-1,4981	14,799	5,5524
51410	26,336	-0,99929	15,036	4,896
51411	25,896	-0,49929	14,796	5,5993
51412	-5,2753	-0,97167	-51,281	6,8439
51413	-5,6173	-1,4656	-51,068	6,9525
51414	-5,6047	-0,48753	-50,954	7,1007
51415	-5,8937	-0,98755	-51,485	6,8384
51416	26,606	-0,99728	13,484	6,0849
51417	26,368	-1,4989	13,922	5,8547
51418	26,809	-0,99888	14,157	5,1457
51419	26,369	-0,49888	13,918	5,9121
51420	-4,5598	-0,97982	-51,778	6,5959
51421	-4,8954	-1,4854	-51,621	6,6748
51422	-4,9302	-0,48415	-51,472	6,8261
51423	-5,1609	-0,98414	-52,034	6,6277
51424	27,08	-0,99621	12,612	6,5875
51425	26,842	-1,4984	13,047	6,2783
51426	27,282	-0,9984	13,283	5,5133
51427	26,843	-0,4984	13,05	6,3393
51428	-3,798	-0,99221	-52,221	6,3912
51429	-4,1823	-1,4924	-52,037	6,4695
51430	-4,2002	-0,49567	-51,947	6,5855
51431	-4,3788	-0,99564	-52,51	6,4487
51432	27,551	-0,99426	11,743	7,2628
51433	27,315	-1,4978	12,171	6,8635
51434	27,756	-0,99781	12,406	6,0433
51435	27,317	-0,49781	12,176	6,9308
51436	-3,0113	-0,99211	-52,607	6,2327
51437	-3,3916	-1,4923	-52,449	6,2946
51438	-3,4267	-0,49653	-52,393	6,3901
51439	-3,5523	-0,99652	-52,924	6,303
51440	28,022	-0,99225	10,878	8,147
51441	27,786	-1,4964	11,3	7,641
51442	28,227	-0,99645	11,536	6,7736
51443	27,788	-0,49645	11,31	7,7096
51444	-2,2204	-0,99543	-52,885	6,1174
51445	-2,574	-1,4965	-52,787	6,1523
51446	-2,6281	-0,49558	-52,76	6,2442
51447	-2,7059	-0,99557	-53,257	6,1902
51448	28,494	-0,99028	10,015	9,2761
51449	28,256	-1,4907	10,437	8,6446
51450	28,699	-0,9958	10,664	7,765
51451	28,259	-0,4958	10,445	8,7195
51452	28,968	-0,98848	9,1529	10,669
51453	28,728	-1,4887	9,5731	9,9163
51454	29,172	-0,99448	9,794	9,0685
51455	28,732	-0,49448	9,5872	9,9723
51456	29,443	-0,98816	8,2878	12,315
51457	29,203	-1,4882	8,7083	11,461
51458	29,646	-0,994	8,9233	10,732
51459	29,207	-0,494	8,7207	11,503
51460	-1,4271	-0,99009	-53,044	6,0469
51461	-1,867	-1,5714	-53,007	6,0674
51462	-1,8749	-0,49986	-52,974	6,1533
51463	-1,8442	-0,99986	-53,475	6,1116
51464	29,914	-0,98967	7,4155	14,135
51465	29,677	-1,4891	7,8424	13,235
51466	30,12	-0,99416	8,0506	12,758
51467	29,682	-0,49416	7,8564	13,239
51468	-0,60331	-0,9832	-53,087	6,0042
51469	-0,9803	-1,4846	-53,093	6,0132
51470	-1,0733	-0,49023	-53,075	6,0982
51471	-0,98474	-0,98745	-53,597	6,067
51472	30,382	-0,9928	6,5232	15,942
51473	30,148	-1,4923	6,9648	15,124
51474	30,591	-0,99551	7,1726	15,052
51475	30,152	-0,49551	6,9807	15,074
51476	0,28123	-0,98543	-53,052	5,9918
51477	-0,11874	-1,4917	-53,089	5,9767
51478	-0,19769	-0,49297	-53,054	6,0681
51479	-7,9835e-002	-0,99139	-53,608	6,0426
51480	30,839	-0,99713	5,6327	17,402
51481	30,62	-1,4973	6,0434	16,878
51482	31,06	-0,99729	6,2798	17,347
51483	30,611	-0,49729	6,0827	16,739
51484	1,1641	-0,98213	-52,975	6,0293
51485	0,76932	-1,4919	-53,051	5,9963
51486	0,71121	-0,49246	-53,005	6,0812
51487	0,84451	-0,98915	-53,561	6,0584
51488	31,282	-1,0006	4,7635	18,512
51489	31,082	-1,4998	5,1668	18,068
51490	31,521	-0,99984	5,4033	19,126
51491	31,054	-0,49984	5,2099	17,899
51492	1,9983	-0,97118	-52,817	6,1022
51493	1,646	-1,4871	-52,959	6,0617
51494	1,5672	-0,48967	-52,897	6,1344
51495	1,7439	-0,9858	-53,438	6,1064
51496	31,684	-1,0006	3,9044	19,452
51497	31,533	-1,5007	4,3062	19,134
51498	31,977	-1,0007	4,5314	19,749
51499	31,485	-0,50073	4,3438	19,039
51500	2,8281	-0,97367	-52,59	6,2132
51501	2,4719	-1,4789	-52,75	6,143
51502	2,374	-0,48151	-52,693	6,2221
51503	2,6176	-0,97744	-53,217	6,182
51504	32,011	-0,99781	3,0408	19,983
51505	31,913	-1,5006	3,4693	19,898
51506	31,847	-0,49985	3,4761	20,
51507	32,369	-0,99985	3,666	19,83
51508	3,649	-0,97654	-52,25	6,3689
51509	3,2627	-1,4801	-52,48	6,2765
51510	3,1915	-0,49216	-52,428	6,3593
51511	3,4898	-0,98801	-52,934	6,2946
51512	32,268	-0,99245	2,1458	20,225
51513	32,206	-1,4982	2,616	20,154
51514	32,129	-0,49796	2,5926	20,368
51515	32,68	-0,99798	2,7657	20,163
51516	4,4235	-0,98675	-51,819	6,5743
51517	4,0577	-1,476	-52,07	6,4488
51518	4,0283	-0,48437	-52,009	6,5517
51519	4,3232	-0,98021	-52,514	6,439
51520	32,453	-0,9907	1,2281	20,402
51521	32,41	-1,4951	1,7091	20,355
51522	32,345	-0,49449	1,6811	20,618
51523	32,915	-0,99451	1,8299	20,508
51524	5,1635	-1,0039	-51,34	6,8159
51525	4,8339	-1,4998	-51,648	6,6765
51526	4,7943	-0,50238	-51,569	6,7899
51527	5,1091	-0,99834	-52,053	6,6175
51528	32,531	-0,98008	0,35152	20,495
51529	32,572	-1,5306	0,74517	20,504
51530	32,48	-0,49622	0,77131	20,75
51531	33,06	-0,99624	0,88304	20,747
51532	5,8662	-0,9932	-50,812	7,1145
51533	5,5267	-1,5123	-51,1	6,9259
51534	5,5269	-0,50151	-51,06	7,0522
51535	5,8598	-0,99759	-51,506	6,8275
51536	32,516	-0,96265	-0,51533	20,471
51537	32,569	-1,4708	-5,3214e-002	20,515
51538	32,508	-0,48386	-8,8219e-002	20,777
51539	33,091	-0,98387	-2,6281e-002	20,817
51540	6,4872	-1,0014	-50,249	7,4607
51541	6,2079	-1,505	-50,556	7,2615
51542	6,2026	-0,49169	-50,534	7,3851
51543	6,553	-0,98844	-50,92	7,0889
51544	32,461	-0,96625	-1,4086	20,386
51545	32,537	-1,4688	-0,94209	20,484
51546	32,467	-0,47878	-0,99084	20,728
51547	33,047	-0,97876	-0,9685	20,732
51548	7,0204	-1,0146	-49,606	7,8975
51549	6,7613	-1,539	-49,985	7,6161
51550	6,7737	-0,50974	-49,94	7,7471
51551	7,1593	-1,0076	-50,268	7,4079
51552	32,306	-0,97337	-2,2808	20,199
51553	32,433	-1,4752	-1,8301	20,328
51554	32,368	-0,48747	-1,8651	20,562
51555	32,94	-0,98744	-1,8999	20,491
51556	7,5015	-1,0071	-48,868	8,4041
51557	7,2659	-1,5576	-49,306	8,1138
51558	7,2617	-0,50485	-49,254	8,2416
51559	7,6962	-1,005	-49,539	7,8741
51560	32,027	-0,97628	-3,1282	19,961
51561	32,199	-1,4783	-2,6865	20,12
51562	32,146	-0,4859	-2,7211	20,316
51563	32,699	-0,98595	-2,8072	20,144
51564	7,9582	-1,0055	-48,045	8,8248
51565	7,7469	-1,5023	-48,488	8,6585
51566	8,1763	-1,0023	-48,733	8,6384
51567	7,7258	-0,5023	-48,468	8,685
51568	31,667	-0,98562	-3,9619	19,412
51569	31,884	-1,4817	-3,5286	19,874
51570	31,845	-0,49037	-3,5598	19,957
51571	32,374	-0,9904	-3,6913	19,815
51572	8,4236	-1,006	-47,184	9,1834
51573	8,1945	-1,5083	-47,615	9,0168
51574	8,6379	-1,0032	-47,865	9,403
51575	8,1739	-0,50324	-47,612	8,9631
51576	31,248	-0,99338	-4,7905	18,45
51577	31,479	-1,4899	-4,362	19,05
51578	31,959	-0,99524	-4,5542	19,709
51579	31,471	-0,49524	-4,3951	18,978
51580	8,8996	-1,0048	-46,319	9,4392
51581	8,6756	-1,5027	-46,761	9,3921
51582	9,112	-1,0027	-46,999	9,7234
51583	8,6567	-0,50272	-46,75	9,3034
51584	30,804	-0,9951	-5,634	17,341
51585	31,028	-1,4945	-5,2063	17,963
51586	31,509	-0,99814	-5,4003	19,082
51587	31,028	-0,49814	-5,2164	17,847
51588	9,368	-1,0033	-45,444	9,486
51589	9,1439	-1,502	-45,896	9,5354
51590	9,5818	-1,002	-46,13	9,6979
51591	9,1296	-0,50205	-45,882	9,4503
51592	30,359	-0,99319	-6,4904	15,954
51593	30,575	-1,4939	-6,0626	16,779
51594	31,051	-0,99695	-6,2592	17,344
51595	30,584	-0,49695	-6,0626	16,712
51596	9,8359	-1,002	-44,579	9,3808
51597	9,6033	-1,5025	-45,008	9,4858
51598	10,048	-1,0012	-45,255	9,4575
51599	9,5954	-0,50121	-45,009	9,4181
51600	29,926	-0,9918	-7,3332	14,282
51601	30,135	-1,4919	-6,9195	15,176
51602	30,599	-0,99623	-7,1198	15,147
51603	30,144	-0,49623	-6,9137	15,166
51604	10,307	-1,0008	-43,725	9,1953
51605	10,072	-1,5012	-44,152	9,3206
51606	10,517	-1,0008	-44,398	9,1297
51607	10,065	-0,5008	-44,155	9,2738
51608	29,478	-0,99085	-8,1826	12,521
51609	29,71	-1,4956	-7,7407	13,44
51610	30,15	-0,99557	-7,9698	12,935
51611	29,708	-0,49557	-7,7598	13,433
51612	10,778	-0,99925	-42,863	8,9879
51613	10,549	-1,5	-43,297	9,1036
51614	10,986	-1,	-43,533	8,8009
51615	10,537	-0,50002	-43,295	9,0794
51616	29,012	-0,991	-9,0491	10,846
51617	29,238	-1,4905	-8,622	11,622
51618	29,684	-0,99528	-8,837	10,902
51619	29,242	-0,49528	-8,6261	11,677
51620	11,249	-0,99787	-41,998	8,7941
51621	11,018	-1,4992	-42,433	8,8921
51622	11,456	-0,99923	-42,668	8,5209
51623	11,009	-0,49923	-42,435	8,8824
51624	28,541	-0,9922	-9,9194	9,4056
51625	28,772	-1,4916	-9,4846	10,05
51626	29,217	-0,99572	-9,7042	9,21
51627	28,776	-0,49572	-9,4922	10,118
51628	11,718	-0,99705	-41,133	8,6274
51629	11,488	-1,4986	-41,565	8,7071
51630	11,925	-0,99864	-41,8	8,3038
51631	11,482	-0,49864	-41,567	8,7057
51632	28,069	-0,99299	-10,788	8,2365
51633	28,301	-1,4927	-10,352	8,7439
51634	28,746	-0,99648	-10,575	7,8681
51635	28,301	-0,49649	-10,356	8,8253
51636	12,184	-0,99659	-40,266	8,4867
51637	11,952	-1,4967	-40,698	8,5546
51638	12,392	-0,99841	-40,935	8,1431
51639	11,948	-0,49841	-40,706	8,5555
51640	27,6	-0,99351	-11,652	7,3245
51641	27,832	-1,4926	-11,216	7,7098
51642	28,277	-0,99651	-11,441	6,8508
51643	27,833	-0,49651	-11,221	7,785
51644	12,648	-0,99658	-39,4	8,3615
51645	12,417	-1,4963	-39,829	8,4225
51646	12,858	-0,99818	-40,066	8,0222
51647	12,414	-0,49818	-39,836	8,4246
51648	13,114	-0,997	-38,536	8,2407
51649	12,882	-1,4968	-38,966	8,3004
51650	13,323	-0,99839	-39,201	7,9209
51651	12,875	-0,4984	-38,975	8,3044
51652	13,582	-0,99741	-37,667	8,1175
51653	13,35	-1,4977	-38,099	8,1797
51654	13,791	-0,9986	-38,333	7,8246
51655	13,343	-0,4986	-38,106	8,1822
51656	14,048	-0,99762	-36,799	7,9884
51657	13,816	-1,4978	-37,232	8,055
51658	14,259	-0,99881	-37,465	7,7235
51659	13,812	-0,49881	-37,238	8,0551
51660	27,133	-0,99469	-12,511	6,6274
51661	27,364	-1,4936	-12,081	6,9089
51662	27,809	-0,997	-12,306	6,0922
51663	27,362	-0,497	-12,083	6,9839
51664	26,668	-0,99577	-13,372	6,1017
51665	26,899	-1,4949	-12,94	6,3081
51666	27,344	-0,9977	-13,168	5,542
51667	26,897	-0,4977	-12,944	6,3714
51668	26,201	-0,99638	-14,24	5,7102
51669	26,432	-1,4955	-13,809	5,8566
51670	26,877	-0,99807	-14,036	5,1452
51671	26,43	-0,49807	-13,812	5,9102
51672	25,731	-0,99688	-15,111	5,43
51673	25,965	-1,496	-14,676	5,5306
51674	26,409	-0,99831	-14,903	4,8712
51675	25,963	-0,49831	-14,68	5,5751
51676	25,261	-0,99759	-15,981	5,2375
51677	25,495	-1,4971	-15,547	5,3021
51678	25,939	-0,99857	-15,775	4,6912
51679	25,493	-0,49857	-15,551	5,3388
51680	24,796	-0,99766	-16,846	5,1131
51681	25,028	-1,498	-16,414	5,1498
51682	25,472	-0,99902	-16,642	4,5835
51683	25,026	-0,49902	-16,418	5,1807
51684	24,331	-0,99733	-17,711	5,0428
51685	24,563	-1,4978	-17,279	5,057
51686	25,007	-0,99864	-17,507	4,5308
51687	24,561	-0,49864	-17,283	5,083
51688	23,864	-0,99739	-18,578	5,0169
51689	24,096	-1,498	-18,146	5,0127
51690	24,54	-0,99869	-18,375	4,5225
51691	24,093	-0,49869	-18,15	5,0349
51692	23,396	-0,99742	-19,446	5,027
51693	23,629	-1,4981	-19,014	5,0077
51694	24,072	-0,9987	-19,242	4,5495
51695	23,626	-0,4987	-19,018	5,0268
51696	22,929	-0,99745	-20,314	5,0674
51697	23,161	-1,4981	-19,882	5,0352
51698	23,605	-0,99872	-20,11	4,6056
51699	23,158	-0,49872	-19,886	5,0519
51700	22,462	-0,99747	-21,182	5,1333
51701	22,694	-1,4982	-20,749	5,09
51702	23,138	-0,99873	-20,978	4,686
51703	22,691	-0,49873	-20,753	5,1048
51704	21,994	-0,99749	-22,049	5,2212
51705	22,226	-1,4982	-21,617	5,1684
51706	22,67	-0,99874	-21,846	4,7871
51707	22,223	-0,49874	-21,621	5,1815
51708	21,527	-0,99751	-22,917	5,3284
51709	21,759	-1,4982	-22,485	5,2671
51710	22,203	-0,99875	-22,713	4,9061
51711	21,756	-0,49875	-22,489	5,2789
51712	21,059	-0,99752	-23,785	5,4523
51713	21,292	-1,4982	-23,353	5,3836
51714	21,736	-0,99876	-23,581	5,0408
51715	21,289	-0,49876	-23,357	5,3943
51716	20,59	-0,99804	-24,655	5,5919
51717	20,824	-1,4982	-24,22	5,5158
51718	21,268	-0,99877	-24,449	5,1891
51719	20,821	-0,49877	-24,224	5,5254
51720	20,12	-0,99873	-25,525	5,7442
51721	20,358	-1,4993	-25,091	5,6603
51722	20,799	-0,99927	-25,32	5,3504
51723	20,351	-0,49927	-25,095	5,6712
51724	19,655	-0,99824	-26,39	5,9054
51725	19,888	-1,4988	-25,957	5,82
51726	20,332	-0,99945	-26,187	5,5207
51727	19,884	-0,49945	-25,962	5,8278
51728	19,188	-0,99795	-27,258	6,0772
51729	19,423	-1,4981	-26,822	5,9866
51730	19,866	-0,99878	-27,053	5,6987
51731	19,419	-0,49879	-26,828	5,9937
51732	18,718	-0,99813	-28,127	6,2573
51733	18,954	-1,4985	-27,691	6,1636
51734	19,397	-0,99917	-27,922	5,8855
51735	18,949	-0,49917	-27,697	6,1698
51736	18,25	-0,99768	-28,996	6,4419
51737	18,485	-1,498	-28,56	6,3466
51738	18,929	-0,99896	-28,79	6,0761
51739	18,482	-0,49896	-28,565	6,3514
51740	17,783	-0,99762	-29,863	6,6293
51741	18,018	-1,4983	-29,427	6,5332
51742	18,461	-0,99873	-29,658	6,2692
51743	18,014	-0,49873	-29,433	6,5372
51744	17,316	-0,99783	-30,73	6,8174
51745	17,552	-1,4983	-30,294	6,7215
51746	17,995	-0,99889	-30,525	6,4622
51747	17,547	-0,49889	-30,3	6,7249
51748	16,85	-0,99801	-31,597	7,0044
51749	17,086	-1,4984	-31,161	6,9101
51750	17,528	-0,99894	-31,393	6,6531
51751	17,08	-0,49894	-31,168	6,9126
51752	16,384	-0,99794	-32,464	7,1883
51753	16,619	-1,4987	-32,027	7,0964
51754	17,061	-0,99907	-32,26	6,8392
51755	16,613	-0,49907	-32,035	7,098
51756	15,917	-0,99758	-33,331	7,3665
51757	16,152	-1,4986	-32,895	7,2786
51758	16,594	-0,99887	-33,128	7,0182
51759	16,146	-0,49887	-32,902	7,2793
51760	15,45	-0,9974	-34,198	7,5369
51761	15,686	-1,4984	-33,762	7,4536
51762	16,127	-0,99871	-33,995	7,1866
51763	15,679	-0,49871	-33,769	7,4535
51764	14,986	-0,99749	-35,062	7,6967
51765	15,218	-1,4979	-34,63	7,6203
51766	15,66	-0,99869	-34,863	7,343
51767	15,212	-0,49869	-34,637	7,6196
51768	14,518	-0,99761	-35,929	7,8477
51769	14,754	-1,498	-35,494	7,775
51770	15,196	-0,9988	-35,727	7,4835
51771	14,753	-0,4988	-35,496	7,7721
51772	14,282	-1,4978	-36,364	7,9218
51773	14,725	-0,99881	-36,598	7,612
51774	14,279	-0,49881	-36,369	7,9203
51775	-11,249	-1,9969	-42,001	8,8107
51776	-10,781	-1,9935	-42,852	9,0145
51777	-11,019	-2,4969	-42,428	8,9043
51778	-10,588	-1,9897	-42,158	9,2428
51779	-11,453	-1,9969	-42,67	8,5518
51780	-11,717	-2,	-41,146	8,6344
51781	-11,487	-2,5	-41,573	8,7128
51782	-11,056	-1,9928	-41,313	9,0825
51783	-11,92	-2,	-41,815	8,3216
51784	-10,315	-1,9932	-43,712	9,2297
51785	-10,539	-2,4931	-43,291	9,1273
51786	-10,123	-1,9896	-43,014	9,4071
51787	-10,985	-1,9966	-43,534	8,843
51788	-12,184	-2,	-40,278	8,4872
51789	-11,954	-2,5	-40,706	8,5542
51790	-11,518	-1,9929	-40,453	8,9413
51791	-12,388	-2,	-40,948	8,1521
51792	-9,8509	-1,9937	-44,575	9,4223
51793	-10,073	-2,4937	-44,156	9,3424
51794	-9,6596	-1,9887	-43,872	9,5595
51795	-10,519	-1,9966	-44,398	9,1801
51796	-12,651	-2,	-39,411	8,3578
51797	-12,421	-2,5	-39,838	8,4185
51798	-11,984	-1,9934	-39,588	8,8069
51799	-12,855	-2,	-40,08	8,0244
51800	-9,39	-1,9945	-45,437	9,533
51801	-9,6095	-2,495	-45,021	9,5105
51802	-9,1965	-1,9895	-44,731	9,6622
51803	-10,054	-1,9971	-45,264	9,5107
51804	-13,119	-2,	-38,543	8,2361
51805	-12,888	-2,5	-38,97	8,2954
51806	-12,444	-1,9964	-38,73	8,6769
51807	-13,322	-2,	-39,212	7,92
51808	-8,9205	-1,9973	-46,326	9,4779
51809	-9,1563	-2,4974	-45,888	9,5608
51810	-8,7361	-1,9917	-45,591	9,657
51811	-9,591	-1,9973	-46,128	9,7413
51812	-13,586	-2,	-37,675	8,1137
51813	-13,35	-2,4998	-38,105	8,1779
51814	-12,913	-1,9971	-37,864	8,5395
51815	-13,789	-2,	-38,345	7,8231
51816	-8,4664	-1,9897	-47,174	9,2246
51817	-8,684	-2,5	-46,779	9,4064
51818	-8,2701	-1,9912	-46,472	9,4806
51819	-9,1173	-2,	-47,021	9,7387
51820	-14,052	-1,9996	-36,805	7,9856
51821	-13,818	-2,5002	-37,238	8,0529
51822	-13,381	-1,9976	-36,997	8,3952
51823	-14,256	-2,	-37,477	7,7223
51824	-7,9806	-1,8449	-47,979	8,8499
51825	-8,2346	-2,4897	-47,604	9,0426
51826	-7,8239	-1,9773	-47,306	9,1466
51827	-8,6697	-1,9897	-47,843	9,4097
51828	-14,519	-1,9993	-35,934	7,8477
51829	-14,285	-2,4996	-36,367	7,9201
51830	-13,848	-1,9974	-36,127	8,2434
51831	-14,723	-1,9996	-36,606	7,6115
51832	-7,5028	-1,8538	-48,793	8,4342
51833	-7,7349	-2,3552	-48,449	8,6536
51834	-7,3645	-1,9098	-48,13	8,7847
51835	-8,1643	-1,8552	-48,694	8,6319
51836	-14,986	-1,9995	-35,067	7,6976
51837	-14,752	-2,5004	-35,5	7,7758
51838	-14,315	-1,9977	-35,26	8,0816
51839	-15,19	-1,9997	-35,738	7,4854
51840	-7,0372	-1,7887	-49,447	7,9814
51841	-7,2704	-2,5	-49,219	8,1851
51842	-6,8567	-2,3083	-48,969	8,2707
51843	-7,7081	-1,9981	-49,505	7,8867
51844	-15,453	-1,9995	-34,199	7,5366
51845	-15,219	-2,5004	-34,633	7,6201
51846	-14,781	-1,9978	-34,393	7,9111
51847	-15,657	-1,9998	-34,871	7,3437
51848	-6,5053	-1,7662	-50,131	7,4697
51849	-6,7483	-2,2383	-49,907	7,6404
51850	-6,419	-1,7753	-49,477	7,9092
51851	-7,1592	-1,7903	-50,149	7,4488
51852	-15,919	-1,9996	-33,332	7,3659
51853	-15,686	-2,5004	-33,765	7,4537
51854	-15,247	-1,998	-33,526	7,7331
51855	-16,124	-1,9998	-34,003	7,1877
51856	-5,9233	-1,9541	-50,84	7,0307
51857	-6,2055	-2,4833	-50,595	7,1869
51858	-5,975	-1,9397	-50,163	7,4034
51859	-6,5618	-1,9767	-50,932	7,0118
51860	-16,386	-1,9997	-32,464	7,1871
51861	-16,153	-2,5005	-32,898	7,2784
51862	-15,714	-1,9982	-32,658	7,5491
51863	-16,591	-1,9998	-33,136	7,0189
51864	-5,2374	-1,9793	-51,409	6,7315
51865	-5,6396	-2,3738	-51,242	6,8577
51866	-5,4027	-1,8144	-50,714	7,0299
51867	-5,8946	-1,979	-51,534	6,7628
51868	-16,853	-1,9998	-31,597	7,0025
51869	-16,62	-2,5006	-32,03	7,096
51870	-16,181	-1,9984	-31,791	7,3607
51871	-17,058	-1,9999	-32,268	6,8397
51872	-4,5179	-1,998	-51,881	6,5039
51873	-4,8928	-2,4989	-51,693	6,6165
51874	-4,5971	-2,0608	-51,21	6,7125
51875	-5,1319	-2,0025	-52,106	6,54
51876	-17,321	-1,9991	-30,728	6,8143
51877	-17,087	-2,5007	-31,163	6,9091
51878	-16,648	-1,9989	-30,924	7,1708
51879	-17,525	-1,9999	-31,401	6,6531
51880	-3,7759	-1,9925	-52,265	6,3244
51881	-4,1522	-2,4996	-52,099	6,4233
51882	-4,0067	-1,9928	-51,603	6,5043
51883	-4,3765	-1,9981	-52,534	6,3835
51884	-17,789	-1,9985	-29,86	6,6248
51885	-17,555	-2,4996	-30,294	6,7195
51886	-17,116	-1,9977	-30,055	6,9807
51887	-17,993	-1,9992	-30,532	6,4613
51888	-2,9543	-1,9966	-52,629	6,1684
51889	-3,364	-2,4986	-52,483	6,2598
51890	-3,2103	-1,9989	-51,975	6,2716
51891	-3,5447	-1,997	-52,937	6,2456
51892	-18,257	-1,9993	-28,995	6,4358
51893	-18,022	-2,4997	-29,426	6,5303
51894	-17,583	-1,9976	-29,187	6,7932
51895	-18,46	-1,9993	-29,665	6,2676
51896	-2,2207	-2,0724	-52,909	6,0716
51897	-2,5359	-2,5038	-52,79	6,1245
51898	-2,3328	-2,0179	-52,223	6,079
51899	-2,6714	-2,0018	-53,26	6,1311
51900	-18,725	-2,	-28,131	6,2499
51901	-18,49	-2,5004	-28,562	6,3424
51902	-18,051	-1,9982	-28,323	6,6089
51903	-18,929	-2,	-28,8	6,0732
51904	-1,4202	-2,0658	-53,057	5,9864
51905	-1,7752	-2,5815	-52,988	6,0387
51906	-1,7603	-2,0769	-52,663	6,0212
51907	-1,8993	-2,0721	-53,491	6,0637
51908	-19,191	-1,9993	-27,261	6,0715
51909	-18,958	-2,5005	-27,695	6,1597
51910	-18,518	-1,9983	-27,456	6,4317
51911	-19,396	-2,	-27,933	5,8822
51912	-0,49573	-1,9931	-53,095	5,9449
51913	-0,86058	-2,5053	-53,08	5,9803
51914	-0,97372	-1,9441	-52,641	5,9317
51915	-0,93879	-1,9939	-53,591	6,0132
51916	-19,656	-1,9986	-26,392	5,9009
51917	-19,423	-2,4997	-26,825	5,9847
51918	-18,984	-1,9977	-26,586	6,2639
51919	-19,861	-1,9993	-27,063	5,6972
51920	0,36935	-1,9982	-53,089	5,9371
51921	1,3779e-003	-2,5054	-53,106	5,9415
51922	-0,15446	-1,9749	-52,616	5,8777
51923	-3,107e-002	-1,9978	-53,621	5,9861
51924	-20,122	-1,9986	-25,526	5,7381
51925	-19,891	-2,4993	-25,961	5,8154
51926	-19,45	-1,998	-25,719	6,1052
51927	-20,327	-1,9983	-26,197	5,5182
51928	1,2513	-1,9968	-53,036	5,9825
51929	0,85593	-2,512	-53,094	5,9782
51930	0,70093	-1,9445	-52,576	5,9083
51931	0,87468	-1,9981	-53,584	6,0064
51932	-20,589	-1,9988	-24,66	5,586
51933	-20,358	-2,4993	-25,094	5,6574
51934	-19,918	-1,9976	-24,852	5,9575
51935	-20,792	-1,9993	-25,335	5,348
51936	2,1196	-1,9947	-52,893	6,0612
51937	1,7074	-2,5042	-53,009	6,0402
51938	1,5323	-1,971	-52,613	5,9964
51939	1,797	-1,9948	-53,476	6,0636
51940	-21,056	-1,9988	-23,792	5,4469
51941	-20,825	-2,4995	-24,227	5,5114
51942	-20,384	-1,9975	-23,985	5,8235
51943	-21,259	-1,9995	-24,468	5,187
51944	2,9065	-1,9853	-52,641	6,1648
51945	2,532	-2,4961	-52,791	6,1185
51946	2,3072	-1,9709	-52,376	6,0728
51947	2,6775	-1,9947	-53,257	6,1319
51948	-21,523	-1,9987	-22,925	5,3222
51949	-21,289	-2,4993	-23,358	5,3808
51950	-20,851	-1,9973	-23,118	5,705
51951	-21,726	-1,9993	-23,6	5,0379
51952	3,6714	-1,9796	-52,3	6,3072
51953	3,2777	-2,4924	-52,496	6,2487
51954	3,0742	-1,9741	-52,094	6,2356
51955	3,4984	-1,9853	-52,95	6,2377
51956	-21,99	-1,9989	-22,058	5,2141
51957	-21,759	-2,4994	-22,492	5,2618
51958	-21,317	-1,9976	-22,252	5,6037
51959	-22,193	-1,9994	-22,733	4,902
51960	4,468	-1,9891	-51,899	6,4999
51961	4,0931	-2,4903	-52,123	6,416
51962	3,7906	-2,0108	-51,697	6,4351
51963	4,3269	-1,989	-52,552	6,3747
51964	-22,456	-1,9991	-21,19	5,1253
51965	-22,223	-2,4997	-21,624	5,1649
51966	-21,785	-1,9978	-21,384	5,5218
51967	-22,66	-1,9995	-21,865	4,7819
51968	5,1971	-2,0083	-51,408	6,7363
51969	4,827	-2,5119	-51,685	6,6286
51970	4,5134	-2,0327	-51,264	6,6855
51971	5,1404	-1,9949	-52,101	6,5505
51972	-22,923	-1,9994	-20,323	5,058
51973	-22,69	-2,5003	-20,758	5,0857
51974	-22,251	-1,9994	-20,518	5,4626
51975	-23,127	-1,9996	-20,998	4,6793
51976	5,8684	-2,0241	-50,844	7,0236
51977	5,5162	-2,5324	-51,133	6,8856
51978	5,2064	-2,0398	-50,725	7,0466
51979	5,8539	-2,0085	-51,532	6,7516
51980	-23,39	-1,9996	-19,455	5,0158
51981	-23,157	-2,5001	-19,889	5,0301
51982	-22,719	-1,9987	-19,649	5,4282
51983	-23,594	-1,9998	-20,13	4,597
51984	6,4821	-2,0425	-50,292	7,3781
51985	6,1943	-2,534	-50,569	7,2117
51986	5,8363	-2,0097	-50,095	7,4257
51987	6,5544	-2,0116	-50,932	7,02
51988	-23,858	-1,9996	-18,588	5,0027
51989	-23,624	-2,5003	-19,022	5,0013
51990	-23,186	-1,9989	-18,782	5,4233
51991	-24,061	-1,9998	-19,263	4,5384
51992	7,0069	-2,082	-49,685	7,8003
51993	6,7652	-2,5508	-49,966	7,6074
51994	6,4943	-2,074	-49,759	7,7082
51995	7,1484	-2,0286	-50,304	7,3442
51996	-24,325	-1,9996	-17,721	5,0253
51997	-24,092	-2,5004	-18,155	5,0041
51998	-23,653	-1,9991	-17,916	5,4524
51999	-24,528	-1,9998	-18,396	4,5079
52000	7,5113	-2,0527	-48,926	8,3433
52001	7,3905	-2,5749	-49,151	8,2176
52002	6,8377	-2,1323	-49,22	8,1267
52003	7,6915	-2,0531	-49,584	7,814
52004	-24,792	-1,9999	-16,859	5,0887
52005	-24,562	-2,4999	-17,286	5,0447
52006	-24,12	-1,9995	-17,049	5,5232
52007	-24,996	-1,9999	-17,528	4,5124
52008	7,9832	-2,005	-48,058	8,8233
52009	7,8689	-2,4578	-48,446	8,6878
52010	7,3023	-2,0114	-48,239	8,7184
52011	8,1904	-2,	-48,747	8,6171
52012	-25,259	-2,	-15,997	5,205
52013	-25,026	-2,501	-16,426	5,1334
52014	-24,587	-2,	-16,187	5,6408
52015	-25,462	-2,	-16,666	4,5572
52016	8,4465	-2,005	-47,192	9,2066
52017	8,2227	-2,5042	-47,6	9,0394
52018	7,7739	-2,0004	-47,34	9,135
52019	8,6479	-2,005	-47,866	9,3885
52020	-25,726	-1,9994	-15,122	5,3964
52021	-25,496	-2,5	-15,556	5,281
52022	-25,054	-2,0001	-15,32	5,8222
52023	-25,93	-2,	-15,798	4,6592
52024	8,9199	-2,	-46,339	9,4813
52025	8,6911	-2,5019	-46,755	9,411
52026	8,2413	-2,0059	-46,494	9,474
52027	9,125	-2,	-47,006	9,7422
52028	-26,194	-1,9997	-14,249	5,6746
52029	-25,96	-2,5013	-14,685	5,5123
52030	-25,524	-1,9935	-14,434	6,092
52031	-26,397	-1,9994	-14,924	4,8374
52032	9,3792	-2,0012	-45,46	9,5333
52033	9,15	-2,5	-45,913	9,5604
52034	8,6998	-2,0069	-45,626	9,6597
52035	9,5895	-1,9999	-46,143	9,741
52036	-26,66	-1,9997	-13,382	6,0595
52037	-26,427	-2,5021	-13,818	5,8339
52038	-25,99	-1,9937	-13,567	6,4488
52039	-26,864	-2,0002	-14,057	5,1039
52040	9,8398	-2,0017	-44,581	9,4255
52041	9,6105	-2,5013	-45,031	9,5106
52042	9,1573	-2,0066	-44,745	9,6733
52043	10,051	-2,0012	-45,261	9,5087
52044	-27,126	-1,9987	-12,515	6,5855
52045	-26,893	-2,5005	-12,952	6,2807
52046	-26,457	-1,9919	-12,699	6,9283
52047	-27,331	-1,9995	-13,189	5,4942
52048	10,315	-2,0004	-43,724	9,2289
52049	10,078	-2,5004	-44,165	9,3402
52050	9,6266	-2,0021	-43,885	9,5768
52051	10,519	-2,0004	-44,393	9,1778
52052	-27,594	-1,9992	-11,653	7,2818
52053	-27,358	-2,4999	-12,086	6,8846
52054	-26,922	-1,9904	-11,838	7,5523
52055	-27,797	-1,9992	-12,323	6,0452
52056	10,79	-2,	-42,867	9,0076
52057	10,553	-2,5	-43,307	9,1172
52058	10,107	-1,9981	-43,037	9,4132
52059	10,993	-2,	-43,536	8,8367
52060	-28,06	-1,9997	-10,786	8,2081
52061	-27,826	-2,5001	-11,223	7,6816
52062	-27,388	-1,9906	-10,975	8,3625
52063	-28,266	-2,	-11,46	6,7994
52064	11,257	-2,	-42,	8,8049
52065	11,019	-2,4994	-42,431	8,9029
52066	10,582	-1,9943	-42,176	9,2428
52067	11,461	-2,	-42,669	8,5448
52068	-28,527	-1,9997	-9,9183	9,3883
52069	-28,29	-2,5004	-10,35	8,7363
52070	-27,851	-1,9914	-10,102	9,4116
52071	-28,73	-1,9997	-10,587	7,8389
52072	11,722	-1,9983	-41,13	8,6342
52073	11,487	-2,4995	-41,564	8,7138
52074	11,05	-1,9918	-41,321	9,0845
52075	11,928	-2,	-41,801	8,3179
52076	-28,99	-1,998	-9,0549	10,833
52077	-28,759	-2,5016	-9,4885	10,04
52078	-28,312	-2,0014	-9,2518	10,662
52079	-29,2	-2,	-9,7248	9,1799
52080	12,185	-1,9964	-40,261	8,4904
52081	11,952	-2,4979	-40,696	8,5578
52082	11,512	-1,9892	-40,454	8,9449
52083	12,392	-1,9983	-40,931	8,152
52084	-29,457	-1,998	-8,1865	12,531
52085	-29,218	-2,4973	-8,6224	11,625
52086	-28,75	-1,9818	-8,3888	12,163
52087	-29,66	-1,998	-8,8573	10,891
52088	12,652	-1,9965	-39,395	8,3614
52089	12,418	-2,4973	-39,829	8,4228
52090	11,978	-1,9889	-39,59	8,8108
52091	12,859	-1,9981	-40,064	8,0252
52092	-29,928	-1,9975	-7,3224	14,345
52093	-29,701	-2,5	-7,7469	13,441
52094	-29,235	-1,9846	-7,5333	13,8
52095	-30,135	-2,	-7,9881	12,948
52096	13,118	-1,9975	-38,529	8,2394
52097	12,885	-2,4985	-38,963	8,2992
52098	12,444	-1,9896	-38,725	8,6782
52099	13,326	-1,9984	-39,198	7,921
52100	-30,394	-1,9976	-6,4564	16,084
52101	-30,15	-2,4939	-6,8989	15,242
52102	-29,702	-1,9759	-6,6683	15,481
52103	-30,599	-1,9975	-7,1229	15,209
52104	13,584	-1,9981	-37,663	8,1171
52105	13,353	-2,4994	-38,096	8,1785
52106	12,912	-1,9972	-37,857	8,5417
52107	13,793	-1,9991	-38,331	7,8239
52108	-30,866	-2,	-5,5823	17,482
52109	-30,615	-2,4968	-6,0313	16,887
52110	-30,186	-1,9863	-5,8084	16,978
52111	-31,067	-2,	-6,2561	17,408
52112	14,05	-1,998	-36,797	7,9884
52113	13,818	-2,4996	-37,23	8,0543
52114	13,377	-1,9975	-36,992	8,399
52115	14,259	-1,999	-37,464	7,7234
52116	-31,307	-1,9997	-4,7077	18,557
52117	-31,103	-2,5	-5,1407	18,092
52118	-30,645	-1,9966	-4,9365	18,099
52119	-31,539	-2,	-5,3794	19,114
52120	14,517	-1,9982	-35,929	7,8491
52121	14,285	-2,4998	-36,362	7,9207
52122	13,838	-1,9941	-36,13	8,2491
52123	14,726	-1,999	-36,596	7,6114
52124	-31,717	-2,0008	-3,8509	19,441
52125	-31,536	-2,4997	-4,2816	19,139
52126	-31,065	-1,9986	-4,0428	19,166
52127	-31,98	-1,9997	-4,5063	19,7
52128	14,985	-1,9984	-35,061	7,6985
52129	14,753	-2,5001	-35,495	7,7759
52130	14,307	-1,9943	-35,262	8,0859
52131	15,194	-1,9992	-35,728	7,4848
52132	-32,09	-2,0013	-3,032	19,927
52133	-31,939	-2,5017	-3,448	19,86
52134	-31,45	-1,9984	-3,1126	19,972
52135	-32,397	-2,0018	-3,6407	19,791
52136	15,453	-1,9989	-34,194	7,537
52137	15,219	-2,4995	-34,628	7,6203
52138	14,779	-1,9991	-34,391	7,9129
52139	15,661	-1,9992	-34,861	7,3429
52140	-32,361	-2,0009	-2,2082	20,116
52141	-32,239	-2,5065	-2,6278	20,117
52142	-31,926	-1,9866	-2,5153	20,097
52143	-32,731	-2,0004	-2,7787	20,088
52144	15,921	-1,9994	-33,326	7,3657
52145	15,687	-2,5002	-33,76	7,4535
52146	15,247	-1,9999	-33,522	7,734
52147	16,129	-1,9997	-33,993	7,1862
52148	-32,512	-1,9988	-1,3276	20,254
52149	-32,469	-2,5007	-1,7736	20,28
52150	-32,034	-1,9474	-1,7656	20,329
52151	-32,956	-2,0007	-1,8746	20,378
52152	16,388	-1,9993	-32,459	7,1867
52153	16,155	-2,5005	-32,892	7,2774
52154	15,712	-1,9948	-32,661	7,5503
52155	16,596	-1,9997	-33,125	7,0171
52156	-32,604	-1,9981	-0,43779	20,335
52157	-32,582	-2,4981	-0,87866	20,419
52158	-32,061	-1,9853	-0,84503	20,51
52159	-33,076	-1,9981	-0,9312	20,599
52160	16,855	-1,9991	-31,592	7,0021
52161	16,623	-2,5004	-32,024	7,095
52162	16,179	-1,9945	-31,794	7,3619
52163	17,063	-1,9996	-32,257	6,8378
52164	-32,628	-1,9976	0,46428	20,325
52165	-32,649	-2,5	2,9319e-004	20,432
52166	-32,045	-1,9978	0,12099	20,614
52167	-33,146	-2,	-3,2007e-003	20,673
52168	17,321	-1,9989	-30,725	6,8142
52169	17,088	-2,4998	-31,158	6,9087
52170	16,647	-1,999	-30,922	7,1715
52171	17,53	-1,9995	-31,39	6,6511
52172	-32,538	-1,9907	1,3658	20,274
52173	-32,59	-2,4974	0,93433	20,425
52174	-32,258	-1,9776	0,93175	20,452
52175	-33,101	-1,9976	0,95732	20,61
52176	17,788	-1,999	-29,857	6,6254
52177	17,555	-2,4994	-30,292	6,7197
52178	17,114	-1,9988	-30,055	6,9819
52179	17,997	-1,9994	-30,523	6,4596
52180	-32,363	-1,9927	2,2141	20,121
52181	-32,452	-2,4914	1,8007	20,338
52182	-32,075	-1,911	1,7028	20,399
52183	-32,959	-1,9929	1,8801	20,416
52184	18,254	-1,9986	-28,991	6,4378
52185	18,021	-2,4995	-29,424	6,5309
52186	17,58	-1,9994	-29,187	6,7945
52187	18,464	-1,9996	-29,655	6,2661
52188	-32,048	-1,9901	3,0824	19,874
52189	-32,211	-2,4889	2,6511	20,038
52190	-31,801	-1,9298	2,4759	20,216
52191	-32,732	-1,9993	2,7732	20,072
52192	18,722	-1,9984	-28,124	6,2529
52193	18,488	-2,4989	-28,557	6,3441
52194	18,047	-1,9979	-28,322	6,6116
52195	18,931	-1,999	-28,788	6,0728
52196	-31,698	-1,9904	3,9135	19,464
52197	-31,83	-2,4816	3,5582	19,824
52198	-31,422	-1,9192	3,3674	19,806
52199	-32,355	-1,9898	3,6925	19,784
52200	19,189	-1,9987	-27,256	6,0731
52201	18,959	-2,4993	-27,691	6,1594
52202	18,515	-1,998	-27,454	6,434
52203	19,399	-1,9993	-27,92	5,8816
52204	-31,327	-2,	4,7181	18,594
52205	-31,51	-2,4925	4,3696	19,086
52206	-31,06	-1,9315	4,1654	19,084
52207	-32,003	-2,	4,5157	19,742
52208	19,656	-1,9987	-26,389	5,9012
52209	19,426	-2,4993	-26,824	5,983
52210	18,983	-1,999	-26,585	6,2646
52211	19,863	-1,9984	-27,057	5,6965
52212	-30,837	-2,0016	5,6124	17,447
52213	-31,077	-2,4949	5,2151	18,066
52214	-30,673	-1,9853	5,0138	18,016
52215	-31,535	-2,	5,3825	19,138
52216	20,126	-1,9993	-25,523	5,7362
52217	19,891	-2,4998	-25,955	5,8166
52218	19,449	-1,9981	-25,72	6,1059
52219	20,33	-1,9993	-26,192	5,5174
52220	-30,336	-2,0049	6,5097	15,976
52221	-30,6	-2,5016	6,0528	16,867
52222	-30,12	-1,987	5,8986	16,832
52223	-31,04	-2,0016	6,2882	17,352
52224	20,593	-1,9994	-24,656	5,5842
52225	20,361	-2,5006	-25,088	5,6565
52226	19,919	-1,9988	-24,853	5,9563
52227	20,8	-2,	-25,325	5,3442
52228	-29,856	-2,0055	7,3858	14,206
52229	-30,12	-2,5033	6,923	15,198
52230	-29,623	-2,0077	6,7516	15,321
52231	-30,561	-2,0033	7,1579	15,117
52232	21,057	-1,9989	-23,788	5,4471
52233	20,824	-2,5	-24,221	5,5127
52234	20,377	-1,9941	-23,995	5,826
52235	21,264	-1,9994	-24,457	5,1854
52236	-29,386	-2,0034	8,2691	12,372
52237	-29,629	-2,5035	7,8189	13,292
52238	-29,14	-2,0114	7,6298	13,631
52239	-30,088	-2,0022	8,0424	12,822
52240	21,524	-1,9989	-22,92	5,3224
52241	21,292	-2,5001	-23,353	5,3802
52242	20,85	-1,9982	-23,118	5,7056
52243	21,731	-1,9994	-23,589	5,0362
52244	-28,924	-2,0007	9,1407	10,699
52245	-29,159	-2,5015	8,6945	11,504
52246	-28,675	-2,004	8,5087	11,959
52247	-29,618	-2,0012	8,9194	10,773
52248	21,991	-1,9989	-22,053	5,2142
52249	21,759	-2,5001	-22,485	5,2633
52250	21,318	-1,9984	-22,249	5,6041
52251	22,198	-1,9994	-22,721	4,9006
52252	-28,463	-1,9976	10,012	9,2717
52253	-28,712	-2,4995	9,5576	9,9455
52254	-28,223	-1,9961	9,3775	10,492
52255	-29,153	-1,9995	9,7921	9,0816
52256	22,459	-1,9989	-21,185	5,1251
52257	22,226	-2,5001	-21,618	5,1641
52258	21,785	-1,9989	-21,381	5,5222
52259	22,666	-1,9994	-21,854	4,7804
52260	-28,	-1,9955	10,886	8,1111
52261	-28,243	-2,4981	10,435	8,6418
52262	-27,768	-1,9906	10,251	9,231
52263	-28,684	-1,9981	10,669	7,7453
52264	22,926	-1,9989	-20,317	5,0578
52265	22,693	-2,5001	-20,75	5,0852
52266	22,252	-1,9983	-20,514	5,4627
52267	23,133	-1,9994	-20,986	4,678
52268	-27,535	-1,9945	11,759	7,2088
52269	-27,775	-2,4974	11,309	7,6129
52270	-27,312	-1,987	11,121	8,2295
52271	-28,216	-1,9974	11,544	6,7357
52272	23,393	-1,9988	-19,45	5,0157
52273	23,161	-2,5	-19,882	5,0297
52274	22,719	-1,9982	-19,647	5,4286
52275	23,6	-1,9994	-20,118	4,5959
52276	-27,067	-1,9945	12,635	6,528
52277	-27,306	-2,4971	12,186	6,8296
52278	-26,851	-1,9848	11,994	7,4412
52279	-27,747	-1,9971	12,421	5,9947
52280	23,861	-1,9987	-18,582	5,0034
52281	23,628	-2,5	-19,015	5,0013
52282	23,187	-1,998	-18,779	5,4239
52283	24,068	-1,9994	-19,25	4,5377
52284	-26,6	-1,9973	13,5	6,035
52285	-26,835	-2,4973	13,063	6,2469
52286	-26,387	-1,984	12,865	6,8431
52287	-27,276	-1,9973	13,297	5,466
52288	24,328	-1,9985	-17,714	5,0267
52289	24,095	-2,4999	-18,147	5,0053
52290	23,654	-1,9982	-17,911	5,454
52291	24,535	-1,9993	-18,383	4,508
52292	-26,13	-2,	14,366	5,6824
52293	-26,365	-2,5	13,93	5,8319
52294	-25,922	-1,9948	13,711	6,4172
52295	-26,806	-2,	14,164	5,1075
52296	24,795	-1,9982	-16,847	5,0933
52297	24,562	-2,4997	-17,279	5,0483
52298	24,121	-1,9972	-17,044	5,5252
52299	25,002	-1,9992	-17,515	4,5132
52300	-25,657	-2,	15,244	5,4317
52301	-25,892	-2,5	14,808	5,5325
52302	-25,453	-1,9869	14,588	6,0852
52303	-26,333	-2,	15,042	4,8633
52304	25,262	-1,9975	-15,979	5,2139
52305	25,03	-2,4994	-16,411	5,1391
52306	24,588	-1,9965	-16,177	5,646
52307	25,469	-1,999	-16,647	4,5616
52308	-25,184	-2,	16,123	5,2685
52309	-25,42	-2,5	15,686	5,331
52310	-24,98	-1,9884	15,464	5,8532
52311	-25,86	-2,	15,92	4,713
52312	25,729	-1,9961	-15,112	5,4019
52313	25,496	-2,4987	-15,544	5,2899
52314	25,055	-1,9958	-15,311	5,828
52315	25,936	-1,9985	-15,779	4,6653
52316	-24,712	-2,	17,001	5,174
52317	-24,947	-2,5	16,564	5,2061
52318	-24,507	-1,9962	16,332	5,7026
52319	-25,388	-2,	16,798	4,6347
52320	26,196	-1,995	-14,245	5,6759
52321	25,963	-2,4976	-14,677	5,5161
52322	25,518	-1,9872	-14,453	6,0827
52323	26,404	-1,9976	-14,912	4,8399
52324	-24,238	-1,9991	17,88	5,1347
52325	-24,474	-2,5	17,442	5,142
52326	-24,035	-1,9971	17,207	5,6095
52327	-24,915	-2,	17,676	4,6126
52328	26,664	-1,9946	-13,377	6,0615
52329	26,431	-2,497	-13,809	5,8396
52330	25,989	-1,9926	-13,578	6,4396
52331	26,871	-1,9974	-14,045	5,1082
52332	-23,765	-1,9985	18,758	5,1407
52333	-24,001	-2,4988	18,319	5,1278
52334	-23,561	-1,9972	18,084	5,5673
52335	-24,441	-1,9991	18,555	4,6355
52336	27,13	-1,9938	-12,511	6,5877
52337	26,897	-2,4963	-12,941	6,2889
52338	26,452	-1,9829	-12,717	6,9137
52339	27,338	-1,9972	-13,176	5,5007
52340	-23,292	-1,9992	19,636	5,1843
52341	-23,528	-2,4993	19,197	5,154
52342	-23,088	-1,9983	18,961	5,5679
52343	-23,968	-1,9994	19,433	4,6952
52344	27,596	-1,9927	-11,645	7,2921
52345	27,362	-2,4947	-12,074	6,8971
52346	26,922	-1,989	-11,849	7,5399
52347	27,805	-1,9966	-12,31	6,0539
52348	-22,819	-1,9997	20,514	5,2605
52349	-23,056	-2,4998	20,075	5,2149
52350	-22,615	-1,9991	19,838	5,6049
52351	-23,496	-1,9998	20,311	4,7859
52352	28,063	-1,9923	-10,78	8,2151
52353	27,827	-2,4934	-11,209	7,7039
52354	27,388	-1,9857	-10,985	8,3496
52355	28,272	-1,9961	-11,443	6,8197
52356	-22,347	-2,	21,392	5,3649
52357	-22,583	-2,5002	20,953	5,3061
52358	-22,143	-1,9997	20,716	5,674
52359	-23,023	-2,	21,189	4,9038
52360	28,531	-1,9921	-9,917	9,3865
52361	28,299	-2,4962	-10,348	8,7358
52362	27,857	-1,9864	-10,12	9,3839
52363	28,739	-1,9962	-10,577	7,8515
52364	-21,874	-2,0001	22,27	5,4955
52365	-22,111	-2,5003	21,831	5,4239
52366	-21,67	-2,	21,594	5,7717
52367	-22,551	-2,	22,067	5,0455
52368	28,999	-1,9911	-9,0575	10,826
52369	28,759	-2,4935	-9,4848	10,046
52370	28,325	-1,9864	-9,2644	10,625
52371	29,207	-1,9959	-9,7128	9,2018
52372	-21,4	-2,0002	23,148	5,65
52373	-21,637	-2,5005	22,709	5,5671
52374	-21,195	-1,9988	22,473	5,8969
52375	-22,077	-2,0001	22,946	5,2101
52376	29,471	-1,9952	-8,1801	12,542
52377	29,224	-2,493	-8,6295	11,614
52378	28,799	-1,9675	-8,4168	12,104
52379	29,674	-1,9952	-8,8494	10,914
52380	-20,927	-2,0005	24,026	5,8259
52381	-21,164	-2,5008	23,587	5,7323
52382	-20,722	-1,9989	23,351	6,0455
52383	-21,604	-2,0001	23,824	5,395
52384	29,919	-1,9957	-7,327	14,333
52385	29,706	-2,5	-7,7375	13,459
52386	29,27	-1,9788	-7,5419	13,798
52387	30,146	-2,	-7,9676	13,002
52388	-20,455	-2,0004	24,904	6,0219
52389	-20,691	-2,5013	24,465	5,9188
52390	-20,249	-1,9992	24,229	6,2165
52391	-21,131	-2,0004	24,702	5,5993
52392	30,351	-1,9927	-6,4916	15,993
52393	30,129	-2,4933	-6,9134	15,209
52394	29,662	-1,9843	-6,7437	15,335
52395	30,59	-1,9957	-7,1284	15,202
52396	-19,983	-2,	25,782	6,2373
52397	-20,22	-2,5008	25,343	6,1244
52398	-19,777	-1,9989	25,107	6,4082
52399	-20,659	-2,	25,58	5,8217
52400	30,799	-1,9933	-5,6348	17,364
52401	30,567	-2,4939	-6,0642	16,793
52402	30,083	-1,9878	-5,8797	16,844
52403	31,045	-1,997	-6,2643	17,373
52404	-19,512	-2,	26,658	6,4713
52405	-19,748	-2,5008	26,22	6,3497
52406	-19,304	-1,9989	25,985	6,6204
52407	-20,186	-2,	26,458	6,0625
52408	31,259	-1,991	-4,7777	18,466
52409	31,025	-2,4936	-5,2037	17,971
52410	30,537	-1,9854	-5,0134	17,98
52411	31,505	-1,9963	-5,4038	19,057
52412	-19,039	-2,0001	27,534	6,724
52413	-19,276	-2,5007	27,095	6,5928
52414	-18,833	-1,999	26,86	6,8508
52415	-19,716	-2,	27,332	6,3191
52416	31,695	-1,986	-3,9286	19,416
52417	31,49	-2,4927	-4,3416	19,067
52418	31,018	-1,9845	-4,1629	19,025
52419	31,972	-1,9947	-4,5393	19,691
52420	-18,566	-2,0001	28,412	6,9934
52421	-18,801	-2,5006	27,971	6,8552
52422	-18,359	-1,9991	27,737	7,1012
52423	-19,242	-2,0001	28,209	6,5945
52424	32,055	-1,9837	-3,0869	19,903
52425	31,929	-2,4907	-3,4859	19,878
52426	31,44	-2,06	-3,3721	19,818
52427	32,388	-1,9907	-3,6754	19,793
52428	-18,094	-2,	29,29	7,2778
52429	-18,329	-2,5002	28,848	7,1321
52430	-17,887	-1,999	28,615	7,3672
52431	-18,77	-2,	29,088	6,8839
52432	32,326	-1,9801	-2,2359	20,082
52433	32,212	-2,4816	-2,6426	20,086
52434	31,762	-2,0517	-2,55	20,142
52435	32,711	-1,992	-2,7879	20,058
52436	-17,621	-2,	30,168	7,5781
52437	-17,856	-2,5	29,726	7,4253
52438	-17,414	-1,9991	29,493	7,6503
52439	-18,297	-2,	29,966	7,189
52440	32,509	-1,9778	-1,3636	20,235
52441	32,497	-2,4929	-1,6991	20,271
52442	32,017	-2,0113	-1,8097	20,343
52443	32,946	-1,9876	-1,8821	20,349
52444	-17,148	-2,	31,046	7,892
52445	-17,383	-2,4999	30,605	7,7327
52446	-16,941	-1,9992	30,371	7,9487
52447	-17,825	-2,	30,844	7,5079
52448	32,59	-1,977	-0,47997	20,323
52449	32,574	-2,4712	-0,86964	20,406
52450	32,12	-1,8869	-0,95101	20,398
52451	33,087	-1,9899	-0,94994	20,577
52452	-16,676	-2,	31,925	8,2181
52453	-16,911	-2,5001	31,485	8,0528
52454	-16,468	-1,9994	31,249	8,2611
52455	-17,352	-2,	31,722	7,8391
52456	32,61	-2,0214	0,34044	20,36
52457	32,622	-2,3815	0,16091	20,446
52458	32,069	-1,9545	-0,1883	20,513
52459	33,124	-1,987	-1,8485e-002	20,655
52460	-16,201	-2,0004	32,803	8,5551
52461	-16,439	-2,5003	32,363	8,3842
52462	-15,998	-2,0007	32,125	8,5845
52463	-16,879	-2,	32,6	8,1808
52464	32,528	-2,035	1,2262	20,225
52465	32,67	-2,5557	0,92936	20,37
52466	32,148	-2,0458	0,42432	20,498
52467	33,107	-2,0344	0,85506	20,594
52468	-15,728	-2,0008	33,682	8,8994
52469	-15,965	-2,501	33,243	8,7256
52470	-15,521	-2,0001	33,005	8,9224
52471	-16,405	-2,0004	33,479	8,5313
52472	32,349	-2,0009	2,1793	20,098
52473	32,463	-2,5005	1,7679	20,248
52474	31,974	-2,0157	1,5904	20,455
52475	32,944	-2,0007	1,8468	20,362
52476	-15,256	-2,0009	34,56	9,2469
52477	-15,493	-2,5011	34,121	9,0721
52478	-15,048	-2,0002	33,883	9,2663
52479	-15,932	-2,0004	34,357	8,8856
52480	32,109	-2,001	3,0445	19,936
52481	32,254	-2,4981	2,6633	20,103
52482	31,783	-2,0164	2,4702	20,192
52483	32,734	-2,0005	2,7732	20,078
52484	-14,784	-2,0005	35,438	9,5939
52485	-15,021	-2,5015	34,999	9,4206
52486	-14,581	-2,0005	34,762	9,6132
52487	-15,46	-2,0005	35,235	9,2399
52488	31,762	-2,0007	3,8711	19,487
52489	31,94	-2,506	3,5031	19,88
52490	31,448	-1,9982	3,2838	19,857
52491	32,417	-2,0015	3,6523	19,813
52492	-14,311	-2,0004	36,316	9,9351
52493	-14,549	-2,5007	35,877	9,7663
52494	-14,109	-2,0002	35,639	9,9641
52495	-14,987	-2,	36,113	9,5883
52496	31,332	-2,	4,7095	18,591
52497	31,565	-2,4999	4,2814	19,176
52498	31,051	-2,0008	4,1136	19,098
52499	32,008	-2,	4,5063	19,751
52500	-13,838	-2,0005	37,194	10,263
52501	-14,076	-2,5012	36,755	10,103
52502	-13,636	-2,0008	36,518	10,313
52503	-14,515	-2,0004	36,991	9,9229
52504	30,863	-2,	5,5775	17,505
52505	31,091	-2,5074	5,1823	18,083
52506	30,605	-2,0002	4,9595	18,074
52507	31,539	-2,	5,3744	19,148
52508	-13,366	-2,0001	38,072	10,568
52509	-13,603	-2,5002	37,634	10,422
52510	-13,163	-2,0001	37,394	10,653
52511	-14,042	-2,0001	37,87	10,233
52512	30,387	-1,9968	6,485	16,052
52513	30,627	-2,5	6,016	16,94
52514	30,172	-1,9938	5,8495	16,934
52515	31,065	-2,	6,2539	17,437
52516	-12,893	-2,	38,95	10,837
52517	-13,129	-2,4996	38,512	10,713
52518	-12,689	-1,9987	38,271	10,978
52519	-13,569	-2,	38,747	10,503
52520	29,911	-1,9917	7,3917	14,223
52521	30,145	-2,498	6,9482	15,179
52522	29,711	-1,9748	6,7738	15,313
52523	30,59	-1,9968	7,1613	15,154
52524	-12,42	-2,	39,828	11,059
52525	-12,655	-2,4988	39,39	10,963
52526	-12,215	-1,9962	39,152	11,28
52527	-13,096	-2,	39,626	10,717
52528	29,437	-1,9891	8,2629	12,382
52529	29,678	-2,4949	7,8009	13,339
52530	29,24	-1,9666	7,647	13,594
52531	30,116	-1,9949	8,0395	12,846
52532	-11,947	-2,	40,706	11,218
52533	-12,181	-2,4979	40,269	11,157
52534	-11,741	-1,9926	40,027	11,548
52535	-12,623	-2,	40,504	10,854
52536	28,963	-1,9884	9,1285	10,708
52537	29,204	-2,4942	8,6725	11,54
52538	28,759	-1,9676	8,5033	11,952
52539	29,643	-1,9942	8,9112	10,792
52540	-11,474	-2,	41,584	11,3
52541	-11,709	-2,5	41,147	11,28
52542	-11,273	-1,9885	40,904	11,766
52543	-12,15	-2,	41,382	10,893
52544	28,491	-1,9891	9,9957	9,2829
52545	28,731	-2,4942	9,5448	9,9605
52546	28,284	-1,9702	9,3592	10,491
52547	29,169	-1,9942	9,7837	9,0917
52548	-11,001	-2,	42,462	11,295
52549	-11,236	-2,5	42,026	11,32
52550	-10,806	-1,9845	41,783	11,923
52551	-11,677	-2,	42,26	10,813
52552	28,021	-1,9949	10,859	8,1363
52553	28,258	-2,4949	10,418	8,6588
52554	27,812	-1,9736	10,219	9,2599
52555	28,697	-1,9949	10,657	7,7574
52556	-10,529	-2,	43,341	11,199
52557	-10,764	-2,5	42,904	11,269
52558	-10,34	-1,981	42,665	12,004
52559	-11,205	-2,	43,138	10,608
52560	27,551	-2,	11,728	7,2394
52561	27,788	-2,5	11,287	7,6378
52562	27,344	-1,9819	11,078	8,2669
52563	28,227	-2,	11,526	6,7547
52564	-10,056	-2,	44,219	11,02
52565	-10,285	-2,4947	43,787	11,131
52566	-9,8764	-1,9775	43,548	11,995
52567	-10,732	-2,	44,017	10,287
52568	27,078	-2,	12,606	6,5524
52569	27,315	-2,5	12,165	6,8485
52570	26,871	-1,9853	11,941	7,4894
52571	27,754	-2,	12,404	6,0096
52572	-9,5855	-1,9948	45,104	10,766
52573	-9,8131	-2,4955	44,666	10,912
52574	-9,4071	-1,9737	44,431	11,904
52575	-10,259	-2,	44,895	9,8907
52576	26,605	-2,	13,485	6,0466
52577	26,842	-2,5	13,044	6,2616
52578	26,4	-1,9885	12,813	6,8865
52579	27,281	-2,	13,282	5,4777
52580	-9,1123	-1,9948	45,983	10,503
52581	-9,3467	-2,4915	45,55	10,63
52582	-8,9222	-1,98	45,327	11,749
52583	-9,7886	-1,9948	45,78	9,4743
52584	26,132	-1,9988	14,362	5,6848
52585	26,368	-2,4988	13,923	5,8349
52586	25,928	-1,9912	13,689	6,4326
52587	26,808	-2,	14,161	5,1091
52588	-8,6365	-2,	46,856	10,282
52589	-8,8721	-2,5	46,417	10,383
52590	-8,4261	-1,9892	46,178	11,644
52591	-9,3122	-2,	46,653	9,1616
52592	25,659	-1,9981	15,239	5,4348
52593	25,896	-2,4982	14,8	5,5354
52594	25,454	-1,9923	14,56	6,1061
52595	26,335	-1,9988	15,038	4,8652
52596	-8,171	-1,9999	47,726	10,18
52597	-8,4004	-2,5	47,297	10,179
52598	-7,9676	-1,9891	47,055	11,462
52599	-8,8393	-2,	47,533	8,9573
52600	25,186	-1,9993	16,118	5,2702
52601	25,423	-2,4988	15,678	5,3336
52602	24,982	-1,9947	15,438	5,8693
52603	25,862	-1,9993	15,916	4,7146
52604	-7,7104	-2,0011	48,544	10,322
52605	-7,9422	-2,4999	48,156	10,183
52606	-7,5336	-1,9794	47,92	11,421
52607	-8,3731	-1,9999	48,402	8,7858
52608	24,713	-2,	16,998	5,1744
52609	24,95	-2,4999	16,558	5,2071
52610	24,509	-1,9992	16,321	5,7076
52611	25,389	-2,	16,796	4,6351
52612	-7,2173	-2,0015	49,285	10,713
52613	-7,5267	-2,5108	48,907	10,376
52614	-7,0981	-1,9228	48,727	11,573
52615	-7,89	-2,0023	49,208	8,93
52616	24,24	-2,	17,875	5,135
52617	24,477	-2,5001	17,436	5,1424
52618	24,037	-1,9996	17,199	5,6122
52619	24,916	-2,	17,674	4,6127
52620	-6,6435	-2,026	49,997	11,376
52621	-7,0081	-2,507	49,596	10,886
52622	-6,4594	-1,9748	49,33	12,485
52623	-7,3366	-2,0008	49,952	9,6157
52624	23,768	-2,	18,752	5,1406
52625	24,004	-2,5003	18,313	5,1276
52626	23,565	-1,9996	18,075	5,5686
52627	24,444	-2,	18,551	4,6355
52628	-6,0197	-2,0256	50,619	12,312
52629	-6,4858	-2,5068	50,232	11,58
52630	-6,0358	-2,0768	50,075	12,7
52631	-6,6956	-2,0257	50,673	10,71
52632	23,295	-2,0002	19,63	5,1838
52633	23,532	-2,5004	19,191	5,1535
52634	23,092	-2,0002	18,954	5,5677
52635	23,971	-2,0001	19,429	4,6948
52636	-5,3513	-1,9974	51,102	13,356
52637	-5,7448	-2,5051	50,811	12,804
52638	-5,3238	-2,0115	50,468	13,825
52639	-6,0204	-2,0001	51,264	12,024
52640	22,822	-2,0001	20,508	5,2597
52641	23,059	-2,5005	20,069	5,2143
52642	22,619	-2,0003	19,832	5,6043
52643	23,498	-2,0001	20,307	4,7855
52644	-4,6181	-1,9973	51,591	14,423
52645	-5,0197	-2,4978	51,3	13,927
52646	-4,7622	-1,9876	50,888	14,556
52647	-5,2706	-1,9973	51,776	13,479
52648	22,35	-2,	21,386	5,3642
52649	22,586	-2,5003	20,947	5,3054
52650	22,146	-2,0003	20,71	5,6732
52651	23,025	-2,	21,186	4,9031
52652	-3,8247	-1,9971	52,012	15,483
52653	-4,2544	-2,5008	51,803	15,038
52654	-4,0247	-1,9884	51,359	15,329
52655	-4,4737	-2,	52,295	14,991
52656	21,877	-1,9999	22,264	5,4944
52657	22,113	-2,5002	21,825	5,4234
52658	21,674	-2,0002	21,587	5,7709
52659	22,552	-2,	22,064	5,0451
52660	-2,9887	-1,9963	52,321	16,387
52661	-3,4328	-2,4959	52,158	16,016
52662	-3,127	-2,0619	51,583	16,071
52663	-3,6148	-1,9971	52,657	16,376
52664	21,404	-1,9998	23,142	5,6481
52665	21,641	-2,4999	22,703	5,5655
52666	21,201	-1,9998	22,465	5,8948
52667	22,079	-1,9999	22,942	5,2091
52668	-2,1437	-2,0023	52,605	17,169
52669	-2,5901	-2,5025	52,466	16,908
52670	-2,3121	-2,1721	51,854	16,526
52671	-2,7347	-1,9991	52,977	17,615
52672	20,931	-1,9998	24,021	5,8239
52673	21,168	-2,4999	23,581	5,7307
52674	20,73	-1,9988	23,343	6,0422
52675	21,606	-1,9999	23,82	5,3938
52676	-1,3258	-1,8744	52,799	17,755
52677	-1,762	-2,4985	52,729	17,603
52678	-1,5551	-2,2129	52,287	17,059
52679	-1,8346	-2,0031	53,224	18,598
52680	20,459	-1,9998	24,899	6,0202
52681	20,695	-2,4999	24,46	5,917
52682	20,257	-1,9989	24,221	6,2128
52683	21,134	-1,9999	24,699	5,5981
52684	-0,4696	-1,8711	52,891	18,001
52685	-0,92195	-2,3699	52,87	18,064
52686	-0,81873	-1,7916	52,497	17,475
52687	-0,95844	-1,8711	53,361	19,203
52688	19,986	-1,9998	25,776	6,236
52689	20,222	-2,4999	25,338	6,1233
52690	19,785	-1,9989	25,1	6,4046
52691	20,661	-1,9999	25,577	5,8209
52692	0,42031	-1,9907	52,893	18,025
52693	2,7085e-004	-2,5	52,919	18,209
52694	2,3092e-002	-1,9429	52,423	17,36
52695	-6,1586e-003	-1,9999	53,413	19,419
52696	19,514	-1,9997	26,654	6,4704
52697	19,749	-2,5	26,215	6,3491
52698	19,313	-1,9987	25,976	6,6163
52699	20,189	-1,9999	26,453	6,061
52700	1,2967	-1,9907	52,807	17,734
52701	0,83834	-2,4879	52,88	18,094
52702	0,76411	-1,9077	52,444	17,383
52703	0,90856	-1,9907	53,364	19,21
52704	19,041	-1,9997	27,532	6,7226
52705	19,277	-2,4999	27,093	6,5926
52706	18,84	-1,9986	26,854	6,8472
52707	19,716	-1,9998	27,331	6,3189
52708	2,1711	-1,994	52,594	17,128
52709	1,7128	-2,4976	52,727	17,601
52710	1,5897	-1,9758	52,236	17,054
52711	1,8427	-1,9999	53,233	18,605
52712	18,568	-1,9996	28,41	6,9918
52713	18,804	-2,4999	27,971	6,8536
52714	18,368	-1,9985	27,733	7,0964
52715	19,244	-1,9998	28,209	6,5934
52716	3,027	-1,9898	52,284	16,318
52717	2,5707	-2,4923	52,443	16,886
52718	2,4388	-1,9883	51,924	16,55
52719	2,7416	-1,994	52,961	17,576
52720	18,095	-1,9996	29,288	7,277
52721	18,331	-2,4998	28,849	7,131
52722	17,895	-1,9984	28,611	7,3629
52723	18,771	-1,9998	29,087	6,8836
52724	3,8723	-1,9902	51,941	15,393
52725	3,4404	-2,4961	52,131	16,002
52726	3,3151	-1,9872	51,618	15,946
52727	3,6342	-1,9957	52,64	16,337
52728	17,623	-1,9994	30,166	7,5771
52729	17,858	-2,4997	29,727	7,4241
52730	17,423	-1,9983	29,489	7,6457
52731	18,298	-1,9998	29,965	7,1887
52732	4,6369	-1,9945	51,583	14,411
52733	4,2705	-2,4939	51,762	14,996
52734	4,135	-1,9781	51,29	15,169
52735	4,4904	-1,9945	52,246	14,932
52736	17,15	-1,9994	31,045	7,8909
52737	17,386	-2,4995	30,605	7,7311
52738	16,95	-1,9982	30,367	7,9437
52739	17,825	-1,9997	30,843	7,5075
52740	5,3728	-1,9864	51,12	13,307
52741	4,9933	-2,5	51,409	13,936
52742	4,8295	-1,9286	50,948	14,412
52743	5,2618	-1,9999	51,824	13,506
52744	16,677	-1,9994	31,923	8,2171
52745	16,913	-2,4995	31,483	8,0517
52746	16,474	-1,9991	31,245	8,2576
52747	17,352	-1,9997	31,722	7,8388
52748	6,0802	-1,9765	50,555	12,224
52749	5,6716	-2,4092	50,945	12,898
52750	5,4982	-1,8192	50,412	13,615
52751	6,0406	-1,9864	51,242	12,002
52752	16,204	-1,9995	32,801	8,5535
52753	16,441	-2,4997	32,361	8,3829
52754	16,001	-1,9992	32,123	8,5826
52755	16,879	-1,9997	32,6	8,1805
52756	6,7942	-1,9975	49,892	11,102
52757	6,3645	-2,4935	50,295	11,792
52758	6,0548	-1,9269	49,792	12,928
52759	6,7268	-1,9899	50,639	10,643
52760	15,73	-1,9995	33,678	8,8975
52761	15,966	-2,4997	33,239	8,7245
52762	15,527	-1,9992	33,	8,9185
52763	16,406	-1,9998	33,478	8,5305
52764	7,3394	-2,0063	49,231	10,469
52765	7,0502	-2,5036	49,566	10,833
52766	6,8338	-1,9711	49,319	11,601
52767	7,4483	-2,0068	49,889	9,3972
52768	15,258	-1,9994	34,556	9,2454
52769	15,493	-2,4996	34,117	9,0712
52770	15,055	-1,999	33,878	9,2624
52771	15,933	-1,9997	34,356	8,885
52772	7,7029	-2,0041	48,558	10,324
52773	7,4824	-2,5018	48,943	10,434
52774	7,0094	-2,0436	48,742	11,793
52775	7,8955	-1,9979	49,223	8,8934
52776	14,785	-1,9995	35,435	9,5929
52777	15,021	-2,4995	34,996	9,42
52778	14,582	-1,9989	34,756	9,6117
52779	15,46	-1,9997	35,234	9,2396
52780	8,1558	-2,0051	47,727	10,218
52781	7,9326	-2,5121	48,139	10,237
52782	7,4101	-2,0209	47,966	11,656
52783	8,3586	-2,0051	48,403	8,8214
52784	14,312	-1,9998	36,313	9,9343
52785	14,549	-2,4998	35,874	9,7659
52786	14,11	-1,9985	35,634	9,9628
52787	14,987	-1,9998	36,113	9,5882
52788	8,6349	-2,	46,857	10,281
52789	8,3999	-2,5	47,297	10,177
52790	7,8555	-2,0241	47,06	11,713
52791	8,8384	-2,	47,534	8,9584
52792	13,839	-2,0006	37,191	10,263
52793	14,076	-2,5	36,752	10,103
52794	13,638	-2,0001	36,511	10,311
52795	14,514	-2,	36,991	9,9229
52796	9,1072	-2,	45,979	10,518
52797	8,8719	-2,5	46,417	10,388
52798	8,4054	-2,0079	46,168	11,698
52799	9,3107	-2,	46,655	9,1626
52800	13,365	-2,0005	38,072	10,568
52801	13,601	-2,5006	37,631	10,423
52802	13,165	-2,0032	37,389	10,652
52803	14,041	-2,0005	37,869	10,233
52804	9,583	-2,0026	45,096	10,781
52805	9,3449	-2,5	45,538	10,65
52806	8,901	-2,0133	45,287	11,845
52807	9,7836	-2,	45,776	9,49
52808	12,891	-2,	38,952	10,838
52809	13,129	-2,5	38,511	10,713
52810	12,684	-2,0058	38,273	10,981
52811	13,567	-2,	38,75	10,504
52812	10,056	-2,0026	44,218	11,021
52813	9,8298	-2,5063	44,655	10,899
52814	9,3916	-2,0077	44,405	11,961
52815	10,259	-2,0026	44,894	9,8915
52816	12,418	-2,	39,831	11,06
52817	12,656	-2,5	39,389	10,963
52818	12,209	-2,0082	39,152	11,284
52819	13,095	-2,	39,628	10,718
52820	10,532	-1,9992	43,34	11,197
52821	10,291	-2,5	43,781	11,13
52822	9,8629	-1,9922	43,529	12,035
52823	10,73	-2,	44,02	10,287
52824	11,945	-2,0017	40,707	11,219
52825	12,183	-2,5	40,268	11,157
52826	11,731	-2,0077	40,031	11,556
52827	12,622	-2,	40,507	10,855
52828	11,005	-1,9992	42,462	11,293
52829	10,769	-2,4992	42,899	11,268
52830	10,342	-1,9894	42,651	12,012
52831	11,208	-1,9992	43,138	10,606
52832	11,472	-2,0017	41,585	11,302
52833	11,71	-2,5017	41,144	11,281
52834	11,264	-2,0057	40,906	11,774
52835	12,148	-2,0017	41,383	10,894
52836	11,237	-2,5	42,024	11,321
52837	10,801	-1,9958	41,783	11,928
52838	11,676	-2,	42,263	10,814
52839	27,593	-2,9954	-11,637	7,3067
52840	27,129	-2,9972	-12,504	6,5963
52841	27,361	-3,4983	-12,066	6,9319
52842	26,919	-3,0005	-11,824	7,5726
52843	27,801	-2,9981	-12,313	6,0558
52844	28,062	-2,9973	-10,777	8,2227
52845	27,822	-3,4967	-11,199	7,7461
52846	27,377	-2,9922	-10,967	8,3832
52847	28,266	-2,9973	-11,446	6,8218
52848	26,664	-2,9987	-13,373	6,0655
52849	26,897	-3,499	-12,936	6,3154
52850	26,456	-2,9957	-12,703	6,9255
52851	27,335	-2,9991	-13,181	5,4998
52852	28,526	-2,9976	-9,9158	9,3935
52853	28,294	-3,4996	-10,34	8,7748
52854	27,837	-2,9944	-10,096	9,4323
52855	28,737	-3,	-10,584	7,8412
52856	26,198	-2,9996	-14,24	5,6788
52857	26,431	-3,4995	-13,804	5,8617
52858	25,99	-2,9973	-13,57	6,4461
52859	26,868	-2,9996	-14,048	5,1079
52860	28,984	-2,9955	-9,0568	10,833
52861	28,749	-3,4981	-9,4773	10,08
52862	28,305	-2,9885	-9,2633	10,643
52863	29,196	-2,9976	-9,7182	9,1955
52864	25,731	-3,0002	-15,108	5,4034
52865	25,965	-3,5002	-14,671	5,5346
52866	25,524	-2,9981	-14,439	6,0892
52867	26,401	-3,	-14,916	4,8397
52868	29,459	-2,9979	-8,1868	12,531
52869	29,211	-3,4983	-8,626	11,626
52870	28,767	-3,0029	-8,4316	12,083
52871	29,662	-2,9979	-8,857	10,897
52872	25,264	-3,0006	-15,976	5,2146
52873	25,498	-3,5006	-15,539	5,3049
52874	25,057	-2,9994	-15,305	5,8302
52875	25,934	-3,0002	-15,784	4,665
52876	29,915	-2,9977	-7,3238	14,335
52877	29,68	-3,4997	-7,7565	13,405
52878	29,22	-3,0028	-7,5439	13,793
52879	30,14	-3,0001	-7,9781	12,975
52880	24,797	-3,0008	-16,844	5,0937
52881	25,031	-3,5008	-16,407	5,1516
52882	24,59	-3,	-16,172	5,6473
52883	25,467	-3,0004	-16,652	4,5616
52884	30,345	-2,9946	-6,4859	16,002
52885	30,116	-3,4967	-6,909	15,184
52886	29,654	-2,9913	-6,7087	15,399
52887	30,587	-2,9977	-7,1244	15,201
52888	24,33	-3,001	-17,712	5,0267
52889	24,564	-3,501	-17,275	5,0585
52890	24,123	-3,0008	-17,039	5,5259
52891	24,999	-3,0005	-17,52	4,5133
52892	30,793	-2,9942	-5,6331	17,361
52893	30,571	-3,4941	-6,048	16,8
52894	30,07	-2,9908	-5,8811	16,831
52895	31,036	-2,9969	-6,2742	17,346
52896	23,862	-3,0011	-18,579	5,0031
52897	24,097	-3,5011	-18,142	5,0137
52898	23,656	-3,0009	-17,907	5,4542
52899	24,532	-3,0005	-18,388	4,5082
52900	31,256	-2,9953	-4,7676	18,469
52901	31,021	-3,4957	-5,1978	17,959
52902	30,537	-2,9921	-5,0026	17,995
52903	31,503	-2,9973	-5,4024	19,053
52904	23,395	-3,0012	-19,447	5,0152
52905	23,63	-3,5012	-19,01	5,0083
52906	23,189	-3,0014	-18,774	5,4239
52907	24,065	-3,0006	-19,255	4,538
52908	31,724	-2,9973	-3,8989	19,426
52909	31,486	-3,4982	-4,3325	19,071
52910	31,018	-2,9935	-4,1475	19,047
52911	31,971	-2,998	-4,5338	19,691
52912	22,928	-3,0012	-20,315	5,057
52913	23,163	-3,5012	-19,878	5,0354
52914	22,722	-3,0011	-19,642	5,4283
52915	23,598	-3,0006	-20,123	4,5962
52916	32,085	-2,9886	-3,0417	19,934
52917	31,928	-3,5024	-3,4596	19,908
52918	31,466	-2,9795	-3,3027	19,853
52919	32,417	-2,9986	-3,6529	19,806
52920	22,461	-3,0012	-21,183	5,1242
52921	22,695	-3,5012	-20,746	5,0899
52922	22,255	-3,0015	-20,51	5,4622
52923	23,131	-3,0006	-20,991	4,6783
52924	32,383	-2,9944	-2,1058	20,072
52925	32,205	-3,4773	-2,6024	20,15
52926	31,757	-2,806	-2,4832	20,176
52927	32,71	-2,989	-2,7704	20,066
52928	21,994	-3,0012	-22,05	5,2132
52929	22,228	-3,5012	-21,614	5,168
52930	21,788	-3,0013	-21,378	5,5215
52931	22,663	-3,0006	-21,859	4,7809
52932	32,562	-2,9863	-1,2051	20,284
52933	32,49	-3,5027	-1,6364	20,357
52934	32,008	-2,9267	-1,5447	20,413
52935	33,002	-3,005	-1,777	20,383
52936	21,527	-3,0012	-22,918	5,3212
52937	21,761	-3,5012	-22,481	5,2665
52938	21,321	-3,0013	-22,245	5,6032
52939	22,196	-3,0006	-22,727	4,9011
52940	32,606	-2,8757	-0,22875	20,274
52941	32,562	-3,4861	-0,81645	20,51
52942	32,063	-2,7547	-0,77777	20,462
52943	33,083	-2,9812	-0,90476	20,576
52944	21,059	-3,0012	-23,786	5,4458
52945	21,294	-3,5012	-23,349	5,3828
52946	20,853	-3,0008	-23,113	5,7046
52947	21,729	-3,0006	-23,594	5,0367
52948	32,682	-2,9159	0,74983	20,353
52949	32,613	-3,4104	0,44454	20,575
52950	32,168	-2,7501	0,24559	20,512
52951	33,144	-2,8945	0,17897	20,66
52952	20,592	-3,0012	-24,654	5,585
52953	20,827	-3,5012	-24,217	5,5147
52954	20,386	-3,0004	-23,981	5,8231
52955	21,262	-3,0006	-24,462	5,186
52956	32,605	-3,0212	1,4711	20,233
52957	32,649	-3,564	1,2215	20,418
52958	32,29	-2,9993	0,89269	20,429
52959	33,159	-3,0214	1,0583	20,578
52960	20,125	-3,001	-25,521	5,7369
52961	20,359	-3,5018	-25,087	5,6603
52962	19,92	-3,0012	-24,848	5,9569
52963	20,795	-3,0006	-25,33	5,3469
52964	32,369	-2,9977	2,2518	20,077
52965	32,483	-3,4974	1,8416	20,3
52966	32,067	-2,9868	1,8521	20,326
52967	32,97	-2,9999	1,8799	20,348
52968	19,661	-3,0004	-26,39	5,8984
52969	19,892	-3,5009	-25,953	5,818
52970	19,453	-3,0009	-25,716	6,1043
52971	20,329	-3,0004	-26,194	5,5174
52972	32,085	-3,0031	3,1218	19,918
52973	32,246	-3,4945	2,7238	20,129
52974	31,856	-2,9265	2,6954	20,072
52975	32,73	-2,9981	2,8047	20,075
52976	19,195	-3,	-27,259	6,0693
52977	19,427	-3,5012	-26,824	5,984
52978	18,988	-3,0008	-26,584	6,262
52979	19,866	-3,	-27,06	5,6948
52980	31,743	-3,0053	3,9134	19,488
52981	31,905	-3,524	3,5483	19,887
52982	31,559	-2,9937	3,4881	19,731
52983	32,399	-3,006	3,6925	19,805
52984	18,725	-2,9999	-28,125	6,2506
52985	18,96	-3,5012	-27,692	6,1602
52986	18,52	-3,0003	-27,453	6,4313
52987	19,398	-3,	-27,928	5,8812
52988	31,323	-3,0074	4,7542	18,559
52989	31,548	-3,5091	4,3534	19,135
52990	31,093	-3,0286	4,1709	19,052
52991	32,009	-3,	4,5066	19,752
52992	18,255	-2,9999	-28,991	6,4372
52993	18,49	-3,5011	-28,558	6,3442
52994	18,05	-3,0012	-28,318	6,6101
52995	18,928	-2,9999	-28,794	6,0738
52996	30,854	-3,0074	5,6208	17,479
52997	31,085	-3,5126	5,2431	18,042
52998	30,633	-3,0254	5,0565	17,992
52999	31,53	-3,0074	5,4183	19,122
53000	17,788	-3,	-29,858	6,6252
53001	18,022	-3,5012	-29,425	6,531
53002	17,582	-3,0006	-29,186	6,7937
53003	18,461	-3,	-29,662	6,2674
53004	30,385	-3,0012	6,4792	16,057
53005	30,622	-3,504	6,0583	16,859
53006	30,18	-3,0176	5,8462	16,931
53007	31,067	-3,	6,2516	17,442
53008	17,321	-3,0003	-30,725	6,8142
53009	17,556	-3,5013	-30,293	6,7197
53010	17,116	-3,0014	-30,052	6,9808
53011	17,994	-3,	-30,53	6,461
53012	29,912	-3,0012	7,3574	14,293
53013	30,141	-3,5042	6,9422	15,156
53014	29,693	-3,0113	6,7202	15,401
53015	30,588	-3,0012	7,155	15,164
53016	16,856	-3,0011	-31,591	7,0016
53017	17,089	-3,5015	-31,16	6,9085
53018	16,649	-3,0013	-30,92	7,1705
53019	17,527	-3,0003	-31,397	6,6525
53020	29,445	-3,	8,2105	12,497
53021	29,673	-3,5019	7,779	13,373
53022	29,22	-3,0084	7,5447	13,792
53023	30,121	-3,	8,0081	12,915
53024	16,39	-3,0016	-32,458	7,1857
53025	16,623	-3,502	-32,027	7,0946
53026	16,183	-3,002	-31,786	7,36
53027	17,061	-3,0008	-32,263	6,8387
53028	28,971	-3,	9,0888	10,791
53029	29,201	-3,5001	8,6482	11,596
53030	28,744	-3,0016	8,4095	12,138
53031	29,648	-3,	8,8864	10,846
53032	15,922	-3,0013	-33,326	7,3652
53033	16,156	-3,5021	-32,895	7,2767
53034	15,717	-3,0018	-32,653	7,5482
53035	16,594	-3,0008	-33,131	7,0179
53036	28,499	-3,	9,9671	9,3347
53037	28,73	-3,4989	9,5245	10,016
53038	28,274	-2,9966	9,2754	10,645
53039	29,175	-3,	9,7647	9,1281
53040	15,453	-3,0008	-34,195	7,5368
53041	15,688	-3,5017	-33,763	7,4524
53042	15,249	-3,002	-33,521	7,733
53043	16,125	-3,0005	-34,	7,1874
53044	28,026	-3,	10,845	8,1581
53045	28,258	-3,4985	10,403	8,7061
53046	27,807	-2,9947	10,156	9,3633
53047	28,702	-3,	10,643	7,7789
53048	14,987	-3,0012	-35,061	7,6976
53049	15,22	-3,5016	-34,631	7,6188
53050	14,781	-3,0023	-34,388	7,9115
53051	15,658	-3,0003	-34,867	7,3437
53052	27,553	-3,	11,724	7,2446
53053	27,789	-3,4986	11,285	7,6639
53054	27,339	-2,9943	11,04	8,323
53055	28,229	-3,	11,521	6,7599
53056	14,521	-3,0017	-35,928	7,8474
53057	14,754	-3,5021	-35,498	7,7742
53058	14,315	-3,0019	-35,255	8,0822
53059	15,192	-3,0009	-35,734	7,485
53060	27,08	-3,	12,602	6,5558
53061	27,316	-3,4991	12,163	6,8729
53062	26,871	-2,9953	11,923	7,5113
53063	27,756	-3,	12,4	6,0131
53064	14,054	-3,0014	-36,796	7,9865
53065	14,287	-3,502	-36,366	7,9188
53066	13,848	-3,001	-36,122	8,2443
53067	14,725	-3,0008	-36,602	7,6113
53068	26,606	-2,9988	13,482	6,0483
53069	26,843	-3,4996	13,042	6,2833
53070	26,4	-2,9974	12,805	6,8947
53071	27,283	-3,	13,278	5,4801
53072	13,587	-3,0009	-37,663	8,1157
53073	13,82	-3,5018	-37,233	8,0525
53074	13,381	-3,0008	-36,989	8,3968
53075	14,257	-3,0006	-37,47	7,7232
53076	26,133	-2,9982	14,362	5,6844
53077	26,37	-3,4988	13,921	5,8534
53078	25,929	-2,9983	13,689	6,4309
53079	26,809	-2,9988	14,158	5,1102
53080	13,12	-3,0004	-38,53	8,2384
53081	13,353	-3,5015	-38,101	8,1774
53082	12,914	-3,0006	-37,855	8,5403
53083	13,79	-3,0003	-38,337	7,824
53084	25,66	-2,9989	15,24	5,4335
53085	25,897	-3,4996	14,8	5,5504
53086	25,455	-2,9981	14,565	6,1005
53087	26,337	-2,9994	15,036	4,8649
53088	12,652	-2,9993	-39,397	8,3606
53089	12,886	-3,5011	-38,968	8,2978
53090	12,448	-2,9995	-38,721	8,6767
53091	13,323	-3,0001	-39,205	7,9211
53092	25,187	-2,9994	16,117	5,27
53093	25,424	-3,4995	15,679	5,3456
53094	24,983	-2,9992	15,443	5,8655
53095	25,864	-2,9995	15,914	4,7143
53096	12,185	-2,9988	-40,264	8,4902
53097	12,418	-3,5002	-39,836	8,4207
53098	11,98	-2,9977	-39,587	8,8099
53099	12,855	-2,9992	-40,072	8,0258
53100	24,714	-3,	16,996	5,1747
53101	24,95	-3,4999	16,557	5,218
53102	24,51	-2,9998	16,321	5,7072
53103	25,391	-2,9999	16,792	4,6354
53104	11,718	-2,9991	-41,13	8,6372
53105	11,951	-3,5005	-40,703	8,5545
53106	11,515	-3,0025	-40,451	8,9437
53107	12,389	-2,9996	-40,939	8,1531
53108	24,241	-3,0004	17,874	5,1348
53109	24,478	-3,5004	17,435	5,1515
53110	24,037	-3,0004	17,199	5,612
53111	24,918	-3,0001	17,671	4,6127
53112	11,249	-2,9989	-41,996	8,8116
53113	11,482	-3,5001	-41,569	8,7102
53114	11,047	-3,0011	-41,316	9,0874
53115	11,921	-2,9995	-41,806	8,3225
53116	23,768	-3,0007	18,752	5,1403
53117	24,005	-3,5006	18,313	5,1352
53118	23,564	-3,0008	18,077	5,568
53119	24,445	-3,0003	18,549	4,6351
53120	10,782	-2,9994	-42,871	9,0124
53121	11,014	-3,4998	-42,436	8,8951
53122	10,575	-2,9994	-42,182	9,2458
53123	11,453	-2,9994	-42,673	8,5507
53124	23,295	-3,0007	19,63	5,1838
53125	23,532	-3,5007	19,191	5,1602
53126	23,091	-3,0023	18,956	5,5675
53127	23,972	-3,0004	19,427	4,6946
53128	10,316	-3,	-43,748	9,2286
53129	10,545	-3,5001	-43,309	9,1045
53130	10,106	-2,998	-43,058	9,4117
53131	10,987	-3,	-43,549	8,8412
53132	22,822	-3,0006	20,508	5,2598
53133	23,059	-3,5007	20,07	5,2203
53134	22,619	-3,0011	19,833	5,6044
53135	23,499	-3,0004	20,306	4,7852
53136	9,8484	-3,	-44,616	9,4252
53137	10,082	-3,5002	-44,172	9,3169
53138	9,6328	-2,9968	-43,926	9,5684
53139	10,519	-3,	-44,417	9,1811
53140	22,349	-3,0004	21,386	5,3644
53141	22,586	-3,5006	20,947	5,3107
53142	22,146	-3,0008	20,71	5,6734
53143	23,026	-3,0003	21,184	4,9029
53144	9,3812	-3,	-45,484	9,5357
53145	9,6183	-3,501	-45,037	9,4847
53146	9,1705	-3,0003	-44,791	9,6637
53147	10,052	-3,	-45,285	9,5142
53148	21,877	-3,0002	22,264	5,4944
53149	22,113	-3,5004	21,825	5,4284
53150	21,673	-3,0004	21,588	5,7711
53151	22,553	-3,0002	22,062	5,0448
53152	8,9212	-3,0019	-46,329	9,4836
53153	9,1556	-3,5025	-45,901	9,5379
53154	8,7126	-3,0039	-45,653	9,6493
53155	9,5847	-3,	-46,153	9,7435
53156	21,404	-3,	23,142	5,6481
53157	21,64	-3,5003	22,703	5,5702
53158	21,201	-3,0002	22,466	5,8949
53159	22,081	-3,	22,94	5,2086
53160	8,4674	-3,0012	-47,163	9,2266
53161	8,7022	-3,5033	-46,736	9,4011
53162	8,26	-3,0129	-46,491	9,4742
53163	9,1246	-3,0019	-46,998	9,7431
53164	20,932	-3,	24,021	5,8238
53165	21,167	-3,5003	23,581	5,7351
53166	20,728	-2,9999	23,344	6,043
53167	21,608	-3,	23,818	5,3933
53168	8,1084	-2,957	-47,988	8,8866
53169	8,2519	-3,4981	-47,577	9,0636
53170	7,8199	-2,9947	-47,329	9,1438
53171	8,6636	-2,9992	-47,855	9,402
53172	20,459	-3,	24,899	6,0201
53173	20,695	-3,5002	24,459	5,9212
53174	20,255	-2,9998	24,222	6,2138
53175	21,135	-3,	24,697	5,5975
53176	7,748	-2,98	-48,671	8,5459
53177	7,899	-3,4684	-48,404	8,7116
53178	7,3915	-2,9398	-48,046	8,8408
53179	8,2983	-2,9578	-48,691	8,6849
53180	19,985	-3,0001	25,777	6,2364
53181	20,222	-3,5	25,338	6,1273
53182	19,782	-2,9999	25,1	6,4058
53183	20,662	-3,	25,575	5,8203
53184	7,1488	-3,0437	-49,432	7,9793
53185	7,4208	-3,5255	-49,048	8,322
53186	7,0382	-2,9355	-48,75	8,4288
53187	7,8189	-3,023	-49,386	7,9873
53188	19,512	-3,0002	26,654	6,4713
53189	19,748	-3,5003	26,215	6,353
53190	19,309	-2,9999	25,977	6,618
53191	20,19	-3,0001	26,451	6,0608
53192	6,4773	-3,0422	-50,243	7,4
53193	6,7532	-3,5384	-49,889	7,683
53194	6,4256	-3,0443	-49,652	7,769
53195	7,1587	-3,0212	-50,255	7,3779
53196	19,039	-3,0001	27,532	6,7235
53197	19,276	-3,5001	27,093	6,5963
53198	18,836	-3,	26,855	6,8492
53199	19,717	-3,0001	27,328	6,3187
53200	5,8421	-3,0422	-50,857	7,0232
53201	6,1539	-3,5393	-50,543	7,2547
53202	5,8286	-3,0917	-50,237	7,3525
53203	6,5328	-3,0198	-50,939	7,014
53204	18,566	-3,0001	28,41	6,9928
53205	18,803	-3,5001	27,971	6,8572
53206	18,364	-2,9999	27,733	7,0984
53207	19,244	-3,0001	28,207	6,5931
53208	5,1461	-3,036	-51,41	6,7296
53209	5,4953	-3,5401	-51,136	6,9265
53210	5,1749	-3,1228	-50,857	6,967
53211	5,8413	-3,0205	-51,545	6,7537
53212	18,094	-3,	29,288	7,2781
53213	18,33	-3,5	28,849	7,1345
53214	17,891	-2,9997	28,611	7,3651
53215	18,771	-3,	29,085	6,8834
53216	4,4521	-3,0131	-51,908	6,4988
53217	4,7919	-3,5271	-51,674	6,6462
53218	4,4833	-3,0466	-51,276	6,6764
53219	5,0931	-3,0132	-52,096	6,5395
53220	17,621	-2,9998	30,166	7,5781
53221	17,856	-3,5001	29,728	7,4276
53222	17,418	-2,9995	29,489	7,6482
53223	18,298	-3,	29,963	7,1885
53224	3,6994	-3,0032	-52,319	6,3072
53225	4,0051	-3,4778	-52,212	6,419
53226	3,8424	-3,0235	-51,702	6,4371
53227	4,3486	-2,9974	-52,572	6,3762
53228	17,148	-2,9996	31,044	7,8918
53229	17,384	-3,4999	30,606	7,7345
53230	16,945	-2,9994	30,367	7,9465
53231	17,826	-2,9998	30,841	7,5071
53232	2,9032	-3,0032	-52,646	6,165
53233	3,2891	-3,513	-52,498	6,2777
53234	3,051	-3,009	-52,085	6,2195
53235	3,4943	-3,0032	-52,954	6,2374
53236	16,676	-2,9998	31,922	8,2175
53237	16,911	-3,4998	31,483	8,0547
53238	16,472	-2,9994	31,244	8,2589
53239	17,352	-2,9998	31,719	7,8384
53240	2,1198	-3,0056	-52,907	6,0569
53241	2,5298	-3,5066	-52,815	6,1456
53242	2,3113	-3,0416	-52,31	6,0777
53243	2,6674	-2,9976	-53,261	6,1315
53244	16,203	-2,9999	32,8	8,5539
53245	16,439	-3,5	32,361	8,3856
53246	15,999	-2,9997	32,122	8,5833
53247	16,88	-3,	32,597	8,1797
53248	1,3121	-3,0194	-53,068	5,9911
53249	1,7373	-3,5191	-53,024	6,0626
53250	1,6318	-3,0492	-52,672	6,017
53251	1,7962	-3,0059	-53,49	6,0589
53252	15,729	-2,9998	33,678	8,8982
53253	15,964	-3,5	33,24	8,7266
53254	15,523	-3,0002	33,002	8,9211
53255	16,406	-2,9999	33,476	8,53
53256	0,48796	-3,0193	-53,112	5,9435
53257	0,94898	-3,5262	-53,115	6,0148
53258	0,93218	-3,1212	-52,665	5,921
53259	0,92478	-3,0117	-53,605	6,0142
53260	15,257	-2,9997	34,557	9,2458
53261	15,492	-3,4998	34,118	9,0724
53262	15,053	-2,9993	33,878	9,2633
53263	15,934	-2,9998	34,354	8,8844
53264	-0,36347	-3,0177	-53,092	5,9372
53265	0,11341	-3,5189	-53,098	5,9699
53266	0,11552	-3,0727	-52,574	5,8643
53267	2,5329e-002	-3,0068	-53,625	5,9838
53268	14,785	-2,9998	35,435	9,593
53269	15,019	-3,5	34,997	9,421
53270	14,581	-2,9991	34,756	9,6123
53271	15,461	-2,9998	35,232	9,2389
53272	-1,2156	-3,0209	-53,012	5,9836
53273	-0,7604	-3,5191	-53,046	5,9991
53274	-0,62822	-3,0195	-52,558	5,8921
53275	-0,87498	-3,0117	-53,583	6,0075
53276	14,312	-3,	36,313	9,9343
53277	14,547	-3,5001	35,875	9,7662
53278	14,111	-2,9995	35,636	9,9628
53279	14,989	-3,	36,111	9,5874
53280	-2,0904	-3,0128	-52,87	6,0574
53281	-1,6028	-3,519	-52,934	6,055
53282	-1,3909	-3,0808	-52,562	5,9855
53283	-1,7699	-3,0116	-53,453	6,059
53284	13,838	-3,0001	37,191	10,263
53285	14,074	-3,5	36,753	10,102
53286	13,638	-2,9989	36,514	10,311
53287	14,516	-3,	36,989	9,9221
53288	-2,9456	-3,0057	-52,644	6,1702
53289	-2,4896	-3,5162	-52,734	6,1504
53290	-2,3214	-3,0413	-52,251	6,0769
53291	-2,6816	-3,0058	-53,256	6,1349
53292	13,365	-3,0001	38,07	10,568
53293	13,599	-3,5	37,631	10,421
53294	13,162	-2,9985	37,393	10,653
53295	14,041	-3,0001	37,867	10,233
53296	-3,7403	-3,0057	-52,317	6,3118
53297	-3,3262	-3,5189	-52,467	6,2844
53298	-3,1471	-3,0307	-52,054	6,2493
53299	-3,5365	-3,0058	-52,953	6,2419
53300	12,894	-3,	38,948	10,837
53301	13,128	-3,4999	38,51	10,71
53302	12,684	-2,9992	38,27	10,981
53303	13,57	-3,	38,746	10,503
53304	-4,5271	-3,0005	-51,912	6,4901
53305	-4,115	-3,5127	-52,125	6,444
53306	-3,9812	-3,0198	-51,674	6,4858
53307	-4,3593	-3,0057	-52,566	6,3749
53308	12,421	-3,	39,826	11,059
53309	12,655	-3,5003	39,387	10,959
53310	12,216	-3,0011	39,149	11,28
53311	13,097	-3,	39,624	10,717
53312	-5,2949	-2,8934	-51,526	6,691
53313	-4,907	-3,5021	-51,708	6,6487
53314	-4,7548	-3,0168	-51,273	6,7248
53315	-5,1679	-3,0003	-52,099	6,5427
53316	11,948	-3,	40,705	11,218
53317	12,181	-3,5005	40,266	11,154
53318	11,74	-3,0047	40,026	11,549
53319	12,624	-3,	40,502	10,855
53320	-5,9219	-2,903	-50,997	6,9738
53321	-5,6141	-3,3963	-51,315	6,8526
53322	-5,4529	-2,8695	-51,076	6,8627
53323	-5,9246	-2,8978	-51,652	6,7213
53324	11,475	-3,	41,583	11,3
53325	11,709	-3,5013	41,145	11,279
53326	11,272	-3,0042	40,905	11,767
53327	12,151	-3,	41,381	10,893
53328	-6,4485	-2,9555	-50,371	7,3198
53329	-6,1655	-3,5162	-50,657	7,1927
53330	-5,8289	-3,052	-50,402	7,2349
53331	-6,5377	-3,0085	-50,964	6,9997
53332	11,002	-3,	42,462	11,296
53333	11,242	-3,501	42,022	11,315
53334	10,807	-3,0025	41,782	11,923
53335	11,678	-3,	42,259	10,814
53336	-6,9815	-2,9496	-49,68	7,8105
53337	-6,689	-3,4591	-50,04	7,5847
53338	-6,2793	-3,0047	-49,946	7,564
53339	-7,1322	-2,9489	-50,35	7,3074
53340	10,529	-3,	43,34	11,201
53341	10,774	-3,5013	42,901	11,258
53342	10,343	-3,0019	42,661	12,005
53343	11,205	-3,	43,138	10,609
53344	-7,5026	-3,0014	-48,875	8,3825
53345	-7,2217	-3,5081	-49,251	8,1715
53346	-6,8135	-2,9886	-49,037	8,2387
53347	-7,6828	-3,0017	-49,533	7,8641
53348	10,065	-3,0037	44,218	11,008
53349	10,301	-3,5039	43,78	11,113
53350	9,8755	-3,004	43,538	12,006
53351	10,732	-3,	44,016	10,289
53352	-7,9889	-3,	-48,075	8,8144
53353	-7,7407	-3,5022	-48,487	8,6458
53354	-7,331	-2,9962	-48,224	8,7306
53355	-8,1905	-3,	-48,747	8,6115
53356	9,5917	-3,0037	45,096	10,767
53357	9,8435	-3,5063	44,659	10,86
53358	9,4129	-3,0123	44,416	11,912
53359	10,268	-3,0037	44,894	9,8784
53360	-8,4521	-3,	-47,209	9,2086
53361	-8,2086	-3,5018	-47,643	9,0205
53362	-7,7811	-2,9972	-47,389	9,1116
53363	-8,6536	-3,	-47,882	9,391
53364	9,1096	-3,	45,976	10,519
53365	9,3636	-3,5038	45,538	10,595
53366	8,9267	-3,0145	45,295	11,779
53367	9,7858	-3,	45,773	9,4907
53368	-8,9197	-3,0001	-46,34	9,4822
53369	-8,6797	-3,5011	-46,777	9,3937
53370	-8,2378	-2,9956	-46,525	9,4647
53371	-9,1247	-3,	-47,007	9,7427
53372	8,6368	-3,	46,856	10,284
53373	8,8911	-3,5058	46,415	10,329
53374	8,443	-3,0106	46,175	11,613
53375	9,3125	-3,	46,653	9,1641
53376	-9,3758	-2,9979	-45,472	9,5364
53377	-9,1438	-3,5	-45,911	9,538
53378	-8,686	-2,9993	-45,683	9,647
53379	-9,5892	-3,0002	-46,144	9,7421
53380	8,1766	-3,007	47,708	10,194
53381	8,4176	-3,507	47,289	10,127
53382	8,0054	-3,0194	47,047	11,388
53383	8,8394	-3,	47,533	8,9595
53384	-9,8321	-2,995	-44,602	9,4305
53385	-9,5909	-3,4964	-45,042	9,4914
53386	-9,1422	-2,9903	-44,797	9,6728
53387	-10,047	-2,9979	-45,273	9,5122
53388	7,7121	-3,0098	48,524	10,34
53389	7,9597	-3,5152	48,129	10,166
53390	7,5442	-3,0315	47,873	11,458
53391	8,3786	-3,007	48,384	8,7977
53392	-10,297	-2,9936	-43,735	9,2401
53393	-10,055	-3,495	-44,176	9,3301
53394	-9,6058	-2,9892	-43,931	9,5802
53395	-10,514	-2,9971	-44,404	9,1818
53396	7,1932	-2,999	49,278	10,779
53397	7,4634	-3,5055	48,916	10,524
53398	7,0925	-3,0011	48,751	11,588
53399	7,8863	-3,0017	49,205	8,9367
53400	-10,776	-2,9965	-42,868	9,017
53401	-10,528	-3,4944	-43,305	9,117
53402	-10,062	-2,9843	-43,077	9,4339
53403	-10,98	-2,9965	-43,537	8,846
53404	6,6206	-2,9996	49,969	11,466
53405	6,858	-3,5045	49,653	11,251
53406	6,5988	-2,9258	49,429	12,03
53407	7,3165	-2,9957	49,947	9,6807
53408	-11,256	-3,	-42,001	8,8063
53409	-11,01	-3,498	-42,437	8,8985
53410	-10,548	-2,989	-42,207	9,2601
53411	-11,46	-3,	-42,67	8,5463
53412	5,956	-2,9262	50,685	12,368
53413	6,2945	-3,5106	50,328	11,995
53414	5,8181	-2,9506	49,878	13,342
53415	6,693	-3,0033	50,65	10,717
53416	-11,724	-3,	-41,133	8,6324
53417	-11,48	-3,4985	-41,57	8,713
53418	-11,023	-2,991	-41,337	9,1007
53419	-11,927	-3,	-41,802	8,3189
53420	5,2921	-2,9227	51,234	13,436
53421	5,6136	-3,4202	50,979	13,037
53422	5,3433	-2,8979	50,678	13,691
53423	5,9594	-2,9226	51,354	12,134
53424	-12,191	-3,	-40,265	8,4854
53425	-11,947	-3,499	-40,702	8,5577
53426	-11,498	-2,9934	-40,468	8,9523
53427	-12,394	-3,	-40,935	8,1501
53428	4,6269	-2,9993	51,588	14,418
53429	4,9944	-3,5003	51,408	14,01
53430	4,7777	-2,9842	50,934	14,46
53431	5,2725	-3,	51,817	13,487
53432	-12,658	-3,	-39,398	8,356
53433	-12,414	-3,4992	-39,835	8,4236
53434	-11,967	-2,996	-39,598	8,817
53435	-12,862	-3,	-40,067	8,0228
53436	3,8386	-2,9997	51,952	15,433
53437	4,2343	-3,5101	51,791	15,136
53438	4,0814	-2,9912	51,304	15,228
53439	4,4809	-2,9994	52,25	14,946
53440	-13,12	-2,9998	-38,533	8,2372
53441	-12,884	-3,4997	-38,968	8,2993
53442	-12,441	-2,9985	-38,731	8,6791
53443	-13,329	-3,	-39,199	7,9186
53444	2,9841	-2,9987	52,29	16,355
53445	3,3941	-3,5034	52,143	16,133
53446	3,2607	-2,9955	51,636	15,997
53447	3,622	-3,0005	52,641	16,352
53448	-13,583	-3,	-37,668	8,1172
53449	-13,347	-3,5004	-38,103	8,1806
53450	-12,909	-3,0005	-37,868	8,5409
53451	-13,791	-2,9998	-38,334	7,8245
53452	2,1124	-2,9958	52,576	17,121
53453	2,5298	-3,5003	52,443	17,004
53454	2,3692	-2,9962	51,948	16,589
53455	2,7234	-2,9983	52,962	17,593
53456	-14,051	-3,0002	-36,8	7,9874
53457	-13,815	-3,5007	-37,236	8,055
53458	-13,377	-3,0026	-37,001	8,3972
53459	-14,258	-3,0002	-37,467	7,7232
53460	1,2544	-2,9948	52,799	17,736
53461	1,6658	-3,5027	52,691	17,648
53462	1,4594	-2,9895	52,267	17,074
53463	1,8153	-2,9976	53,21	18,57
53464	-14,518	-3,0006	-35,933	7,8481
53465	-14,283	-3,5007	-36,369	7,9208
53466	-13,844	-3,0034	-36,134	8,2445
53467	-14,726	-3,	-36,599	7,6109
53468	0,4183	-2,9972	52,906	18,067
53469	0,81042	-3,4991	52,876	18,177
53470	0,77054	-3,0072	52,568	17,505
53471	0,90724	-2,9972	53,376	19,239
53472	-14,985	-3,0013	-35,066	7,6982
53473	-14,75	-3,5015	-35,502	7,7763
53474	-14,311	-3,0044	-35,267	8,083
53475	-15,193	-3,0006	-35,732	7,4847
53476	-0,45208	-2,9987	52,898	18,026
53477	-3,6348e-002	-3,5026	52,917	18,285
53478	2,5596e-002	-3,0414	52,527	17,514
53479	6,7066e-003	-3,	53,413	19,426
53480	-15,452	-3,0013	-34,199	7,5371
53481	-15,217	-3,5015	-34,634	7,6205
53482	-14,778	-3,0047	-34,4	7,9124
53483	-15,66	-3,0007	-34,864	7,343
53484	-1,3582	-2,9941	52,801	17,705
53485	-0,9496	-3,5035	52,819	18,035
53486	-0,84062	-2,9936	52,545	17,527
53487	-0,94034	-2,9987	53,369	19,207
53488	-15,919	-3,0013	-33,331	7,3661
53489	-15,684	-3,5015	-33,767	7,4541
53490	-15,245	-3,0048	-33,533	7,734
53491	-16,127	-3,0007	-33,997	7,1867
53492	-2,2084	-2,9987	52,59	17,125
53493	-1,836	-3,5029	52,672	17,577
53494	-1,709	-3,0182	52,278	17,064
53495	-1,8719	-2,9954	53,221	18,572
53496	-16,386	-3,0014	-32,463	7,1873
53497	-16,151	-3,5015	-32,899	7,2789
53498	-15,712	-3,0049	-32,665	7,5499
53499	-16,594	-3,0007	-33,129	7,0177
53500	-3,0342	-3,0021	52,303	16,334
53501	-2,6385	-3,5062	52,446	16,937
53502	-2,434	-3,0432	51,966	16,556
53503	-2,7492	-3,0034	52,968	17,588
53504	-16,853	-3,0015	-31,596	7,0026
53505	-16,618	-3,502	-32,031	7,0967
53506	-16,179	-3,0052	-31,798	7,3618
53507	-17,062	-3,0007	-32,262	6,8385
53508	-3,8626	-2,9995	51,949	15,408
53509	-3,4729	-3,5026	52,13	16,05
53510	-3,2633	-3,0308	51,671	16,03
53511	-3,6333	-2,9987	52,652	16,353
53512	-17,321	-3,0012	-30,728	6,8143
53513	-17,086	-3,5021	-31,163	6,9099
53514	-16,646	-3,0055	-30,931	7,1717
53515	-17,529	-3,0007	-31,394	6,6517
53516	-4,6561	-3,0013	51,511	14,385
53517	-4,2831	-3,5044	51,716	15,065
53518	-4,0756	-3,0177	51,284	15,278
53519	-4,4812	-3,0008	52,242	14,947
53520	-17,788	-3,0008	-29,861	6,625
53521	-17,553	-3,5018	-30,296	6,7208
53522	-17,113	-3,0053	-30,063	6,9818
53523	-17,996	-3,0004	-30,526	6,46
53524	-5,4132	-3,0055	51,009	13,276
53525	-5,0552	-3,5028	51,238	13,975
53526	-4,8315	-3,0031	50,814	14,474
53527	-5,2899	-3,0005	51,756	13,451
53528	-18,255	-3,0009	-28,993	6,437
53529	-18,02	-3,5017	-29,428	6,5319
53530	-17,581	-3,0007	-29,191	6,794
53531	-18,463	-3,0004	-29,659	6,2662
53532	-6,2109	-2,9863	50,425	12,004
53533	-5,815	-3,5067	50,689	12,795
53534	-5,4923	-2,9971	50,274	13,691
53535	-6,0525	-3,0051	51,198	11,966
53536	-18,722	-3,0009	-28,126	6,2522
53537	-18,487	-3,5009	-28,561	6,3455
53538	-18,048	-3,0005	-28,323	6,6107
53539	-18,931	-3,0004	-28,791	6,0728
53540	-6,8504	-2,9878	49,831	11,048
53541	-6,5835	-3,4877	50,081	11,524
53542	-6,3702	-3,0391	49,707	12,319
53543	-6,8451	-2,9814	50,554	10,43
53544	-19,189	-3,0009	-27,259	6,0728
53545	-18,954	-3,5011	-27,694	6,1633
53546	-18,515	-3,0006	-27,456	6,4337
53547	-19,398	-3,0005	-27,924	5,8819
53548	-7,3175	-3,0163	49,218	10,529
53549	-7,101	-3,5175	49,525	10,752
53550	-6,7703	-3,0553	49,107	11,975
53551	-7,3855	-3,007	49,914	9,5226
53552	-19,658	-3,0004	-26,394	5,8992
53553	-19,422	-3,5018	-26,826	5,9869
53554	-18,982	-3,0009	-26,589	6,2646
53555	-19,863	-3,0004	-27,06	5,6966
53556	-7,7585	-3,0096	48,519	10,229
53557	-7,608	-3,5173	48,864	10,21
53558	-7,3148	-3,0362	48,632	11,146
53559	-7,9358	-3,0108	49,185	8,8382
53560	-20,127	-3,	-25,528	5,7347
53561	-19,891	-3,5014	-25,961	5,8177
53562	-19,451	-3,0003	-25,724	6,104
53563	-20,331	-3,	-26,197	5,5162
53564	-8,1716	-2,9999	47,727	10,179
53565	-8,0158	-3,5064	48,139	10,016
53566	-7,5327	-3,0174	47,925	11,425
53567	-8,3738	-2,9999	48,403	8,7814
53568	-20,594	-3,	-24,661	5,5828
53569	-20,358	-3,5014	-25,093	5,6601
53570	-19,918	-3,0002	-24,857	5,9565
53571	-20,798	-3,	-25,33	5,3451
53572	-8,636	-3,	46,858	10,28
53573	-8,4437	-3,5111	47,278	10,089
53574	-7,9989	-3,0006	47,095	11,329
53575	-8,839	-3,	47,534	8,958
53576	-21,058	-3,	-23,792	5,4453
53577	-20,825	-3,5013	-24,225	5,5143
53578	-20,384	-3,0002	-23,99	5,8226
53579	-21,265	-3,	-24,462	5,1841
53580	-9,1065	-2,9967	45,985	10,51
53581	-8,882	-3,5	46,423	10,329
53582	-8,4387	-2,9918	46,212	11,581
53583	-9,311	-3,	46,656	9,1587
53584	-21,526	-3,	-22,925	5,3204
53585	-21,29	-3,5013	-23,357	5,384
53586	-20,849	-2,9999	-23,122	5,7056
53587	-21,729	-3,	-23,594	5,0367
53588	-9,5743	-2,9922	45,112	10,776
53589	-9,342	-3,498	45,543	10,627
53590	-8,8941	-2,9849	45,332	11,8
53591	-9,7823	-2,9967	45,782	9,4833
53592	-21,992	-3,0002	-22,058	5,2126
53593	-21,76	-3,5013	-22,49	5,2655
53594	-21,319	-2,9998	-22,255	5,602
53595	-22,199	-3,	-22,727	4,8992
53596	-10,042	-2,9902	44,234	11,022
53597	-9,8045	-3,4945	44,669	10,91
53598	-9,3429	-2,988	44,454	11,996
53599	-10,252	-2,9955	44,904	9,8891
53600	-22,456	-3,0009	-21,192	5,1253
53601	-22,221	-3,5006	-21,626	5,1697
53602	-21,782	-3,0004	-21,388	5,5223
53603	-22,663	-3,0002	-21,859	4,7812
53604	-10,52	-2,9947	43,35	11,2
53605	-10,27	-3,4919	43,797	11,137
53606	-9,8124	-2,9808	43,574	12,077
53607	-10,723	-2,9947	44,026	10,287
53608	-22,923	-3,0011	-20,325	5,0577
53609	-22,688	-3,5012	-20,759	5,091
53610	-22,248	-3,0019	-20,523	5,4626
53611	-23,13	-3,0007	-20,993	4,6783
53612	-10,999	-3,	42,467	11,293
53613	-10,753	-3,4976	42,909	11,274
53614	-10,299	-2,9863	42,683	12,051
53615	-11,202	-3,	43,143	10,606
53616	-23,391	-3,0009	-19,456	5,0154
53617	-23,156	-3,5009	-19,891	5,0357
53618	-22,716	-3,0019	-19,655	5,4282
53619	-23,597	-3,0004	-20,125	4,5962
53620	-11,472	-3,	41,589	11,299
53621	-11,231	-3,4979	42,029	11,321
53622	-10,776	-2,9888	41,802	11,95
53623	-11,675	-3,	42,265	10,812
53624	-23,858	-3,0012	-18,588	5,0025
53625	-23,626	-3,5019	-19,02	5,0074
53626	-23,184	-3,0017	-18,788	5,4228
53627	-24,065	-3,0005	-19,257	4,5377
53628	-11,943	-2,9979	40,711	11,219
53629	-11,704	-3,4985	41,151	11,279
53630	-11,258	-2,9917	40,919	11,777
53631	-12,148	-3,	41,386	10,892
53632	-24,329	-3,0007	-17,72	5,0233
53633	-24,093	-3,5022	-18,153	5,0119
53634	-23,651	-3,0018	-17,921	5,4516
53635	-24,532	-3,0007	-18,389	4,5076
53636	-12,417	-2,9967	39,831	11,061
53637	-12,181	-3,497	40,271	11,153
53638	-11,735	-2,9924	40,038	11,551
53639	-12,62	-2,9979	40,508	10,856
53640	-24,796	-3,001	-16,853	5,0891
53641	-24,563	-3,5016	-17,284	5,0538
53642	-24,121	-3,0018	-17,053	5,5197
53643	-25,002	-3,	-17,521	4,5103
53644	-12,892	-2,9984	38,952	10,838
53645	-12,654	-3,498	39,393	10,959
53646	-12,215	-2,9959	39,156	11,279
53647	-13,094	-2,9988	39,629	10,718
53648	-25,263	-3,001	-15,986	5,2089
53649	-25,028	-3,5028	-16,419	5,1472
53650	-24,586	-3,0037	-16,188	5,6412
53651	-25,466	-3,001	-16,655	4,56
53652	-13,366	-2,9997	38,073	10,567
53653	-13,13	-3,4994	38,513	10,709
53654	-12,69	-2,9984	38,274	10,977
53655	-13,568	-2,9996	38,751	10,504
53656	-25,73	-3,0019	-15,119	5,3962
53657	-25,498	-3,5019	-15,549	5,2978
53658	-25,055	-3,0032	-15,32	5,8207
53659	-25,936	-3,	-15,785	4,6613
53660	-13,84	-3,0009	37,195	10,262
53661	-13,604	-3,5004	37,634	10,419
53662	-13,165	-3,0002	37,395	10,652
53663	-14,041	-3,0001	37,872	10,233
53664	-26,193	-3,0037	-14,254	5,6706
53665	-25,959	-3,503	-14,689	5,5252
53666	-25,519	-3,0033	-14,456	6,0794
53667	-26,4	-3,0019	-14,92	4,837
53668	-14,314	-3,0015	36,317	9,9341
53669	-14,078	-3,5014	36,756	10,1
53670	-13,639	-3,0019	36,516	10,311
53671	-14,514	-3,0007	36,994	9,9232
53672	-26,659	-3,0028	-13,388	6,0536
53673	-26,426	-3,5037	-13,823	5,8484
53674	-25,985	-3,0051	-13,592	6,431
53675	-26,867	-3,0018	-14,053	5,1038
53676	-14,786	-3,0017	35,439	9,5929
53677	-14,55	-3,5015	35,878	9,7646
53678	-14,113	-3,0024	35,638	9,962
53679	-14,987	-3,0007	36,116	9,5887
53680	-27,125	-3,0016	-12,522	6,578
53681	-26,891	-3,5028	-12,958	6,2952
53682	-26,449	-3,0131	-12,734	6,8978
53683	-27,334	-3,001	-13,186	5,4939
53684	-15,258	-3,0017	34,561	9,2458
53685	-15,023	-3,5017	35,	9,4196
53686	-14,587	-3,0055	34,762	9,6102
53687	-15,46	-3,0009	35,238	9,2403
53688	-27,59	-3,0008	-11,655	7,2823
53689	-27,357	-3,5024	-12,091	6,9013
53690	-26,912	-3,011	-11,869	7,5218
53691	-27,8	-3,0006	-12,32	6,0459
53692	-15,73	-3,0014	33,682	8,8982
53693	-15,493	-3,5015	34,123	9,0726
53694	-15,056	-3,0028	33,882	9,2622
53695	-15,932	-3,0007	34,36	8,886
53696	-28,056	-3,0008	-10,788	8,2075
53697	-27,823	-3,5014	-11,223	7,707
53698	-27,377	-3,0009	-10,996	8,3414
53699	-28,266	-3,0001	-11,452	6,8104
53700	-16,202	-3,001	32,803	8,5547
53701	-15,967	-3,5011	33,243	8,7256
53702	-15,528	-3,0022	33,003	8,9186
53703	-16,405	-3,0006	33,481	8,5316
53704	-28,522	-3,0023	-9,9207	9,3863
53705	-28,289	-3,5021	-10,355	8,7484
53706	-27,842	-3,0022	-10,127	9,3772
53707	-28,733	-3,0007	-10,584	7,8423
53708	-16,674	-3,0005	31,923	8,219
53709	-16,439	-3,5007	32,363	8,3858
53710	-16,	-3,0014	32,124	8,5835
53711	-16,877	-3,0003	32,602	8,182
53712	-28,987	-3,0009	-9,056	10,831
53713	-28,757	-3,5041	-9,4897	10,05
53714	-28,31	-3,0158	-9,2565	10,655
53715	-29,2	-3,0016	-9,7173	9,1951
53716	-17,145	-3,	31,043	7,8935
53717	-16,91	-3,5003	31,483	8,0552
53718	-16,469	-3,0014	31,241	8,2598
53719	-17,349	-3,0001	31,724	7,8406
53720	-29,462	-2,9993	-8,1828	12,535
53721	-29,223	-3,4998	-8,6257	11,615
53722	-28,766	-2,9903	-8,4027	12,131
53723	-29,665	-2,9993	-8,8519	10,904
53724	-17,617	-2,9999	30,162	7,5799
53725	-17,379	-3,4995	30,603	7,7367
53726	-16,94	-3,0001	30,357	7,9486
53727	-17,821	-2,9999	30,844	7,5096
53728	-29,923	-2,9964	-7,3234	14,337
53729	-29,703	-3,5031	-7,7451	13,427
53730	-29,238	-2,9864	-7,5343	13,799
53731	-30,141	-3,	-7,9763	12,975
53732	-18,091	-3,0001	29,283	7,2796
53733	-17,853	-3,5	29,72	7,429
53734	-17,413	-3,0003	29,473	7,65
53735	-18,294	-3,	29,965	7,1907
53736	-30,37	-2,9931	-6,4739	16,036
53737	-30,15	-3,4984	-6,8943	15,224
53738	-29,637	-2,9758	-6,795	15,255
53739	-30,594	-2,9964	-7,1249	15,203
53740	-18,564	-3,0006	28,407	6,9939
53741	-18,327	-3,5004	28,843	7,1359
53742	-17,888	-3,0017	28,596	7,3665
53743	-18,767	-3,0002	29,087	6,8855
53744	-30,852	-2,9968	-5,5898	17,452
53745	-30,601	-3,4975	-6,037	16,839
53746	-30,136	-2,9842	-5,8234	16,935
53747	-31,056	-2,9968	-6,2591	17,389
53748	-19,039	-3,0012	27,532	6,724
53749	-18,801	-3,5008	27,973	6,8578
53750	-18,363	-3,0033	27,722	7,0994
53751	-19,241	-3,0005	28,21	6,595
53752	-31,333	-3,	-4,7146	18,575
53753	-31,078	-3,5009	-5,1609	18,043
53754	-30,609	-2,9943	-4,9234	18,104
53755	-31,543	-3,	-5,3731	19,121
53756	-19,512	-3,0015	26,657	6,4712
53757	-19,276	-3,5016	27,094	6,5957
53758	-18,841	-3,0051	26,852	6,8469
53759	-19,714	-3,0007	27,334	6,3201
53760	-31,758	-3,0006	-3,8786	19,464
53761	-31,528	-3,5029	-4,3219	19,11
53762	-31,061	-3,0036	-4,097	19,109
53763	-32,004	-3,	-4,5163	19,721
53764	-19,984	-3,0016	25,781	6,2367
53765	-19,748	-3,5017	26,22	6,3529
53766	-19,315	-3,0065	25,98	6,6147
53767	-20,186	-3,0008	26,459	6,0627
53768	-32,088	-3,0069	-3,0438	19,925
53769	-31,911	-3,5007	-3,4767	19,875
53770	-31,476	-3,0168	-3,2608	19,898
53771	-32,414	-3,0012	-3,6567	19,794
53772	-20,456	-3,0017	24,904	6,0213
53773	-20,22	-3,5016	25,343	6,1279
53774	-19,783	-3,003	25,104	6,4051
53775	-20,658	-3,0008	25,582	5,8221
53776	-32,348	-3,0064	-2,1933	20,11
53777	-32,184	-3,5166	-2,6257	20,158
53778	-31,864	-3,0591	-2,5088	20,149
53779	-32,714	-3,0066	-2,7696	20,086
53780	-20,928	-3,0016	24,026	5,8252
53781	-20,692	-3,5016	24,465	5,922
53782	-20,254	-3,0029	24,227	6,2142
53783	-21,131	-3,0009	24,704	5,5995
53784	-32,54	-3,0001	-1,3247	20,254
53785	-32,419	-3,5131	-1,757	20,354
53786	-32,003	-3,0543	-1,6732	20,341
53787	-32,961	-3,0001	-1,8619	20,38
53788	-21,401	-3,0011	23,148	5,6494
53789	-21,165	-3,5012	23,587	5,7359
53790	-20,726	-3,005	23,349	6,0438
53791	-21,603	-3,0007	23,826	5,3952
53792	-32,627	-3,	-0,44058	20,327
53793	-32,569	-3,4986	-0,87437	20,496
53794	-32,098	-3,013	-0,83609	20,514
53795	-33,1	-3,	-0,9336	20,604
53796	-21,874	-3,0007	22,27	5,4954
53797	-21,638	-3,5008	22,709	5,571
53798	-21,198	-3,0014	22,471	5,8958
53799	-22,076	-3,0004	22,948	5,2104
53800	-32,611	-2,9997	0,47034	20,33
53801	-32,59	-3,5113	1,7076e-002	20,524
53802	-32,062	-2,9963	7,5117e-002	20,623
53803	-33,146	-3,	3,8071e-003	20,667
53804	-22,347	-3,0005	21,392	5,365
53805	-22,111	-3,5006	21,83	5,4287
53806	-21,67	-3,001	21,593	5,7717
53807	-22,549	-3,0003	22,07	5,0461
53808	-32,504	-2,9981	1,3692	20,286
53809	-32,523	-3,5081	0,926	20,505
53810	-32,183	-3,0668	0,99026	20,424
53811	-33,083	-2,9997	0,96376	20,613
53812	-22,819	-3,0003	20,514	5,2604
53813	-22,583	-3,5005	20,952	5,3112
53814	-22,143	-3,0006	20,715	5,6738
53815	-23,022	-3,0002	21,192	4,9041
53816	-32,299	-2,9876	2,2376	20,088
53817	-32,405	-3,5015	1,8058	20,387
53818	-32,008	-3,0166	1,7324	20,427
53819	-32,941	-2,9983	1,8842	20,416
53820	-23,292	-3,	19,635	5,1844
53821	-23,056	-3,5004	20,074	5,2208
53822	-22,616	-3,002	19,836	5,6048
53823	-23,494	-3,0001	20,313	4,7862
53824	-31,993	-2,9804	3,1268	19,844
53825	-32,114	-3,4891	2,6785	20,092
53826	-31,658	-2,8931	2,5634	20,277
53827	-32,685	-2,989	2,7991	20,042
53828	-23,765	-2,9996	18,757	5,141
53829	-23,529	-3,5002	19,196	5,1609
53830	-23,089	-2,9997	18,959	5,5681
53831	-23,967	-2,9999	19,435	4,6955
53832	-31,641	-2,9837	4,0143	19,368
53833	-31,79	-3,4907	3,5836	19,822
53834	-31,328	-3,0174	3,4676	19,721
53835	-32,346	-2,9905	3,7155	19,778
53836	-24,237	-2,9997	17,881	5,1349
53837	-24,001	-3,5	18,318	5,136
53838	-23,561	-3,0014	18,08	5,5692
53839	-24,44	-2,9997	18,557	4,6359
53840	-31,26	-2,9874	4,8666	18,466
53841	-31,442	-3,494	4,4615	18,973
53842	-30,902	-2,9967	4,4115	18,835
53843	-31,954	-2,9925	4,5949	19,687
53844	-24,709	-3,	17,005	5,1737
53845	-24,473	-3,5003	17,442	5,1518
53846	-24,033	-3,0015	17,204	5,6126
53847	-24,912	-3,	17,681	4,6126
53848	-30,84	-2,9949	5,6555	17,445
53849	-31,049	-3,4949	5,2932	17,981
53850	-30,731	-2,964	5,2008	17,833
53851	-31,516	-2,9949	5,4523	19,08
53852	-25,182	-3,	16,127	5,2681
53853	-24,946	-3,5003	16,564	5,2178
53854	-24,506	-3,0014	16,326	5,7078
53855	-25,385	-3,	16,803	4,6345
53856	-30,384	-3,	6,466	16,077
53857	-30,61	-3,5015	6,0512	16,855
53858	-30,21	-3,0123	5,8659	16,894
53859	-31,06	-3,	6,2633	17,411
53860	-25,655	-3,	15,249	5,4311
53861	-25,419	-3,5003	15,686	5,3451
53862	-24,978	-3,0013	15,448	5,8658
53863	-25,858	-3,	15,925	4,7126
53864	-29,892	-3,0013	7,3561	14,282
53865	-30,133	-3,5019	6,9127	15,201
53866	-29,684	-2,9997	6,7042	15,421
53867	-30,587	-3,	7,1423	15,174
53868	-26,128	-3,	14,371	5,6811
53869	-25,892	-3,5002	14,807	5,5493
53870	-25,45	-3,001	14,57	6,1012
53871	-26,331	-3,	15,047	4,8625
53872	-29,402	-3,0015	8,2443	12,424
53873	-29,645	-3,5015	7,7928	13,338
53874	-29,177	-3,0046	7,5924	13,701
53875	-30,095	-3,0013	8,0322	12,845
53876	-26,6	-3,	13,493	6,0424
53877	-26,364	-3,5001	13,929	5,8513
53878	-25,923	-3,0004	13,692	6,4336
53879	-26,804	-3,	14,169	5,1061
53880	-28,947	-3,0002	9,1114	10,749
53881	-29,176	-3,4991	8,6668	11,561
53882	-28,715	-3,0015	8,4607	12,043
53883	-29,623	-3,0002	8,909	10,795
53884	-27,073	-3,	12,615	6,5465
53885	-26,837	-3,4998	13,051	6,2786
53886	-26,395	-2,9991	12,814	6,8884
53887	-27,277	-3,	13,29	5,4733
53888	-28,492	-3,	9,9799	9,3137
53889	-28,722	-3,4984	9,5332	10,001
53890	-28,266	-2,998	9,3225	10,569
53891	-29,168	-3,	9,7776	9,1026
53892	-27,546	-3,	11,736	7,2314
53893	-27,31	-3,4994	12,173	6,8653
53894	-26,867	-2,997	11,936	7,4986
53895	-27,749	-3,	12,412	6,0032
53896	-28,019	-3,	10,858	8,1412
53897	-28,253	-3,4984	10,414	8,6896
53898	-27,803	-2,9931	10,167	9,3433
53899	-28,695	-3,	10,656	7,7601
53900	-27,783	-3,4988	11,295	7,6522
53901	-27,335	-2,9945	11,051	8,3074
53902	-28,222	-3,	11,534	6,7456
53903	11,247	-4,0009	-42,009	8,7935
53904	10,777	-4,0005	-42,873	8,987
53905	11,449	-4,0003	-42,686	8,5244
53906	11,015	-4,5003	-42,436	8,8782
53907	11,715	-4,0014	-41,142	8,6274
53908	11,916	-4,0006	-41,819	8,3069
53909	11,484	-4,5006	-41,569	8,7037
53910	10,311	-4,0004	-43,734	9,1929
53911	10,979	-4,0001	-43,551	8,8065
53912	10,542	-4,5001	-43,295	9,0766
53913	12,183	-4,0018	-40,274	8,485
53914	12,384	-4,0008	-40,951	8,1451
53915	11,952	-4,5008	-40,701	8,5533
53916	9,8517	-4,0012	-44,593	9,3764
53917	10,516	-4,0002	-44,414	9,134
53918	10,085	-4,5002	-44,152	9,2655
53919	12,651	-4,0021	-39,407	8,3579
53920	12,852	-4,001	-40,083	8,0222
53921	12,42	-4,501	-39,834	8,4208
53922	9,3927	-4,0034	-45,454	9,4852
53923	10,052	-4,001	-45,278	9,4626
53924	9,6271	-4,501	-45,011	9,4124
53925	13,119	-4,0022	-38,539	8,2368
53926	13,319	-4,0011	-39,216	7,9201
53927	12,888	-4,5011	-38,966	8,2975
53928	8,9366	-4,0038	-46,308	9,4492
53929	9,5892	-4,0025	-46,142	9,7039
53930	9,1707	-4,5025	-45,869	9,4537
53931	13,586	-4,0024	-37,671	8,1142
53932	13,787	-4,0012	-38,348	7,8241
53933	13,356	-4,5011	-38,098	8,1757
53934	8,4868	-4,0002	-47,15	9,2224
53935	9,1287	-4,0013	-47,	9,7332
53936	8,7242	-4,5013	-46,718	9,328
53937	14,053	-4,0025	-36,803	7,9848
53938	14,254	-4,0012	-37,48	7,7234
53939	13,823	-4,5012	-37,231	8,0494
53940	8,0425	-4,0095	-47,992	8,8701
53941	8,6746	-3,9988	-47,848	9,4349
53942	8,2821	-4,4988	-47,558	9,0244
53943	14,52	-4,0025	-35,936	7,8456
53944	14,721	-4,0012	-36,612	7,6116
53945	14,29	-4,5012	-36,363	7,9147
53946	7,5717	-4,0139	-48,781	8,4684
53947	8,2205	-4,0106	-48,704	8,6665
53948	7,836	-4,5106	-48,396	8,7168
53949	14,988	-4,0025	-35,068	7,6954
53950	15,188	-4,0013	-35,744	7,4853
53951	14,757	-4,5013	-35,495	7,7697
53952	7,0251	-4,0201	-49,505	7,9727
53953	7,3072	-4,5033	-49,122	8,3424
53954	7,7149	-4,0032	-49,492	7,9161
53955	15,455	-4,0026	-34,2	7,5345
53956	15,655	-4,0013	-34,876	7,3438
53957	15,224	-4,5013	-34,627	7,614
53958	6,4298	-4,0355	-50,189	7,4919
53959	6,7225	-4,5168	-49,829	7,8269
53960	7,1287	-4,0168	-50,236	7,4337
53961	15,922	-4,0025	-33,332	7,3639
53962	16,123	-4,0013	-34,008	7,1879
53963	15,691	-4,5013	-33,759	7,4482
53964	5,8071	-4,0372	-50,822	7,1083
53965	6,124	-4,5186	-50,481	7,3974
53966	6,5058	-4,0186	-50,915	7,0875
53967	16,389	-4,0025	-32,464	7,1856
53968	16,59	-4,0013	-33,141	7,0193
53969	16,158	-4,5013	-32,891	7,2738
53970	5,1411	-4,0313	-51,4	6,793
53971	5,4743	-4,5186	-51,108	7,0358
53972	5,8239	-4,0185	-51,543	6,8163
53973	16,856	-4,0025	-31,596	7,0015
53974	17,057	-4,0013	-32,273	6,8406
53975	16,625	-4,5013	-32,023	7,0927
53976	4,3449	-3,9918	-51,977	6,5134
53977	4,7928	-4,5127	-51,652	6,7486
53978	5,0956	-4,0128	-52,096	6,5994
53979	17,323	-4,0025	-30,728	6,814
53980	17,524	-4,0013	-31,405	6,6544
53981	17,092	-4,5013	-31,155	6,9071
53982	3,5948	-3,9877	-52,391	6,3524
53983	3,9818	-4,4791	-52,198	6,5055
53984	4,2287	-3,9792	-52,647	6,405
53985	17,79	-4,0025	-29,86	6,6254
53986	17,991	-4,0012	-30,537	6,4633
53987	17,559	-4,5012	-30,288	6,7193
53988	2,9157	-4,0163	-52,667	6,2189
53989	3,3224	-4,5085	-52,515	6,3674
53990	3,4989	-4,0086	-52,956	6,2934
53991	18,257	-4,0025	-28,993	6,438
53992	18,459	-4,0012	-29,669	6,27
53993	18,026	-4,5012	-29,42	6,5315
53994	2,1473	-4,0201	-52,932	6,1132
53995	2,5708	-4,5078	-52,847	6,2365
53996	2,6635	-4,0078	-53,285	6,1852
53997	18,724	-4,0024	-28,125	6,2538
53998	18,926	-4,0012	-28,801	6,0771
53999	18,493	-4,5012	-28,552	6,3459
54000	1,3742	-4,026	-53,071	6,049
54001	1,8197	-4,5123	-53,043	6,1512
54002	1,8134	-4,0123	-53,494	6,1128
54003	19,192	-4,0024	-27,257	6,075
54004	19,393	-4,0012	-27,933	5,8867
54005	18,961	-4,5012	-27,684	6,1648
54006	0,57443	-4,0259	-53,1	6,0029
54007	1,015	-4,5136	-53,107	6,0991
54008	0,95104	-4,0136	-53,606	6,067
54009	19,659	-4,0016	-26,387	5,9036
54010	19,86	-4,0012	-27,066	5,701
54011	19,428	-4,5012	-26,816	5,9899
54012	-0,28352	-4,0204	-53,052	5,9896
54013	0,18341	-4,5122	-53,071	6,0617
54014	7,2437e-002	-4,0146	-53,613	6,0404
54015	20,126	-4,0017	-25,519	5,7413
54016	20,328	-4,0004	-26,195	5,5221
54017	19,895	-4,5004	-25,946	5,8234
54018	-1,1476	-4,0172	-52,967	6,0273
54019	-0,68886	-4,5081	-52,992	6,0785
54020	-0,85166	-4,0097	-53,555	6,0573
54021	20,594	-4,0018	-24,651	5,59
54022	20,795	-4,0012	-25,33	5,3514
54023	20,362	-4,5012	-25,08	5,6669
54024	-2,0019	-4,0223	-52,798	6,0997
54025	-1,5342	-4,509	-52,875	6,1292
54026	-1,7319	-4,0131	-53,436	6,1036
54027	21,061	-4,0012	-23,78	5,4517
54028	21,263	-4,0006	-24,459	5,1912
54029	20,83	-4,5006	-24,21	5,5224
54030	-2,8702	-4,0293	-52,557	6,2182
54031	-2,4132	-4,5133	-52,653	6,2318
54032	-2,6333	-4,0176	-53,202	6,1839
54033	21,528	-4,0012	-22,912	5,3281
54034	21,73	-4,0006	-23,591	5,0428
54035	21,297	-4,5006	-23,342	5,3918
54036	-3,701	-4,0259	-52,275	6,37
54037	-3,2893	-4,516	-52,418	6,3726
54038	-3,5163	-4,0203	-52,918	6,2982
54039	21,996	-4,0012	-22,044	5,2213
54040	22,197	-4,0006	-22,724	4,9081
54041	21,764	-4,5006	-22,474	5,2769
54042	-4,4949	-4,0144	-51,921	6,5513
54043	-4,0685	-4,5099	-52,106	6,5357
54044	-4,3488	-4,0143	-52,554	6,4349
54045	22,463	-4,0012	-21,177	5,1337
54046	22,664	-4,0006	-21,856	4,7891
54047	22,231	-4,5006	-21,606	5,1801
54048	-5,2261	-4,0051	-51,497	6,765
54049	-4,8444	-4,5045	-51,725	6,7373
54050	-5,155	-4,009	-52,115	6,604
54051	22,93	-4,0012	-20,309	5,0682
54052	23,131	-4,0006	-20,988	4,6879
54053	22,698	-4,5006	-20,738	5,104
54054	-5,8577	-4,0095	-50,976	7,0329
54055	-5,5043	-4,5006	-51,272	6,959
54056	-5,8768	-4,0045	-51,6	6,7913
54057	23,397	-4,0012	-19,441	5,0283
54058	23,599	-4,0006	-20,12	4,6075
54059	23,165	-4,5006	-19,871	5,0518
54060	-6,4059	-4,0198	-50,327	7,4215
54061	-6,0931	-4,5089	-50,674	7,2918
54062	-6,5276	-4,0113	-50,989	7,0481
54063	23,864	-4,0011	-18,573	5,0187
54064	24,066	-4,0006	-19,252	4,5513
54065	23,632	-4,5006	-19,003	5,0277
54066	-6,9293	-4,0176	-49,611	7,9071
54067	-6,6271	-4,5109	-49,97	7,743
54068	-7,1035	-4,0126	-50,277	7,4084
54069	24,331	-4,0011	-17,706	5,0454
54070	24,533	-4,0006	-18,385	4,5241
54071	24,099	-4,5006	-18,135	5,0368
54072	-7,4598	-4,0089	-48,863	8,4075
54073	-7,1735	-4,5067	-49,249	8,2592
54074	-7,6609	-4,009	-49,535	7,878
54075	24,798	-4,001	-16,838	5,1161
54076	25,	-4,0005	-17,517	4,5322
54077	24,566	-4,5005	-17,267	5,0863
54078	-7,9604	-4,004	-48,056	8,8224
54079	-8,17	-4,0022	-48,732	8,6355
54080	-7,7225	-4,5022	-48,48	8,6726
54081	25,265	-4,0008	-15,97	5,2414
54082	25,467	-4,0005	-16,649	4,5843
54083	25,033	-4,5004	-16,399	5,1851
54084	-8,4362	-4,003	-47,21	9,1875
54085	-8,6455	-4,0018	-47,878	9,4068
54086	-8,2017	-4,5018	-47,641	8,9695
54087	25,732	-4,0006	-15,102	5,4354
54088	25,934	-4,0004	-15,781	4,692
54089	25,5	-4,5004	-15,531	5,3456
54090	-8,9038	-4,001	-46,348	9,4426
54091	-9,1156	-4,0011	-47,014	9,7267
54092	-8,6674	-4,5011	-46,786	9,3063
54093	26,198	-4,	-14,235	5,7164
54094	26,402	-4,0002	-14,913	4,8715
54095	25,967	-4,5002	-14,664	5,584
54096	-9,359	-3,9984	-45,481	9,4911
54097	-9,5816	-3,9999	-46,145	9,7014
54098	-9,1299	-4,4999	-45,918	9,4526
54099	26,664	-3,9997	-13,367	6,1101
54100	26,868	-3,9998	-14,046	5,1443
54101	26,434	-4,4998	-13,796	5,9215
54102	-9,8135	-3,9964	-44,616	9,3909
54103	-10,039	-3,9985	-45,279	9,4632
54104	-9,5785	-4,4985	-45,052	9,4246
54105	27,129	-4,0001	-12,498	6,649
54106	27,334	-3,9999	-13,178	5,5411
54107	26,9	-4,4999	-12,928	6,3868
54108	-10,286	-3,9957	-43,746	9,2071
54109	-10,504	-3,9979	-44,412	9,1378
54110	-10,042	-4,4979	-44,185	9,2848
54111	27,59	-3,9996	-11,628	7,3689
54112	27,8	-4,0002	-12,308	6,0997
54113	27,366	-4,5002	-12,059	7,0138
54114	-10,762	-3,9959	-42,874	8,9983
54115	-10,978	-3,9979	-43,541	8,8069
54116	-10,517	-4,4979	-43,313	9,0908
54117	28,054	-3,999	-10,762	8,2962
54118	28,263	-3,9994	-11,44	6,8664
54119	27,822	-4,4994	-11,188	7,8498
54120	-11,233	-3,9965	-42,006	8,8049
54121	-11,447	-3,998	-42,673	8,5271
54122	-10,989	-4,498	-42,445	8,8953
54123	28,517	-4,	-9,9017	9,4596
54124	28,731	-3,9996	-10,575	7,8813
54125	28,287	-4,4996	-10,324	8,899
54126	-11,703	-3,9975	-41,138	8,6381
54127	-11,917	-3,9985	-41,805	8,3098
54128	-11,462	-4,4985	-41,577	8,7188
54129	28,976	-4,0008	-9,0464	10,873
54130	29,193	-4,0004	-9,7114	9,2081
54131	28,747	-4,5004	-9,4661	10,192
54132	-12,17	-3,9982	-40,271	8,4958
54133	-12,384	-3,999	-40,937	8,149
54134	-11,93	-4,499	-40,709	8,5686
54135	29,432	-4,0001	-8,1957	12,501
54136	29,658	-4,0004	-8,852	10,873
54137	29,209	-4,5004	-8,6167	11,714
54138	-12,64	-3,9989	-39,405	8,3668
54139	-12,851	-3,9992	-40,07	8,0263
54140	-12,403	-4,4992	-39,844	8,4314
54141	29,881	-3,9987	-7,3417	14,254
54142	30,117	-3,9997	-7,9926	12,869
54143	29,662	-4,4997	-7,7618	13,427
54144	-13,111	-4,0003	-38,538	8,2426
54145	-13,321	-3,9997	-39,203	7,9226
54146	-12,872	-4,4997	-38,977	8,3063
54147	30,342	-3,9962	-6,471	15,973
54148	30,575	-3,999	-7,1296	15,098
54149	30,107	-4,499	-6,9041	15,168
54150	-13,58	-4,0011	-37,671	8,1184
54151	-13,79	-4,0006	-38,336	7,8252
54152	-13,341	-4,5006	-38,11	8,1831
54153	30,799	-3,9956	-5,6127	17,36
54154	31,046	-3,9971	-6,2529	17,339
54155	30,567	-4,4971	-6,0326	16,737
54156	-14,047	-4,0012	-36,804	7,9885
54157	-14,257	-4,0005	-37,469	7,7241
54158	-13,808	-4,5005	-37,243	8,0563
54159	31,251	-3,9986	-4,7627	18,459
54160	31,5	-3,9984	-5,401	19,067
54161	31,014	-4,4984	-5,1939	17,845
54162	-14,514	-4,0016	-35,937	7,8489
54163	-14,724	-4,0007	-36,601	7,6119
54164	-14,276	-4,5007	-36,376	7,9213
54165	31,69	-4,0032	-3,8932	19,444
54166	31,968	-4,0002	-4,5303	19,724
54167	31,484	-4,5002	-4,3376	19,031
54168	-14,981	-4,0018	-35,07	7,6985
54169	-15,191	-4,0009	-35,734	7,4853
54170	-14,743	-4,5009	-35,508	7,7761
54171	32,047	-3,9912	-3,0203	19,989
54172	31,864	-4,5031	-3,4543	20,019
54173	32,383	-4,0031	-3,6559	19,829
54174	-15,449	-4,0017	-34,202	7,5374
54175	-15,659	-4,0009	-34,866	7,3435
54176	-15,21	-4,5009	-34,641	7,6201
54177	32,312	-3,9857	-2,1329	20,215
54178	32,164	-4,4881	-2,5543	20,371
54179	32,703	-3,9881	-2,7553	20,154
54180	-15,916	-4,0017	-33,334	7,3668
54181	-16,126	-4,0009	-33,998	7,1872
54182	-15,678	-4,5009	-33,773	7,4542
54183	32,49	-4,0025	-1,2477	20,421
54184	32,391	-4,4976	-1,6773	20,595
54185	32,937	-3,9976	-1,8275	20,506
54186	-16,383	-4,0021	-32,466	7,1882
54187	-16,593	-4,0009	-33,131	7,0185
54188	-16,145	-4,5009	-32,906	7,2796
54189	32,569	-4,0207	-0,14316	20,401
54190	32,523	-4,5049	-0,81416	20,758
54191	33,075	-4,0049	-0,90517	20,758
54192	-16,851	-4,0026	-31,598	7,0039
54193	-17,06	-4,0013	-32,263	6,8395
54194	-16,613	-4,5013	-32,038	7,0983
54195	32,58	-4,0585	0,91619	20,505
54196	32,555	-4,5159	0,29362	20,785
54197	33,115	-4,0159	0,25655	20,81
54198	-17,318	-4,0027	-30,731	6,8164
54199	-17,528	-4,0013	-31,395	6,6531
54200	-17,08	-4,5013	-31,17	6,9126
54201	32,526	-4,0401	1,592	20,396
54202	32,521	-4,5426	1,1317	20,691
54203	33,086	-4,0427	1,1387	20,713
54204	-17,786	-4,0026	-29,863	6,6277
54205	-17,995	-4,0013	-30,527	6,462
54206	-17,547	-4,5013	-30,303	6,7247
54207	32,361	-3,9942	2,3135	20,18
54208	32,401	-4,4975	1,8684	20,551
54209	32,966	-3,9976	1,9124	20,478
54210	-18,252	-4,0017	-28,996	6,4405
54211	-18,462	-4,0013	-29,66	6,2687
54212	-18,014	-4,5013	-29,435	6,5368
54213	32,066	-4,0154	3,1502	19,97
54214	32,18	-4,4967	2,7463	20,313
54215	32,729	-3,9967	2,8261	20,152
54216	-18,719	-4,001	-28,129	6,2567
54217	-18,929	-4,0004	-28,793	6,0761
54218	-18,481	-4,5004	-28,568	6,3514
54219	31,71	-4,0279	3,9883	19,452
54220	31,869	-4,5188	3,5792	19,969
54221	32,384	-4,0188	3,6917	19,831
54222	-19,187	-4,0019	-27,261	6,0774
54223	-19,396	-4,0006	-27,925	5,8858
54224	-18,948	-4,5006	-27,701	6,1701
54225	31,31	-4,0143	4,8423	18,519
54226	31,992	-4,0092	4,5783	19,765
54227	31,547	-4,5092	4,4444	19,046
54228	-19,655	-4,0027	-26,393	5,9054
54229	-19,864	-4,0013	-27,057	5,6997
54230	-19,417	-4,5013	-26,832	5,9946
54231	30,852	-4,0092	5,6805	17,386
54232	31,534	-4,0051	5,4336	19,145
54233	31,096	-4,5051	5,2769	17,924
54234	-20,122	-4,0027	-25,525	5,743
54235	-20,331	-4,0014	-26,189	5,5207
54236	-19,884	-4,5014	-25,965	5,8278
54237	30,377	-4,007	6,5212	15,947
54238	31,062	-4,004	6,2938	17,334
54239	30,618	-4,504	6,1122	16,706
54240	-20,589	-4,0027	-24,658	5,5916
54241	-20,798	-4,0014	-25,322	5,3503
54242	-20,351	-4,5014	-25,097	5,6711
54243	29,901	-4,0049	7,3638	14,235
54244	30,586	-4,003	7,1526	15,082
54245	30,137	-4,503	6,9472	15,119
54246	-21,057	-4,0026	-23,79	5,453
54247	-21,266	-4,0013	-24,454	5,19
54248	-20,818	-4,5013	-24,23	5,5262
54249	29,429	-4,0019	8,2167	12,472
54250	30,113	-4,0019	8,0147	12,832
54251	29,659	-4,5019	7,7915	13,38
54252	-21,524	-4,0026	-22,923	5,329
54253	-21,733	-4,0013	-23,587	5,0416
54254	-21,286	-4,5013	-23,362	5,395
54255	28,959	-3,999	9,0839	10,82
54256	29,641	-4,0001	8,8839	10,818
54257	29,19	-4,5001	8,6471	11,671
54258	-21,989	-4,0017	-22,058	5,2226
54259	-22,2	-4,0013	-22,719	4,9069
54260	-21,753	-4,5013	-22,495	5,2796
54261	28,49	-3,9974	9,9602	9,3856
54262	29,17	-3,9989	9,7602	9,1373
54263	28,721	-4,4989	9,5204	10,117
54264	-22,454	-4,0009	-21,193	5,1354
54265	-22,665	-4,0004	-21,854	4,7887
54266	-22,218	-4,5004	-21,63	5,1829
54267	28,022	-3,9971	10,842	8,2093
54268	28,699	-3,9985	10,639	7,8102
54269	28,252	-4,4985	10,399	8,8085
54270	-22,921	-4,001	-20,326	5,069
54271	-23,132	-4,0005	-20,987	4,6875
54272	-22,685	-4,5005	-20,763	5,106
54273	27,552	-3,9977	11,724	7,2897
54274	28,229	-3,9986	11,52	6,7952
54275	27,788	-4,4986	11,286	7,7485
54276	-23,391	-4,0019	-19,455	5,0276
54277	-23,6	-4,0005	-20,119	4,6066
54278	-23,153	-4,5005	-19,895	5,0525
54279	27,08	-3,9986	12,603	6,5984
54280	27,756	-3,9991	12,399	6,0521
54281	27,315	-4,4991	12,164	6,9475
54282	-23,86	-4,0029	-18,585	5,0166
54283	-24,069	-4,0014	-19,249	4,5498
54284	-23,622	-4,5014	-19,025	5,0267
54285	26,607	-3,9995	13,481	6,0869
54286	27,284	-3,9996	13,277	5,518
54287	26,843	-4,4996	13,043	6,3471
54288	-24,328	-4,0031	-17,717	5,0422
54289	-24,536	-4,0015	-18,381	4,5225
54290	-24,09	-4,5015	-18,157	5,0345
54291	26,134	-4,0002	14,36	5,7183
54292	26,811	-4,	14,156	5,1448
54293	26,37	-4,5	13,922	5,9074
54294	-24,795	-4,0034	-16,85	5,1117
54295	-25,004	-4,0016	-17,513	4,5304
54296	-24,557	-4,5016	-17,29	5,0822
54297	25,661	-4,0002	15,239	5,4617
54298	26,338	-4,0002	15,034	4,8951
54299	25,897	-4,5002	14,8	5,5954
54300	-25,263	-4,0036	-15,982	5,2356
54301	-25,471	-4,0017	-16,646	4,5822
54302	-25,025	-4,5017	-16,422	5,1789
54303	25,187	-4,0001	16,118	5,2931
54304	25,864	-4,	15,913	4,7393
54305	25,424	-4,5	15,679	5,3827
54306	-25,727	-4,003	-15,12	5,4261
54307	-25,938	-4,0019	-15,778	4,6898
54308	-25,492	-4,5019	-15,555	5,3369
54309	24,714	-4,0003	16,996	5,1944
54310	25,391	-4,0001	16,792	4,6565
54311	24,951	-4,5001	16,557	5,249
54312	-26,192	-4,0029	-14,258	5,702
54313	-26,403	-4,0011	-14,916	4,8674
54314	-25,957	-4,5011	-14,692	5,5704
54315	24,241	-4,0005	17,874	5,1517
54316	24,919	-4,0003	17,67	4,6305
54317	24,478	-4,5003	17,435	5,1779
54318	-26,658	-4,0037	-13,393	6,0885
54319	-26,87	-4,0018	-14,049	5,139
54320	-26,424	-4,5018	-13,825	5,9029
54321	23,768	-4,0006	18,753	5,1549
54322	24,445	-4,0003	18,548	4,6503
54323	24,004	-4,5003	18,314	5,1579
54324	-27,124	-4,0036	-12,527	6,6165
54325	-27,336	-4,0019	-13,183	5,532
54326	-26,89	-4,5019	-12,959	6,3601
54327	23,295	-4,0006	19,631	5,1966
54328	23,972	-4,0003	19,426	4,7076
54329	23,531	-4,5003	19,192	5,1799
54330	-27,589	-4,0031	-11,658	7,3237
54331	-27,803	-4,0018	-12,315	6,0867
54332	-27,356	-4,5018	-12,091	6,9776
54333	22,822	-4,0006	20,508	5,2711
54334	23,499	-4,0003	20,304	4,7965
54335	23,058	-4,5003	20,07	5,2377
54336	-28,056	-4,0026	-10,79	8,2456
54337	-28,269	-4,0013	-11,447	6,8483
54338	-27,822	-4,5013	-11,223	7,7921
54339	22,349	-4,0005	21,386	5,3746
54340	23,027	-4,0003	21,182	4,9127
54341	22,585	-4,5003	20,947	5,3264
54342	-28,524	-4,0038	-9,9235	9,4103
54343	-28,737	-4,0013	-10,579	7,8689
54344	-28,289	-4,5013	-10,354	8,8384
54345	21,876	-4,0005	22,264	5,504
54346	22,553	-4,0002	22,061	5,0537
54347	22,112	-4,5002	21,826	5,4427
54348	-28,992	-4,003	-9,0594	10,834
54349	-29,204	-4,0025	-9,713	9,1977
54350	-28,758	-4,5025	-9,4942	10,125
54351	21,404	-4,0005	23,142	5,6571
54352	22,081	-4,0003	22,939	5,2168
54353	21,639	-4,5003	22,703	5,5837
54354	-29,463	-4,0036	-8,1881	12,507
54355	-29,672	-4,0005	-8,8467	10,879
54356	-29,227	-4,5005	-8,6283	11,676
54357	20,931	-4,0005	24,02	5,8324
54358	21,608	-4,0003	23,817	5,4009
54359	21,166	-4,5003	23,582	5,7478
54360	-29,93	-4,0051	-7,316	14,313
54361	-30,143	-4,0031	-7,974	12,915
54362	-29,697	-4,5031	-7,7576	13,43
54363	20,457	-4,0003	24,898	6,0283
54364	21,135	-4,0002	24,695	5,6046
54365	20,693	-4,5002	24,46	5,9333
54366	-30,38	-4,0027	-6,4574	16,018
54367	-30,605	-4,002	-7,107	15,169
54368	-30,151	-4,502	-6,8916	15,21
54369	19,984	-4,0002	25,776	6,2439
54370	20,662	-4,	25,573	5,827
54371	20,22	-4,5	25,338	6,1389
54372	-30,827	-4,0017	-5,6081	17,388
54373	-31,059	-4,0007	-6,2522	17,353
54374	-30,592	-4,5007	-6,0405	16,743
54375	19,512	-4,0002	26,654	6,4781
54376	20,189	-4,0002	26,452	6,0673
54377	19,747	-4,5002	26,216	6,3637
54378	-31,273	-4,0038	-4,7682	18,482
54379	-31,516	-4,0009	-5,3949	19,088
54380	-31,037	-4,5009	-5,1975	17,865
54381	19,039	-4,	27,532	6,73
54382	19,716	-4,	27,33	6,3249
54383	19,274	-4,5	27,094	6,6067
54384	-31,681	-4,003	-3,92	19,429
54385	-31,971	-4,0029	-4,5466	19,712
54386	-31,48	-4,5029	-4,3673	19,
54387	18,566	-4,	28,41	6,9989
54388	19,243	-4,	28,208	6,599
54389	18,801	-4,5	27,972	6,867
54390	-32,007	-4,0104	-3,0585	19,977
54391	-31,829	-4,5001	-3,5024	19,97
54392	-32,371	-4,0002	-3,6644	19,817
54393	18,092	-4,0001	29,289	7,284
54394	18,77	-4,	29,086	6,8889
54395	18,328	-4,5	28,85	7,1439
54396	-32,256	-4,0233	-2,1894	20,226
54397	-32,12	-4,5103	-2,6339	20,361
54398	-32,679	-4,0102	-2,7699	20,169
54399	17,619	-4,0002	30,168	7,584
54400	18,297	-4,0001	29,965	7,1938
54401	17,855	-4,5001	29,729	7,4363
54402	-32,448	-4,0117	-1,3067	20,4
54403	-32,337	-4,5131	-1,75	20,609
54404	-32,907	-4,013	-1,8509	20,513
54405	17,146	-4,	31,045	7,8974
54406	17,824	-4,0001	30,843	7,5123
54407	17,382	-4,5001	30,608	7,7428
54408	-32,532	-4,01	-0,41671	20,495
54409	-32,481	-4,4986	-0,85181	20,751
54410	-33,063	-3,9986	-0,91953	20,762
54411	16,673	-3,9999	31,922	8,2228
54412	17,351	-4,	31,721	7,843
54413	16,909	-4,5	31,485	8,062
54414	-32,503	-4,0197	0,47273	20,494
54415	-32,502	-4,5113	3,2667e-002	20,796
54416	-33,087	-4,0113	2,0979e-002	20,837
54417	16,2	-4,0001	32,801	8,5584
54418	16,878	-4,	32,599	8,1842
54419	16,436	-4,5	32,363	8,3923
54420	-32,425	-4,0116	1,3626	20,401
54421	-32,442	-4,5084	0,91613	20,756
54422	-33,033	-4,0084	0,95629	20,758
54423	15,728	-4,0001	33,68	8,9008
54424	16,405	-4,0001	33,478	8,5333
54425	15,962	-4,5001	33,242	8,7312
54426	-32,22	-4,0031	2,2467	20,209
54427	-32,302	-4,5032	1,8057	20,606
54428	-32,911	-4,0032	1,8922	20,526
54429	15,254	-4,0001	34,558	9,2476
54430	15,932	-4,	34,355	8,8865
54431	15,49	-4,5	34,119	9,0752
54432	-31,911	-3,9995	3,1353	19,927
54433	-32,017	-4,4999	2,6912	20,345
54434	-32,633	-3,9999	2,8073	20,152
54435	14,781	-4,0002	35,437	9,5941
54436	15,459	-4,0001	35,234	9,2404
54437	15,016	-4,5001	34,998	9,4216
54438	-31,591	-4,0011	4,0309	19,333
54439	-31,717	-4,4996	3,5912	19,89
54440	-32,313	-3,9995	3,7239	19,796
54441	14,308	-4,0001	36,315	9,934
54442	14,986	-4,0001	36,113	9,588
54443	14,543	-4,5001	35,876	9,7641
54444	-31,23	-4,0016	4,8882	18,408
54445	-31,434	-4,5015	4,4354	18,925
54446	-31,935	-4,0015	4,6076	19,682
54447	13,835	-3,9999	37,193	10,26
54448	14,513	-4,	36,991	9,9215
54449	14,07	-4,5	36,755	10,096
54450	-30,819	-4,0016	5,689	17,359
54451	-31,064	-4,5	5,2539	17,911
54452	-31,506	-4,	5,4615	19,076
54453	13,362	-3,9998	38,071	10,563
54454	14,04	-3,9999	37,869	10,23
54455	13,597	-4,4999	37,633	10,411
54456	-30,359	-4,0035	6,4979	15,967
54457	-30,597	-4,5015	6,0819	16,72
54458	-31,05	-4,0015	6,2876	17,315
54459	12,889	-4,0002	38,949	10,832
54460	13,567	-3,9999	38,748	10,5
54461	13,124	-4,4999	38,511	10,696
54462	-29,885	-4,0021	7,3495	14,256
54463	-30,111	-4,5019	6,9234	15,149
54464	-30,573	-4,0019	7,1488	15,067
54465	12,416	-4,0008	39,827	11,054
54466	13,094	-4,0003	39,625	10,715
54467	12,651	-4,5003	39,388	10,942
54468	-29,419	-3,999	8,2153	12,476
54469	-29,648	-4,5002	7,7776	13,407
54470	-30,104	-4,0002	8,0174	12,816
54471	11,942	-4,0018	40,706	11,214
54472	12,621	-4,0005	40,504	10,853
54473	12,178	-4,5005	40,267	11,135
54474	-28,951	-3,9973	9,0886	10,812
54475	-29,181	-4,4989	8,6488	11,668
54476	-29,633	-3,9989	8,8928	10,795
54477	11,476	-4,0023	41,583	11,293
54478	12,148	-4,0013	41,382	10,894
54479	11,705	-4,5013	41,146	11,261
54480	-28,484	-3,9968	9,9671	9,3749
54481	-28,714	-4,4984	9,5218	10,116
54482	-29,163	-3,9984	9,7689	9,1211
54483	11,015	-4,0023	42,461	11,277
54484	11,681	-4,001	42,26	10,811
54485	11,245	-4,501	42,022	11,296
54486	-28,017	-3,9972	10,85	8,198
54487	-28,25	-4,4984	10,406	8,7959
54488	-28,694	-3,9984	10,649	7,7933
54489	10,546	-4,0052	43,341	11,17
54490	11,213	-4,0013	43,139	10,597
54491	10,782	-4,5013	42,901	11,238
54492	-27,546	-3,9982	11,731	7,2838
54493	-27,783	-4,4988	11,291	7,7434
54494	-28,223	-3,9988	11,53	6,7847
54495	10,08	-4,0065	44,221	10,965
54496	10,74	-4,0039	44,018	10,264
54497	10,314	-4,5039	43,782	11,083
54498	-27,074	-3,9992	12,609	6,5954
54499	-27,31	-4,4994	12,169	6,9459
54500	-27,75	-3,9994	12,408	6,0456
54501	9,6154	-4,0065	45,1	10,689
54502	10,274	-4,0027	44,897	9,8357
54503	9,852	-4,5027	44,663	10,825
54504	-26,601	-3,9999	13,487	6,086
54505	-26,837	-4,4998	13,047	6,3474
54506	-27,277	-3,9998	13,287	5,5141
54507	9,1451	-4,0097	45,976	10,404
54508	9,8028	-4,0038	45,775	9,4043
54509	9,3854	-4,5038	45,54	10,514
54510	-26,128	-4,0003	14,366	5,7184
54511	-26,365	-4,5001	13,925	5,909
54512	-26,805	-4,0001	14,165	5,1429
54513	8,6719	-4,0129	46,847	10,171
54514	9,3304	-4,0058	46,652	9,066
54515	8,918	-4,5058	46,413	10,218
54516	-25,656	-4,0005	15,244	5,4625
54517	-25,892	-4,5002	14,803	5,597
54518	-26,332	-4,0002	15,043	4,8942
54519	8,2007	-4,0153	47,709	10,096
54520	8,8565	-4,007	47,525	8,8792
54521	8,4426	-4,507	47,278	10,024
54522	-25,183	-4,0005	16,122	5,2943
54523	-25,42	-4,5003	15,682	5,3846
54524	-25,859	-4,0003	15,921	4,7393
54525	7,711	-4,0109	48,521	10,343
54526	8,3858	-4,0083	48,393	8,7268
54527	7,973	-4,5083	48,132	10,115
54528	-24,71	-4,0006	17,	5,1956
54529	-24,947	-4,5003	16,56	5,2507
54530	-25,386	-4,0003	16,799	4,6569
54531	7,1281	-4,0109	49,29	10,969
54532	7,4167	-4,5026	48,9	10,734
54533	7,8828	-4,0026	49,187	8,9518
54534	-24,238	-4,0006	17,878	5,1527
54535	-24,474	-4,5003	17,438	5,1793
54536	-24,914	-4,0003	17,677	4,6313
54537	6,5319	-4,0155	50,011	11,726
54538	6,7575	-4,5083	49,693	11,604
54539	7,2642	-4,0083	49,966	9,8074
54540	-23,765	-4,0006	18,756	5,1558
54541	-24,002	-4,5003	18,316	5,1589
54542	-24,441	-4,0003	18,556	4,6512
54543	5,9522	-4,0046	50,621	12,561
54544	6,242	-4,5071	50,359	12,303
54545	6,6662	-4,0071	50,663	10,837
54546	-23,292	-4,0006	19,634	5,1972
54547	-23,529	-4,5003	19,194	5,1806
54548	-23,968	-4,0003	19,433	4,7086
54549	5,316	-3,9978	51,154	13,535
54550	5,633	-4,4974	50,93	13,252
54551	5,9932	-3,9975	51,267	12,151
54552	-22,82	-4,0006	20,513	5,2715
54553	-23,056	-4,5003	20,073	5,238
54554	-23,495	-4,0003	20,312	4,7974
54555	4,6019	-4,0111	51,611	14,61
54556	4,9719	-4,5003	51,415	14,31
54557	5,2745	-4,0004	51,815	13,581
54558	-22,347	-4,0006	21,39	5,3748
54559	-22,584	-4,5003	20,95	5,3265
54560	-23,023	-4,0003	21,19	4,9138
54561	3,7899	-4,0137	51,982	15,662
54562	4,199	-4,5107	51,805	15,468
54563	4,4666	-4,0108	52,268	15,102
54564	-21,874	-4,0007	22,269	5,5043
54565	-22,111	-4,5003	21,829	5,4425
54566	-22,55	-4,0003	22,068	5,0547
54567	2,9398	-4,0051	52,295	16,563
54568	3,3478	-4,503	52,133	16,469
54569	3,6008	-4,003	52,647	16,521
54570	-21,401	-4,0009	23,147	5,6575
54571	-21,638	-4,5004	22,707	5,5836
54572	-22,077	-4,0004	22,946	5,2181
54573	2,0831	-4,0072	52,558	17,291
54574	2,4802	-4,5021	52,42	17,298
54575	2,7139	-4,0022	52,957	17,757
54576	-20,929	-4,0012	24,026	5,8327
54577	-21,166	-4,5005	23,585	5,7475
54578	-21,604	-4,0005	23,825	5,4022
54579	1,2218	-4,007	52,768	17,855
54580	1,6183	-4,5051	52,662	17,895
54581	1,8092	-4,0052	53,195	18,721
54582	-20,456	-4,0015	24,904	6,0286
54583	-20,693	-4,5007	24,463	5,9329
54584	-21,131	-4,0007	24,703	5,606
54585	0,35577	-4,0045	52,886	18,177
54586	0,74257	-4,5019	52,829	18,359
54587	0,89418	-4,0019	53,358	19,393
54588	-19,983	-4,0017	25,782	6,2441
54589	-20,22	-4,5008	25,342	6,1384
54590	-20,659	-4,0008	25,581	5,8284
54591	-0,53387	-4,0074	52,838	18,048
54592	-8,9983e-002	-4,5026	52,866	18,43
54593	-2,933e-002	-4,0026	53,411	19,599
54594	-19,512	-4,0018	26,657	6,4775
54595	-19,748	-4,5009	26,22	6,3631
54596	-20,186	-4,0009	26,459	6,0688
54597	-1,4275	-4,0123	52,69	17,668
54598	-1,0255	-4,5048	52,733	18,138
54599	-0,97288	-4,0048	53,312	19,259
54600	-19,039	-4,0012	27,535	6,7296
54601	-19,276	-4,5009	27,095	6,6052
54602	-19,715	-4,0009	27,334	6,3257
54603	-2,2661	-4,0104	52,527	17,194
54604	-1,9043	-4,5076	52,585	17,715
54605	-1,8958	-4,0076	53,17	18,639
54606	-18,564	-4,0006	28,409	6,9998
54607	-18,802	-4,5003	27,976	6,8665
54608	-19,24	-4,0003	28,215	6,6007
54609	-3,0772	-4,0068	52,273	16,45
54610	-2,6742	-4,5028	52,412	17,155
54611	-2,7707	-4,0029	52,96	17,723
54612	-18,089	-4,0003	29,279	7,2854
54613	-18,324	-4,5003	28,84	7,1463
54614	-18,766	-4,0003	29,086	6,891
54615	-3,8935	-4,0076	51,898	15,522
54616	-3,4796	-4,5039	52,062	16,316
54617	-3,6431	-4,004	52,634	16,466
54618	-17,615	-3,9997	30,16	7,5859
54619	-17,849	-4,5	29,717	7,4389
54620	-18,293	-4,	29,964	7,196
54621	-4,6822	-4,0059	51,443	14,508
54622	-4,2938	-4,5036	51,602	15,364
54623	-4,4912	-4,0036	52,214	15,035
54624	-17,144	-3,9998	31,043	7,8985
54625	-17,377	-4,4996	30,6	7,7446
54626	-17,819	-3,9996	30,845	7,515
54627	-5,4569	-4,004	50,918	13,382
54628	-5,0687	-4,5023	51,101	14,298
54629	-5,2955	-4,0023	51,721	13,532
54630	-16,675	-4,0006	31,923	8,222
54631	-16,911	-4,5002	31,485	8,0607
54632	-17,349	-4,0002	31,724	7,8445
54633	-6,1875	-4,0081	50,346	12,242
54634	-5,8332	-4,5017	50,57	13,097
54635	-6,0808	-4,0017	51,15	11,999
54636	-16,204	-4,0009	32,804	8,5567
54637	-16,44	-4,5004	32,365	8,3903
54638	-16,877	-4,0004	32,604	8,1851
54639	-6,8341	-4,0174	49,775	11,199
54640	-6,5262	-4,5064	50,02	11,894
54641	-6,7844	-4,0065	50,531	10,627
54642	-15,73	-4,0012	33,684	8,9
54643	-15,967	-4,5005	33,244	8,7288
54644	-16,405	-4,0005	33,483	8,5339
54645	-7,3915	-4,0186	49,171	10,417
54646	-7,1576	-4,511	49,482	10,78
54647	-7,422	-4,011	49,89	9,4641
54648	-15,258	-4,0015	34,562	9,2463
54649	-15,494	-4,5007	34,123	9,0739
54650	-15,931	-4,0007	34,362	8,8882
54651	-7,8653	-4,014	48,483	9,9918
54652	-7,6918	-4,5076	48,861	10,048
54653	-7,9661	-4,0077	49,173	8,7401
54654	-14,787	-4,0015	35,439	9,5912
54655	-15,023	-4,5007	35,	9,4186
54656	-15,46	-4,0007	35,239	9,2406
54657	-8,2878	-4,0175	47,69	9,9234
54658	-8,1349	-4,5064	48,104	9,7603
54659	-8,4467	-4,0064	48,385	8,5869
54660	-14,315	-4,0014	36,317	9,9307
54661	-14,55	-4,5007	35,878	9,7607
54662	-14,987	-4,0007	36,117	9,5879
54663	-8,6897	-4,011	46,843	10,137
54664	-8,5089	-4,5111	47,248	9,9298
54665	-8,8816	-4,0111	47,516	8,84
54666	-13,842	-4,001	37,196	10,257
54667	-14,078	-4,5007	36,757	10,093
54668	-14,515	-4,0007	36,996	9,9211
54669	-9,1175	-4,0013	45,981	10,446
54670	-8,9033	-4,5	46,408	10,249
54671	-9,3208	-4,	46,661	9,069
54672	-13,368	-4,0001	38,074	10,56
54673	-13,605	-4,5003	37,635	10,407
54674	-14,041	-4,0003	37,874	10,23
54675	-9,5722	-4,0003	45,1	10,762
54676	-9,3428	-4,5013	45,533	10,6
54677	-9,7823	-4,0013	45,776	9,4388
54678	-12,892	-3,9991	38,954	10,83
54679	-13,131	-4,4998	38,513	10,693
54680	-13,568	-3,9998	38,752	10,5
54681	-10,032	-3,9962	44,232	11,025
54682	-9,7988	-4,499	44,664	10,909
54683	-10,248	-3,999	44,901	9,8687
54684	-12,419	-3,9984	39,832	11,051
54685	-12,656	-4,4993	39,392	10,938
54686	-13,093	-3,9993	39,631	10,714
54687	-10,503	-3,9948	43,355	11,211
54688	-10,262	-4,4972	43,795	11,141
54689	-10,715	-3,9972	44,03	10,284
54690	-11,942	-3,9976	40,712	11,213
54691	-12,184	-4,4991	40,27	11,129
54692	-12,621	-3,9991	40,509	10,851
54693	-10,985	-3,9956	42,471	11,301
54694	-10,74	-4,4976	42,912	11,276
54695	-11,192	-3,9976	43,147	10,611
54696	-11,463	-3,9964	41,591	11,3
54697	-11,699	-4,4985	41,151	11,262
54698	-12,143	-3,9985	41,389	10,893
54699	-11,224	-4,4979	42,029	11,31
54700	-11,67	-3,9979	42,267	10,815
54701	-3,9901	-2,0742	-47,521	12,009
54702	-3,8298	-1,6114	-48,096	10,349
54703	-4,1637	-2,1696	-48,115	9,8759
54704	-4,1225	-2,0727	-48,457	9,4401
54705	-3,3363	-2,0682	-47,827	11,838
54706	-4,4865	-2,0034	-46,56	14,489
54707	-4,3341	-1,5042	-47,016	13,629
54708	-4,7334	-2,0122	-47,133	12,155
54709	-3,9227	-2,0056	-46,948	15,556
54710	-4,7581	-1,9887	-45,591	16,466
54711	-4,6949	-1,4935	-46,045	15,858
54712	-5,1482	-1,9904	-46,188	13,662
54713	-4,2773	-1,997	-46,019	19,011
54714	-4,836	-2,1265	-44,542	18,036
54715	-4,9326	-1,4816	-44,962	17,377
54716	-5,317	-1,9262	-44,365	15,687
54717	-5,401	-1,9823	-45,165	14,934
54718	-5,0664	-1,9737	-44,72	16,635
54719	-4,4229	-1,9905	-45,049	22,082
54720	-4,5862	-2,3692	-43,271	19,443
54721	-4,7172	-1,6226	-43,857	19,938
54722	-4,9533	-2,0386	-43,808	18,129
54723	-5,433	-2,2436	-44,172	15,918
54724	-5,3071	-2,0704	-43,809	16,609
54725	-4,9825	-2,3452	-43,612	17,906
54726	-5,0565	-2,1179	-44,164	17,328
54727	-4,3548	-2,1347	-44,014	24,208
54728	-1,2811	-2,0116	-40,299	23,248
54729	-0,83984	-1,5411	-40,235	23,891
54730	-1,0937	-2,0921	-39,876	23,865
54731	-0,51231	-1,9834	-40,024	23,822
54732	-0,64066	-2,0117	-40,638	19,402
54733	-3,9123	-2,2657	-42,116	21,384
54734	-4,3183	-1,7444	-42,551	21,007
54735	-4,6067	-2,3506	-42,001	19,132
54736	-4,7101	-2,1375	-42,649	18,945
54737	-4,7425	-2,4437	-42,897	18,813
54738	-3,9439	-2,2334	-42,848	25,561
54739	-2,2132	-2,0161	-40,698	23,09
54740	-1,7885	-1,5071	-40,453	24,199
54741	-2,0126	-2,0159	-40,038	23,622
54742	-1,59	-2,0008	-40,805	21,485
54743	-3,0712	-2,0476	-41,36	22,505
54744	-3,4971	-1,5328	-41,71	23,011
54745	-3,7259	-2,0779	-41,256	21,335
54746	-3,2359	-2,0318	-42,011	25,824
54747	-2,6595	-1,5273	-41,037	23,463
54748	-2,8641	-2,0287	-40,455	22,443
54749	-2,468	-2,0159	-41,376	23,915
54750	-4,1738	-1,0414	-47,591	11,702
54751	-3,4704	-0,98917	-48,293	9,2267
54752	-4,2749	-1,5475	-48,549	9,1592
54753	-4,0475	-0,54309	-48,16	10,172
54754	-3,4893	-1,0432	-47,919	11,095
54755	-4,5424	-0,99431	-46,501	14,585
54756	-4,3764	-0,4983	-46,958	13,843
54757	-3,9544	-0,99816	-46,925	15,57
54758	-4,8694	-0,98644	-45,417	16,276
54759	-4,6914	-0,49601	-45,996	16,333
54760	-4,302	-0,9956	-45,981	19,102
54761	-4,8138	-0,97766	-44,277	19,
54762	-5,1531	-1,473	-44,584	16,498
54763	-4,9732	-0,49043	-44,816	17,649
54764	-4,5097	-0,98975	-44,911	21,79
54765	-4,4494	-0,99783	-43,138	21,036
54766	-4,9476	-1,4698	-44,035	18,422
54767	-4,537	-0,48723	-43,781	22,179
54768	-4,2458	-0,98655	-43,884	25,482
54769	-3,9032	-1,0115	-42,146	22,375
54770	-4,2702	-0,51061	-42,586	21,852
54771	-3,9155	-1,0104	-42,843	26,053
54772	-3,0854	-1,0124	-41,388	23,82
54773	-3,4655	-0,50086	-41,756	24,32
54774	-3,2542	-1,0009	-42,045	26,356
54775	-2,2348	-1,0183	-40,793	24,552
54776	-2,6495	-0,51157	-41,074	24,781
54777	-2,4623	-1,012	-41,368	24,614
54778	-1,3472	-1,0365	-40,39	24,799
54779	-1,7877	-0,5067	-40,605	25,065
54780	-1,6154	-1,0074	-40,908	22,155
54781	-0,42665	-0,782	-40,234	25,574
54782	-0,96512	-0,52982	-40,261	25,067
54783	-0,67958	-1,0306	-40,626	20,501
54784	10,735	-3,5131	-36,637	10,423
54785	10,733	-4,5041	-36,638	10,424
54786	-1,3985	-3,9999	-40,448	24,878
54787	-0,45282	-4,2346	-40,232	25,694
54788	-0,95757	-4,4838	-40,245	25,098
54789	-0,7059	-3,9835	-40,634	20,573
54790	-3,0824	-4,0281	-41,44	24,061
54791	-3,4676	-4,5119	-41,759	24,321
54792	-3,228	-4,0115	-42,041	26,548
54793	-2,2883	-4,0323	-40,903	24,648
54794	-1,842	-4,5161	-40,675	25,239
54795	-1,6463	-4,0163	-40,959	22,203
54796	-2,6871	-4,5162	-41,156	25,077
54797	-2,4904	-4,0161	-41,429	24,817
54798	26,492	-2,7927	-5,1676	22,077
54799	26,435	-2,2261	-5,4406	20,948
54800	26,2	-2,7401	-5,4143	21,306
54801	26,236	-2,2334	-5,7257	20,064
54802	26,001	-2,2716	-5,7126	20,247
54803	25,974	-2,189	-5,3103	22,058
54804	25,824	-2,2451	-5,0854	23,703
54805	26,59	-2,4968	-4,8984	23,284
54806	25,827	-2,7635	-5,0962	23,513
54807	26,449	-2,8274	-4,8801	24,084
54808	29,972	-1,9058	-2,7417	20,988
54809	30,05	-1,6661	-2,2364	21,349
54810	29,742	-1,9942	-2,5027	21,669
54811	29,543	-1,8226	-2,055	21,805
54812	29,251	-1,8367	-2,7197	22,455
54813	-5,1407	-3,1924	-48,701	8,696
54814	-5,4208	-2,6191	-48,197	9,2003
54815	-5,5981	-3,074	-47,916	9,3283
54816	-4,8763	-3,0354	-48,312	9,1299
54817	-5,8134	-3,0376	-48,547	8,6752
54818	-4,9057	-2,5548	-48,59	8,7972
54819	-5,8083	-2,4506	41,394	20,507
54820	-5,5858	-1,9446	41,46	21,085
54821	-6,0642	-2,0358	41,697	20,118
54822	-5,2684	-1,9066	40,255	19,472
54823	-5,1017	-1,9131	40,533	19,992
54824	-5,4143	-1,899	40,843	20,351
54825	-5,5609	-1,8687	40,388	19,532
54826	-5,6657	-1,9322	41,022	20,354
54827	-5,8599	-1,88	41,716	20,737
54828	-5,7909	-1,8734	40,649	19,648
54829	-6,0947	-1,869	41,239	19,719
54830	-6,1937	-1,9563	40,828	19,261
54831	-5,3039	-2,4546	40,348	19,635
54832	-5,6156	-2,3977	40,683	19,872
54833	-5,8682	-2,4493	40,902	19,859
54834	-2,9916	-1,8473	50,272	16,578
54835	-2,2208	-1,8497	50,685	16,369
54836	-2,5774	-2,0705	50,346	16,711
54837	-2,7074	-1,9544	50,727	16,5
54838	-2,3189	-1,8838	50,302	16,536
54839	-2,8717	-2,1415	50,498	16,427
54840	-2,1789	-1,8365	50,026	16,208
54841	-3,7993	-1,9603	49,902	16,333
54842	-4,3191	-2,3863	49,379	16,554
54843	-4,3692	-2,5171	49,52	16,343
54844	-4,3569	-1,9929	50,083	15,655
54845	-4,5347	-1,9222	49,531	15,918
54846	-4,0208	-2,064	48,894	18,391
54847	-4,0398	-3,2077	-50,263	6,9603
54848	-3,6639	-2,5532	-50,241	6,9023
54849	-3,2168	-3,1415	-50,573	6,5308
54850	-3,5057	-3,0291	-50,145	6,8945
54851	-3,7444	-3,0808	-50,819	6,6665
54852	-3,2268	-2,9065	-50,4	6,5219
54853	-4,112	-2,5682	-49,667	7,5992
54854	-4,7304	-3,2859	-49,617	7,7031
54855	-4,2454	-2,6562	-49,991	7,2283
54856	-4,9515	-3,1886	-50,137	7,2069
54857	-4,5043	-3,163	-50,479	7,0292
54858	-4,4954	-2,6483	-49,506	7,878
54859	5,4204	-1,9631	-43,994	15,659
54860	5,7455	-2,5171	-43,438	14,711
54861	6,1004	-1,9876	-43,875	13,514
54862	5,9179	-1,9339	-43,14	14,37
54863	5,8831	-2,304	-43,821	14,073
54864	-3,9341	-2,3412	49,568	16,642
54865	-3,0001	-2,1385	50,165	16,566
54866	-3,4634	-2,5403	49,942	16,788
54867	-3,6112	-1,946	50,475	16,257
54868	-2,7415	-1,9519	50,121	16,129
54869	-3,2943	-2,2095	50,317	16,476
54870	-3,0548	-1,9936	49,64	17,049
54871	1,2952	-1,7549	-50,612	5,5807
54872	1,7034	-1,8038	-50,282	5,6803
54873	1,4082	-1,6523	-50,196	5,4173
54874	1,7608	-2,1327	-50,318	5,7811
54875	-5,3658	-2,5801	-48,901	8,3731
54876	-4,1964	-3,1074	-49,499	7,3875
54877	-5,4386	-3,1985	-49,457	7,9047
54878	-4,8026	-2,6465	-49,021	8,3652
54879	30,373	-3,2283	1,2856	21,362
54880	30,833	-3,1268	1,6041	20,948
54881	30,695	-3,1016	0,97656	20,926
54882	30,323	-3,0507	1,6752	21,495
54883	30,497	-3,1815	1,2954	21,254
54884	20,439	-1,9675	-3,0365	16,125
54885	19,592	-1,9512	-2,8107	15,181
54886	19,924	-1,9472	-3,3919	15,326
54887	20,034	-2,4856	-3,0009	15,551
54888	20,311	-1,9797	-2,5521	15,648
54889	-26,919	-1,5088	-4,995	22,078
54890	-26,932	-1,2101	-4,7632	23,193
54891	-26,862	-0,97646	-4,4481	25,842
54892	-26,699	-0,48738	-5,1183	21,695
54893	-1,4768	-1,9551	51,081	16,065
54894	-1,8242	-2,0796	50,752	16,432
54895	-1,9638	-2,133	51,074	16,347
54896	-1,9707	-1,9543	50,534	16,354
54897	-8,9844	-2,2372	-8,871	8,4365
54898	-8,8069	-2,1631	-9,415	8,314
54899	-9,4678	-2,3223	-9,1447	8,5465
54900	-9,2215	-2,3056	-9,5927	8,4058
54901	-8,7092	-2,863	-9,5416	8,2689
54902	-8,9539	-2,8731	-9,072	8,403
54903	-9,2099	-2,9277	-8,9966	8,4905
54904	-9,4923	-2,8841	-9,2361	8,5391
54905	-9,3399	-2,7991	-9,5033	8,4537
54906	-9,1232	-2,874	-9,792	8,3488
54907	5,1312	-3,5589	43,949	25,774
54908	5,2782	-3,5506	43,57	24,704
54909	4,7832	-4,0068	43,997	28,701
54910	5,0931	-3,5435	44,299	26,239
54911	4,8874	-3,5613	43,485	26,639
54912	4,9053	-3,9782	43,434	26,238
54913	5,1293	-4,0371	43,969	25,872
54914	5,2826	-4,0198	43,538	24,493
54915	-1,0054	-2,0733	-0,67607	8,3396
54916	-0,32042	-2,0466	-0,57327	8,3282
54917	-0,30608	-2,0226	0,34044	8,3379
54918	-1,0708	-2,1717	0,37966	8,3524
54919	-0,42093	-2,4309	-0,15545	8,3432
54920	-0,76909	-2,3846	-0,46235	8,3441
54921	-0,52826	-2,2232	0,83172	8,3098
54922	-0,23656	-2,2132	-1,0079	8,2989
54923	-4,8392	-2,8719	48,943	16,33
54924	-5,0704	-2,3154	48,47	16,489
54925	-4,504	-2,898	49,186	16,853
54926	-3,9831	-2,9663	49,419	16,689
54927	-4,661	-2,2669	48,776	17,074
54928	-4,7528	-2,4045	48,355	17,636
54929	-4,5009	-2,8516	48,424	18,382
54930	-4,315	-2,8864	48,892	17,481
54931	-4,6694	-2,3031	49,197	16,458
54932	-3,8147	-2,952	49,022	17,295
54933	-4,0409	-2,8526	48,691	18,246
54934	-3,5746	-2,4196	49,117	16,4
54935	-4,1555	-2,445	48,56	18,806
54936	-5,6458	-2,0068	-48,396	8,9334
54937	-5,3722	-1,8633	-48,776	8,4313
54938	-5,8772	-1,9232	-48,96	8,3387
54939	-5,1307	-1,9425	-48,789	8,4321
54940	30,719	-3,2557	0,93117	21,329
54941	30,368	-3,245	1,018	21,535
54942	29,947	-3,7164	0,77616	21,951
54943	29,902	-3,2124	1,1456	21,899
54944	30,082	-3,2051	0,64024	21,685
54945	5,0385	-3,0961	48,386	16,708
54946	4,5117	-2,5042	48,455	17,799
54947	4,9868	-2,9587	48,99	16,068
54948	4,4646	-3,5868	48,286	18,479
54949	4,4675	-3,0246	48,499	17,795
54950	4,8129	-2,6915	48,863	16,832
54951	4,5753	-3,0313	47,984	19,526
54952	-1,7164	-2,0275	-0,64967	8,3699
54953	-1,5869	-2,2076	-1,7623	8,2909
54954	-0,85525	-2,0701	-1,6371	8,2808
54955	-1,4394	-2,3665	-1,3919	8,3192
54956	-1,6775	-2,2671	-1,4554	8,326
54957	-0,59191	-2,2359	-1,5202	8,2911
54958	-14,059	-2,0829	0,77976	11,965
54959	-13,549	-1,9862	0,64561	11,691
54960	-14,096	-2,084	0,2811	12,
54961	-13,562	-2,0016	0,29538	11,709
54962	-14,099	-2,5779	0,77881	11,984
54963	-14,114	-2,6239	0,29807	12,01
54964	-13,517	-2,6782	0,58019	11,678
54965	-0,92388	-1,875	51,389	16,279
54966	-0,87446	-2,0745	51,082	16,191
54967	-1,2366	-2,2048	51,543	16,351
54968	-0,89566	-1,9236	51,382	16,258
54969	-2,2762	-2,083	-0,75915	8,3939
54970	-1,7818	-2,126	0,40606	8,3827
54971	-2,2824	-2,2866	0,28527	8,4166
54972	-2,4299	-1,9832	0,3311	8,429
54973	-2,0483	-2,3698	-0,31807	8,4011
54974	-2,5621	-2,1816	4,5597e-002	8,4433
54975	-2,0331	-2,1987	-0,91665	8,3633
54976	-2,8993	-2,2157	-0,78265	8,444
54977	-2,1467	-2,2631	-1,8718	8,3155
54978	-2,7919	-2,2421	-1,8276	8,3707
54979	-2,6535	-2,5106	-1,3255	8,4021
54980	-2,5156	-2,4222	-1,9187	8,3351
54981	-2,8008	-2,3829	-1,8873	8,3633
54982	-2,7662	-2,3055	-0,60261	8,4287
54983	-2,2373	-2,3226	-1,5649	8,3506
54984	0,35053	-2,1376	-0,50227	8,3297
54985	-0,17022	-2,0434	-1,5343	8,2694
54986	0,54865	-2,0008	-1,4788	8,2812
54987	0,22235	-2,3834	-1,0438	8,3074
54988	9,3115e-002	-2,2093	-1,4174	8,2799
54989	-5,8592	-2,0101	-47,821	9,3566
54990	-6,0071	-2,3784	-48,436	8,7881
54991	-5,1238	-2,17	-48,176	9,2099
54992	-5,0826	-2,0731	-48,517	8,7543
54993	-4,8573	-1,7515	-49,117	8,0969
54994	-5,3838	-1,8888	-49,326	7,9472
54995	-4,8502	-2,0266	-48,556	8,8749
54996	-4,809	-1,9297	-48,897	8,4193
54997	30,462	-2,8256	2,6275	20,485
54998	30,935	-2,9002	1,9306	20,73
54999	30,796	-2,8751	1,3031	20,361
55000	30,534	-2,4245	1,9905	21,197
55001	30,424	-2,8242	2,0017	21,307
55002	31,084	-2,7846	2,4541	20,461
55003	30,066	-3,0198	3,4468	19,861
55004	29,961	-2,5815	2,9135	20,841
55005	29,894	-3,0424	2,8095	21,081
55006	30,708	-2,9581	3,235	19,96
55007	-6,0366	-2,465	-47,54	9,5719
55008	-6,1955	-3,0237	-47,134	9,7994
55009	-5,5406	-3,0227	-47,43	10,197
55010	-6,4266	-3,0198	-47,754	9,1962
55011	5,788	-3,1786	48,103	15,474
55012	5,5141	-2,6598	48,286	15,91
55013	5,4963	-3,1289	47,853	16,771
55014	5,848	-3,0142	48,734	14,587
55015	5,1877	-2,7646	48,716	16,27
55016	5,7675	-2,9309	47,358	16,852
55017	-5,6293	-3,002	48,352	15,389
55018	-5,4558	-2,4201	48,369	15,92
55019	-4,8893	-3,0027	49,085	16,094
55020	-4,8863	-2,9563	48,323	17,68
55021	-5,2136	-2,9804	49,325	15,161
55022	-5,0548	-2,4078	49,096	15,736
55023	-5,5764	-2,6489	48,629	15,229
55024	-6,2738	-3,0354	47,724	14,732
55025	-6,1808	-2,5314	47,59	15,195
55026	-5,7922	-2,9829	47,362	17,02
55027	-6,0672	-3,0715	48,583	14,255
55028	-6,1732	-2,7145	47,129	16,05
55029	-5,9811	-2,6744	48,138	15,021
55030	-2,1809	-2,3003	50,412	16,363
55031	-2,6517	-2,7299	50,283	16,652
55032	-2,7159	-2,2456	50,62	16,448
55033	-2,3273	-2,1751	50,195	16,493
55034	-2,8801	-2,4328	50,391	16,396
55035	-2,6406	-2,2168	49,714	17,146
55036	-6,0073	-1,9495	47,607	15,711
55037	-5,2776	-1,8151	48,202	16,636
55038	-5,3694	-1,9527	47,781	17,289
55039	-6,202	-1,8535	48,209	14,461
55040	-5,8076	-2,0925	48,156	15,544
55041	0,36487	-2,1136	0,41144	8,3395
55042	0,27087	-2,0927	1,4246	8,288
55043	-0,47019	-2,1105	1,4352	8,2935
55044	0,32892	-2,4421	0,78944	8,3301
55045	-0,18424	-2,1952	1,3359	8,3004
55046	0,33779	-2,255	0,82232	8,3292
55047	-3,053	-2,1158	0,3076	8,479
55048	-3,7495	-2,2513	0,30446	8,5512
55049	-3,6826	-2,1876	-0,54275	8,5415
55050	-3,3397	-2,4485	-0,20415	8,5099
55051	-3,1851	-2,3142	2,2105e-002	8,4935
55052	0,9301	-2,2159	0,47786	8,3437
55053	1,0217	-2,2195	-0,58377	8,3411
55054	0,85924	-2,5613	-0,14021	8,3531
55055	0,66472	-2,3741	0,38915	8,3403
55056	0,9357	-2,5074	0,32569	8,3489
55057	0,43438	-2,3043	-0,93687	8,3005
55058	-1,4518	-2,5146	0,65035	8,366
55059	-1,2349	-2,2596	1,4744	8,3082
55060	-1,5884	-2,5287	1,269	8,34
55061	-1,942	-2,1702	1,4953	8,3432
55062	-0,94895	-2,3444	1,3751	8,3149
55063	-2,1526	-2,2497	-2,9573	8,1889
55064	-1,3225	-2,2145	-2,7681	8,1744
55065	-1,4573	-2,5259	-2,5304	8,2116
55066	-1,8424	-2,5333	-2,8547	8,1832
55067	-1,9036	-2,3787	-2,0293	8,2854
55068	-1,5502	-2,5138	-2,8883	8,1632
55069	-0,81805	-2,3476	-2,0941	8,2495
55070	0,15847	-2,0745	-2,487	8,1833
55071	-0,59078	-2,077	-2,6429	8,164
55072	-8,6366e-002	-2,2101	-1,9689	8,2405
55073	-27,245	-1,837	5,0328	21,381
55074	-26,569	-1,9361	5,2194	21,539
55075	-26,598	-2,2118	4,9777	22,878
55076	-28,211	-2,1186	4,8209	19,814
55077	-0,49808	-1,7686	51,435	16,249
55078	-0,73541	-1,8004	51,831	16,664
55079	-0,73851	-1,8085	51,525	16,43
55080	4,5781	-1,8512	49,724	15,858
55081	5,164	-1,9828	48,89	15,747
55082	4,9759	-1,7403	49,722	15,297
55083	4,4541	-1,8189	49,273	16,559
55084	4,8376	-2,0876	49,32	16,219
55085	-5,0772	-1,807	-43,186	17,389
55086	-5,4343	-1,8383	-43,631	16,021
55087	-5,1096	-2,1131	-43,434	17,32
55088	-5,1837	-1,8859	-43,986	16,615
55089	-6,3134	-1,9345	-47,065	9,7709
55090	-6,5705	-1,996	-47,691	9,1824
55091	-5,6425	-1,9477	-47,373	10,18
55092	-4,3659	-1,8386	-49,616	7,5402
55093	-4,928	-1,6626	-49,829	7,4905
55094	-4,6159	-1,8307	-49,13	8,2079
55095	30,94	-1,8207	-2,0116	20,767
55096	30,995	-1,6539	-1,622	20,8
55097	30,776	-2,3279	-1,3686	20,95
55098	31,352	-1,9243	-1,8076	20,598
55099	30,972	-2,0269	-1,1724	20,771
55100	27,078	-3,0352	-5,1389	21,184
55101	26,705	-2,4889	-5,388	20,779
55102	26,47	-3,0029	-5,3616	21,109
55103	27,248	-2,8955	-5,0327	21,172
55104	26,719	-3,0902	-4,8275	23,977
55105	29,285	-3,0398	-3,9521	19,9
55106	29,847	-2,958	-3,1451	20,52
55107	29,643	-2,5069	-3,5524	20,333
55108	30,091	-2,9961	-3,7437	19,697
55109	29,738	-2,5952	-2,9957	20,706
55110	29,245	-2,9955	-3,2971	21,643
55111	31,179	-3,1541	1,2496	20,774
55112	31,026	-3,0635	1,0176	20,657
55113	30,889	-2,6109	1,2177	20,943
55114	31,405	-3,0313	1,772	20,583
55115	30,828	-3,1434	1,3364	20,964
55116	29,643	-3,1308	4,2173	19,135
55117	29,716	-2,6274	3,7084	19,993
55118	29,516	-3,1564	3,6306	20,528
55119	30,267	-3,0787	3,9574	19,27
55120	1,3989	-3,2192	-51,193	5,7448
55121	1,8691	-2,5351	-51,229	5,9631
55122	2,1084	-3,256	-51,171	6,0337
55123	0,90469	-2,891	-51,449	5,7369
55124	1,3679	-3,228	-51,778	5,8815
55125	1,9393	-3,1621	-51,582	5,9976
55126	1,9706	-2,8723	-50,849	6,0217
55127	0,61883	-3,1836	-50,939	5,4412
55128	1,1205	-2,4751	-50,997	5,6298
55129	0,52028	-2,8715	-51,303	5,6283
55130	0,59077	-3,166	-51,542	5,6709
55131	1,5862	-2,8529	-50,702	5,8287
55132	6,275	-3,189	47,582	15,011
55133	5,8888	-2,6692	48,15	15,171
55134	5,8711	-3,1384	47,716	16,047
55135	6,4381	-3,0922	48,271	13,73
55136	5,5625	-2,774	48,58	15,481
55137	6,1423	-2,9404	47,222	16,16
55138	-6,4722	-2,4931	-46,659	10,074
55139	-6,6534	-3,0022	-46,281	10,163
55140	-5,9792	-2,9985	-46,542	10,914
55141	-6,892	-2,9972	-46,918	9,62
55142	-4,0333	-3,0971	49,56	16,501
55143	-4,3651	-3,0172	49,034	17,264
55144	-4,5863	-3,017	49,839	15,857
55145	-6,4206	-2,5393	47,452	14,73
55146	-6,5774	-3,0145	47,076	14,889
55147	-6,4967	-3,0704	48,123	13,712
55148	-6,818	-3,0391	47,64	13,466
55149	-6,413	-2,7224	46,992	15,59
55150	-6,2209	-2,6823	48,001	14,541
55151	-26,987	-3,1726	-4,8558	22,547
55152	-26,836	-3,1818	-5,3505	20,785
55153	-26,417	-3,2014	-5,355	21,159
55154	-26,434	-2,8916	-5,3271	21,385
55155	-26,565	-3,573	-4,8563	23,838
55156	-27,03	-2,7838	-4,7306	23,289
55157	-26,639	-2,8698	-5,1208	22,311
55158	20,658	-2,4681	-3,1459	16,48
55159	20,557	-1,966	-3,6316	16,105
55160	20,565	-1,9776	-2,6161	16,082
55161	21,071	-1,976	-3,2211	17,536
55162	15,042	-2,0333	-0,67512	12,563
55163	14,45	-1,9853	-0,69601	12,21
55164	14,917	-2,0636	-1,1409	12,497
55165	14,403	-2,0096	-1,0712	12,192
55166	14,325	-2,0143	-1,4382	12,104
55167	14,204	-2,0182	-1,8127	11,978
55168	14,05	-2,0601	-2,227	11,817
55169	14,903	-2,0301	-1,6019	12,422
55170	14,753	-2,0342	-1,9976	12,242
55171	14,612	-2,0732	-2,4473	12,038
55172	14,581	-2,5749	-0,79253	12,289
55173	15,039	-2,7791	-0,71035	12,566
55174	15,042	-2,7538	-1,0117	12,566
55175	14,485	-2,5742	-1,0341	12,234
55176	14,972	-2,6711	-1,3248	12,508
55177	14,344	-2,6648	-1,3558	12,128
55178	14,233	-2,6768	-1,7034	12,012
55179	14,136	-2,7153	-2,0526	11,897
55180	14,068	-2,7022	-2,4525	11,754
55181	14,887	-2,6248	-1,6944	12,396
55182	14,762	-2,6821	-2,0921	12,219
55183	14,618	-2,6978	-2,5503	12,002
55184	5,2236	-2,4983	-44,334	16,364
55185	5,5487	-3,0524	-43,778	15,24
55186	5,8344	-2,9675	-44,418	14,039
55187	5,6863	-2,8393	-44,161	14,652
55188	-5,0604	-2,3959	-42,776	17,491
55189	-5,2958	-2,9503	-43,058	16,474
55190	-5,0929	-2,7021	-43,025	17,379
55191	-5,2455	-2,9924	-42,389	16,864
55192	-1,2219	-2,1989	50,752	15,971
55193	-1,8682	-2,6621	50,549	16,56
55194	-1,9154	-2,2924	50,908	16,382
55195	-1,9223	-2,1137	50,368	16,454
55196	-1,7823	-2,0664	50,092	16,333
55197	-1,5487	-2,7504	0,99629	8,3482
55198	-1,7183	-2,7584	-7,3787e-002	8,3841
55199	-0,97846	-2,794	0,75489	8,3455
55200	-1,1501	-2,7275	-0,19167	8,3576
55201	-0,90926	-2,5661	1,1024	8,3233
55202	-1,3521	-3,3011	0,38111	8,3706
55203	-2,0891	-2,6893	1,1482	8,3738
55204	-2,2586	-2,6974	7,814e-002	8,4094
55205	-2,7564	-2,6777	1,1292	8,4251
55206	-2,927	-2,6433	0,21555	8,4679
55207	-2,7724	-2,5091	0,44181	8,4519
55208	-2,4907	-3,2159	0,67243	8,4275
55209	-6,4441	-2,0071	46,808	15,669
55210	-6,0137	-2,0368	46,961	17,017
55211	-6,7266	-1,9971	47,501	13,924
55212	-6,32	-2,2184	46,858	16,054
55213	-6,1279	-2,1783	47,867	15,004
55214	0,10365	-2,1965	2,4476	8,2
55215	0,8361	-2,195	1,491	8,2923
55216	0,81759	-2,2756	2,4655	8,2045
55217	0,24482	-2,5488	2,1899	8,2294
55218	0,32011	-2,4996	1,822	8,2624
55219	4,8686e-002	-2,2933	1,9159	8,2601
55220	0,57072	-2,3531	1,4023	8,2888
55221	-1,3318	-2,4954	1,8204	8,2909
55222	-0,63741	-2,2142	2,4582	8,2057
55223	-1,5434	-2,155	2,4714	8,2333
55224	-0,69238	-2,3111	1,9265	8,2659
55225	-2,5902	-2,0274	1,4203	8,3896
55226	-3,2991	-2,0423	1,2463	8,4734
55227	-2,9039	-2,3743	1,1751	8,4377
55228	-2,92	-2,2057	0,48764	8,4644
55229	-3,0502	-2,157	1,4674	8,4272
55230	-2,7978	-2,2288	-2,9131	8,2445
55231	-3,5752	-2,214	-1,5877	8,4672
55232	-3,4899	-2,3036	-2,7519	8,3389
55233	-3,3522	-2,598	-2,2042	8,3941
55234	-2,8272	-2,4573	-2,3389	8,3261
55235	-3,1123	-2,4181	-2,3075	8,3546
55236	-3,7621	-2,7371	-2,7914	8,3655
55237	1,2199	-2,0827	-1,5603	8,293
55238	0,87735	-2,032	-2,4314	8,1956
55239	1,3067	-2,4751	-1,7139	8,2867
55240	1,5704	-1,9493	-2,2999	8,2411
55241	0,6325	-2,1675	-1,9134	8,2524
55242	-28,143	-1,8386	5,2569	19,206
55243	-27,884	-2,4307	4,925	20,412
55244	-27,426	-1,9063	5,4895	19,346
55245	-28,636	-2,0761	4,9069	18,916
55246	-28,532	-2,0803	-4,2575	21,229
55247	-28,07	-1,8697	-4,6173	21,091
55248	-27,561	-1,7193	-4,3977	23,102
55249	-27,661	-2,1745	-4,2771	23,745
55250	-27,673	-1,8092	-4,3713	23,116
55251	-27,617	-1,9969	-3,7291	28,207
55252	-0,44866	-1,9681	51,128	16,168
55253	0,13656	-1,7985	51,243	16,018
55254	6,7484e-003	-1,9944	51,378	16,32
55255	-8,8702e-002	-1,8316	51,633	16,389
55256	-3,7644e-002	-1,6427	51,004	16,178
55257	-0,46986	-1,8173	51,428	16,259
55258	4,2097	-1,8715	50,014	15,836
55259	4,3877	-2,408	49,862	15,935
55260	4,5571	-1,8723	50,242	15,355
55261	4,7026	-2,1236	49,597	15,911
55262	-6,7213	-1,9716	-46,173	10,191
55263	-6,9506	-1,9806	-46,832	9,6437
55264	-6,066	-1,9859	-46,452	10,912
55265	-3,8694	-2,0018	-49,969	7,1295
55266	-4,2002	-2,0719	-50,302	7,0343
55267	-4,3176	-2,0168	-49,395	7,8822
55268	2,2073	-1,8758	-51,073	6,0187
55269	1,5907	-1,791	-51,033	5,8052
55270	1,9989	-1,8399	-50,702	5,9333
55271	0,99049	-2,1874	-51,339	5,7366
55272	2,0163	-1,8894	-51,541	6,0086
55273	2,0564	-2,1688	-50,738	6,0432
55274	2,4466	-2,5967	-51,015	6,1108
55275	2,6211	-1,9358	-50,753	6,2272
55276	2,6658	-1,9462	-51,36	6,1429
55277	2,3087	-2,213	-50,693	6,0718
55278	30,536	-1,9263	-2,58	20,481
55279	30,514	-2,2287	-1,9362	21,137
55280	31,041	-1,9794	-2,3278	20,561
55281	30,614	-1,6866	-2,0747	21,026
55282	30,306	-2,0147	-2,341	21,191
55283	30,802	-2,0462	-1,3801	20,582
55284	-0,24129	-3,2018	-50,732	5,331
55285	0,1246	-2,8553	-51,195	5,5215
55286	0,32201	-2,4947	-50,836	5,3441
55287	-0,12117	-3,0922	-51,437	5,5526
55288	1,1905	-2,8367	-50,595	5,6412
55289	-5,9979	-2,0993	-44,794	12,754
55290	-6,3004	-2,3153	-44,668	12,318
55291	-6,1588	-2,5732	-44,369	12,804
55292	-6,279	-2,0502	-44,146	12,778
55293	-5,6633	-2,0908	-44,35	14,45
55294	27,887	-3,0382	-5,2532	19,434
55295	27,346	-2,3558	-5,5421	19,25
55296	27,193	-3,0358	-5,6517	19,103
55297	27,564	-2,8753	-5,0566	20,468
55298	27,46	-2,6314	-6,3239	17,283
55299	27,627	-3,0909	-4,6144	21,932
55300	28,658	-3,07	-4,8597	19,005
55301	28,965	-2,4249	-4,3917	19,667
55302	29,493	-3,0341	-4,5909	18,882
55303	28,336	-2,9071	-4,663	19,98
55304	28,399	-3,1227	-4,2208	21,755
55305	30,181	-2,4637	-2,8512	20,628
55306	30,159	-2,7661	-2,2074	20,947
55307	30,516	-2,9376	-2,9526	20,383
55308	29,951	-2,5521	-2,6122	21,259
55309	29,762	-2,9677	-2,3695	21,525
55310	31,04	-3,1289	0,62208	21,166
55311	30,989	-2,5716	0,32041	20,994
55312	31,526	-3,0877	0,75126	20,83
55313	31,014	-2,736	0,15658	20,865
55314	30,843	-3,2089	0,94093	21,235
55315	29,121	-3,1075	4,9822	18,24
55316	29,202	-2,5997	4,5137	19,124
55317	28,969	-3,2102	4,3545	19,949
55318	29,778	-3,0986	4,7331	18,404
55319	28,613	-2,7943	4,5552	20,205
55320	6,5302	-2,8612	-47,027	9,6143
55321	6,6849	-2,3428	-46,567	9,9643
55322	6,8715	-2,9493	-46,212	10,048
55323	6,4948	-2,7072	-46,268	10,572
55324	6,1506	-3,0044	-46,498	10,742
55325	7,0967	-2,9313	-46,847	9,5297
55326	5,9256	-2,8005	-47,913	9,1413
55327	6,2314	-2,6968	-46,672	10,411
55328	6,0899	-2,4647	-47,42	9,6669
55329	5,9405	-2,9298	-47,311	9,9644
55330	6,5365	-2,9074	-47,567	9,2643
55331	3,1754	-3,407	-50,04	6,8025
55332	3,224	-3,4323	-49,441	7,3754
55333	3,4605	-3,5176	-49,573	7,2579
55334	2,7743	-3,291	-50,741	6,2939
55335	2,8229	-3,3162	-50,142	6,862
55336	2,6283	-3,1413	-51,338	6,1709
55337	2,2957	-2,8897	-50,681	6,1115
55338	6,5379	-3,1922	46,761	15,47
55339	6,081	-2,6149	47,388	15,874
55340	6,1143	-3,2212	46,892	16,692
55341	6,7616	-3,1195	47,412	13,987
55342	6,2545	-2,9413	46,837	16,424
55343	-6,9025	-2,4808	-45,795	10,35
55344	-7,0697	-2,9944	-45,44	10,414
55345	-6,7146	-2,7093	-45,418	10,928
55346	-6,3507	-3,0035	-45,654	11,405
55347	-7,3282	-2,9978	-46,067	9,9138
55348	-3,115	-3,1317	50,06	16,508
55349	-3,698	-3,0996	50,307	16,189
55350	-3,3434	-2,8346	50,168	16,408
55351	-3,344	-3,1511	49,397	17,558
55352	-6,6009	-2,4823	46,433	15,833
55353	-6,9412	-2,9915	46,151	15,237
55354	-6,0958	-2,962	46,715	17,168
55355	-7,1194	-2,9934	46,729	13,998
55356	-6,4768	-2,6936	46,482	16,217
55357	-27,957	-2,965	-4,8544	20,612
55358	-27,51	-2,7154	-5,1082	20,717
55359	-27,729	-2,4396	-4,8523	21,027
55360	-27,309	-3,1139	-5,0891	20,966
55361	-26,855	-3,5336	-4,6378	24,011
55362	-27,32	-2,7444	-4,5121	23,669
55363	-27,332	-2,3791	-4,6063	23,078
55364	-0,21249	-2,1852	51,168	16,075
55365	0,13717	-2,0657	50,83	15,347
55366	-0,76461	-2,6044	50,893	16,417
55367	-1,03	-2,2892	51,379	16,256
55368	-0,686	-1,9999	51,524	16,466
55369	-0,25688	-1,8335	50,793	16,029
55370	-0,6891	-2,008	51,218	16,317
55371	-0,59856	-2,0848	50,445	15,884
55372	0,85894	-3,2565	39,498	16,083
55373	0,20852	-3,2287	38,813	15,71
55374	0,84519	-3,2769	38,753	15,907
55375	0,17796	-2,9494	39,266	15,532
55376	0,43147	-3,2466	39,647	15,746
55377	0,56643	-3,6949	39,134	15,76
55378	-1,2862	-2,7699	2,0268	8,2692
55379	-2,0791	-2,723	2,1866	8,288
55380	-1,0459	-2,5802	1,7211	8,2974
55381	-1,7107	-3,2882	1,6173	8,3276
55382	-1,7712	-2,7089	-1,0603	8,35
55383	-2,4256	-2,7975	-0,88442	8,4083
55384	-2,5383	-2,5923	-0,16153	8,4361
55385	-2,0094	-2,6094	-1,1238	8,3567
55386	-2,0422	-3,3047	-0,48491	8,3986
55387	-0,50658	-2,554	38,962	15,733
55388	-0,79421	-1,964	39,455	16,063
55389	-0,18724	-1,9357	38,778	15,683
55390	-0,79184	-1,8662	38,771	15,908
55391	-0,33165	-2,2708	39,187	15,498
55392	-0,36173	-1,8838	39,556	15,704
55393	-0,48666	-1,4299	39,032	15,736
55394	-6,2243	-1,9258	45,932	18,214
55395	-7,0477	-1,9785	46,556	14,448
55396	-6,8595	-1,9558	45,904	15,878
55397	-6,4364	-2,1902	46,348	16,534
55398	6,7193e-003	-2,2885	3,3862	8,0782
55399	-0,84144	-2,0447	3,3337	8,0998
55400	-0,59181	-2,4887	2,6646	8,1844
55401	-0,35146	-2,299	2,3589	8,2123
55402	-4,96	-1,9042	48,086	17,74
55403	-4,5222	-2,3861	48,624	17,434
55404	-5,4159	-1,8577	48,765	15,547
55405	-4,8766	-1,8028	48,929	16,479
55406	-5,3982	-2,0439	48,461	15,947
55407	-4,3627	-1,9447	48,292	18,705
55408	1,5421	-2,2406	1,4114	8,3256
55409	1,5521	-2,0857	0,43245	8,3689
55410	1,4484	-2,6633	0,6916	8,3597
55411	0,89416	-2,5443	0,85586	8,3345
55412	1,7639	-2,3636	1,0655	8,3681
55413	0,90303	-2,3573	0,88874	8,3336
55414	1,174	-2,4906	0,82528	8,3422
55415	-2,9172	-1,9897	2,4334	8,3357
55416	-2,2505	-2,0656	2,4923	8,2693
55417	-2,4327	-2,3645	2,4128	8,2925
55418	-2,8525	-2,1771	2,1145	8,3683
55419	1,4385	-2,5988	-1,2994	8,3258
55420	1,6438	-2,0893	-0,62918	8,3664
55421	1,8527	-2,0987	-1,4573	8,3367
55422	0,76433	-2,2912	-1,4989	8,2913
55423	-2,8212	-2,1388	-3,8791	8,1094
55424	-2,0555	-2,1457	-4,0763	8,0159
55425	-2,1819	-2,4639	-3,4758	8,1238
55426	-1,8897	-2,4443	-3,5095	8,103
55427	0,37021	-2,1325	-3,3893	8,058
55428	0,97587	-2,1038	-3,392	8,0718
55429	0,7649	-2,4646	-2,646	8,1717
55430	0,42181	-2,2404	-2,3701	8,1939
55431	-0,37904	-2,1349	-3,5452	8,0389
55432	-1,2254	-2,1105	-3,8871	7,999
55433	-0,65266	-2,4857	-3,2891	8,0837
55434	-0,4607	-2,4671	-3,4783	8,0492
55435	-1,0596	-2,4091	-3,3202	8,0883
55436	-0,32744	-2,2429	-2,526	8,1738
55437	-24,787	-2,499	6,0527	18,797
55438	-24,346	-1,9771	5,8534	19,176
55439	-24,535	-1,9485	6,4787	17,425
55440	-25,269	-1,9908	6,2232	18,181
55441	-26,189	-2,5218	5,4097	21,24
55442	-26,028	-1,9982	5,9501	19,147
55443	-26,751	-2,0054	5,676	19,524
55444	-26,347	-2,2685	5,2502	22,016
55445	-26,386	-2,3112	5,7885	19,476
55446	-26,399	-2,5066	5,3549	21,307
55447	-28,762	-2,6184	5,3537	18,021
55448	-28,847	-1,9496	4,8382	18,805
55449	-29,139	-1,9267	5,5566	17,507
55450	-28,352	-1,9677	5,8106	17,384
55451	-29,109	-2,1202	5,045	17,969
55452	-29,143	-2,5624	-4,1624	19,706
55453	-29,391	-2,093	-3,884	19,836
55454	-29,646	-2,0802	-4,5385	18,792
55455	-28,966	-2,0478	-4,7855	18,664
55456	-28,234	-2,2615	-4,3673	21,846
55457	0,37273	-2,0156	51,282	16,312
55458	0,7224	-1,8961	50,945	16,198
55459	0,59216	-1,8268	51,585	16,373
55460	0,32834	-1,6639	50,908	16,168
55461	3,5087	-1,887	50,073	16,254
55462	3,8939	-2,4306	49,915	16,137
55463	3,9802	-1,9114	50,427	15,71
55464	4,0856	-1,8392	49,563	16,451
55465	4,4692	-2,1079	49,611	15,932
55466	4,9873	-2,0679	48,355	16,804
55467	5,6948	-2,0951	47,956	16,036
55468	5,6608	-2,012	48,819	14,883
55469	6,0702	-2,1198	48,429	14,39
55470	5,2885	-2,2552	48,763	15,947
55471	5,8683	-2,4216	47,405	16,555
55472	-4,8097	-2,6469	-41,516	17,962
55473	-4,4202	-2,1627	-41,141	19,034
55474	-5,055	-2,1292	-40,973	17,421
55475	-5,2108	-2,1076	-41,639	16,829
55476	-5,1064	-2,1135	-42,99	17,23
55477	-5,3142	-1,8945	-42,287	16,588
55478	-5,5567	-1,8723	-42,989	15,611
55479	-5,4635	-2,1449	-43,435	15,844
55480	-5,9138	-1,9037	-43,434	14,229
55481	-6,1531	-1,877	-43,783	13,527
55482	-5,5375	-1,9176	-43,987	15,116
55483	-6,4464	-1,9697	-45,482	11,389
55484	-6,7488	-2,1857	-45,356	10,952
55485	-7,3983	-1,9698	-45,946	9,955
55486	-7,1781	-1,9439	-45,254	10,437
55487	-3,3152	-2,0001	-50,181	6,6884
55488	-3,5132	-2,4548	-49,961	7,0367
55489	-3,7552	-1,9854	-50,599	6,7987
55490	-3,2343	-2,3322	-50,217	6,6657
55491	-4,1195	-1,9939	-49,483	7,7246
55492	0,62629	-2,1468	-51,253	5,6605
55493	0,82371	-1,7862	-50,894	5,4983
55494	1,2943	-1,8488	-51,588	5,7994
55495	1,6922	-2,1282	-50,653	5,8781
55496	2,9489	-2,6301	-50,478	6,4199
55497	2,4128	-1,8999	-50,382	6,1122
55498	3,0977	-2,0787	-50,369	6,6174
55499	3,1488	-1,995	-50,883	6,3876
55500	2,4702	-2,2288	-50,418	6,227
55501	6,3861	-2,1784	-46,212	10,734
55502	6,2272	-1,9015	-46,101	11,061
55503	6,2445	-1,9464	-46,96	9,9095
55504	6,9593	-1,9024	-46,789	9,6842
55505	6,7366	-1,9225	-46,064	10,285
55506	30,74	-1,6058	-1,2066	21,187
55507	31,272	-1,6501	-1,2115	20,61
55508	30,67	-1,5197	-1,6851	20,988
55509	30,601	-1,3891	-1,4394	21,208
55510	30,857	-1,8794	-0,99046	21,029
55511	29,977	-2,0126	-3,2586	20,175
55512	30,642	-2,0749	-3,0875	20,045
55513	30,072	-2,1009	-2,7018	20,908
55514	26,974	-1,8094	-5,7911	18,836
55515	26,449	-1,9296	-5,946	18,753
55516	27,192	-2,3289	-5,3056	19,971
55517	26,214	-1,9678	-5,9329	18,925
55518	26,187	-1,8852	-5,5306	20,722
55519	26,803	-2,193	-5,1187	22,009
55520	1,276	-2,9405	-0,85587	8,3373
55521	1,8509	-2,9564	-0,98945	8,359
55522	1,8357	-2,868	-1,8742	8,2942
55523	1,1942	-2,9078	-1,9284	8,2623
55524	0,85113	-2,6835	-1,6525	8,2849
55525	-0,33984	-2,8897	-51,096	5,5267
55526	-1,2754	-3,159	-50,82	5,5909
55527	-0,67782	-2,622	-50,806	5,4587
55528	-1,4044	-3,1707	-50,412	5,6158
55529	-0,92367	-3,189	-51,403	5,6152
55530	-1,1926	-3,4336	-50,64	5,5714
55531	6,2522	-3,1701	45,979	18,111
55532	5,9426	-2,626	45,504	20,104
55533	5,8287	-3,1992	46,109	19,326
55534	5,9978	-3,1346	45,224	20,324
55535	5,9689	-2,9193	46,055	19,062
55536	5,4325	-3,1203	45,306	23,831
55537	24,807	-2,3406	-5,9474	19,354
55538	24,408	-2,8059	-6,0407	18,607
55539	24,52	-2,453	-6,0607	18,761
55540	24,889	-2,2933	-6,4284	17,626
55541	24,777	-2,9784	-6,8117	16,689
55542	25,245	-2,8509	-6,2733	18,057
55543	25,137	-2,9095	-5,5643	21,663
55544	26,214	-2,4436	-5,9197	19,108
55545	25,912	-2,9151	-5,9993	19,007
55546	26,586	-3,0035	-5,8744	19,051
55547	25,979	-2,4818	-5,9066	19,294
55548	25,952	-2,3992	-5,5043	21,1
55549	25,805	-2,9737	-5,2902	22,557
55550	28,45	-2,4323	-5,3779	18,241
55551	28,98	-3,0246	-5,5194	17,683
55552	28,304	-3,0711	-5,8445	17,387
55553	28,058	-2,8985	-5,1471	19,493
55554	27,954	-2,6546	-6,4144	16,277
55555	30,428	-2,1613	-1,3132	21,42
55556	30,35	-2,7359	-1,2932	21,395
55557	30,78	-2,6254	-1,9989	20,808
55558	30,357	-2,0752	-1,7918	21,343
55559	30,049	-2,4033	-2,058	21,398
55560	30,545	-2,4349	-1,0971	21,189
55561	29,86	-2,819	-1,8153	21,924
55562	30,625	-2,5877	1,0775	20,944
55563	30,75	-2,5857	0,59019	21,385
55564	30,835	-2,481	8,84e-002	21,288
55565	30,515	-2,9874	1,0887	21,027
55566	30,651	-2,9869	0,19786	21,474
55567	31,29	-2,8747	0,25928	20,921
55568	30,86	-2,6453	-7,5426e-002	21,228
55569	30,583	-3,3448	0,28595	21,481
55570	30,689	-3,1182	0,70892	21,261
55571	30,404	-3,0784	0,33116	21,63
55572	28,413	-3,0817	5,2324	18,698
55573	29,301	-3,0444	5,5309	17,352
55574	28,851	-2,5354	5,4426	17,657
55575	28,614	-3,0268	5,7662	17,187
55576	28,362	-2,7405	4,9574	19,71
55577	6,5727	-2,7849	-45,857	10,786
55578	6,4973	-3,0192	-45,593	11,195
55579	7,3874	-3,0245	-46,022	9,9135
55580	6,9232	-2,529	-45,708	10,404
55581	7,1543	-3,0306	-45,371	10,38
55582	5,5022	-2,7225	-48,718	8,5538
55583	5,2325	-2,4689	-48,631	8,676
55584	5,1092	-2,9014	-48,339	9,1071
55585	6,0708	-2,7884	-48,472	8,652
55586	5,4151	-2,8993	-48,713	8,5933
55587	3,1637	-3,3338	-49,879	7,0108
55588	3,34	-3,179	-50,871	6,4597
55589	3,0354	-3,1354	-50,165	6,63
55590	3,3846	-3,3106	-50,38	6,6433
55591	2,6365	-2,9073	-50,418	6,2226
55592	-5,3417	-2,6679	-43,272	16,231
55593	-5,792	-2,4268	-43,27	14,615
55594	-5,9091	-2,9277	-42,877	14,552
55595	-6,1649	-2,9313	-43,469	13,709
55596	6,4399	-2,5803	46,373	16,403
55597	7,1493	-3,1166	46,562	14,136
55598	6,9266	-3,1336	45,883	15,661
55599	6,4051	-2,9436	46,401	16,626
55600	4,0719	-2,9671	49,763	16,187
55601	4,821	-2,9116	49,586	15,41
55602	4,4445	-2,9487	50,093	15,616
55603	4,3018	-2,9775	49,095	17,244
55604	4,6472	-2,6444	49,459	16,172
55605	-6,916	-2,6993	-45,001	11,021
55606	-6,7745	-2,9572	-44,702	11,515
55607	-7,7456	-2,9914	-45,24	10,133
55608	-7,3453	-2,4576	-44,9	10,548
55609	-7,4821	-2,9762	-44,602	10,576
55610	-2,339	-3,0916	50,42	16,458
55611	-2,8933	-3,0811	50,759	16,372
55612	-2,9459	-2,8009	50,435	16,399
55613	-2,9466	-3,1174	49,664	17,437
55614	-6,6738	-2,9177	45,564	17,275
55615	-7,6235	-2,9905	45,87	13,87
55616	-7,1998	-2,465	45,623	15,282
55617	-7,3989	-2,9719	45,235	15,229
55618	-6,7768	-2,6994	46,066	15,936
55619	-28,502	-3,2106	5,0218	19,226
55620	-29,353	-3,1894	5,5088	17,401
55621	-29,624	-3,1813	4,8432	18,154
55622	-28,595	-3,1809	5,7067	17,342
55623	-29,254	-2,8559	5,0037	17,894
55624	-30,662	-3,1369	-1,8398	20,845
55625	-30,616	-3,1155	-1,2555	21,329
55626	-31,129	-3,1105	-1,5394	20,724
55627	-30,685	-2,7813	-1,5573	21,143
55628	-30,363	-3,1555	-2,3521	20,996
55629	-31,052	-3,1334	-2,2892	20,504
55630	-30,62	-2,8056	-1,9003	20,993
55631	-28,91	-2,8771	-4,5243	19,042
55632	-29,156	-2,8858	-5,3381	17,751
55633	-28,733	-2,3625	-5,1474	18,223
55634	-28,457	-2,8411	-5,6659	17,418
55635	-28,001	-2,5762	-4,7292	21,446
55636	-29,923	-2,2918	3,5069	19,806
55637	-29,1	-2,4721	4,2953	19,717
55638	-29,343	-1,9146	3,8814	19,968
55639	-29,665	-1,9935	4,5816	18,787
55640	-29,71	-2,5125	4,3278	19,184
55641	-29,34	-2,1871	4,4882	18,848
55642	-6,2585	-2,1982	-45,105	11,97
55643	-5,8946	-2,4924	-45,341	12,504
55644	-5,7911	-1,984	-45,761	12,064
55645	-6,2371	-1,9331	-44,583	12,377
55646	-5,6215	-1,9737	-44,786	14,151
55647	3,3175	-3,055	-49,204	7,7479
55648	3,6528	-2,3653	-49,3	7,7086
55649	4,0285	-2,9018	-48,706	8,4956
55650	3,1892	-2,8567	-49,49	7,3547
55651	3,5759	-3,4234	-48,827	8,4712
55652	4,2543	-3,387	-48,46	9,1396
55653	-29,943	-2,7474	3,5208	19,855
55654	-30,284	-2,8844	3,0306	20,657
55655	-30,434	-2,9601	2,5938	21,177
55656	-30,659	-3,1298	2,1158	20,993
55657	-30,798	-2,9195	1,5286	20,181
55658	-30,739	-2,2182	1,6046	20,37
55659	-30,583	-2,2343	2,2041	21,044
55660	-30,352	-2,2405	2,6472	21,268
55661	-30,187	-2,1899	3,1068	20,655
55662	-31,103	-2,2813	1,4887	19,729
55663	-31,338	-2,2635	1,8322	20,059
55664	-31,224	-2,2015	2,1689	20,488
55665	-31,056	-2,2137	2,528	20,707
55666	-30,886	-2,2124	2,9652	20,465
55667	-30,664	-2,215	3,3864	19,93
55668	-30,554	-2,7878	3,5533	19,675
55669	-30,8	-2,8098	3,044	20,376
55670	-30,959	-2,6874	2,5927	20,836
55671	-31,174	-2,8018	2,198	20,529
55672	-31,28	-2,8506	1,8879	20,122
55673	-31,121	-2,7799	1,4395	19,654
55674	19,545	-2,5112	2,983	15,062
55675	19,556	-3,0176	3,3877	14,977
55676	19,179	-3,0184	2,8413	14,815
55677	19,599	-3,0229	2,4786	15,039
55678	20,133	-3,0089	2,8594	15,733
55679	-5,767	-2,3361	43,29	22,27
55680	-6,0145	-1,8952	42,885	21,367
55681	-5,8102	-1,7394	42,905	21,947
55682	-6,0574	-1,8654	43,628	21,118
55683	-5,4771	-2,0116	44,067	24,087
55684	-5,2349	-1,8683	43,293	24,712
55685	-2,3111	-3,1186	-50,865	6,1193
55686	-2,8681	-2,5884	-50,514	6,3906
55687	-2,4401	-3,1304	-50,457	6,1159
55688	-2,8604	-3,1056	-51,165	6,3079
55689	-2,7872	-2,9205	-50,549	6,377
55690	-2,2283	-3,3933	-50,685	6,0535
55691	4,2774	-1,904	48,737	17,679
55692	4,3155	-2,5058	48,421	18,325
55693	4,6609	-2,1727	48,785	17,304
55694	4,3296	-2,0078	47,883	20,683
55695	4,0525	-1,9557	48,358	18,996
55696	1,7477	-1,6967	-50,2	5,593
55697	2,1003	-2,1771	-50,322	6,0102
55698	-6,0559	-2,4508	42,846	21,233
55699	-5,7528	-2,8595	43,771	22,455
55700	-6,2051	-2,3977	43,074	20,799
55701	-6,0059	-2,8963	42,734	21,218
55702	-6,3603	-2,8927	43,383	20,233
55703	-5,5186	-2,5673	44,028	23,955
55704	-5,3894	-2,9649	43,309	24,03
55705	-16,114	-2,1552	-0,55933	13,205
55706	-15,622	-2,1802	-8,2969e-002	12,888
55707	-15,967	-2,1933	-0,92608	13,082
55708	-15,42	-2,1791	-0,68721	12,774
55709	-16,117	-2,8608	-0,35594	13,21
55710	-15,973	-2,7376	-0,91199	13,088
55711	-15,713	-2,8838	-0,36476	12,958
55712	-15,454	-2,7365	-0,79579	12,783
55713	1,452	-3,1759	39,365	16,512
55714	0,44714	-2,926	39,663	15,835
55715	1,33	-3,1838	40,202	16,797
55716	0,70066	-3,2232	40,044	16,05
55717	1,1533	-3,6371	39,958	16,412
55718	-20,041	-2,5137	-3,018	15,539
55719	-20,261	-2,0117	-3,1529	15,902
55720	-20,243	-1,9984	-2,9797	15,759
55721	-19,399	-1,9974	-2,9275	14,991
55722	-19,714	-2,0017	-3,5108	15,087
55723	-20,077	-1,9935	-2,598	15,37
55724	-0,90947	-2,8125	-51,283	5,7323
55725	0,22346	-2,1826	-51,2	5,536
55726	-0,31193	-2,2755	-51,27	5,6321
55727	-0,88731	-2,2104	-51,109	5,718
55728	-1,0385	-2,8242	-50,875	5,7435
55729	1,0519	-2,2452	-51,762	5,7382
55730	0,69401	-2,2452	-51,894	5,777
55731	0,31398	-2,2166	-51,819	5,781
55732	-0,11082	-2,2478	-51,845	5,7694
55733	-0,49559	-2,2214	-51,877	5,7684
55734	-0,79218	-2,277	-51,93	5,7715
55735	-1,0542	-2,2886	-51,607	5,7465
55736	-1,0381	-2,8101	-51,637	5,7461
55737	-0,55778	-2,8425	-51,866	5,7947
55738	-0,21972	-2,7802	-51,801	5,7703
55739	9,6543e-002	-2,8377	-51,799	5,7632
55740	0,48925	-2,8803	-51,888	5,7595
55741	0,78874	-2,814	-51,941	5,7775
55742	1,0607	-2,8144	-51,692	5,7437
55743	-1,8228	-2,4796	-50,834	5,9053
55744	-1,974	-3,0935	-50,6	5,9376
55745	-1,9736	-3,0793	-51,361	5,9857
55746	-2,3211	-2,8837	-50,692	6,1325
55747	-1,7622	-3,3564	-50,827	5,8855
55748	-6,4194	-2,6721	-44,68	12,017
55749	-6,197	-2,7084	-45,215	11,996
55750	-6,5395	-2,1491	-44,457	11,99
55751	-6,9902	-2,1725	-44,877	11,012
55752	-25,664	-2,2597	9,3557	11,594
55753	-26,128	-2,2728	9,5546	11,164
55754	-25,865	-2,2496	8,9379	12,139
55755	-26,358	-2,2623	9,1212	11,7
55756	-26,119	-2,2633	8,54	12,69
55757	-26,626	-2,226	8,6869	12,292
55758	-26,204	-2,2285	8,1174	13,419
55759	-26,834	-2,2336	8,2779	12,951
55760	-26,456	-2,2892	7,6592	14,382
55761	-27,018	-2,2928	7,827	13,816
55762	-25,673	-2,7763	9,1122	11,911
55763	-26,187	-2,7822	9,4569	11,275
55764	-25,951	-2,7745	8,7346	12,428
55765	-26,423	-2,7738	8,9854	11,883
55766	-26,13	-2,8365	8,2245	13,221
55767	-26,663	-2,839	8,6009	12,428
55768	-26,372	-2,8558	7,803	14,045
55769	-26,881	-2,8429	8,1873	13,105
55770	-26,635	-2,7907	7,4322	14,859
55771	-27,071	-2,7814	7,7475	13,954
55772	5,1504	-2,4412	-48,955	8,3692
55773	5,9169	-2,4269	-49,066	8,1621
55774	5,8283	-2,3922	-49,27	7,9984
55775	5,4402	-2,3438	-49,334	7,9535
55776	5,4505	-2,9185	-49,471	7,8816
55777	5,7465	-2,8702	-49,216	8,052
55778	5,9886	-2,7607	-48,796	8,2808
55779	5,3329	-2,8716	-49,036	8,2697
55780	5,0679	-3,0058	-49,28	7,9813
55781	-11,659	-2,052	-0,56537	10,749
55782	-10,627	-2,1487	-0,34802	10,287
55783	-11,166	-2,1055	-0,32517	10,516
55784	-11,333	-2,0435	-0,83117	10,592
55785	-10,851	-2,1104	-0,70756	10,383
55786	-11,131	-2,0864	-1,0239	10,486
55787	-11,382	-2,7695	-0,29528	10,604
55788	-11,141	-2,8462	-0,60248	10,503
55789	-10,833	-2,7321	-0,24921	10,367
55790	-10,579	-2,6639	-0,60382	10,272
55791	-10,899	-2,7137	-0,902	10,39
55792	-11,59	-2,1427	-0,32973	10,704
55793	-10,55	-2,5955	-0,36802	10,258
55794	-27,745	-1,9131	-5,2918	19,377
55795	-27,714	-1,8952	-5,5872	18,593
55796	-27,982	-2,0705	-5,5771	18,32
55797	-27,963	-2,0218	-5,3232	18,888
55798	-27,176	-2,2146	-6,0611	17,634
55799	-28,179	-2,1509	-5,8045	17,664
55800	-27,603	-1,9765	-6,0613	17,429
55801	-28,01	-2,5915	-5,9197	17,53
55802	-27,543	-2,696	-5,5599	18,867
55803	-27,36	-2,7246	-5,6029	18,888
55804	-27,729	-2,6672	-6,196	17,067
55805	-27,423	-2,7583	-6,1097	17,409
55806	-27,256	-2,7534	-5,9489	17,91
55807	-27,239	-2,4305	-5,4619	19,641
55808	-27,441	-2,1702	-5,3354	19,845
55809	-27,566	-1,9613	-5,0771	20,926
55810	0,59258	-2,0921	51,08	16,268
55811	0,44505	-2,6474	51,16	16,44
55812	-0,30921	-2,6307	51,143	16,06
55813	-0,23059	-2,0262	51,774	16,437
55814	0,14747	-2,0487	51,673	16,551
55815	0,46235	-2,0228	51,72	16,574
55816	0,83777	-2,0817	51,571	16,187
55817	0,74153	-2,5976	51,623	16,327
55818	0,47689	-2,6158	51,83	16,62
55819	0,14387	-2,6472	51,776	16,633
55820	-0,26389	-2,6006	51,815	16,45
55821	4,0465	-2,7733	-49,074	7,6764
55822	3,5475	-2,6693	-49,376	7,5321
55823	3,3125	-2,7824	-49,77	7,2064
55824	3,9232	-3,2058	-48,783	8,2797
55825	3,0839	-3,1607	-49,566	7,2218
55826	3,8907	-3,3226	-48,914	8,0165
55827	4,229	-3,2037	-49,156	7,4051
55828	3,6907	-3,4276	-49,163	7,6798
55829	3,964	-3,3379	-49,399	7,3862
55830	3,7305	-3,366	-49,652	7,2053
55831	3,4488	-3,4444	-49,412	7,4548
55832	3,4332	-3,3359	-49,781	7,1426
55833	-7,1356	-2,2154	7,9162	8,0624
55834	-7,5856	-2,084	8,3111	8,0978
55835	-7,2881	-2,1719	7,6004	8,1562
55836	-7,6902	-2,0865	7,8545	8,21
55837	-7,7221	-2,519	8,357	8,1204
55838	-7,4452	-2,6223	8,0971	8,103
55839	-7,0375	-2,7094	7,7449	8,0722
55840	-6,7537	-2,7415	8,0352	7,9556
55841	-6,9888	-2,5843	8,158	7,9867
55842	6,0371	-2,2659	-45,801	11,687
55843	5,9308	-2,3218	-46,107	11,489
55844	6,0545	-2,3108	-46,661	10,54
55845	6,1205	-2,7771	-45,649	11,745
55846	5,8518	-2,84	-46,143	11,57
55847	5,9051	-2,7758	-46,552	10,811
55848	6,1409	-2,2727	-45,435	11,906
55849	6,5465	-2,2869	-45,764	10,882
55850	6,7743	-2,2992	-45,288	10,87
55851	6,3136	-2,3142	-45,062	11,811
55852	6,2445	-2,7588	-45,264	11,803
55853	6,7776	-2,7885	-45,427	10,791
55854	-0,83476	-3,1482	39,314	15,994
55855	-0,96222	-3,1916	38,807	15,992
55856	-0,37821	-3,1814	38,753	15,699
55857	-0,40877	-2,9022	39,206	15,521
55858	-0,15525	-3,1993	39,586	15,733
55859	-0,70646	-3,6162	39,098	15,852
55860	-1,6208	-3,1159	39,625	16,979
55861	-0,65983	-2,8649	39,539	15,758
55862	-0,92622	-3,0708	39,962	16,151
55863	-1,1533	-3,5686	39,659	16,343
55864	-2,6246	-3,1158	39,902	18,721
55865	-2,298	-2,544	39,637	17,955
55866	-1,7483	-3,1593	39,118	16,981
55867	-2,5832	-3,1888	39,061	17,591
55868	-1,1948	-2,8699	39,517	16,508
55869	-2,4439	-2,9218	39,311	17,703
55870	-1,9364	-3,0658	40,089	17,637
55871	-2,1434	-3,5837	39,554	17,709
55872	-5,2627	-2,881	41,623	21,573
55873	-5,5691	-2,3337	41,901	21,544
55874	-6,0475	-2,4248	42,138	20,623
55875	-6,078	-2,258	41,68	20,206
55876	-5,8515	-2,8383	41,342	20,318
55877	-5,9975	-2,8703	42,026	20,624
55878	-5,381	-2,9389	42,601	23,496
55879	-5,6888	-3,3995	41,823	21,18
55880	-4,3388	-2,8982	41,105	21,843
55881	-4,6643	-2,3951	41,486	22,567
55882	-5,07	-2,8281	40,913	21,03
55883	-4,428	-2,95	41,853	23,839
55884	-4,7647	-3,4448	41,346	22,203
55885	-3,5186	-2,9925	40,5	20,569
55886	-3,088	-2,4831	40,26	19,827
55887	-3,4037	-3,0913	39,577	19,025
55888	-2,9127	-2,9167	39,611	18,711
55889	-2,8782	-3,0536	40,601	19,939
55890	-3,1385	-3,5532	40,173	19,802
55891	-3,8881	-2,3525	40,819	21,503
55892	-4,3632	-2,8608	40,27	20,424
55893	-3,3378	-2,7984	39,909	19,521
55894	-3,683	-2,9229	41,208	22,181
55895	-3,9669	-3,4299	40,77	21,486
55896	0,75277	-1,9203	39,32	15,94
55897	0,95464	-1,8869	38,911	15,994
55898	0,23657	-1,8828	38,845	15,655
55899	9,216e-002	-2,2178	39,255	15,469
55900	6,2078e-002	-1,8309	39,623	15,675
55901	0,59436	-1,3806	39,141	15,77
55902	1,6655	-2,1081	39,435	16,912
55903	0,42677	-2,3215	39,497	15,754
55904	0,9271	-1,993	39,983	16,178
55905	1,1676	-1,5085	39,619	16,356
55906	2,734	-2,1377	39,735	18,701
55907	2,3296	-2,584	39,313	17,718
55908	2,6706	-2,1368	38,98	17,628
55909	1,8674	-2,0747	39,026	16,971
55910	1,0049	-2,4056	39,37	16,444
55911	1,968	-2,1452	39,959	17,554
55912	2,3755	-1,6035	39,346	17,827
55913	3,6149	-2,0778	40,487	20,634
55914	3,1904	-2,5842	40,191	19,846
55915	3,6739	-2,2215	39,651	19,201
55916	2,9618	-2,0534	40,58	20,019
55917	3,2586	-1,5546	40,163	19,923
55918	5,2328	-2,1087	41,813	21,933
55919	5,4043	-2,6354	42,216	22,294
55920	5,8741	-2,1905	41,626	20,673
55921	6,0432	-2,1256	42,413	20,726
55922	5,7612	-2,7024	42,317	21,478
55923	5,1903	-2,1185	42,706	24,295
55924	4,4393	-2,0567	41,15	21,817
55925	3,9605	-2,5849	40,834	21,522
55926	4,3464	-2,1789	40,372	20,56
55927	4,0203	-1,5465	40,782	21,494
55928	3,7418	-2,0495	41,225	22,263
55929	4,7374	-2,5696	41,501	22,46
55930	5,132	-2,1218	40,985	21,061
55931	4,5075	-2,0335	41,947	23,932
55932	4,8472	-1,5435	41,451	22,279
55933	25,195	-1,8608	5,7548	20,024
55934	25,367	-1,8414	6,2939	18,149
55935	25,974	-1,8566	5,9972	18,887
55936	25,811	-1,9146	5,6288	20,7
55937	25,225	-1,9625	5,885	19,503
55938	25,932	-1,8006	5,4448	21,723
55939	25,554	-2,3532	5,4964	21,615
55940	25,568	-1,3948	5,8956	19,419
55941	24,737	-2,4405	5,847	19,697
55942	24,315	-1,8722	5,5641	20,519
55943	24,443	-1,8402	6,0725	18,811
55944	25,321	-1,9408	5,5568	20,966
55945	24,736	-1,9887	5,8129	19,893
55946	24,984	-1,8973	5,3259	22,56
55947	24,64	-1,4118	5,6743	20,318
55948	19,181	-1,9916	0,46719	14,662
55949	19,135	-2,506	0,91634	14,674
55950	19,048	-1,993	1,3771	14,67
55951	18,685	-1,9963	0,86196	14,522
55952	19,651	-1,9949	1,0553	14,759
55953	19,174	-1,4621	0,91965	14,695
55954	19,2	-1,934	-1,3888	14,709
55955	19,184	-2,5285	-1,9324	14,762
55956	18,66	-1,9273	-1,7171	14,518
55957	19,075	-1,9593	-2,2487	14,688
55958	19,794	-1,9877	-1,99	15,187
55959	19,158	-1,4758	-1,8192	14,738
55960	19,24	-1,9373	-0,45713	14,678
55961	19,229	-2,5064	4,6523e-003	14,656
55962	18,769	-1,9916	6,2626e-003	14,522
55963	19,696	-1,9905	1,6688e-002	14,479
55964	19,261	-1,4523	1,4475e-002	14,653
55965	19,239	-2,4474	-0,94558	14,705
55966	18,786	-1,8417	-0,84659	14,55
55967	19,736	-1,9362	-0,95855	14,669
55968	19,253	-1,4168	-0,91059	14,703
55969	4,9089	-3,0964	41,903	22,703
55970	5,4131	-3,1334	41,701	21,734
55971	5,5729	-3,1614	42,393	22,051
55972	4,9268	-3,1124	42,821	25,439
55973	5,2021	-3,58	42,175	22,79
55974	2,786	-3,0305	39,769	18,83
55975	2,0957	-3,0473	39,076	17,237
55976	2,7253	-3,0346	39,046	17,781
55977	1,0908	-2,7974	39,374	16,554
55978	1,9737	-3,0551	39,913	17,508
55979	2,4166	-3,5126	39,512	18,06
55980	3,536	-3,0913	40,538	20,662
55981	3,4521	-3,1458	39,785	19,332
55982	2,9113	-3,0584	40,624	19,979
55983	3,136	-3,5869	40,29	20,
55984	4,2586	-3,0978	41,185	22,032
55985	4,7561	-3,1536	41,048	21,587
55986	4,3542	-3,0647	41,98	24,166
55987	4,5586	-3,5797	41,519	22,737
55988	4,102	-3,1377	40,475	20,811
55989	3,6745	-3,0661	41,255	22,261
55990	3,8694	-3,5924	40,906	21,702
55991	20,847	-3,0235	4,2654	16,523
55992	20,389	-2,5235	4,1007	15,887
55993	20,315	-3,0691	4,5575	15,418
55994	19,988	-3,0259	3,9289	15,44
55995	20,564	-3,0172	3,4006	16,071
55996	21,684	-3,0181	4,7039	17,673
55997	21,252	-2,5154	4,503	17,041
55998	21,101	-3,0285	4,9669	16,224
55999	21,437	-3,0146	3,9993	17,96
56000	21,275	-3,5233	4,4499	17,123
56001	22,522	-3,0446	5,1697	18,586
56002	22,096	-2,5079	4,9511	18,236
56003	21,936	-3,0253	5,3903	17,112
56004	22,273	-3,0137	4,4904	19,872
56005	22,129	-3,5399	4,8913	18,415
56006	23,454	-2,9663	5,6016	19,041
56007	22,957	-2,5126	5,3448	19,192
56008	22,83	-3,0955	5,7785	17,804
56009	23,079	-2,8193	5,6714	18,441
56010	23,112	-3,0358	4,9432	21,243
56011	22,974	-3,5645	5,3475	19,173
56012	24,367	-2,9273	5,9027	19,072
56013	23,945	-2,359	5,6198	19,958
56014	24,073	-2,327	6,1282	18,197
56015	23,737	-2,9381	6,2813	17,591
56016	23,589	-2,7136	5,8639	18,588
56017	24,365	-2,4755	5,8686	19,271
56018	24,096	-2,9182	5,2822	22,119
56019	23,907	-3,4474	5,7564	19,252
56020	24,91	-2,4211	6,3862	17,752
56021	24,522	-3,0196	6,5383	17,29
56022	25,167	-2,992	6,3145	17,925
56023	24,768	-2,5422	5,9772	19,159
56024	25,097	-2,9329	5,5887	21,224
56025	24,756	-3,4932	6,0777	18,643
56026	23,448	-1,9053	5,363	19,999
56027	23,717	-1,8218	5,8062	19,081
56028	23,57	-2,212	5,6896	19,315
56029	24,346	-1,9739	5,6943	19,954
56030	24,068	-1,9186	5,0955	22,968
56031	23,857	-1,4045	5,4766	20,346
56032	22,531	-1,9759	5,1262	18,751
56033	22,865	-1,9228	5,809	17,78
56034	23,092	-2,2599	5,6071	18,643
56035	23,123	-1,9703	4,8762	21,473
56036	22,891	-1,4485	5,3142	19,064
56037	20,794	-2,0153	4,3383	16,385
56038	20,193	-2,0198	4,652	15,221
56039	19,899	-2,0156	4,0019	15,313
56040	20,516	-2,0132	3,459	15,969
56041	20,36	-1,5164	4,1998	15,777
56042	21,664	-2,0051	4,7501	17,545
56043	21,917	-1,9697	5,5072	16,865
56044	22,253	-1,9991	4,5237	19,688
56045	22,072	-1,4868	5,0263	17,982
56046	21,061	-2,0141	5,0247	16,1
56047	21,415	-2,0108	4,0393	17,859
56048	21,218	-1,5043	4,5585	16,892
56049	-2,7614	-1,9112	39,995	19,034
56050	-2,0966	-1,9372	39,422	17,512
56051	-2,8576	-1,9841	39,247	18,039
56052	-1,337	-2,293	39,552	16,727
56053	-2,586	-2,3448	39,346	17,928
56054	-2,021	-2,0238	40,096	17,741
56055	-3,4576	-1,8431	40,579	20,687
56056	-3,4773	-1,7916	39,863	19,432
56057	-2,9073	-2,289	39,669	18,797
56058	-2,8791	-1,9194	40,666	20,027
56059	-4,2137	-1,8494	41,201	22,091
56060	-4,1055	-1,7978	40,477	20,863
56061	-3,2822	-2,2768	39,93	19,554
56062	-3,6188	-1,8984	41,241	22,208
56063	-4,9707	-1,8477	41,764	22,396
56064	-5,825	-1,9188	42,204	21,155
56065	-5,4266	-1,8152	41,529	21,388
56066	-5,6207	-1,7631	42,224	21,774
56067	-5,0455	-1,8919	42,612	24,678
56068	-4,7992	-1,8021	41,147	21,761
56069	-4,347	-1,914	41,955	24,103
56070	-5,794	-1,9556	46,085	19,55
56071	-5,9972	-2,3554	45,479	19,936
56072	-5,9233	-1,8123	45,111	20,801
56073	-6,1788	-1,8599	45,302	19,415
56074	-6,1003	-2,1371	45,982	18,596
56075	-5,5584	-2,0578	45,186	22,995
56076	-5,485	-1,876	45,397	23,427
56077	-5,3758	-2,0401	47,134	18,565
56078	-4,7999	-2,4889	47,735	19,008
56079	-4,6325	-2,0203	47,444	21,649
56080	-5,6251	-2,4884	46,733	18,839
56081	-6,0061	-2,2199	46,5	17,877
56082	-5,2641	-2,0186	46,397	22,269
56083	2,5138	-1,9505	50,287	16,423
56084	2,9896	-2,464	50,006	16,893
56085	3,1063	-1,9506	50,614	16,356
56086	4,0016	-2,1392	49,656	15,834
56087	3,3932	-1,9221	49,228	18,148
56088	2,7837	-2,0118	49,542	17,377
56089	1,4644	-1,9776	50,6	16,27
56090	1,9323	-2,4933	50,449	16,826
56091	2,1344	-1,9856	50,932	16,548
56092	1,8216	-1,9926	49,972	16,066
56093	0,79471	-2,5279	50,822	16,46
56094	1,1874	-1,9622	51,234	16,403
56095	0,54819	-1,7403	50,706	16,16
56096	0,78244	-1,992	50,255	15,675
56097	-19,173	-1,9726	-1,4049	14,706
56098	-19,131	-2,489	-1,8528	14,731
56099	-18,606	-1,9705	-1,779	14,49
56100	-19,009	-1,9891	-2,3253	14,645
56101	-19,688	-1,9852	-1,9958	15,089
56102	-19,195	-1,97	1,389	14,726
56103	-19,13	-2,4853	1,8652	14,744
56104	-19,042	-1,9699	2,3117	14,679
56105	-18,639	-1,9648	1,7651	14,515
56106	-19,776	-1,9835	1,995	15,213
56107	-19,153	-1,472	1,8361	14,757
56108	-19,248	-1,96	0,45841	14,681
56109	-19,238	-2,475	0,92909	14,722
56110	-18,766	-1,9556	0,87104	14,554
56111	-19,736	-1,9806	0,95512	14,694
56112	-19,254	-1,4618	0,91548	14,724
56113	-19,239	-1,9586	-0,47571	14,673
56114	-19,233	-2,4708	-0,93385	14,707
56115	-18,736	-1,8803	-0,90809	14,535
56116	-19,72	-1,9784	-0,95542	14,682
56117	-19,245	-2,4658	-2,4127e-003	14,643
56118	-18,81	-1,8665	-3,2e-002	14,533
56119	-19,703	-1,9704	-4,7423e-003	14,477
56120	6,1303	-2,0363	45,897	18,394
56121	6,224	-2,0711	45,103	19,495
56122	6,0955	-2,3995	45,925	18,617
56123	5,5788	-2,0896	45,172	23,142
56124	5,9831	-2,0031	47,	16,8
56125	6,0164	-2,6094	46,503	17,622
56126	6,7517	-2,0073	46,622	15,192
56127	6,5452	-1,8821	45,81	16,976
56128	6,1566	-2,3295	46,449	17,356
56129	5,5109	-1,9847	46,305	21,408
56130	5,6771	-2,5643	47,523	16,911
56131	6,3412	-2,0357	47,677	14,762
56132	5,9483	-2,3663	47,028	17,024
56133	5,0372	-2,035	47,484	19,577
56134	29,276	-2,0963	4,0048	19,772
56135	28,8	-2,6485	4,2882	20,229
56136	29,571	-2,0193	4,6142	18,725
56137	28,475	-1,9748	4,839	19,258
56138	28,932	-2,0277	4,974	18,419
56139	28,443	-2,2327	4,4888	20,498
56140	28,446	-1,9869	4,171	22,095
56141	29,611	-2,1891	3,1751	20,751
56142	29,319	-2,6836	3,4844	20,959
56143	30,028	-2,0782	3,7541	19,726
56144	30,033	-2,1804	2,2765	21,167
56145	29,636	-2,6846	2,684	21,599
56146	30,319	-2,1093	2,9473	20,56
56147	29,279	-2,1851	2,4691	22,536
56148	30,488	-2,1352	1,2776	21,301
56149	30,254	-2,5368	1,7762	21,691
56150	30,835	-2,0847	2,0387	20,882
56151	29,825	-2,1768	1,5522	21,821
56152	30,699	-2,0284	0,28851	21,226
56153	30,514	-2,5344	0,39796	21,466
56154	31,062	-2,0817	1,1203	21,004
56155	30,724	-2,1928	0,12468	21,094
56156	30,14	-2,1838	0,7784	21,777
56157	30,692	-1,8145	-0,59327	21,333
56158	31,068	-1,8201	-0,65449	20,996
56159	30,529	-1,6192	-1,4518	21,149
56160	30,221	-1,9473	-1,718	20,998
56161	30,461	-1,4886	-1,206	21,477
56162	30,717	-1,9788	-0,75709	21,488
56163	30,023	-1,7756	-1,2703	21,874
56164	30,613	-2,3891	-0,57328	21,317
56165	31,231	-1,9733	-4,3202e-002	20,992
56166	30,809	-2,088	-0,3771	21,434
56167	30,246	-1,951	-0,47455	21,625
56168	29,324	-1,892	-3,992	19,814
56169	30,098	-1,9962	-3,7775	19,651
56170	29,747	-2,1011	-3,0196	20,66
56171	29,257	-1,9435	-3,2366	21,713
56172	28,757	-1,7871	-4,9099	18,712
56173	29,057	-1,8923	-5,555	17,457
56174	27,909	-1,7498	-5,6667	17,976
56175	28,458	-1,799	-5,907	17,038
56176	28,127	-2,2693	-5,1812	19,251
56177	28,023	-2,0254	-6,4485	16,039
56178	27,739	-2,1335	-4,9942	21,227
56179	29,522	-1,8746	-4,6131	18,805
56180	28,365	-2,2533	-4,6791	19,924
56181	28,561	-1,943	-4,2022	21,314
56182	21,654	-1,9718	-4,691	17,695
56183	21,188	-2,4926	-4,5229	16,937
56184	20,826	-1,97	-4,3346	16,448
56185	21,085	-1,9624	-4,9792	16,224
56186	21,34	-1,98	-3,9242	17,58
56187	22,513	-1,9631	-5,0742	18,851
56188	22,069	-2,4754	-4,9197	18,297
56189	21,925	-2,0724	-5,3248	17,231
56190	22,233	-1,9714	-4,4506	19,854
56191	24,318	-1,884	-5,6622	20,052
56192	24,485	-1,9717	-5,8518	19,652
56193	25,137	-1,8585	-5,8437	19,787
56194	24,529	-1,7919	-6,1555	18,609
56195	25,099	-1,9099	-5,3445	22,73
56196	23,406	-1,9323	-5,4295	19,616
56197	22,927	-2,4989	-5,4403	18,879
56198	22,777	-1,9528	-5,6228	18,161
56199	23,119	-1,9624	-4,8608	21,586
56200	23,919	-2,3492	-5,7554	19,36
56201	24,031	-1,9963	-5,7755	19,491
56202	23,684	-1,7781	-5,922	18,627
56203	23,766	-2,1738	-6,3156	17,651
56204	24,045	-1,9322	-5,1608	22,654
56205	2,1118	-1,9555	-39,443	23,946
56206	1,7253	-2,495	-39,168	24,482
56207	1,4247	-1,9708	-38,878	24,399
56208	2,0908	-1,9847	-38,783	23,385
56209	2,8563	-1,9487	-39,994	22,766
56210	2,4793	-2,4636	-39,727	23,526
56211	2,8244	-1,9543	-39,349	22,537
56212	3,5832	-1,9627	-40,572	21,242
56213	3,263	-2,5239	-40,252	22,032
56214	3,5191	-1,9992	-39,956	21,282
56215	4,2867	-1,9285	-41,213	19,511
56216	4,02	-2,5062	-40,853	20,239
56217	4,1259	-1,8741	-40,448	19,908
56218	4,9741	-1,8762	-41,903	17,499
56219	4,6986	-2,439	-41,504	18,383
56220	5,032	-2,0838	-41,347	17,498
56221	4,824	-1,8075	-41,158	18,049
56222	5,4433	-2,375	-42,114	16,074
56223	5,3762	-2,0544	-41,698	16,379
56224	5,6922	-1,9125	-42,496	15,299
56225	5,5882	-1,7857	-41,82	15,844
56226	5,7718	-2,0449	-45,996	11,841
56227	5,9616	-2,5002	-45,538	12,071
56228	5,982	-1,9958	-45,324	12,224
56229	5,7892	-2,0898	-46,855	10,77
56230	5,5865	-2,619	-46,337	11,813
56231	5,3969	-2,1331	-48,139	9,044
56232	5,7636	-2,5437	-47,3	10,154
56233	6,3783	-2,0508	-47,692	9,2944
56234	4,3817	-2,0836	-49,17	7,9884
56235	4,7574	-2,6201	-48,577	9,0512
56236	5,6472	-2,1733	-48,979	8,2155
56237	5,1705	-2,0901	-49,247	8,0896
56238	4,725	-2,7369	-48,708	8,7542
56239	5,0633	-2,6179	-48,95	8,425
56240	4,7982	-2,7521	-49,193	8,1867
56241	3,6478	-2,0927	-49,866	7,2529
56242	4,3854	-2,0189	-49,899	7,3312
56243	4,0657	-2,6763	-49,747	7,3959
56244	3,7851	-2,1381	-50,548	6,7894
56245	3,1842	-2,5841	-50,056	6,8256
56246	3,5335	-2,7593	-50,271	6,8661
56247	2,7853	-2,3559	-50,309	6,3996
56248	-0,11452	-1,9149	-50,911	5,4406
56249	0,5114	-1,856	-51,46	5,5937
56250	1,2893	-2,164	-50,6	5,669
56251	-1,2253	-1,9426	-50,82	5,6873
56252	-0,44879	-1,98	-51,555	5,676
56253	-2,3798	-1,9494	-50,483	6,1066
56254	-1,9518	-2,4913	-50,426	5,9186
56255	-1,409	-1,8885	-51,428	5,8543
56256	-1,9675	-1,9557	-51,157	5,9534
56257	-2,299	-2,2815	-50,518	6,1009
56258	-3,1571	-2,4761	-50,085	6,7282
56259	-3,0011	-2,0139	-50,895	6,3342
56260	-3,8045	-2,112	-49,266	7,7052
56261	-2,8782	-2,3535	-50,341	6,3982
56262	-3,7633	-2,0151	-49,607	7,2744
56263	5,7104	-3,1706	47,026	17,718
56264	5,8506	-2,8907	46,971	17,442
56265	5,0331	-3,0641	47,45	19,429
56266	5,9816	-2,9727	46,531	17,846
56267	5,3365	-3,1278	46,389	21,875
56268	28,262	-3,1844	4,6047	20,246
56269	27,937	-2,5107	5,1555	19,538
56270	27,723	-3,0515	5,3919	19,045
56271	27,905	-2,7686	4,8053	20,68
56272	27,345	-3,0787	4,9628	21,659
56273	28,843	-3,2358	3,7678	21,139
56274	28,21	-2,8432	4,3297	21,329
56275	28,221	-3,1524	3,9468	23,253
56276	29,344	-3,179	2,9933	21,491
56277	28,829	-3,1344	3,2174	22,914
56278	29,857	-3,041	2,1837	21,649
56279	29,294	-3,1574	2,399	22,587
56280	30,279	-2,936	0,89651	20,925
56281	30,318	-3,0674	1,4076	21,456
56282	29,853	-3,0347	1,5352	21,91
56283	21,602	-2,9963	-4,7517	17,492
56284	20,753	-3,0004	-4,4067	16,267
56285	21,004	-3,0225	-5,0765	15,98
56286	21,306	-2,9985	-3,9927	17,493
56287	22,483	-3,0112	-5,2858	18,216
56288	21,926	-2,8514	-5,4338	17,054
56289	22,229	-2,9874	-4,5198	19,7
56290	23,44	-2,9158	-5,7662	18,524
56291	24,085	-2,437	-5,945	18,931
56292	24,13	-2,2572	-6,2488	17,872
56293	23,804	-2,8916	-6,4019	17,336
56294	23,821	-2,6145	-6,4851	17,118
56295	24,097	-2,8821	-5,3499	21,837
56296	22,751	-3,0123	-5,9414	17,354
56297	23,1	-3,0115	-5,0524	20,873
56298	30,429	-2,895	-0,46382	21,367
56299	30,986	-2,7413	-0,36484	20,947
56300	30,624	-2,594	-0,26765	21,524
56301	30,347	-3,2935	9,3729e-002	21,692
56302	30,453	-3,0669	0,5167	21,301
56303	30,168	-3,027	0,13894	21,848
56304	30,952	-2,8488	-1,2164	20,961
56305	30,638	-2,5534	-0,7371	21,47
56306	30,136	-2,9299	-1,059	21,861
56307	19,223	-3,042	-1,4892	14,736
56308	18,646	-3,1129	-1,9043	14,512
56309	19,074	-3,0356	-2,4055	14,69
56310	19,811	-3,0325	-2,0849	15,217
56311	19,182	-3,0208	0,45381	14,663
56312	19,061	-3,0244	1,3681	14,677
56313	18,686	-3,0312	0,86059	14,524
56314	19,659	-3,0047	1,039	14,749
56315	19,228	-3,0166	-0,4838	14,679
56316	18,722	-3,0976	-0,94553	14,529
56317	19,716	-3,0071	-0,97475	14,678
56318	18,758	-3,1055	-3,4785e-002	14,52
56319	19,691	-3,0149	-3,2536e-004	14,482
56320	-1,8227	-3,1043	-40,032	24,133
56321	-1,4022	-2,6427	-39,698	24,671
56322	-1,1559	-3,0881	-39,532	24,84
56323	-1,8943	-3,181	-39,476	23,827
56324	-1,792	-2,9067	-39,824	24,135
56325	-2,697	-3,0878	-40,283	22,944
56326	-2,2457	-2,5579	-39,95	23,789
56327	-2,6204	-3,1666	-39,709	22,913
56328	-2,1976	-2,8872	-39,967	23,789
56329	-2,9464	-3,009	-39,847	22,204
56330	-3,5834	-3,1082	-40,69	21,249
56331	-3,1149	-2,5584	-40,128	22,291
56332	-3,4936	-3,2069	-40,133	21,381
56333	-2,6663	-2,8902	-40,076	22,949
56334	-3,4151	-3,012	-39,956	21,538
56335	-4,3767	-3,0929	-41,287	19,223
56336	-5,0983	-3,0303	-41,777	17,129
56337	-4,9839	-3,0648	-41,063	17,611
56338	-3,9873	-2,6087	-40,911	20,356
56339	-4,1868	-3,1735	-40,565	19,754
56340	2,0927	-3,003	-39,452	23,977
56341	2,0701	-3,0017	-38,775	23,408
56342	1,3625	-3,0086	-38,851	24,413
56343	2,8859	-3,0388	-39,984	22,709
56344	2,802	-3,0084	-39,345	22,573
56345	3,6998	-3,0673	-40,533	20,958
56346	3,551	-3,0126	-39,796	21,185
56347	5,1679	-2,9377	-41,715	16,931
56348	5,5013	-2,5826	-41,559	16,061
56349	5,7133	-2,3139	-41,681	15,524
56350	5,8634	-2,9184	-41,447	15,266
56351	5,7914	-2,9843	-42,129	15,121
56352	4,4319	-3,0166	-41,144	19,061
56353	4,4261	-2,9694	-40,412	19,147
56354	5,1007	-2,6172	-41,298	17,256
56355	5,0289	-2,9389	-40,934	17,511
56356	5,7763	-3,0743	-45,879	11,928
56357	6,169	-2,9931	-45,	12,217
56358	5,5609	-3,073	-46,782	11,197
56359	5,1241	-3,0307	-47,738	9,8187
56360	4,6016	-3,1694	-48,416	9,2718
56361	-6,0555	-2,9662	-44,916	12,459
56362	-6,398	-2,4069	-44,158	12,488
56363	-6,5315	-2,9382	-44,007	12,28
56364	-5,6764	-2,9997	-45,915	12,15
56365	-5,3242	-2,9975	-46,837	11,33
56366	-5,5729	-2,4914	-46,335	11,863
56367	-4,8187	-2,9841	-47,825	9,9927
56368	-5,1464	-2,5053	-47,262	10,983
56369	-3,9319	-2,9505	-49,109	8,0587
56370	-4,5793	-2,5864	-48,291	9,369
56371	-4,5382	-2,4895	-48,632	8,9109
56372	-2,7291	-3,018	-50,028	6,4225
56373	-2,4502	-2,8954	-50,284	6,1359
56374	-1,8912	-3,3681	-50,419	5,8988
56375	-3,0762	-2,8082	-50,12	6,7099
56376	-3,9614	-2,4698	-49,387	7,6655
56377	-5,8283	-2,8882	46,127	19,194
56378	-6,2879	-2,3426	45,215	19,073
56379	-6,2938	-2,841	44,989	19,36
56380	-6,2094	-2,6198	45,895	18,252
56381	-5,6675	-2,5405	45,099	22,659
56382	-5,6592	-2,8629	45,143	22,597
56383	-5,0491	-2,9371	47,333	19,143
56384	-5,9314	-2,6699	46,63	17,871
56385	-5,098	-2,9568	46,547	23,287
56386	-4,3621	-2,9708	48,272	18,761
56387	-4,283	-2,8903	47,529	23,062
56388	-3,6759	-3,0712	48,87	17,845
56389	-3,9021	-2,9718	48,539	18,747
56390	3,3748	-3,0076	49,848	16,511
56391	3,8596	-2,9945	50,32	15,885
56392	4,3868	-2,6827	49,497	16,057
56393	3,8418	-3,0087	49,123	17,769
56394	2,4081	-3,0069	50,168	16,494
56395	3,0187	-3,	50,516	16,488
56396	3,9501	-2,6849	49,544	15,874
56397	2,8995	-3,0151	49,341	17,947
56398	1,2626	-3,0436	50,671	16,053
56399	2,0351	-3,	50,945	16,516
56400	1,7357	-3,0028	49,986	16,102
56401	-0,10707	-3,0665	50,885	15,669
56402	0,94367	-3,0335	51,366	16,422
56403	0,346	-3,083	51,519	16,398
56404	0,58362	-3,0442	50,346	15,741
56405	-1,4109	-3,0676	50,691	16,131
56406	-2,1088	-3,0825	50,995	16,418
56407	-1,8631	-3,0428	50,082	16,552
56408	-0,81602	-3,0198	51,541	16,585
56409	-1,2368	-3,0478	51,35	16,403
56410	-0,73118	-3,0251	50,403	16,023
56411	-19,174	-2,9903	1,4053	14,718
56412	-19,021	-2,994	2,3312	14,665
56413	-18,611	-2,9917	1,7754	14,502
56414	-19,754	-2,9911	2,0334	15,243
56415	-19,092	-3,4998	1,8652	14,738
56416	-19,235	-2,9808	0,46826	14,68
56417	-18,749	-2,9785	0,87689	14,547
56418	-19,718	-2,9958	0,96142	14,699
56419	-19,208	-3,5217	0,93741	14,717
56420	-19,191	-2,9872	-1,3817	14,711
56421	-18,643	-2,9992	-1,7367	14,509
56422	-19,057	-3,0048	-2,2957	14,67
56423	-19,78	-2,9979	-1,9911	15,179
56424	-19,162	-3,5079	-1,8156	14,742
56425	-19,239	-2,9781	-0,46055	14,673
56426	-18,787	-2,9752	1,0179e-002	14,523
56427	-19,704	-2,9914	1,0065e-003	14,475
56428	-19,243	-3,4958	1,115e-002	14,648
56429	-18,76	-2,9795	-0,85626	14,542
56430	-19,732	-2,9937	-0,95609	14,674
56431	-19,241	-3,5024	-0,90355	14,696
56432	-21,67	-3,0233	-4,697	17,745
56433	-21,23	-2,5185	-4,526	17,053
56434	-20,833	-3,0219	-4,3463	16,48
56435	-21,101	-3,0239	-4,9903	16,265
56436	-22,542	-3,0177	-5,0737	18,94
56437	-22,052	-2,4822	-4,9298	18,215
56438	-21,951	-3,023	-5,3428	17,241
56439	-23,444	-3,0264	-5,4178	19,721
56440	-22,982	-2,5062	-5,2639	19,53
56441	-22,822	-3,0302	-5,6985	18,072
56442	-24,336	-3,0485	-5,7361	19,664
56443	-24,81	-2,5267	-5,8382	19,743
56444	-24,566	-3,0497	-6,3321	17,952
56445	-25,173	-3,1141	-6,0901	18,678
56446	-25,471	-2,8159	-5,7394	19,826
56447	-23,908	-2,4769	-5,5855	20,007
56448	-23,702	-3,031	-6,0084	18,402
56449	-21,612	-1,9774	-4,7588	17,478
56450	-20,804	-2,0128	-4,3748	16,38
56451	-21,068	-2,0116	-5,0307	16,149
56452	-22,491	-1,9707	-5,1199	18,721
56453	-21,885	-1,9697	-5,4034	17,003
56454	-23,446	-1,9566	-5,4316	19,681
56455	-22,802	-1,9937	-5,6993	18,033
56456	-24,382	-1,9551	-5,6877	19,992
56457	-23,727	-1,96	-6,0008	18,474
56458	-25,348	-1,9957	-5,9127	19,344
56459	-24,651	-1,9986	-6,2265	18,422
56460	-25,51	-2,282	-5,6788	20,188
56461	-26,228	-2,0651	-6,2955	17,708
56462	-25,616	-1,9452	-6,4753	17,462
56463	-25,711	-2,5831	-6,1645	18,38
56464	-26,009	-2,2849	-5,8139	19,574
56465	-21,625	-2,9962	4,7638	17,48
56466	-21,218	-2,4887	4,5503	16,943
56467	-21,037	-2,9967	5,0662	16,018
56468	-20,769	-2,9956	4,4278	16,263
56469	-21,185	-3,4976	4,5891	16,796
56470	-22,518	-2,9955	5,1544	18,611
56471	-22,081	-2,4908	4,9345	18,24
56472	-21,904	-2,9955	5,4255	16,98
56473	-22,051	-3,5055	4,969	18,056
56474	-23,424	-2,9932	5,5302	19,254
56475	-22,985	-2,4863	5,339	19,245
56476	-22,788	-2,9937	5,8069	17,7
56477	-22,959	-3,4979	5,3571	19,083
56478	-24,325	-3,0068	5,8858	19,065
56479	-23,884	-2,4848	5,6865	19,543
56480	-23,67	-2,9911	6,1637	17,858
56481	-24,526	-3,0247	6,5702	17,194
56482	-25,2	-3,0356	6,2887	17,97
56483	-24,753	-3,5115	6,087	18,615
56484	-28,609	-2,9974	4,5202	20,057
56485	-27,623	-3,0617	5,2623	19,481
56486	-28,85	-2,7124	4,7131	19,174
56487	-29,461	-3,0648	3,8191	19,883
56488	-29,731	-2,9681	4,3417	19,222
56489	-29,361	-2,6427	4,5021	18,884
56490	-29,951	-3,2774	2,8921	20,655
56491	-29,704	-2,5072	3,4051	20,457
56492	-30,318	-3,1271	3,3422	19,993
56493	-30,326	-3,5228	1,9772	21,109
56494	-30,019	-2,6335	2,5086	21,324
56495	-30,626	-3,0803	2,4541	20,873
56496	-30,69	-3,4822	0,91191	21,289
56497	-30,475	-2,7969	1,5874	21,431
56498	-31,066	-3,3645	1,5813	20,967
56499	-31,172	-3,4133	1,2713	20,828
56500	-30,667	-3,1951	-0,34467	21,318
56501	-30,77	-2,5707	0,40072	21,819
56502	-31,152	-3,1323	0,23566	21,352
56503	-30,317	-3,134	-1,7678	20,916
56504	-30,518	-2,5463	-0,95346	21,711
56505	-31,048	-3,0722	-0,90073	21,126
56506	-30,574	-2,7841	-1,3159	21,418
56507	-29,394	-2,9737	-3,6883	20,211
56508	-29,648	-2,9731	-4,3431	19,054
56509	-28,272	-2,6566	-4,182	21,976
56510	-29,868	-3,0698	-2,9606	20,703
56511	-30,21	-2,5246	-2,3705	21,252
56512	-30,563	-3,0911	-2,7887	20,556
56513	-30,386	-2,7998	-2,0696	21,023
56514	-29,642	-2,5044	-3,4099	20,535
56515	-30,084	-2,9986	-3,651	19,823
56516	-29,984	-1,9591	-2,8199	20,567
56517	-30,147	-2,0083	-3,6172	19,852
56518	-30,411	-1,9369	-1,5562	21,075
56519	-30,634	-1,947	-2,5072	20,689
56520	-30,947	-1,8965	-1,984	20,732
56521	-30,467	-2,1747	-1,9186	21,199
56522	-30,621	-1,9219	-0,20807	21,287
56523	-31,047	-1,9744	-0,85519	21,127
56524	-30,587	-2,2122	-1,2553	21,36
56525	-30,556	-1,8854	1,0762	21,27
56526	-31,076	-1,9324	0,36087	21,344
56527	-31,196	-1,8526	1,0411	20,906
56528	-30,169	-1,9077	2,1189	21,191
56529	-30,872	-1,8808	1,9997	20,82
56530	-29,772	-1,8633	3,0216	20,788
56531	-30,471	-1,8858	2,88	20,561
56532	-30,084	-1,8378	3,7608	19,771
56533	-29,604	-2,0852	4,0882	19,164
56534	-23,444	-1,9779	5,4953	19,412
56535	-23,685	-1,9728	6,1224	17,998
56536	-22,548	-1,9816	5,1192	18,775
56537	-22,818	-1,9741	5,7656	17,852
56538	-21,673	-1,9833	4,721	17,655
56539	-21,942	-1,9807	5,3867	17,118
56540	-20,824	-1,9821	4,3582	16,415
56541	-21,105	-1,9782	5,014	16,188
56542	12,704	-1,9966	-37,186	8,8252
56543	13,165	-1,9936	-36,326	8,6616
56544	12,939	-2,4987	-36,751	8,7433
56545	12,499	-1,9968	-36,511	9,0993
56546	12,238	-1,9893	-38,053	8,982
56547	12,474	-2,4984	-37,616	8,905
56548	12,034	-1,9958	-37,373	9,2792
56549	11,771	-1,982	-38,92	9,129
56550	12,006	-2,4907	-38,483	9,0572
56551	11,564	-1,976	-38,24	9,4504
56552	11,305	-1,9818	-39,783	9,2666
56553	11,54	-2,4893	-39,348	9,1993
56554	11,104	-1,9863	-39,1	9,6014
56555	10,84	-1,9828	-40,645	9,3963
56556	11,076	-2,4939	-40,21	9,3321
56557	10,639	-1,9872	-39,96	9,7403
56558	10,374	-1,9862	-41,497	9,5235
56559	10,61	-2,4935	-41,073	9,4594
56560	10,181	-1,9772	-40,809	9,8631
56561	9,8992	-1,9924	-42,346	9,6493
56562	10,138	-2,4943	-41,927	9,5868
56563	9,7087	-1,9837	-41,647	9,9867
56564	9,419	-1,9997	-43,198	9,7615
56565	9,6599	-2,496	-42,788	9,7085
56566	9,2228	-1,9933	-42,493	10,104
56567	8,9442	-2,007	-44,049	9,8238
56568	9,1817	-2,4985	-43,646	9,8052
56569	8,7353	-2,0029	-43,335	10,206
56570	8,4779	-2,0123	-44,91	9,7968
56571	8,7173	-2,5057	-44,504	9,8268
56572	8,2664	-2,0119	-44,225	10,235
56573	8,0211	-2,0129	-45,781	9,6488
56574	8,2624	-2,5108	-45,366	9,753
56575	7,7999	-2,0347	-45,003	10,226
56576	7,5687	-2,0013	-46,643	9,4008
56577	7,8102	-2,5169	-46,231	9,5542
56578	7,346	-2,0214	-45,917	10,015
56579	7,093	-2,0068	-47,521	9,0372
56580	7,3711	-2,4909	-47,069	9,2735
56581	6,6286	-2,091	-48,533	8,5337
56582	6,8249	-2,4934	-47,839	8,9474
56583	6,3251	-2,1243	-49,294	8,0589
56584	6,4854	-2,4928	-48,82	8,4045
56585	5,8485	-2,0411	-49,562	7,7431
56586	6,1547	-2,5676	-49,444	7,9053
56587	5,1742	-2,0254	-49,976	7,4491
56588	5,4707	-2,5674	-49,763	7,6166
56589	4,5227	-2,0642	-50,581	6,9886
56590	4,8651	-2,6302	-50,449	7,1707
56591	3,8361	-2,0544	-51,062	6,6199
56592	4,1698	-2,5674	-50,855	6,7822
56593	3,1934	-2,0054	-51,491	6,3526
56594	3,5399	-2,544	-51,276	6,4937
56595	2,4749	-1,9598	-51,829	6,1295
56596	2,8475	-2,4907	-51,683	6,2331
56597	1,7199	-1,9472	-52,096	5,9925
56598	2,0865	-2,5164	-51,895	6,0603
56599	0,98195	-1,9186	-52,153	5,8978
56600	1,4567	-2,516	-52,276	5,9865
56601	0,17712	-1,9212	-52,104	5,8269
56602	0,77718	-2,5537	-52,147	5,8636
56603	-0,63246	-1,926	-52,163	5,8421
56604	-4,032e-002	-2,5422	-52,084	5,8151
56605	-1,3138	-1,9551	-52,248	5,9393
56606	-0,74136	-2,4584	-52,119	5,8526
56607	-1,8724	-2,0223	-51,977	6,0333
56608	-1,376	-2,5762	-52,237	5,9789
56609	-2,5887	-2,0202	-51,569	6,1573
56610	-2,1183	-2,5554	-51,684	6,0688
56611	-3,441	-1,9992	-51,313	6,4242
56612	-2,9934	-2,5311	-51,546	6,2872
56613	-4,0859	-2,0556	-50,933	6,7073
56614	-3,8357	-2,513	-51,178	6,5888
56615	-4,7623	-1,8959	-50,516	6,9653
56616	-4,4592	-2,5787	-50,79	6,8429
56617	-4,4503	-2,064	-49,817	7,6764
56618	-5,4545	-1,7999	-50,038	7,386
56619	-5,216	-2,3101	-50,548	7,0475
56620	-4,8797	-1,8408	-49,608	7,7963
56621	-5,8888	-1,9487	-49,509	7,8471
56622	-5,5984	-2,5083	-49,97	7,4828
56623	-5,1424	-1,968	-49,338	7,9585
56624	-6,2385	-2,2948	-49,	8,2361
56625	-5,95	-2,5416	-49,516	7,8848
56626	-5,314	-1,9896	-49,08	8,0961
56627	-6,7184	-2,3642	-48,306	8,6324
56628	-6,3997	-2,7969	-48,786	8,3951
56629	-7,2078	-2,0422	-47,458	9,0777
56630	-6,9606	-2,5507	-47,905	8,8999
56631	-7,6276	-1,9788	-46,605	9,3991
56632	-7,3704	-2,4848	-47,09	9,2511
56633	-8,0857	-1,9856	-45,737	9,6539
56634	-7,824	-2,4868	-46,219	9,5541
56635	-8,5426	-1,9867	-44,885	9,7831
56636	-8,2658	-2,4936	-45,386	9,7477
56637	-7,8656	-1,9598	-45,046	10,15
56638	-9,0052	-1,9844	-44,028	9,7987
56639	-8,7292	-2,4848	-44,507	9,8249
56640	-8,2917	-1,9791	-44,224	10,213
56641	-9,4677	-1,9851	-43,173	9,7374
56642	-9,1919	-2,4842	-43,647	9,7975
56643	-8,757	-1,9803	-43,386	10,172
56644	-9,9294	-1,9859	-42,32	9,6362
56645	-9,6462	-2,4808	-42,8	9,7145
56646	-9,2572	-1,9823	-42,489	10,08
56647	-10,394	-1,9856	-41,471	9,5156
56648	-10,117	-2,4819	-41,938	9,5997
56649	-9,7165	-1,9821	-41,646	9,9808
56650	-10,857	-1,9857	-40,62	9,3905
56651	-10,592	-2,4838	-41,076	9,4717
56652	-10,18	-1,9819	-40,8	9,8651
56653	-11,318	-1,9864	-39,762	9,2623
56654	-11,062	-2,4864	-40,215	9,3408
56655	-10,643	-1,9822	-39,953	9,739
56656	-11,777	-1,9899	-38,908	9,1274
56657	-11,53	-2,4895	-39,348	9,2068
56658	-11,108	-1,9831	-39,091	9,6003
56659	-12,239	-1,9936	-38,051	8,9818
56660	-11,997	-2,4949	-38,491	9,0622
56661	-11,568	-1,9861	-38,236	9,4486
56662	-12,708	-1,9947	-37,185	8,8227
56663	-12,472	-2,4978	-37,627	8,904
56664	-12,036	-1,9863	-37,371	9,2782
56665	-13,176	-1,9955	-36,319	8,6549
56666	-12,94	-2,5	-36,76	8,7413
56667	-12,51	-1,9862	-36,505	9,0924
56668	-13,644	-1,9959	-35,453	8,4793
56669	-13,407	-2,5013	-35,894	8,5699
56670	-12,977	-1,9859	-35,639	8,9016
56671	-14,11	-1,9961	-34,586	8,2974
56672	-13,874	-2,5018	-35,027	8,391
56673	-13,444	-1,9857	-34,772	8,7046
56674	-14,576	-1,9963	-33,719	8,1102
56675	-14,34	-2,5021	-34,16	8,2059
56676	-13,91	-1,9858	-33,906	8,5038
56677	-15,042	-1,9965	-32,852	7,919
56678	-14,806	-2,5023	-33,293	8,0162
56679	-14,371	-1,9861	-33,04	8,3037
56680	-15,509	-1,9969	-31,985	7,7256
56681	-15,273	-2,5026	-32,426	7,8234
56682	-14,838	-1,9868	-32,173	8,1001
56683	-15,976	-1,9975	-31,118	7,5321
56684	-15,74	-2,503	-31,559	7,6295
56685	-15,305	-1,9874	-31,306	7,8979
56686	-16,443	-1,9974	-30,25	7,3403
56687	-16,207	-2,5037	-30,692	7,4365
56688	-15,771	-1,988	-30,439	7,6993
56689	-16,91	-1,9967	-29,382	7,1521
56690	-16,674	-2,5033	-29,824	7,2461
56691	-16,238	-1,9876	-29,572	7,5056
56692	-17,377	-1,9965	-28,515	6,9692
56693	-17,142	-2,4985	-28,952	7,0598
56694	-16,705	-1,9876	-28,704	7,3185
56695	-17,844	-1,9965	-27,648	6,7935
56696	-17,609	-2,4983	-28,084	6,8801
56697	-17,172	-1,9876	-27,837	7,1397
56698	-18,311	-1,9968	-26,781	6,6266
56699	-18,076	-2,4984	-27,217	6,7084
56700	-17,639	-1,9882	-26,971	6,9706
56701	-18,778	-1,9972	-25,914	6,4704
56702	-18,543	-2,4989	-26,35	6,5463
56703	-18,106	-1,9889	-26,104	6,8129
56704	-19,245	-1,997	-25,046	6,3264
56705	-19,01	-2,4991	-25,483	6,3959
56706	-18,571	-1,9968	-25,242	6,6685
56707	-19,713	-1,9963	-24,178	6,1964
56708	-19,477	-2,4984	-24,616	6,2583
56709	-19,04	-1,9897	-24,369	6,5383
56710	-20,18	-1,996	-23,312	6,0827
56711	-19,944	-2,4982	-23,749	6,1361
56712	-19,505	-1,996	-23,507	6,4249
56713	-20,646	-1,9962	-22,445	5,9872
56714	-20,41	-2,4979	-22,883	6,0307
56715	-19,974	-1,9897	-22,635	6,33
56716	-21,113	-1,9965	-21,578	5,9117
56717	-20,877	-2,498	-22,015	5,9445
56718	-20,441	-1,9897	-21,769	6,256
56719	-21,579	-1,9981	-20,712	5,8592
56720	-21,344	-2,4985	-21,148	5,8795
56721	-20,908	-1,9896	-20,901	6,2045
56722	-22,046	-1,9988	-19,845	5,8327
56723	-21,809	-2,501	-20,284	5,8397
56724	-21,371	-1,9988	-20,042	6,1789
56725	-22,514	-1,9981	-18,976	5,8355
56726	-22,278	-2,5005	-19,415	5,8264
56727	-21,839	-1,9988	-19,175	6,1823
56728	-22,981	-1,9985	-18,11	5,8729
56729	-22,745	-2,5002	-18,548	5,845
56730	-22,307	-1,9987	-18,308	6,2193
56731	-23,448	-1,999	-17,243	5,9506
56732	-23,213	-2,5005	-17,682	5,9003
56733	-22,774	-1,9983	-17,442	6,2948
56734	-23,915	-1,9996	-16,377	6,0764
56735	-23,68	-2,5014	-16,816	5,9995
56736	-23,241	-1,9994	-16,576	6,4151
56737	-24,382	-2,0001	-15,51	6,2604
56738	-24,147	-2,5027	-15,949	6,1511
56739	-23,71	-1,9909	-15,702	6,5924
56740	-24,852	-1,9942	-14,632	6,5222
56741	-24,613	-2,5034	-15,084	6,3663
56742	-24,177	-1,9911	-14,835	6,8318
56743	-25,321	-1,9876	-13,753	6,874
56744	-25,083	-2,4955	-14,206	6,6665
56745	-24,647	-1,9847	-13,956	7,1565
56746	-25,787	-1,986	-12,884	7,3303
56747	-25,548	-2,4968	-13,341	7,0577
56748	-25,113	-1,9829	-13,088	7,5727
56749	-26,252	-1,9836	-12,022	7,9149
56750	-26,013	-2,5046	-12,481	7,5634
56751	-25,578	-1,9795	-12,219	8,1087
56752	-26,716	-1,9818	-11,16	8,6633
56753	-26,476	-2,5016	-11,621	8,2161
56754	-26,035	-1,9898	-11,381	8,7573
56755	-27,179	-1,9823	-10,292	9,6106
56756	-26,939	-2,4914	-10,748	9,062
56757	-26,504	-1,9724	-10,496	9,626
56758	-27,636	-1,9931	-9,4359	10,75
56759	-27,403	-2,4932	-9,8788	10,108
56760	-26,962	-1,9743	-9,6301	10,676
56761	-28,072	-1,9852	-8,5857	12,079
56762	-27,863	-2,5156	-9,0198	11,354
56763	-27,394	-1,9903	-8,7933	11,87
56764	-28,528	-1,9684	-7,7355	13,538
56765	-28,298	-2,4748	-8,1691	12,767
56766	-27,775	-1,8542	-7,982	13,228
56767	-29,009	-1,963	-6,8792	15,042
56768	-28,772	-2,471	-7,3207	14,268
56769	-28,117	-1,8124	-6,9287	15,22
56770	-29,494	-1,9646	-6,0203	16,449
56771	-29,19	-2,4578	-6,5644	15,606
56772	-28,931	-1,9805	-6,2373	16,268
56773	-29,965	-1,9829	-5,1627	17,606
56774	-29,708	-2,4736	-5,6004	17,114
56775	-29,285	-1,9504	-5,4097	17,538
56776	-30,403	-1,9955	-4,2717	18,636
56777	-30,151	-2,4909	-4,7192	18,184
56778	-30,798	-1,9962	-3,3045	19,58
56779	-30,59	-2,5025	-3,8583	19,2
56780	-31,286	-1,9836	-2,5959	20,072
56781	-30,987	-2,5135	-2,9255	20,065
56782	-30,81	-2,2222	-2,2064	20,47
56783	-31,599	-1,9331	-2,0727	20,215
56784	-31,551	-2,5392	-2,3962	20,157
56785	-31,119	-2,2114	-2,0074	20,569
56786	-31,583	-1,9339	-1,283	20,414
56787	-31,567	-2,501	-1,6651	20,448
56788	-31,123	-2,1717	-1,6831	20,803
56789	-31,501	-1,985	-0,28625	20,599
56790	-31,576	-2,5002	-0,80246	20,685
56791	-31,103	-2,2122	-1,2176	20,776
56792	-31,675	-1,9777	0,58847	20,655
56793	-31,457	-2,4941	0,19582	20,944
56794	-31,795	-1,8979	1,2687	20,431
56795	-31,851	-2,547	0,98769	20,494
56796	-31,513	-1,8481	1,9645	20,368
56797	-31,631	-2,4362	1,6345	20,533
56798	-31,175	-1,8589	2,7608	20,013
56799	-31,248	-2,334	2,3883	20,511
56800	-30,783	-1,8603	3,6192	19,358
56801	-30,919	-2,455	3,2768	19,75
56802	-30,406	-1,9167	4,4611	18,471
56803	-30,452	-2,4357	4,2072	18,933
56804	-30,081	-2,1103	4,3677	18,473
56805	-29,956	-1,9707	5,3	17,408
56806	-30,327	-2,4544	4,9995	17,832
56807	-29,926	-2,1641	4,7884	17,994
56808	-29,407	-1,9898	6,1405	16,259
56809	-29,73	-2,4977	5,7118	16,943
56810	-29,631	-2,1643	5,2066	17,455
56811	-28,906	-2,0136	6,9956	14,851
56812	-29,187	-2,5041	6,5328	15,65
56813	-28,621	-2,0308	6,3944	16,108
56814	-28,428	-2,012	7,8694	13,318
56815	-28,688	-2,5125	7,4033	14,149
56816	-28,177	-2,0177	7,2702	14,559
56817	-27,973	-1,9994	8,7454	11,83
56818	-28,23	-2,504	8,2749	12,588
56819	-27,762	-1,9521	8,162	12,911
56820	-27,528	-1,9892	9,616	10,507
56821	-27,777	-2,4946	9,1423	11,187
56822	-27,331	-1,9384	9,0061	11,559
56823	-27,081	-1,9821	10,486	9,387
56824	-27,328	-2,4856	9,9834	9,9866
56825	-26,84	-1,9706	9,8758	10,361
56826	-26,628	-1,9773	11,355	8,4862
56827	-26,872	-2,4841	10,862	8,9603
56828	-26,386	-1,9781	10,744	9,3548
56829	-26,17	-1,9743	12,224	7,7717
56830	-26,412	-2,4847	11,743	8,1346
56831	-25,941	-1,9656	11,599	8,5754
56832	-25,709	-1,9814	13,076	7,2352
56833	-25,947	-2,4857	12,616	7,5006
56834	-25,492	-1,9755	12,431	7,9739
56835	-25,245	-1,9816	13,933	6,8258
56836	-25,479	-2,4952	13,473	7,0291
56837	-25,031	-1,9858	13,277	7,4961
56838	-24,776	-1,9753	14,807	6,5097
56839	-25,011	-2,4879	14,35	6,6601
56840	-24,566	-1,9639	14,159	7,1039
56841	-24,303	-1,9846	15,674	6,2887
56842	-24,539	-2,4898	15,226	6,3915
56843	-24,097	-1,968	15,022	6,8229
56844	-23,83	-1,9933	16,539	6,1386
56845	-24,066	-2,4976	16,094	6,2062
56846	-23,626	-1,979	15,879	6,6224
56847	-23,358	-1,9952	17,412	6,0421
56848	-23,594	-2,4987	16,969	6,0809
56849	-23,154	-1,9832	16,746	6,4798
56850	-22,885	-1,9969	18,287	5,9942
56851	-23,121	-2,4997	17,845	6,0089
56852	-22,682	-1,9875	17,615	6,3897
56853	-22,412	-1,9982	19,162	5,9882
56854	-22,649	-2,4987	18,723	5,9821
56855	-22,208	-1,9915	18,486	6,3461
56856	-21,939	-1,9991	20,04	6,0184
56857	-22,176	-2,5012	19,599	5,995
56858	-21,735	-1,9983	19,364	6,3392
56859	-21,466	-1,9998	20,918	6,0813
56860	-21,703	-2,5002	20,478	6,0422
56861	-21,263	-1,9966	20,242	6,3692
56862	-20,992	-1,9987	21,797	6,1742
56863	-21,23	-2,5007	21,356	6,1204
56864	-20,79	-1,9975	21,119	6,4312
56865	-20,517	-1,9975	22,677	6,2941
56866	-20,756	-2,4997	22,235	6,2271
56867	-20,316	-1,9966	21,999	6,5232
56868	-20,044	-1,9976	23,554	6,4383
56869	-20,284	-2,5031	23,113	6,359
56870	-19,843	-1,997	22,876	6,6417
56871	-19,571	-1,9977	24,432	6,6057
56872	-19,812	-2,5009	23,991	6,5145
56873	-19,371	-1,9972	23,754	6,7852
56874	-19,098	-1,9978	25,31	6,7949
56875	-19,34	-2,5011	24,868	6,6922
56876	-18,898	-1,9974	24,632	6,9521
56877	-18,626	-1,9979	26,186	7,0043
56878	-18,872	-2,5046	25,745	6,8894
56879	-18,425	-1,9976	25,51	7,1411
56880	-18,154	-1,998	27,063	7,2332
56881	-18,398	-2,5033	26,617	7,1097
56882	-17,953	-1,9978	26,386	7,3506
56883	-17,68	-1,998	27,941	7,4809
56884	-17,92	-2,5019	27,488	7,3509
56885	-17,481	-1,9979	27,264	7,5801
56886	-17,207	-1,9981	28,819	7,7461
56887	-17,446	-2,5006	28,363	7,6077
56888	-17,008	-1,998	28,142	7,8285
56889	-16,734	-1,9983	29,696	8,028
56890	-16,972	-2,4994	29,241	7,8818
56891	-16,536	-1,9982	29,02	8,0947
56892	-16,261	-1,9986	30,574	8,3254
56893	-16,498	-2,4994	30,123	8,1719
56894	-16,061	-2,0002	29,89	8,3783
56895	-15,79	-2,0001	31,45	8,6355
56896	-16,027	-2,5007	31,005	8,4759
56897	-15,585	-1,9989	30,773	8,6796
56898	-15,317	-2,0004	32,327	8,9601
56899	-15,559	-2,5018	31,885	8,7919
56900	-15,115	-2,0003	31,648	8,9927
56901	-14,841	-1,9995	33,206	9,2978
56902	-15,084	-2,5013	32,766	9,1239
56903	-14,639	-1,9996	32,526	9,3233
56904	-14,373	-1,9997	34,085	9,6411
56905	-14,612	-2,5019	33,644	9,465
56906	-14,166	-2,	33,404	9,6655
56907	-13,906	-2,0001	34,963	9,9916
56908	-14,147	-2,5045	34,524	9,8111
56909	-13,7	-2,0006	34,282	10,017
56910	-13,433	-2,0005	35,841	10,35
56911	-13,673	-2,5018	35,401	10,168
56912	-13,228	-2,0015	35,16	10,383
56913	-12,96	-2,0004	36,717	10,71
56914	-13,199	-2,5015	36,279	10,528
56915	-12,758	-2,0017	36,036	10,758
56916	-12,486	-1,9987	37,593	11,07
56917	-12,725	-2,5001	37,155	10,889
56918	-12,284	-2,0001	36,912	11,146
56919	-12,012	-1,9949	38,473	11,425
56920	-12,251	-2,4975	38,034	11,248
56921	-11,81	-1,9967	37,791	11,544
56922	-11,537	-1,9888	39,351	11,772
56923	-11,775	-2,4933	38,917	11,601
56924	-11,334	-1,9885	38,667	11,953
56925	-11,067	-1,9811	40,225	12,098
56926	-11,295	-2,4871	39,796	11,945
56927	-10,864	-1,9778	39,542	12,366
56928	-10,605	-1,973	41,103	12,39
56929	-10,821	-2,4802	40,676	12,266
56930	-10,4	-1,9658	40,421	12,774
56931	-10,145	-1,9654	41,986	12,632
56932	-10,346	-2,4733	41,56	12,555
56933	-9,9518	-1,955	41,305	13,152
56934	-9,6881	-1,9585	42,872	12,8
56935	-9,8756	-2,4673	42,444	12,787
56936	-9,5016	-1,9458	42,197	13,491
56937	-9,228	-1,9512	43,76	12,879
56938	-9,4039	-2,4636	43,335	12,942
56939	-9,0517	-1,9362	43,089	13,757
56940	-8,7437	-1,9588	44,654	12,887
56941	-8,9369	-2,4661	44,219	12,989
56942	-8,5934	-1,9239	43,976	13,936
56943	-8,236	-1,9743	45,522	12,89
56944	-8,4695	-2,4734	45,11	12,919
56945	-8,0946	-1,9336	44,86	14,09
56946	-7,7572	-1,9782	46,376	12,824
56947	-7,9927	-2,481	45,972	12,842
56948	-7,569	-1,9555	45,725	14,254
56949	-7,3302	-1,9685	47,249	12,701
56950	-7,5661	-2,4896	46,853	12,613
56951	-6,9212	-1,9012	48,103	12,663
56952	-7,1241	-2,4969	47,689	12,663
56953	-6,5269	-2,1401	48,05	13,729
56954	-6,3402	-1,8961	48,772	13,325
56955	-6,8861	-2,4482	48,453	12,344
56956	-6,3225	-2,0823	48,469	13,756
56957	-5,8517	-2,0256	49,408	13,761
56958	-6,2217	-2,5231	48,841	13,579
56959	-5,4243	-1,8939	49,186	14,858
56960	-5,9459	-2,135	48,719	14,418
56961	-5,3399	-2,0627	49,924	14,196
56962	-5,9201	-2,609	49,549	13,441
56963	-5,834	-2,2119	49,105	14,158
56964	-4,7347	-2,0017	50,253	15,016
56965	-5,0713	-2,5036	49,931	14,77
56966	-4,9125	-1,931	49,701	15,345
56967	-5,4341	-2,1721	49,234	14,692
56968	-4,1688	-1,9787	50,656	15,427
56969	-4,574	-2,4929	50,402	15,197
56970	-3,327	-2,0532	50,931	15,864
56971	-3,8459	-2,5053	50,84	15,712
56972	-3,4913	-2,2403	50,702	15,935
56973	-2,4504	-2,2377	51,116	16,169
56974	-2,9574	-2,5969	51,096	16,249
56975	-3,0101	-2,3167	50,772	16,216
56976	-1,7235	-2,3827	51,535	16,28
56977	-2,156	-2,7128	51,354	16,353
56978	-1,0481	-2,1302	51,985	16,662
56979	-1,5021	-2,7327	51,835	16,619
56980	-1,0512	-2,1384	51,679	16,402
56981	-0,32604	-1,8633	52,029	16,653
56982	-0,7374	-2,4153	52,172	16,997
56983	-0,70719	-1,849	51,824	16,654
56984	0,3669	-1,8599	51,975	16,632
56985	4,8418e-002	-2,4843	52,031	16,765
56986	-0,32914	-1,8715	51,723	16,339
56987	1,0572	-1,8929	51,874	16,539
56988	0,69632	-2,427	52,132	16,858
56989	1,8575	-1,9702	51,567	16,317
56990	1,3364	-2,4678	51,777	16,647
56991	2,7269	-1,9858	51,259	16,076
56992	2,2373	-2,4923	51,429	16,413
56993	3,5778	-1,975	50,968	15,688
56994	3,1354	-2,4866	51,123	16,112
56995	4,3275	-1,9122	50,655	15,191
56996	3,9459	-2,4754	50,832	15,537
56997	4,9549	-1,7614	50,24	14,688
56998	4,6139	-2,4129	50,473	15,052
56999	4,8165	-2,1087	49,839	15,537
57000	5,4728	-1,7695	49,65	14,31
57001	5,1699	-2,3079	50,145	14,462
57002	5,1004	-2,0127	49,594	15,416
57003	6,0944	-1,9006	49,219	13,406
57004	5,5083	-2,384	49,376	14,51
57005	5,3345	-2,1169	49,249	15,272
57006	6,5037	-2,0084	48,83	12,915
57007	6,3824	-2,3934	49,181	12,8
57008	5,7221	-2,1437	49,164	14,47
57009	6,7165	-2,0604	48,151	13,118
57010	6,6194	-2,5429	48,55	12,949
57011	5,7438	-2,2247	48,859	14,703
57012	7,1098	-2,0399	47,299	13,148
57013	7,0217	-2,5403	47,701	12,876
57014	7,6261	-2,0321	46,37	13,13
57015	7,461	-2,5435	46,811	12,924
57016	8,1993	-2,0212	45,476	13,024
57017	7,9766	-2,5186	45,926	12,924
57018	7,4196	-1,9069	45,559	14,916
57019	8,7096	-2,0184	44,596	13,024
57020	8,4828	-2,5278	45,043	12,974
57021	8,0344	-2,0255	44,771	14,336
57022	9,1983	-1,9972	43,717	12,974
57023	8,9747	-2,5137	44,167	12,974
57024	8,5247	-2,0035	43,881	14,17
57025	9,6729	-1,9823	42,841	12,849
57026	9,4472	-2,4962	43,286	12,911
57027	9,011	-1,9731	43,021	13,87
57028	10,138	-1,986	41,973	12,648
57029	9,9148	-2,4921	42,413	12,75
57030	9,4779	-1,9698	42,15	13,546
57031	10,594	-1,9998	41,104	12,402
57032	10,372	-2,4983	41,541	12,531
57033	9,9166	-1,9897	41,306	13,2
57034	11,05	-2,0117	40,23	12,112
57035	10,826	-2,5082	40,667	12,263
57036	10,356	-2,0151	40,439	12,823
57037	11,522	-2,0159	39,353	11,783
57038	11,288	-2,5124	39,79	11,952
57039	10,816	-2,0248	39,566	12,411
57040	12,002	-2,014	38,473	11,432
57041	11,769	-2,5093	38,912	11,606
57042	11,307	-2,0245	38,683	11,976
57043	12,484	-2,0085	37,59	11,071
57044	12,24	-2,505	38,031	11,256
57045	11,799	-2,017	37,796	11,552
57046	12,964	-2,0028	36,709	10,707
57047	12,726	-2,5012	37,151	10,889
57048	12,287	-2,0081	36,91	11,144
57049	13,435	-1,9988	35,832	10,348
57050	13,2	-2,4989	36,273	10,528
57051	12,761	-2,0003	36,028	10,755
57052	13,907	-1,998	34,955	9,9899
57053	13,672	-2,4982	35,396	10,168
57054	13,232	-1,9963	35,152	10,38
57055	14,379	-1,9985	34,077	9,6371
57056	14,142	-2,4985	34,517	9,8124
57057	13,705	-1,9973	34,275	10,013
57058	14,852	-1,9988	33,2	9,2917
57059	14,614	-2,4988	33,639	9,4629
57060	14,177	-1,9977	33,398	9,6591
57061	15,325	-1,9989	32,322	8,9558
57062	15,084	-2,4997	32,762	9,1235
57063	14,649	-1,9969	32,52	9,3175
57064	15,798	-1,9988	31,444	8,631
57065	15,56	-2,4992	31,883	8,7912
57066	15,123	-1,9982	31,643	8,9882
57067	16,275	-1,9979	30,567	8,3178
57068	16,033	-2,499	31,006	8,4726
57069	15,596	-1,9979	30,766	8,6734
57070	16,75	-1,9971	29,69	8,0192
57071	16,51	-2,4982	30,129	8,1663
57072	16,071	-1,996	29,889	8,3731
57073	17,222	-1,9972	28,812	7,7379
57074	16,983	-2,4981	29,251	7,8765
57075	16,543	-1,996	29,011	8,0901
57076	17,695	-1,9972	27,933	7,4732
57077	17,455	-2,4983	28,373	7,603
57078	17,016	-1,9962	28,133	7,8242
57079	18,167	-1,9974	27,055	7,2261
57080	17,928	-2,4985	27,495	7,3467
57081	17,489	-1,9977	27,256	7,5756
57082	18,639	-1,9976	26,177	6,9975
57083	18,4	-2,4987	26,617	7,1087
57084	17,961	-1,9978	26,378	7,3467
57085	19,111	-1,9979	25,3	6,7885
57086	18,873	-2,4987	25,739	6,8893
57087	18,433	-1,9969	25,499	7,1375
57088	19,583	-1,9981	24,422	6,6002
57089	19,344	-2,499	24,862	6,6905
57090	18,905	-1,9974	24,622	6,9491
57091	20,055	-1,9979	23,544	6,4334
57092	19,817	-2,4988	23,983	6,5122
57093	19,378	-1,9974	23,744	6,7825
57094	20,527	-1,9988	22,666	6,2904
57095	20,29	-2,4988	23,105	6,3565
57096	19,85	-1,9971	22,866	6,6393
57097	20,998	-2,0001	21,789	6,1723
57098	20,761	-2,5002	22,228	6,2255
57099	20,321	-1,9998	21,99	6,5217
57100	21,47	-2,0005	20,911	6,0803
57101	21,234	-2,5005	21,35	6,1195
57102	20,794	-2,0006	21,113	6,4304
57103	21,943	-2,0005	20,033	6,0178
57104	21,706	-2,5008	20,473	6,0416
57105	21,266	-2,0008	20,235	6,3685
57106	22,415	-2,0003	19,156	5,988
57107	22,179	-2,501	19,595	5,9946
57108	21,739	-2,0004	19,358	6,3389
57109	22,888	-1,9998	18,278	5,9955
57110	22,651	-2,502	18,719	5,9819
57111	22,212	-2,0002	18,481	6,3451
57112	23,361	-1,9992	17,399	6,0457
57113	23,125	-2,5001	17,839	6,0092
57114	22,685	-1,9988	17,603	6,3926
57115	23,833	-1,9988	16,522	6,1459
57116	23,597	-2,4998	16,961	6,0825
57117	23,157	-1,9978	16,726	6,4869
57118	24,305	-1,9946	15,64	6,3083
57119	24,07	-2,4991	16,084	6,2097
57120	23,63	-1,9969	15,849	6,6366
57121	24,777	-1,989	14,759	6,5442
57122	24,541	-2,4951	15,203	6,4049
57123	24,101	-1,9925	14,969	6,8546
57124	25,25	-1,9848	13,886	6,8603
57125	25,014	-2,4923	14,325	6,6777
57126	24,573	-1,9887	14,092	7,1493
57127	25,723	-1,9797	13,017	7,2831
57128	25,489	-2,4907	13,455	7,0391
57129	25,045	-1,9834	13,223	7,5332
57130	26,193	-1,9738	12,148	7,8406
57131	25,957	-2,4859	12,574	7,5362
57132	25,514	-1,967	12,36	8,0321
57133	26,665	-1,9672	11,291	8,5429
57134	26,427	-2,4806	11,699	8,1776
57135	25,985	-1,9585	11,501	8,6648
57136	27,136	-1,9607	10,438	9,429
57137	26,895	-2,4762	10,831	8,9893
57138	26,455	-1,9498	10,652	9,4522
57139	27,605	-1,9547	9,5823	10,524
57140	27,361	-2,4735	9,9564	10,018
57141	26,931	-1,9416	9,8073	10,424
57142	28,08	-1,9493	8,734	11,81
57143	27,827	-2,4725	9,0898	11,25
57144	27,407	-1,9344	8,9633	11,598
57145	28,562	-1,9451	7,8874	13,255
57146	28,299	-2,475	8,2404	12,642
57147	27,881	-1,9279	8,123	12,954
57148	29,04	-1,9497	7,0291	14,781
57149	28,782	-2,4801	7,3908	14,151
57150	28,368	-1,9241	7,2891	14,426
57151	29,497	-1,9718	6,1383	16,272
57152	29,258	-2,4881	6,5458	15,64
57153	28,84	-1,9339	6,4526	15,912
57154	29,914	-1,9941	5,2315	17,53
57155	29,726	-2,5114	5,6796	17,012
57156	29,276	-2,0025	5,5913	17,264
57157	30,323	-2,0011	4,3636	18,536
57158	30,147	-2,5182	4,8337	18,059
57159	30,737	-1,9984	3,5263	19,398
57160	30,579	-2,5295	4,0032	19,048
57161	31,121	-2,0136	2,7095	20,012
57162	31,066	-2,4859	3,2688	19,746
57163	31,409	-2,0312	1,8813	20,407
57164	31,385	-2,4448	2,5023	20,199
57165	31,594	-2,0265	0,78857	20,405
57166	31,578	-2,502	1,6746	20,578
57167	31,607	-1,979	-0,10442	20,675
57168	31,768	-2,4894	0,38765	20,615
57169	31,256	-2,1376	-0,20703	20,973
57170	31,599	-1,8644	-0,65934	20,512
57171	31,615	-2,3231	-0,10362	20,62
57172	31,185	-2,0937	-0,43833	21,077
57173	31,629	-1,9205	-1,3971	20,358
57174	31,61	-2,1704	-0,85914	20,514
57175	31,248	-2,0231	-0,76194	20,904
57176	31,453	-2,0829	-2,1238	20,318
57177	31,529	-2,4452	-1,6554	20,542
57178	31,215	-2,1498	-1,1761	20,672
57179	31,147	-2,128	-2,8352	19,95
57180	31,307	-2,3761	-2,3905	20,284
57181	30,763	-2,0585	-3,6063	19,354
57182	30,977	-2,5488	-3,1888	19,843
57183	30,296	-1,9788	-4,3985	18,479
57184	30,545	-2,4853	-3,9688	19,07
57185	29,821	-1,9798	-5,2583	17,493
57186	30,05	-2,4839	-4,8123	18,085
57187	29,394	-1,9795	-6,1318	16,276
57188	29,586	-2,4846	-5,6966	16,983
57189	29,012	-1,9674	-6,9586	14,903
57190	29,187	-2,4823	-6,539	15,635
57191	28,796	-1,8862	-6,4838	15,818
57192	28,598	-1,951	-7,7786	13,454
57193	28,784	-2,4815	-7,3483	14,238
57194	28,433	-1,9364	-7,2508	14,504
57195	28,126	-1,9629	-8,6237	11,983
57196	28,342	-2,4773	-8,2189	12,663
57197	28,01	-1,9645	-8,0612	13,013
57198	27,651	-1,9808	-9,4671	10,683
57199	27,871	-2,4814	-9,0429	11,294
57200	27,602	-1,9533	-8,7625	11,879
57201	27,182	-1,9798	-10,325	9,5609
57202	27,396	-2,4846	-9,8675	10,138
57203	26,958	-1,9607	-9,6685	10,609
57204	26,713	-1,982	-11,188	8,6261
57205	26,938	-2,4845	-10,744	9,0684
57206	26,516	-1,9549	-10,55	9,5464
57207	26,244	-1,9781	-12,055	7,8845
57208	26,479	-2,4948	-11,598	8,2427
57209	26,04	-1,9801	-11,397	8,7372
57210	25,778	-1,9809	-12,918	7,3037
57211	26,011	-2,4823	-12,479	7,5682
57212	25,571	-1,96	-12,264	8,0673
57213	25,311	-1,9848	-13,786	6,8538
57214	25,549	-2,4929	-13,34	7,0578
57215	25,108	-1,9875	-13,117	7,5503
57216	24,844	-1,9868	-14,651	6,5132
57217	25,078	-2,4877	-14,215	6,6631
57218	24,637	-1,9869	-13,986	7,1396
57219	24,381	-1,9948	-15,509	6,2625
57220	24,616	-2,4965	-15,072	6,3728
57221	24,174	-1,9927	-14,843	6,8287
57222	23,914	-1,9955	-16,375	6,0789
57223	24,149	-2,4972	-15,938	6,1566
57224	23,703	-1,9835	-15,707	6,594
57225	23,447	-1,9969	-17,241	5,9528
57226	23,682	-2,4984	-16,805	6,004
57227	23,236	-1,9857	-16,574	6,4191
57228	22,98	-1,9976	-18,108	5,8745
57229	23,215	-2,4992	-17,671	5,9034
57230	22,773	-1,9965	-17,438	6,2967
57231	22,513	-1,9974	-18,976	5,8366
57232	22,748	-2,4995	-18,539	5,8467
57233	22,303	-1,989	-18,309	6,221
57234	22,046	-1,9977	-19,844	5,8333
57235	22,281	-2,4993	-19,407	5,8273
57236	21,837	-1,9898	-19,177	6,1834
57237	21,579	-1,9983	-20,711	5,8598
57238	21,814	-2,4998	-20,274	5,8397
57239	21,37	-1,9903	-20,044	6,1794
57240	21,112	-1,9984	-21,578	5,9124
57241	21,347	-2,5001	-21,141	5,8798
57242	20,906	-1,9983	-20,906	6,2045
57243	20,644	-1,9976	-22,447	5,9881
57244	20,88	-2,4996	-22,009	5,9446
57245	20,438	-1,9981	-21,774	6,2559
57246	20,17	-1,9933	-23,325	6,0856
57247	20,412	-2,4989	-22,878	6,0309
57248	19,97	-1,9972	-22,643	6,3306
57249	19,703	-1,9934	-24,192	6,1996
57250	19,939	-2,4944	-23,756	6,1378
57251	19,496	-1,9864	-23,524	6,4276
57252	19,242	-1,9975	-25,05	6,3278
57253	19,478	-2,4994	-24,612	6,2583
57254	19,034	-1,9905	-24,381	6,5396
57255	18,776	-1,9984	-25,916	6,4715
57256	19,011	-2,4992	-25,48	6,3956
57257	18,567	-1,9905	-25,249	6,6696
57258	18,308	-1,9983	-26,784	6,6279
57259	18,544	-2,5004	-26,346	6,5459
57260	18,103	-1,9992	-26,11	6,8136
57261	17,84	-1,9975	-27,652	6,7954
57262	18,076	-2,4989	-27,216	6,7085
57263	17,635	-1,9992	-26,978	6,9717
57264	17,373	-1,9988	-28,518	6,9712
57265	17,609	-2,5002	-28,082	6,8804
57266	17,167	-1,9975	-27,847	7,1414
57267	16,906	-1,9992	-29,385	7,1541
57268	17,142	-2,5005	-28,949	7,0602
57269	16,701	-2,	-28,711	7,32
57270	16,439	-1,9988	-30,253	7,3423
57271	16,675	-2,5007	-29,816	7,2461
57272	16,234	-1,9986	-29,58	7,5075
57273	15,971	-1,9944	-31,124	7,5344
57274	16,208	-2,5005	-30,684	7,4364
57275	15,767	-1,9992	-30,447	7,7011
57276	15,502	-1,9901	-31,996	7,7285
57277	15,74	-2,4962	-31,555	7,63
57278	15,296	-1,9877	-31,324	7,9013
57279	15,037	-1,9954	-32,857	7,9214
57280	15,273	-2,4961	-32,422	7,824
57281	14,832	-1,9957	-32,185	8,1023
57282	14,572	-2,0001	-33,719	8,1124
57283	14,808	-2,5018	-33,283	8,0162
57284	14,367	-2,001	-33,046	8,3054
57285	14,101	-1,995	-34,592	8,3026
57286	14,341	-2,5019	-34,151	8,2066
57287	13,9	-2,0012	-33,913	8,5091
57288	13,628	-1,9902	-35,464	8,488
57289	13,401	-2,4953	-35,89	8,5747
57290	12,96	-1,9941	-35,65	8,9112
57291	13,869	-2,4962	-35,023	8,3945
57292	13,429	-1,996	-34,783	8,7128
57293	-28,034	-2,9993	8,6718	11,943
57294	-27,578	-2,9911	9,5098	10,662
57295	-27,394	-3,0527	8,8819	11,747
57296	-28,49	-3,0046	7,8088	13,418
57297	-27,842	-3,0599	8,0358	13,119
57298	-28,968	-3,003	6,9405	14,941
57299	-28,258	-3,0004	7,1655	14,74
57300	-29,51	-3,012	6,1041	16,303
57301	-28,752	-3,0035	6,302	16,234
57302	-30,101	-2,9814	5,4113	17,283
57303	-29,7	-2,6911	5,2002	17,463
57304	-30,373	-2,9733	4,7456	18,236
57305	-30,002	-2,648	4,9061	17,849
57306	-30,588	-3,0304	3,8648	19,116
57307	-29,972	-2,6831	4,5346	18,394
57308	-30,993	-2,9301	2,9042	20,03
57309	-31,366	-2,9221	2,0582	20,454
57310	-31,687	-3,0853	1,3535	20,45
57311	-31,634	-3,0634	0,59504	20,584
57312	-31,532	-3,0093	-0,32039	20,658
57313	-31,561	-3,0673	-1,1846	20,461
57314	-31,116	-2,738	-1,2026	20,764
57315	-31,52	-3,1071	-1,9887	20,254
57316	-31,087	-2,7792	-1,5998	20,821
57317	-31,252	-3,0691	-2,7258	20,01
57318	-31,075	-2,7778	-2,0067	20,629
57319	-30,78	-3,0199	-3,4792	19,471
57320	-30,82	-2,7412	-2,3369	20,289
57321	-30,338	-2,998	-4,3058	18,589
57322	-29,893	-2,9817	-5,157	17,602
57323	-29,403	-2,9668	-6,1445	16,237
57324	-28,953	-2,9658	-7,006	14,828
57325	-28,704	-2,9221	-6,4723	15,909
57326	-28,542	-2,9773	-7,7543	13,496
57327	-28,243	-3,0048	-7,0703	14,864
57328	-28,088	-3,0051	-8,6032	12,039
57329	-27,866	-3,0146	-7,9584	13,253
57330	-27,63	-3,0157	-9,4627	10,708
57331	-27,417	-3,0013	-8,802	11,854
57332	-27,162	-3,0023	-10,335	9,5537
57333	-26,936	-3,0037	-9,6784	10,609
57334	-26,699	-3,0112	-11,209	8,6089
57335	-26,475	-3,0125	-10,564	9,5482
57336	-26,237	-3,0226	-12,08	7,8597
57337	-26,016	-3,0288	-11,441	8,6984
57338	-25,774	-3,0154	-12,938	7,2868
57339	-25,558	-3,0336	-12,301	8,0383
57340	-25,31	-3,0047	-13,794	6,847
57341	-25,099	-3,0071	-13,138	7,537
57342	-24,845	-3,0046	-14,658	6,5081
57343	-24,635	-3,0045	-13,998	7,1318
57344	-24,378	-3,0059	-15,523	6,2553
57345	-24,167	-3,0233	-14,868	6,8161
57346	-23,911	-3,0044	-16,388	6,073
57347	-23,701	-3,0202	-15,729	6,5823
57348	-23,444	-3,0029	-17,254	5,9484
57349	-23,236	-3,0052	-16,589	6,4113
57350	-22,977	-3,0023	-18,12	5,8718
57351	-22,769	-3,0031	-17,453	6,2924
57352	-22,509	-3,0026	-18,987	5,8354
57353	-22,302	-3,0022	-18,319	6,2181
57354	-22,041	-3,0027	-19,854	5,833
57355	-21,831	-3,0116	-19,19	6,1822
57356	-21,575	-3,0014	-20,72	5,8597
57357	-21,363	-3,0108	-20,057	6,1794
57358	-21,109	-3,	-21,586	5,9121
57359	-20,9	-3,0015	-20,917	6,2047
57360	-20,642	-2,9997	-22,453	5,9879
57361	-20,434	-3,0006	-21,783	6,2563
57362	-20,175	-3,	-23,32	6,084
57363	-19,966	-3,0004	-22,65	6,3312
57364	-19,708	-3,0003	-24,186	6,1979
57365	-19,499	-3,0005	-23,517	6,4266
57366	-19,241	-3,0005	-25,053	6,3277
57367	-19,033	-3,001	-24,383	6,5399
57368	-18,774	-3,0008	-25,92	6,4717
57369	-18,566	-3,0081	-25,253	6,6697
57370	-18,307	-3,0005	-26,787	6,628
57371	-18,1	-3,0077	-26,12	6,8144
57372	-17,84	-3,0002	-27,654	6,795
57373	-17,633	-3,0068	-26,987	6,9724
57374	-17,374	-3,0003	-28,521	6,9707
57375	-17,166	-3,0065	-27,854	7,1415
57376	-16,905	-3,0051	-29,393	7,1538
57377	-16,699	-3,0066	-28,721	7,3203
57378	-16,437	-3,0096	-30,266	7,3422
57379	-16,232	-3,0112	-29,593	7,5076
57380	-15,971	-3,0092	-31,133	7,5338
57381	-15,765	-3,0108	-30,46	7,701
57382	-15,504	-3,0087	-32,	7,7272
57383	-15,299	-3,0102	-31,327	7,8995
57384	-15,037	-3,0083	-32,867	7,9205
57385	-14,827	-3,0096	-32,195	8,1044
57386	-14,57	-3,0081	-33,734	8,1119
57387	-14,36	-3,0093	-33,061	8,3082
57388	-14,104	-3,0078	-34,601	8,2994
57389	-13,893	-3,009	-33,928	8,5119
57390	-13,637	-3,0072	-35,468	8,4814
57391	-13,427	-3,0083	-34,794	8,7134
57392	-13,17	-3,0058	-36,335	8,6562
57393	-12,96	-3,0072	-35,66	8,9103
57394	-12,704	-3,0031	-37,202	8,8225
57395	-12,493	-3,0044	-36,526	9,1004
57396	-12,23	-2,9991	-38,066	8,9843
57397	-12,021	-2,9996	-37,393	9,285
57398	-11,75	-2,9945	-38,931	9,1416
57399	-11,541	-2,9937	-38,256	9,4645
57400	-11,275	-2,9895	-39,801	9,2853
57401	-11,061	-2,9874	-39,126	9,6281
57402	-10,797	-2,9844	-40,671	9,4218
57403	-10,581	-2,9808	-39,998	9,7765
57404	-10,314	-2,98	-41,543	9,5556
57405	-10,091	-2,9747	-40,873	9,9153
57406	-9,8334	-2,9768	-42,417	9,678
57407	-9,6076	-2,9697	-41,751	10,035
57408	-9,3704	-2,9799	-43,274	9,7744
57409	-9,1209	-2,9659	-42,632	10,141
57410	-8,9159	-2,9846	-44,126	9,8216
57411	-8,6544	-2,9704	-43,495	10,21
57412	-8,4524	-2,9917	-45,008	9,7806
57413	-8,1889	-2,9764	-44,37	10,227
57414	-8,0041	-2,9948	-45,868	9,6279
57415	-7,5668	-2,9928	-46,704	9,3684
57416	-7,1232	-2,9933	-47,538	9,0362
57417	-6,6419	-2,9834	-48,385	8,6085
57418	-6,1113	-3,0437	-49,303	8,0162
57419	-5,6596	-3,1012	-49,977	7,5069
57420	-5,2036	-2,5609	-49,345	7,9571
57421	-5,36	-3,0185	-50,481	7,128
57422	-5,0237	-2,5492	-49,541	7,8504
57423	-4,9129	-2,9929	-50,822	6,8629
57424	-4,904	-2,4782	-49,849	7,6638
57425	-4,2089	-3,0361	-51,035	6,683
57426	-4,5765	-2,5236	-49,883	7,6685
57427	-3,3881	-3,0449	-51,411	6,3904
57428	-2,5229	-3,0663	-51,661	6,1399
57429	-1,6219	-3,1093	-51,944	5,9824
57430	-0,80355	-3,0794	-52,108	5,883
57431	-0,14923	-3,0746	-52,041	5,8129
57432	0,55975	-3,1747	-52,127	5,8194
57433	1,2519	-3,151	-52,27	5,9271
57434	1,8233	-3,0852	-52,075	6,0278
57435	2,4592	-3,0474	-51,749	6,1239
57436	3,194	-3,0293	-51,468	6,3324
57437	3,8736	-3,057	-51,07	6,6182
57438	4,5122	-3,1334	-50,724	6,9059
57439	3,9182	-3,1886	-50,579	6,7954
57440	5,1615	-3,1723	-50,237	7,2871
57441	4,5454	-3,2877	-50,297	7,1247
57442	5,7769	-3,0939	-49,646	7,7236
57443	5,0984	-3,2294	-49,71	7,6324
57444	6,315	-2,9361	-48,97	8,2282
57445	5,6593	-3,0469	-49,211	8,0842
57446	6,6817	-2,8953	-48,126	8,7945
57447	7,103	-2,9775	-47,387	9,1262
57448	7,6126	-3,0064	-46,657	9,3911
57449	8,0514	-3,0148	-45,816	9,6363
57450	8,5019	-3,0042	-44,96	9,7745
57451	7,8184	-3,021	-45,165	10,118
57452	8,9549	-2,9972	-44,101	9,8061
57453	8,2606	-2,9948	-44,303	10,205
57454	9,4227	-2,9948	-43,236	9,7519
57455	8,7247	-2,987	-43,436	10,185
57456	9,8988	-2,9979	-42,369	9,6458
57457	9,2058	-2,9921	-42,567	10,091
57458	10,373	-3,0016	-41,503	9,5225
57459	9,6872	-2,9988	-41,698	9,9898
57460	10,845	-3,0045	-40,637	9,395
57461	10,165	-3,0036	-40,832	9,8682
57462	11,311	-3,0014	-39,774	9,2647
57463	10,637	-3,0071	-39,963	9,7411
57464	11,776	-2,998	-38,911	9,1274
57465	11,104	-3,0044	-39,099	9,6015
57466	12,242	-2,9997	-38,047	8,9802
57467	11,571	-3,0068	-38,234	9,4464
57468	12,709	-3,0005	-37,181	8,823
57469	12,038	-3,0092	-37,368	9,2772
57470	13,175	-3,0004	-36,316	8,6564
57471	12,506	-3,0015	-36,505	9,0953
57472	13,642	-3,0012	-35,449	8,4811
57473	12,972	-3,0014	-35,639	8,905
57474	14,109	-3,003	-34,582	8,2984
57475	13,439	-3,0041	-34,773	8,7077
57476	14,577	-3,0035	-33,714	8,1103
57477	13,905	-3,0144	-33,902	8,5072
57478	15,043	-3,0026	-32,848	7,9187
57479	14,373	-3,0054	-33,039	8,3022
57480	15,51	-3,0022	-31,981	7,7254
57481	14,839	-3,0038	-32,174	8,0992
57482	15,977	-3,0022	-31,114	7,5319
57483	15,305	-3,0124	-31,303	7,8977
57484	16,444	-3,0024	-30,247	7,3402
57485	15,772	-3,0039	-30,44	7,6987
57486	16,91	-3,002	-29,38	7,1523
57487	16,239	-3,0118	-29,568	7,5053
57488	17,377	-3,0019	-28,512	6,9694
57489	16,705	-3,003	-28,706	7,3182
57490	17,845	-3,0016	-27,645	6,7935
57491	17,173	-3,0111	-27,834	7,1394
57492	18,312	-3,0011	-26,778	6,6265
57493	17,64	-3,003	-26,972	6,9702
57494	18,78	-3,0013	-25,91	6,47
57495	18,108	-3,0096	-26,099	6,8126
57496	19,247	-3,0011	-25,042	6,326
57497	18,574	-3,002	-25,237	6,6677
57498	19,714	-3,0004	-24,176	6,1964
57499	19,041	-3,0017	-24,37	6,5377
57500	20,18	-3,	-23,308	6,083
57501	19,507	-3,0004	-23,504	6,4246
57502	20,648	-3,0009	-22,44	5,9873
57503	19,974	-3,0007	-22,636	6,3297
57504	21,115	-3,0014	-21,572	5,9119
57505	20,442	-3,0022	-21,767	6,2554
57506	21,582	-3,0016	-20,705	5,8595
57507	20,911	-3,0092	-20,896	6,2046
57508	22,049	-3,0014	-19,837	5,8333
57509	21,378	-3,0095	-20,028	6,1796
57510	22,516	-3,0014	-18,969	5,8369
57511	21,845	-3,0092	-19,161	6,1839
57512	22,983	-3,0012	-18,102	5,875
57513	22,312	-3,0097	-18,294	6,2218
57514	23,45	-3,0007	-17,235	5,9537
57515	22,776	-3,001	-17,432	6,2976
57516	23,917	-3,	-16,368	6,0805
57517	23,246	-3,0093	-16,56	6,4204
57518	24,384	-2,9989	-15,501	6,2652
57519	23,713	-3,0086	-15,694	6,5959
57520	24,85	-2,9973	-14,636	6,5204
57521	24,177	-2,9991	-14,833	6,8331
57522	25,316	-2,9958	-13,769	6,8639
57523	24,646	-3,0066	-13,962	7,1531
57524	25,782	-2,9943	-12,901	7,3183
57525	25,112	-3,006	-13,093	7,5686
57526	26,246	-2,999	-12,022	7,9212
57527	25,571	-3,0043	-12,223	8,1087
57528	26,703	-2,9973	-11,154	8,6793
57529	26,028	-3,007	-11,342	8,8086
57530	27,151	-2,9893	-10,287	9,6394
57531	26,478	-2,982	-10,499	9,6346
57532	27,616	-2,9852	-9,4434	10,746
57533	26,907	-2,9982	-9,6087	10,723
57534	28,088	-2,9959	-8,6381	11,973
57535	27,42	-2,9736	-8,7911	11,895
57536	28,528	-3,0078	-7,7887	13,446
57537	27,784	-3,0121	-8,1684	12,9
57538	28,958	-2,9964	-6,9287	14,968
57539	28,301	-3,0498	-7,2538	14,507
57540	29,379	-2,9875	-6,1038	16,32
57541	28,704	-3,034	-6,4288	15,978
57542	29,815	-2,9887	-5,2506	17,491
57543	30,299	-2,9904	-4,3825	18,512
57544	30,76	-2,9757	-3,5513	19,386
57545	31,138	-2,7969	-2,7441	19,994
57546	31,382	-2,7383	-1,9221	20,351
57547	31,509	-2,6951	-1,1174	20,497
57548	31,148	-2,5478	-1,0202	20,856
57549	31,625	-2,6291	-0,30342	20,46
57550	31,196	-2,3997	-0,63813	21,014
57551	31,776	-2,8335	0,38845	20,553
57552	31,264	-2,4818	-0,20622	20,919
57553	31,752	-2,9649	1,2737	20,306
57554	31,346	-2,6041	5,3748e-002	20,703
57555	31,554	-2,9157	2,2956	20,206
57556	31,33	-2,9172	3,0617	19,793
57557	30,909	-3,0171	3,7457	19,241
57558	30,403	-3,0466	4,4733	18,426
57559	29,958	-3,0356	5,2818	17,468
57560	29,487	-3,0278	6,0871	16,351
57561	29,	-3,0185	6,9074	15,005
57562	28,8	-3,0101	6,3223	16,175
57563	28,519	-3,01	7,7437	13,539
57564	28,3	-3,024	7,0808	14,851
57565	28,046	-2,9982	8,5962	12,08
57566	27,823	-3,0042	7,9155	13,365
57567	27,582	-2,9913	9,4639	10,739
57568	27,357	-2,9922	8,7681	11,952
57569	27,12	-2,989	10,35	9,5723
57570	26,899	-2,9881	9,653	10,672
57571	26,657	-2,9896	11,239	8,6181
57572	26,439	-2,9863	10,545	9,602
57573	26,191	-2,9927	12,126	7,8679
57574	25,979	-2,9878	11,439	8,7385
57575	25,723	-2,9969	13,012	7,2878
57576	25,514	-2,993	12,331	8,0594
57577	25,252	-2,9982	13,893	6,8532
57578	25,046	-2,9984	13,22	7,5353
57579	24,778	-2,9984	14,768	6,5359
57580	24,572	-3,0008	14,095	7,1469
57581	24,306	-2,9996	15,646	6,3044
57582	24,1	-3,0034	14,971	6,8531
57583	23,833	-3,0002	16,524	6,145
57584	23,629	-2,9991	15,851	6,6358
57585	23,361	-3,0007	17,401	6,0451
57586	23,157	-3,0004	16,727	6,4867
57587	22,887	-3,0024	18,281	5,9949
57588	22,684	-3,0006	17,605	6,3921
57589	22,414	-3,0027	19,158	5,9879
57590	22,21	-3,0055	18,483	6,3457
57591	21,942	-3,0013	20,034	6,0179
57592	21,738	-3,004	19,359	6,3392
57593	21,47	-3,0009	20,912	6,0805
57594	21,266	-3,0034	20,236	6,3687
57595	20,997	-3,0005	21,79	6,1725
57596	20,793	-3,0027	21,114	6,4305
57597	20,524	-3,0002	22,667	6,2915
57598	20,321	-3,0023	21,991	6,5217
57599	20,052	-2,9997	23,545	6,4353
57600	19,848	-3,	22,868	6,6402
57601	19,579	-2,9997	24,423	6,6024
57602	19,375	-2,9996	23,746	6,7839
57603	19,106	-2,9997	25,301	6,7911
57604	18,902	-2,9997	24,624	6,9508
57605	18,634	-2,9998	26,179	7,0004
57606	18,43	-2,9994	25,501	7,1389
57607	18,161	-2,9998	27,056	7,2292
57608	17,958	-3,0011	26,38	7,3481
57609	17,689	-2,9995	27,934	7,4764
57610	17,486	-3,0009	27,258	7,5773
57611	17,216	-2,9992	28,812	7,7416
57612	17,014	-3,0006	28,136	7,8254
57613	16,742	-2,9992	29,69	8,0236
57614	16,541	-3,0003	29,014	8,0917
57615	16,268	-2,9992	30,568	8,3211
57616	16,065	-2,9986	29,889	8,3762
57617	15,795	-2,9993	31,445	8,6328
57618	15,59	-2,9999	30,767	8,6768
57619	15,319	-2,9999	32,324	8,9589
57620	15,117	-2,9998	31,644	8,9914
57621	14,846	-2,9997	33,201	9,2947
57622	14,641	-3,0002	32,523	9,3216
57623	14,377	-2,9987	34,078	9,6382
57624	14,173	-2,999	33,399	9,6615
57625	13,907	-2,9987	34,958	9,9902
57626	13,702	-2,9982	34,276	10,015
57627	13,436	-2,9983	35,837	10,348
57628	13,231	-2,9973	35,155	10,38
57629	12,962	-2,9973	36,716	10,709
57630	12,758	-2,9955	36,033	10,758
57631	12,481	-2,9976	37,593	11,073
57632	12,282	-2,9944	36,91	11,147
57633	12,007	-3,0003	38,47	11,429
57634	11,8	-2,9969	37,787	11,551
57635	11,536	-3,0058	39,349	11,773
57636	11,333	-3,0029	38,663	11,954
57637	11,065	-3,0089	40,226	12,1
57638	10,863	-3,0139	39,539	12,366
57639	10,604	-3,0067	41,104	12,39
57640	10,405	-3,0221	40,419	12,768
57641	10,148	-3,0044	41,981	12,631
57642	9,9451	-3,0112	41,307	13,161
57643	9,6892	-3,0059	42,859	12,81
57644	9,4991	-3,009	42,186	13,5
57645	9,2236	-3,0126	43,736	12,91
57646	9,0457	-3,0167	43,062	13,786
57647	8,7479	-3,0231	44,614	12,924
57648	8,5791	-3,0236	43,938	14,003
57649	8,26	-3,0251	45,493	12,874
57650	8,0968	-3,0401	44,812	14,151
57651	7,8115	-3,03	46,366	12,718
57652	7,5889	-3,047	45,687	14,244
57653	7,373	-3,044	47,212	12,649
57654	6,9247	-3,0228	48,1	12,698
57655	6,4981	-2,9279	48,902	12,814
57656	5,8378	-2,6783	48,884	14,453
57657	5,7963	-2,8768	49,338	13,875
57658	5,6224	-2,6097	49,211	14,633
57659	5,2055	-2,9224	49,87	14,598
57660	5,136	-2,6272	49,32	15,605
57661	4,829	-2,9595	50,378	14,751
57662	5,0316	-2,6552	49,744	15,352
57663	4,2323	-2,9761	50,651	15,28
57664	4,7595	-2,6643	49,828	15,568
57665	3,5035	-2,987	50,988	15,747
57666	2,6458	-2,9931	51,293	16,095
57667	1,7161	-2,9899	51,639	16,307
57668	0,97551	-3,0019	52,036	16,708
57669	0,37784	-3,0515	52,189	16,819
57670	-0,36294	-3,0363	52,174	16,812
57671	-1,1915	-3,0177	52,022	16,665
57672	-1,9347	-3,0628	51,654	16,387
57673	-2,6631	-3,072	51,334	16,147
57674	-3,4763	-3,049	51,006	15,815
57675	-3,1217	-2,784	50,867	16,184
57676	-4,251	-3,0195	50,586	15,327
57677	-3,5289	-2,7688	50,682	15,893
57678	-4,9106	-2,9947	50,08	14,865
57679	-5,6515	-3,0499	49,556	13,972
57680	-5,5654	-2,6528	49,112	14,674
57681	-6,2901	-3,1066	48,983	13,244
57682	-6,0143	-2,7185	48,86	14,084
57683	-6,7676	-3,0753	48,522	12,587
57684	-6,204	-2,7094	48,538	14,006
57685	-7,089	-3,044	48,038	12,337
57686	-6,4918	-2,6872	48,399	13,417
57687	-7,36	-3,018	47,293	12,572
57688	-6,5254	-2,6781	48,055	13,735
57689	-7,8016	-2,9924	46,449	12,631
57690	-8,2262	-2,9801	45,56	12,871
57691	-8,6627	-2,9807	44,674	13,021
57692	-8,0017	-2,9615	44,924	14,23
57693	-9,1129	-2,9785	43,794	13,051
57694	-8,3968	-2,9702	44,051	14,291
57695	-9,5914	-2,9725	42,907	12,927
57696	-8,8672	-2,9587	43,158	14,055
57697	-10,076	-2,9752	42,018	12,708
57698	-9,3625	-2,9613	42,258	13,687
57699	-10,562	-2,9805	41,133	12,429
57700	-9,8576	-2,9691	41,363	13,263
57701	-11,049	-2,9862	40,246	12,111
57702	-10,354	-2,977	40,467	12,821
57703	-11,533	-2,9916	39,362	11,773
57704	-10,846	-2,9843	39,576	12,381
57705	-12,014	-2,9959	38,478	11,424
57706	-11,338	-2,9913	38,687	11,951
57707	-12,49	-2,9988	37,596	11,068
57708	-11,813	-2,9965	37,797	11,543
57709	-12,965	-3,0012	36,716	10,707
57710	-12,29	-3,0002	36,915	11,143
57711	-13,439	-3,0028	35,838	10,346
57712	-12,766	-3,0032	36,037	10,753
57713	-13,913	-3,0063	34,961	9,9874
57714	-13,239	-3,0044	35,158	10,377
57715	-14,385	-3,0067	34,083	9,6349
57716	-13,716	-3,0129	34,282	10,008
57717	-14,854	-3,0036	33,204	9,291
57718	-14,184	-3,0103	33,404	9,6561
57719	-15,325	-3,0026	32,324	8,9556
57720	-14,656	-3,009	32,524	9,3144
57721	-15,795	-3,0024	31,441	8,6323
57722	-15,125	-3,0036	31,644	8,9872
57723	-16,264	-3,0015	30,554	8,3225
57724	-15,595	-3,0051	30,755	8,6733
57725	-16,736	-3,0006	29,668	8,0258
57726	-16,064	-3,0022	29,862	8,3753
57727	-17,211	-3,0019	28,786	7,7434
57728	-16,539	-3,0023	28,975	8,091
57729	-17,686	-3,0044	27,911	7,4777
57730	-17,015	-3,0051	28,093	7,8243
57731	-18,165	-3,0073	27,042	7,2274
57732	-17,491	-3,0083	27,221	7,5754
57733	-18,644	-3,01	26,175	6,9948
57734	-17,973	-3,0122	26,358	7,3414
57735	-19,114	-3,0079	25,303	6,7866
57736	-18,449	-3,0158	25,494	7,1295
57737	-19,581	-3,0043	24,427	6,6009
57738	-18,913	-3,0129	24,625	6,9448
57739	-20,051	-3,0064	23,549	6,4351
57740	-19,38	-3,0123	23,749	6,7806
57741	-20,523	-3,0053	22,672	6,2918
57742	-19,845	-3,0129	22,872	6,6414
57743	-20,995	-3,0017	21,794	6,1731
57744	-20,319	-3,0025	21,995	6,5219
57745	-21,467	-3,0011	20,916	6,081
57746	-20,79	-3,0056	21,117	6,4316
57747	-21,94	-3,0023	20,037	6,0184
57748	-21,264	-3,0009	20,24	6,3687
57749	-22,413	-3,0018	19,16	5,9884
57750	-21,737	-3,0017	19,361	6,3391
57751	-22,885	-3,0015	18,282	5,9961
57752	-22,209	-3,0029	18,485	6,3457
57753	-23,357	-3,0032	17,402	6,0468
57754	-22,681	-3,0045	17,606	6,3935
57755	-23,83	-3,003	16,524	6,1472
57756	-23,154	-3,004	16,729	6,4879
57757	-24,302	-3,0028	15,646	6,3072
57758	-23,626	-3,0036	15,852	6,6374
57759	-24,774	-3,0024	14,768	6,5394
57760	-24,098	-3,0032	14,974	6,8527
57761	-25,245	-3,0015	13,891	6,8601
57762	-24,57	-3,0024	14,097	7,1471
57763	-25,717	-2,9995	13,013	7,2904
57764	-25,042	-3,0008	13,22	7,5385
57765	-26,189	-2,9961	12,135	7,8581
57766	-25,51	-2,9974	12,337	8,0549
57767	-26,657	-2,9916	11,25	8,6026
57768	-25,981	-2,9922	11,456	8,7148
57769	-27,12	-2,9876	10,36	9,5532
57770	-26,928	-2,9826	9,672	10,634
57771	-26,461	-2,9925	10,588	9,5268
57772	-4,907	-2,1076	-47,728	10,161
57773	-4,6088	-2,1058	-48,568	9,005
57774	-5,3951	-1,9992	-46,76	11,343
57775	-1,8252	-2,0963	-39,616	24,225
57776	-1,1937	-2,1717	-39,263	24,849
57777	-1,7771	-2,4256	-39,632	24,233
57778	-2,6636	-2,0285	-39,795	23,032
57779	-1,9553	-2,028	-39,115	23,73
57780	-2,6262	-2,1037	-39,112	22,653
57781	-2,3173	-2,6345	-39,394	23,504
57782	-2,215	-2,3602	-39,743	23,795
57783	-3,5188	-2,0589	-40,35	21,296
57784	-4,0981	-2,0791	-40,239	19,94
57785	-3,3621	-2,1093	-39,627	21,534
57786	-3,0383	-2,6371	-39,554	22,234
57787	-2,6155	-2,3578	-39,812	23,02
57788	-3,3643	-2,4796	-39,692	21,595
57789	5,5785	-2,0195	-44,703	14,73
57790	5,534	-2,3775	-44,275	15,233
57791	8,8765	-2,3415	8,1509	8,4745
57792	8,494	-2,2631	8,0672	8,3795
57793	8,7985	-2,3283	8,6075	8,366
57794	8,3776	-2,2582	8,237	8,3184
57795	8,8691	-2,8802	8,6146	8,384
57796	9,0608	-2,8896	8,5156	8,4601
57797	9,0355	-2,8261	8,2648	8,4981
57798	8,5365	-2,7668	8,2678	8,3566
57799	9,2754	-2,5322	0,4483	9,7815
57800	9,061	-2,1902	0,86289	9,6939
57801	9,3501	-2,1656	0,4905	9,8087
57802	8,7583	-2,2286	0,47966	9,6109
57803	9,2264	-2,1101	0,23323	9,7681
57804	8,7831	-2,7077	0,944	9,5968
57805	9,0576	-2,7104	0,54155	9,705
57806	8,7512	-2,625	0,62616	9,6046
57807	-1,3821	-2,36	29,076	12,283
57808	-0,88641	-2,322	28,147	11,903
57809	-1,6431	-2,3667	29,271	12,359
57810	-1,1923	-2,3605	27,858	11,774
57811	-1,3661	-2,3323	28,687	12,124
57812	-1,8545	-2,3794	28,909	12,194
57813	-1,5653	-2,3747	28,151	11,893
57814	-1,9881	-2,9095	28,688	12,092
57815	-1,682	-2,9069	29,211	12,332
57816	-1,7589	-2,8974	28,178	11,897
57817	-1,6666	-2,9393	28,509	12,04
57818	-1,2281	-2,9278	28,935	12,23
57819	-1,3318	-2,9725	28,282	11,961
57820	-1,263	-2,9294	27,85	11,767
57821	-1,0995	-2,9612	28,495	12,046
57822	-0,83579	-2,9277	28,08	11,873
57823	-19,954	-2,2278	-9,1085	11,79
57824	-20,428	-2,2428	-9,3308	11,708
57825	-20,1	-2,2375	-8,6045	12,168
57826	-20,712	-2,2591	-8,7998	12,19
57827	-20,033	-2,7729	-9,0635	11,832
57828	-20,558	-2,7828	-9,2897	11,756
57829	-20,111	-2,7352	-8,5194	12,229
57830	-20,594	-2,802	-8,67	12,268
57831	-20,81	-2,8085	-8,8123	12,195
57832	-9,2537	-2,4852	-0,13357	9,7749
57833	-9,1707	-2,271	-0,68492	9,7472
57834	-8,6475	-2,3084	-0,58231	9,5771
57835	-8,8075	-2,2582	-1,0108	9,6161
57836	-8,5711	-2,7973	-0,27769	9,5513
57837	-8,2734	-2,785	-0,6741	9,4634
57838	-8,9563	-2,7653	-0,58773	9,6739
57839	-8,5924	-2,685	-0,97016	9,547
57840	-8,5614	-2,5733	-0,47393	9,5483
57841	0,22497	-2,0238	24,403	10,356
57842	0,12914	-2,089	24,921	10,57
57843	7,2292e-002	-1,9959	24,202	10,275
57844	-0,2364	-2,0558	24,669	10,468
57845	-0,12288	-2,0056	24,067	10,216
57846	-0,41542	-2,0609	24,293	10,309
57847	-0,35216	-2,6274	24,776	10,511
57848	-0,45111	-2,6311	24,427	10,364
57849	-4,9956e-002	-2,6265	24,913	10,567
57850	-0,10547	-2,5854	24,304	10,315
57851	1,8811	-2,4326	-17,665	8,1409
57852	2,1477	-2,3785	-17,823	8,2043
57853	1,9739	-2,3611	-18,239	8,3598
57854	1,4938	-2,3581	-17,94	8,2325
57855	1,4187	-2,3021	-18,296	8,374
57856	1,0505	-2,2347	-18,231	8,331
57857	2,1746	-2,9524	-17,922	8,2454
57858	1,9798	-2,9001	-18,275	8,3741
57859	1,7089	-2,9589	-18,118	8,3041
57860	1,5151	-3,1026	-17,655	8,1257
57861	1,1261	-2,8473	-17,903	8,2091
57862	1,5991	-2,8307	-18,243	8,3581
57863	1,0763	-2,452	-17,952	8,2188
57864	-20,443	-3,0269	-3,0288	16,132
57865	-20,39	-2,5144	-2,9286	15,937
57866	-19,577	-3,0213	-2,8587	15,159
57867	-19,935	-3,0435	-3,3958	15,33
57868	-20,3	-3,0143	-2,5541	15,636
57869	10,049	-2,6001	-3,3086	9,8118
57870	9,5276	-2,1553	-2,9135	9,6747
57871	9,9176	-2,224	-3,3035	9,7651
57872	9,4011	-2,1786	-3,4203	9,5707
57873	9,6198	-2,2872	-3,613	9,6085
57874	9,198	-2,7077	-2,9585	9,563
57875	9,5469	-2,7421	-3,3583	9,6292
57876	9,8108	-2,8074	-3,6988	9,6623
57877	10,072	-2,8082	-3,586	9,7812
57878	-5,5891	-2,1785	-43,237	15,503
57879	8,0161e-003	-3,0238	-39,543	25,107
57880	-0,52877	-3,0392	-39,43	24,951
57881	-0,19372	-2,4852	-39,744	24,704
57882	-19,881	-2,4935	3,0573	15,408
57883	-19,679	-3,0003	3,5143	15,071
57884	-19,397	-3,0012	2,9278	15,014
57885	-20,203	-3,0173	3,1333	15,823
57886	-20,233	-3,6357	2,9949	15,768
57887	-20,13	-2,9984	2,6301	15,519
57888	-19,772	-3,5103	3,0818	15,295
57889	18,207	-2,0408	-11,104	10,403
57890	18,633	-2,108	-11,266	10,374
57891	18,418	-2,1058	-11,693	10,164
57892	18,102	-2,0459	-11,392	10,267
57893	18,571	-2,6258	-11,367	10,32
57894	18,083	-2,5756	-11,263	10,317
57895	18,451	-2,5922	-11,62	10,197
57896	0,29629	-2,2013	13,032	6,8209
57897	-0,16618	-2,2061	13,174	6,8307
57898	-0,26658	-2,2385	12,785	6,8052
57899	0,39985	-2,2043	12,544	6,7945
57900	-3,2677e-002	-2,2397	12,125	6,7817
57901	-0,46997	-2,2487	12,414	6,7915
57902	-0,61258	-2,725	12,632	6,8025
57903	-0,36213	-2,7581	13,137	6,8287
57904	0,2083	-2,7881	12,992	6,8169
57905	-0,19232	-2,7271	12,351	6,7863
57906	0,12516	-2,7323	12,15	6,7823
57907	0,5081	-2,7584	12,475	6,794
57908	3,2708	-2,5146	6,1457	7,7462
57909	2,6356	-2,4391	6,1856	7,6753
57910	2,9136	-2,4265	5,9567	7,7504
57911	2,2477	-2,4237	5,7511	7,7374
57912	2,5374	-2,4231	5,3704	7,8307
57913	2,4822	-2,9513	6,1045	7,6816
57914	2,717	-2,9117	5,922	7,741
57915	3,0358	-2,9504	6,0868	7,7336
57916	3,4061	-2,9828	6,2359	7,7436
57917	3,4827	-2,9701	5,9144	7,8194
57918	3,0872	-2,9352	5,6871	7,8217
57919	2,1918	-3,0586	5,7852	7,7273
57920	2,7508	-2,9349	5,4096	7,839
57921	6,0178	-2,2588	-36,518	15,285
57922	5,6462	-2,2216	-36,239	15,657
57923	5,2819	-2,2299	-36,009	15,928
57924	5,0217	-2,2558	-36,435	16,475
57925	5,7766	-2,3116	-36,984	15,698
57926	5,359	-2,2493	-36,729	16,203
57927	5,7789	-2,8576	-37,019	15,684
57928	5,559	-2,8529	-36,97	16,029
57929	5,3814	-2,8333	-36,767	16,183
57930	5,9351	-2,8215	-36,543	15,396
57931	5,0537	-2,7868	-36,466	16,455
57932	5,4468	-2,7729	-36,116	15,826
57933	26,372	-3,0182	5,3976	21,079
57934	26,226	-2,4212	5,8522	19,335
57935	25,877	-2,9769	6,0772	18,769
57936	26,558	-2,986	5,9253	18,881
57937	26,063	-2,4792	5,4838	21,133
57938	25,807	-2,9178	5,3514	22,014
57939	20,121	-2,1781	9,3164	11,566
57940	19,638	-2,1537	9,1367	11,64
57941	20,381	-2,188	8,8999	11,951
57942	19,955	-2,1702	8,6917	12,035
57943	19,529	-2,1813	8,5048	12,05
57944	19,224	-2,1493	8,948	11,67
57945	19,105	-2,1433	8,3264	11,998
57946	18,855	-2,11	8,7749	11,67
57947	18,447	-2,1747	8,575	11,646
57948	18,647	-2,1814	8,1407	11,906
57949	19,565	-2,7732	9,0275	11,702
57950	19,7	-2,7883	8,4348	12,151
57951	20,071	-2,7557	9,2231	11,638
57952	20,068	-2,7725	8,5745	12,163
57953	20,419	-2,7207	8,7938	12,052
57954	19,146	-2,7759	8,8612	11,705
57955	18,704	-2,7482	8,6772	11,679
57956	19,336	-2,7643	8,2876	12,113
57957	18,843	-2,7311	8,1011	12,008
57958	5,8442	-2,0858	-40,894	15,514
57959	5,4651	-2,0358	-40,593	16,408
57960	5,6462	-1,9933	-41,265	15,842
57961	5,2262	-1,9857	-40,952	16,93
57962	5,3624	-2,5838	-40,777	16,638
57963	5,7962	-2,5978	-41,03	15,587
57964	-17,031	-2,1028	0,33701	13,737
57965	-16,61	-2,0594	0,22053	13,5
57966	-16,723	-2,0249	-1,2749e-002	13,581
57967	-17,126	-2,0505	-2,4617e-002	13,812
57968	-17,001	-2,0519	-0,43254	13,72
57969	-16,608	-2,0808	-0,2745	13,505
57970	-16,116	-2,1057	0,20187	13,203
57971	-17,105	-2,6458	0,24738	13,786
57972	-17,215	-2,6388	-2,7917e-002	13,859
57973	-17,077	-2,6443	-0,32671	13,769
57974	-16,611	-2,7864	-7,11e-002	13,517
57975	-16,207	-2,8094	-7,9925e-002	13,265
57976	2,9266	-2,1559	-1,4883	8,402
57977	3,255	-2,2057	-1,8907	8,4152
57978	2,7552	-2,2145	-1,918	8,3634
57979	2,6048	-2,1888	-2,3461	8,3069
57980	3,2288	-2,2614	-2,3949	8,3539
57981	3,048	-2,2102	-2,7564	8,2863
57982	3,4679	-2,6601	-1,3511	8,4667
57983	2,922	-2,683	-1,7434	8,3935
57984	3,7064	-2,6854	-1,8657	8,4678
57985	2,6515	-2,5914	-2,1813	8,3274
57986	3,4023	-2,6938	-2,3952	8,3765
57987	3,0509	-2,7081	-2,8088	8,2766
57988	10,556	-2,3767	-2,87	10,062
57989	10,913	-2,4345	-3,0457	10,192
57990	10,286	-2,4233	-3,2335	9,9077
57991	10,782	-2,4617	-3,5377	10,056
57992	9,9149	-2,9413	-3,2883	9,7708
57993	10,304	-2,8607	-2,8967	9,9601
57994	10,179	-3,0066	-3,6288	9,8039
57995	10,44	-3,0074	-3,516	9,9238
57996	10,966	-2,8884	-3,0122	10,216
57997	10,678	-2,8931	-3,5003	10,014
57998	-9,7241	-2,2162	0,82317	9,9351
57999	-9,4178	-2,2131	0,41323	9,8393
58000	-10,02	-2,1376	0,31736	10,062
58001	-9,6654	-2,1715	-2,7686e-002	9,9189
58002	-9,1421	-2,209	7,4927e-002	9,7509
58003	-9,3022	-2,1587	-0,35357	9,7785
58004	-10,226	-2,7209	0,41617	10,145
58005	-9,9313	-2,7115	0,76799	10,015
58006	-9,7104	-2,6544	0,41958	9,9447
58007	-9,451	-2,6658	6,9505e-002	9,848
58008	-9,9428	-2,5843	0,29736	10,033
58009	-20,663	-2,5249	-3,1637	16,5
58010	-20,645	-2,5116	-2,9905	16,382
58011	-20,561	-3,0201	-3,6372	16,106
58012	-20,555	-3,0115	-2,616	16,085
58013	10,826	-2,3075	-4,5733	9,8868
58014	11,336	-2,2331	-4,7695	10,068
58015	10,555	-2,3329	-4,9664	9,7047
58016	11,099	-2,1716	-5,1683	9,8776
58017	10,63	-2,8488	-4,707	9,7879
58018	10,328	-2,8161	-5,0649	9,6021
58019	10,881	-2,852	-4,8871	9,8474
58020	11,22	-2,8083	-5,0043	9,959
58021	10,526	-2,5764	-5,1782	9,6491
58022	19,587	-1,9926	2,4868	15,023
58023	19,487	-2,0116	3,4254	14,908
58024	19,142	-2,009	2,859	14,787
58025	20,104	-2,0092	2,8825	15,708
58026	19,571	-1,497	2,9882	15,116
58027	-19,727	-1,975	3,4791	15,125
58028	-19,417	-1,971	2,9072	15,029
58029	-20,293	-1,9756	3,0771	15,963
58030	-20,15	-1,9846	2,5905	15,489
58031	-19,849	-1,4719	3,038	15,377
58032	5,4383	-2,406	36,472	15,562
58033	5,2868	-2,357	36,229	15,44
58034	5,8757	-2,2642	36,023	15,059
58035	5,5163	-2,1635	35,742	15,038
58036	5,0973	-2,2051	35,481	14,989
58037	4,8376	-2,2751	35,81	15,232
58038	4,8362	-2,7912	36,016	15,374
58039	5,2127	-2,7106	35,621	15,047
58040	5,1061	-2,8546	36,346	15,586
58041	5,2395	-2,9452	36,603	15,765
58042	5,6461	-2,9023	36,569	15,552
58043	5,8062	-2,7194	36,141	15,176
58044	-8,5839	-2,4827	-8,1804	8,4302
58045	-9,0153	-2,5686	-7,8007	8,6298
58046	-8,9156	-2,474	-8,1874	8,5294
58047	-9,5784	-2,6739	-7,9242	8,7825
58048	-8,8591	-3,1256	-7,6233	8,6171
58049	-8,6096	-3,1089	-8,2261	8,4379
58050	-8,885	-3,1099	-8,3884	8,4867
58051	-9,141	-3,1645	-8,313	8,5769
58052	-9,1966	-3,2076	-8,1201	8,6279
58053	-9,3078	-3,2144	-7,7378	8,7353
58054	-9,7158	-3,1951	-7,7943	8,8548
58055	-9,5949	-3,1996	-8,1709	8,743
58056	-8,3462	-2,6475	-7,9707	8,4239
58057	-25,842	-3,051	5,9188	19,502
58058	-26,493	-3,0318	5,8249	19,449
58059	-26,217	-2,7974	5,168	22,545
58060	-26,256	-2,8402	5,7063	20,005
58061	-26,269	-3,0356	5,2728	21,836
58062	-9,424	-2,3755	-10,238	8,3834
58063	-9,1666	-2,3588	-10,691	8,2666
58064	-9,8948	-2,3773	-10,438	8,4989
58065	-9,6481	-2,4101	-10,914	8,3763
58066	-9,5424	-2,869	-10,149	8,4277
58067	-9,3257	-2,9438	-10,438	8,3349
58068	-9,1306	-2,898	-10,755	8,2499
58069	-9,5365	-2,9469	-11,059	8,3351
58070	-9,7878	-3,0028	-10,717	8,4382
58071	-9,9479	-2,9176	-10,397	8,5199
58072	0,19313	-2,4973	-39,402	25,403
58073	0,59361	-3,0182	-38,967	24,852
58074	-6,1579e-002	-3,0163	-38,949	25,022
58075	-1,456	-1,9564	39,569	16,631
58076	-0,69641	-2,3122	39,699	15,85
58077	-0,72649	-1,9253	40,067	16,058
58078	-1,3804	-2,043	40,243	16,87
58079	-22,03	-2,0942	8,5772	12,656
58080	-22,08	-2,1106	8,1481	13,131
58081	-22,265	-2,0652	8,8071	12,449
58082	-22,527	-2,128	8,3735	12,99
58083	-22,189	-2,6851	8,2446	13,059
58084	-22,135	-2,6253	8,7436	12,5
58085	-22,518	-2,648	8,3678	12,993
58086	-6,0003	-2,4186	43,367	21,547
58087	-6,0991	-1,8542	42,46	20,914
58088	-6,3339	-1,8432	41,983	19,88
58089	-6,3462	-1,9802	43,183	20,078
58090	-6,4526	-1,9568	42,669	19,894
58091	-6,6369	-1,9893	42,247	19,369
58092	-6,2533	-2,4554	42,33	20,318
58093	23,851	-1,8658	-6,1117	18,194
58094	24,849	-1,9709	-5,957	19,179
58095	24,241	-1,9042	-6,2688	18,022
58096	24,567	-1,9243	-6,3328	17,882
58097	24,983	-2,0065	-6,4348	17,506
58098	24,922	-2,4819	-6,1777	18,287
58099	24,989	-2,0486	-6,085	18,569
58100	23,932	-2,2615	-6,5052	17,266
58101	-2,3673	-2,1146	15,064	7,176
58102	-2,4891	-2,1433	14,695	7,1179
58103	-2,6874	-2,1597	15,4	7,2672
58104	-2,9576	-2,2057	14,962	7,2031
58105	-3,0452	-2,6893	15,005	7,2184
58106	-2,8933	-2,6954	15,299	7,2619
58107	-2,5389	-2,7193	14,872	7,1532
58108	5,4971	-3,1319	44,375	23,931
58109	5,2721	-3,1173	43,899	25,073
58110	5,2335	-2,7273	44,186	25,48
58111	5,0871	-3,1102	44,629	26,662
58112	4,8814	-3,128	43,815	26,925
58113	5,1232	-3,6038	44,298	26,274
58114	-20,61	-2,0124	-3,0635	16,3
58115	-20,509	-2,021	-3,7216	16,043
58116	20,493	-2,9799	-3,7327	15,965
58117	20,254	-2,9862	-3,1103	15,895
58118	20,515	-2,9823	-2,6724	16,005
58119	21,046	-2,978	-3,3187	17,458
58120	-5,4279	-2,1682	35,381	14,805
58121	-5,7864	-2,1274	35,516	14,802
58122	-5,9561	-2,1043	35,755	14,891
58123	-6,2344	-2,1403	35,688	14,709
58124	-5,8501	-2,1759	34,864	14,389
58125	-6,2729	-2,1134	35,233	14,435
58126	-5,5631	-2,7713	35,422	14,806
58127	-5,8417	-2,7102	35,493	14,76
58128	-6,1066	-2,6717	35,849	14,873
58129	-5,5096	-2,6896	35,14	14,638
58130	-5,8287	-2,6456	34,9	14,416
58131	-6,3686	-2,5416	35,249	14,394
58132	-26,452	-2,4709	-6,9026	16,014
58133	-26,304	-2,3815	-7,1747	15,436
58134	-26,265	-2,4063	-7,7725	14,182
58135	-26,781	-2,2754	-7,5344	14,466
58136	-26,611	-2,3939	-7,9172	13,803
58137	-26,134	-2,9696	-7,275	15,244
58138	-26,136	-2,9618	-7,6479	14,442
58139	-26,633	-2,8921	-7,9203	13,797
58140	-26,859	-2,9287	-7,499	14,511
58141	-26,556	-3,0229	-7,2435	15,172
58142	-26,699	-3,0145	-6,9512	15,757
58143	-26,302	-3,0112	-7,0057	15,824
58144	-26,532	-3,0097	-6,7904	16,275
58145	4,5786	-2,0913	49,146	16,64
58146	3,9702	-1,8742	48,718	18,389
58147	26,714	-2,4128	5,4282	20,595
58148	27,022	-3,0329	5,481	20,002
58149	26,246	-2,5336	5,3446	21,592
58150	26,644	-3,06	5,0519	22,666
58151	25,989	-2,9722	5,2123	22,437
58152	-2,6615	-2,4623	-6,3831	7,6267
58153	-2,1361	-2,3927	-5,9719	7,6562
58154	-1,5798	-2,4381	-6,3988	7,5383
58155	-1,9339	-2,4327	-6,5009	7,5418
58156	-2,4486	-2,4326	-6,6704	7,5453
58157	-2,0571	-2,8699	-5,8566	7,6696
58158	-2,5976	-2,8072	-6,1565	7,6639
58159	-2,374	-2,8055	-6,5202	7,5695
58160	-1,9216	-2,8603	-6,23	7,5882
58161	-1,633	-2,892	-6,6837	7,4873
58162	-2,1147	-2,8756	-6,8914	7,4747
58163	-1,2998	-2,7074	-6,2562	7,5548
58164	0,76788	-2,2265	16,554	7,4533
58165	0,53591	-2,1698	17,002	7,575
58166	0,46566	-2,1722	16,313	7,3842
58167	0,45778	-2,2891	15,884	7,2751
58168	0,33211	-2,1664	16,863	7,5321
58169	2,4932e-003	-2,2219	16,65	7,4731
58170	8,9167e-003	-2,1873	16,214	7,354
58171	-0,14812	-2,7957	16,13	7,3325
58172	5,6076e-002	-2,8553	15,852	7,2639
58173	0,27991	-2,863	15,653	7,22
58174	-3,e-002	-2,8072	16,616	7,4629
58175	0,40689	-2,858	16,259	7,3686
58176	0,4345	-2,762	17,007	7,5765
58177	0,4516	-2,866	15,814	7,2581
58178	0,68025	-2,7945	16,5	7,4373
58179	0,33287	-2,2923	28,118	11,891
58180	0,33937	-2,3428	28,346	11,992
58181	0,10967	-2,3546	28,517	12,066
58182	-0,2134	-2,3703	27,919	11,814
58183	-0,42645	-3,0095	28,267	11,953
58184	-0,16279	-2,9759	27,852	11,785
58185	-0,20959	-2,9684	28,466	12,043
58186	0,22214	-2,9067	28,14	11,903
58187	2,9435	-2,1691	-4,1279	8,0672
58188	3,3948	-2,172	-4,7553	8,0163
58189	2,6472	-2,1827	-4,849	7,9215
58190	3,1633	-2,1453	-5,2502	7,8902
58191	2,9464	-2,667	-4,1803	8,0585
58192	3,2322	-2,508	-4,6077	8,0251
58193	3,5508	-2,5944	-5,0127	7,9822
58194	2,5638	-2,7128	-4,5754	7,9643
58195	2,9002	-2,5564	-5,0452	7,9037
58196	3,2877	-2,6231	-5,369	7,878
58197	-0,58577	-2,1273	-12,346	6,8676
58198	-0,2525	-2,0904	-12,797	6,8924
58199	-0,85038	-2,1889	-12,638	6,8933
58200	-0,76507	-2,1494	-13,102	6,931
58201	-0,72616	-2,155	-13,496	6,9804
58202	4,1157e-003	-2,0738	-13,29	6,9426
58203	-9,0301e-002	-2,1154	-13,781	7,0147
58204	-0,50781	-2,1593	-13,817	7,0284
58205	-0,27415	-2,2235	-14,135	7,0819
58206	0,16256	-2,732	-13,306	6,9445
58207	-3,9618e-002	-2,8065	-13,683	6,9995
58208	-0,11693	-2,7983	-12,94	6,9053
58209	-0,31199	-2,8239	-13,934	7,0448
58210	-0,34332	-2,8375	-13,365	6,9494
58211	-0,48368	-2,8467	-13,668	7,003
58212	-0,63469	-2,875	-13,508	6,9833
58213	-0,63033	-2,8899	-13,154	6,935
58214	-0,77246	-2,8502	-12,522	6,8831
58215	0,17233	-2,5051	-11,911	6,8363
58216	-20,427	-1,9941	-2,5086	15,835
58217	-20,502	-2,499	-2,5158	15,924
58218	3,3049	-3,1375	-50,067	6,7676
58219	2,5567	-2,7342	-50,105	6,4522
58220	-4,835e-002	-1,9854	-38,963	25,063
58221	0,66152	-1,9634	-38,997	24,851
58222	-8,6068e-003	-1,9587	-39,604	24,985
58223	-6,0431	-2,3888	44,109	21,356
58224	-6,0892	-2,8356	44,439	20,95
58225	-5,4629	-2,535	44,549	24,315
58226	-5,4546	-2,8575	44,593	24,242
58227	-5,4066	-2,0802	48,882	15,243
58228	-9,0631	-2,0733	6,2555	8,9024
58229	-9,3384	-2,062	5,7614	9,1114
58230	-8,4455	-2,1494	6,4062	8,684
58231	-8,6641	-2,062	6,0529	8,832
58232	-8,9182	-2,0524	5,5885	9,0041
58233	-9,1004	-1,9787	5,258	9,1286
58234	-7,9404	-2,1472	6,1072	8,6176
58235	-8,0812	-2,0998	5,683	8,7418
58236	-8,308	-2,0414	5,3814	8,8628
58237	-8,3831	-2,0354	5,2319	8,9083
58238	-9,071	-2,6074	6,31	8,8948
58239	-8,2354	-2,6576	6,5787	8,5869
58240	-8,5279	-2,6808	6,2883	8,7344
58241	-8,6262	-2,6297	6,0892	8,8086
58242	-9,3074	-2,6394	5,609	9,132
58243	-8,8144	-2,6117	5,2412	9,0406
58244	-8,4825	-2,5295	5,7445	8,8429
58245	-8,1494	-2,5719	5,9214	8,713
58246	-7,9324	-2,6275	6,2936	8,5741
58247	-9,0731	-2,1281	5,0207	9,1512
58248	-3,0965	-2,216	5,198	7,909
58249	-3,2691	-2,1883	5,0827	7,9517
58250	-2,9131	-2,2575	4,9286	7,9489
58251	-3,2824	-2,1875	4,7241	8,0267
58252	-3,6764	-2,2448	4,5098	8,1116
58253	-3,1656	-2,2595	4,1311	8,1182
58254	-3,4352	-2,695	5,0228	7,9813
58255	-2,7933	-2,6737	4,5617	8,0097
58256	-3,4712	-2,7494	4,5255	8,082
58257	-3,1817	-2,7221	4,2252	8,1077
58258	-3,6596	-2,3496	4,6934	8,0741
58259	19,305	-1,9848	1,9066	14,876
58260	19,641	-2,5043	1,9824	15,067
58261	19,908	-1,9866	1,5848	14,94
58262	20,164	-1,9909	2,3742	15,772
58263	19,782	-1,509	1,973	15,131
58264	27,231	-1,8372	5,7421	18,718
58265	26,569	-1,8158	5,8828	18,821
58266	26,405	-1,8738	5,5144	20,585
58267	26,526	-1,7598	5,3303	21,655
58268	0,85198	-2,3301	14,661	7,0318
58269	0,56985	-2,3715	15,1	7,1078
58270	0,54019	-2,331	14,482	6,9937
58271	0,26359	-2,3119	14,615	7,0128
58272	8,7721e-002	-2,8444	14,715	7,0296
58273	0,16814	-2,9377	15,069	7,0959
58274	0,39197	-2,9454	14,87	7,0616
58275	0,56367	-2,9484	15,031	7,0935
58276	0,46554	-2,9182	14,546	7,004
58277	0,83056	-2,8809	14,69	7,0357
58278	9,8986	-2,2766	0,76783	9,9867
58279	9,6135	-2,2866	0,40218	9,9032
58280	9,0217	-2,3496	0,39135	9,7045
58281	9,4898	-2,2311	0,14491	9,8633
58282	9,6622	-2,8463	0,76884	9,9011
58283	9,941	-2,8437	0,31819	10,032
58284	9,321	-2,8313	0,45324	9,7988
58285	9,7129	-2,7726	0,18146	9,9414
58286	10,072	-2,5797	0,84507	10,05
58287	-7,1617	-2,2046	-4,6401	8,6919
58288	-7,5859	-2,1726	-5,0062	8,7505
58289	-6,8852	-2,2168	-5,0997	8,5567
58290	-7,3088	-2,1815	-5,4643	8,5966
58291	-6,6778	-2,623	-5,2062	8,493
58292	-7,0886	-2,6857	-5,6246	8,5134
58293	-7,2418	-2,644	-5,0627	8,6495
58294	-6,681	-2,4799	-4,908	8,5557
58295	-7,6077	-2,4048	-4,4201	8,846
58296	-20,9	-2,1136	9,7092	11,459
58297	-21,346	-2,0615	10,001	11,267
58298	-21,185	-2,0764	9,1747	11,914
58299	-21,569	-2,0701	9,1191	12,041
58300	-21,623	-2,0016	9,6331	11,582
58301	-21,804	-2,0411	9,349	11,853
58302	-20,91	-2,6429	9,6572	11,499
58303	-21,112	-2,6246	9,2581	11,832
58304	-21,429	-2,5967	9,8737	11,364
58305	-21,674	-2,6012	9,2856	11,898
58306	-20,57	-2,2903	-10,462	10,933
58307	-21,035	-2,2809	-10,678	10,792
58308	-20,785	-2,2982	-10,053	11,221
58309	-21,311	-2,2852	-10,235	11,11
58310	-20,626	-2,8033	-10,552	10,877
58311	-21,068	-2,8139	-10,761	10,734
58312	-21,268	-2,8351	-10,446	10,939
58313	-20,914	-2,8382	-10,012	11,268
58314	-21,449	-2,8947	-10,044	11,287
58315	-2,5309	-2,3303	-7,4206	7,4031
58316	-3,0456	-2,3303	-7,5901	7,4192
58317	-3,4129	-2,3118	-8,0701	7,3872
58318	-3,7262	-2,3012	-8,4366	7,3658
58319	-2,3477	-2,2621	-8,1135	7,2738
58320	-2,7369	-2,239	-8,3972	7,2535
58321	-3,0861	-2,2318	-8,6876	7,2464
58322	-3,366	-2,2546	-8,9588	7,238
58323	-2,7117	-2,7733	-7,8111	7,3516
58324	-2,5202	-2,8759	-8,2481	7,2612
58325	-3,0964	-2,7576	-8,1944	7,3264
58326	-2,8022	-2,8363	-8,4837	7,2471
58327	-3,0525	-2,9204	-8,8654	7,216
58328	-3,5994	-2,8601	-8,5057	7,3365
58329	-3,5419	-2,8417	-8,8974	7,2705
58330	-3,3195	-2,87	-9,0572	7,2166
58331	4,629	-2,2661	3,3048	8,4202
58332	4,8789	-2,2859	2,8883	8,5154
58333	4,208	-2,3173	2,8664	8,4262
58334	4,4571	-2,3353	2,5196	8,4976
58335	4,3435	-2,7051	3,3534	8,3725
58336	4,5739	-2,7122	2,9255	8,4674
58337	5,225	-2,6909	2,7193	8,6015
58338	4,7414	-2,732	2,4878	8,5428
58339	4,2759	-2,5414	2,9869	8,4176
58340	4,9851	-2,6038	2,8811	8,5344
58341	6,3243	-2,0832	43,109	20,409
58342	6,499	-2,0768	43,765	19,646
58343	6,1568	-2,5917	43,608	20,911
58344	5,999	-2,0637	43,959	21,516
58345	5,7484	-2,2102	43,813	22,866
58346	5,4714	-2,0761	43,403	23,753
58347	5,8679	-3,105	-42,809	14,648
58348	6,3405	-3,1135	-43,535	13,29
58349	5,859	-2,9315	-43,719	14,22
58350	4,9075	-3,1673	-48,789	8,585
58351	4,3692	-3,3912	-48,797	8,4824
58352	4,9808	-3,1825	-49,275	8,0403
58353	4,4424	-3,4065	-49,282	7,8806
58354	3,9272	-3,513	-49,295	7,6961
58355	4,4822	-3,3449	-49,771	7,503
58356	3,967	-3,4514	-49,783	7,2582
58357	3,9514	-3,3429	-50,152	7,0111
58358	3,6697	-3,4212	-49,913	7,1215
58359	2,9059	-2,9094	-50,32	6,3221
58360	4,4054	-2,3226	39,537	19,114
58361	4,3252	-2,323	38,788	18,136
58362	3,6106	-2,2206	38,896	18,13
58363	3,9355	-2,7831	39,246	18,728
58364	4,4184	-2,7957	39,143	18,584
58365	4,1323	-2,67	39,24	18,861
58366	4,0214	-1,6919	39,214	18,761
58367	5,0848	-2,2156	39,477	18,796
58368	5,0392	-2,244	40,208	19,7
58369	4,488	-2,7317	40,013	19,86
58370	4,9545	-2,7725	39,77	19,256
58371	4,4142	-2,6328	39,635	19,351
58372	4,6858	-1,661	39,909	19,679
58373	5,0046	-2,216	38,729	17,78
58374	4,8241	-2,2432	38,08	17,2
58375	4,1349	-2,1868	38,168	17,361
58376	4,3607	-2,7688	38,501	17,74
58377	4,8202	-2,7779	38,501	17,632
58378	4,334	-2,6332	38,886	18,373
58379	4,9086	-2,4819	38,007	17,116
58380	4,5544	-1,661	38,446	17,713
58381	5,93	-2,1099	39,299	17,808
58382	5,8199	-2,1738	38,48	17,189
58383	5,5249	-2,6765	38,986	17,905
58384	5,9262	-2,4517	38,958	17,511
58385	5,4238	-1,5966	39,056	18,09
58386	5,8843	-2,1383	40,029	18,76
58387	5,7734	-2,2036	40,798	19,697
58388	5,1508	-2,7058	40,532	20,174
58389	5,6191	-2,7232	40,263	19,312
58390	4,7661	-2,5914	39,912	19,355
58391	6,0144	-2,4855	40,574	19,048
58392	5,3931	-1,6198	40,469	19,905
58393	6,7057	-2,0945	39,153	17,011
58394	6,8199	-2,0869	39,962	17,367
58395	6,3882	-2,616	39,471	17,602
58396	6,6837	-2,6553	39,61	17,343
58397	6,5077	-2,4212	40,118	18,026
58398	6,3738	-2,4158	39,233	17,394
58399	6,3133	-1,5649	39,614	17,878
58400	3,4203	-2,0844	38,276	17,384
58401	2,74	-2,0425	38,295	17,154
58402	3,0663	-2,5874	38,713	17,725
58403	3,1208	-1,555	38,64	17,717
58404	5,3309	-2,2424	37,276	16,27
58405	4,7901	-2,1113	37,362	16,491
58406	5,6394	-2,2011	37,831	16,563
58407	4,8871	-2,758	37,856	16,952
58408	5,3523	-2,7097	37,928	16,861
58409	5,2059	-2,4389	37,653	16,675
58410	5,1854	-1,6216	37,679	16,718
58411	4,1009	-2,0548	37,45	16,663
58412	3,3979	-2,0446	37,522	16,681
58413	3,6915	-2,5938	37,97	17,151
58414	3,7765	-1,5652	37,859	17,089
58415	5,3891	-2,2356	36,583	15,659
58416	6,1241	-2,2155	37,072	15,653
58417	5,978	-2,1428	36,376	15,287
58418	5,3417	-2,8238	36,956	15,984
58419	5,7484	-2,7809	36,922	15,779
58420	5,4155	-2,4811	37,203	16,19
58421	5,7155	-1,6545	36,823	15,742
58422	4,8482	-2,1045	36,669	15,885
58423	4,0771	-2,0062	36,673	16,002
58424	4,36	-2,5709	37,115	16,352
58425	4,4625	-1,5196	37,006	16,275
58426	6,4326	-2,1742	37,627	15,988
58427	6,5957	-2,1585	38,335	16,338
58428	6,0895	-2,6998	38,072	16,568
58429	6,3739	-2,7013	38,083	16,373
58430	6,2638	-2,4797	38,415	16,741
58431	5,724	-2,4397	37,759	16,487
58432	6,1114	-1,6369	38,073	16,594
58433	5,4671	-1,9931	35,852	15,135
58434	4,7884	-2,1047	35,92	15,33
58435	5,0569	-2,6842	36,456	15,683
58436	5,1594	-1,5968	36,264	15,524
58437	6,9994	-2,0887	36,903	15,105
58438	7,1362	-2,1186	37,63	15,413
58439	6,7663	-2,7049	37,33	15,534
58440	5,9991	-2,412	37,449	16,054
58441	6,7108	-1,5892	37,345	15,606
58442	7,2993	-2,1029	38,338	15,802
58443	7,533	-2,0896	39,006	15,888
58444	7,1816	-2,6185	38,74	16,167
58445	6,702	-2,4363	38,813	16,693
58446	7,	-1,5835	38,763	16,399
58447	6,8532	-2,016	36,208	14,711
58448	6,056	-1,9003	35,646	14,759
58449	6,671	-1,9936	35,486	14,427
58450	6,3459	-2,4562	36,045	14,914
58451	6,4421	-1,5054	35,934	14,805
58452	7,5793	-2,0294	36,058	14,245
58453	7,7311	-2,0363	36,741	14,454
58454	7,2811	-2,5247	36,475	14,644
58455	7,2997	-1,5293	36,507	14,667
58456	5,9538	-1,8912	34,934	14,398
58457	5,2776	-1,8412	35,103	14,682
58458	5,3929	-2,3467	35,244	14,741
58459	5,6938	-1,4012	35,371	14,754
58460	6,5688	-1,9844	34,774	14,054
58461	6,4776	-1,9819	34,085	13,759
58462	5,8212	-1,9716	34,225	14,031
58463	5,9811	-2,4728	34,481	14,129
58464	5,843	-2,2304	33,988	13,909
58465	6,2246	-1,4897	34,516	14,076
58466	7,3971	-2,007	35,335	13,941
58467	7,191	-1,9846	34,604	13,722
58468	6,873	-2,4837	35,032	14,073
58469	6,9846	-1,4973	35,066	14,05
58470	7,8679	-2,0662	37,468	14,788
58471	8,0206	-2,0916	38,2	14,964
58472	7,6879	-2,5635	37,872	15,144
58473	7,5759	-1,5638	37,932	15,295
58474	8,2796	-2,0188	35,861	13,674
58475	8,0913	-2,0076	35,155	13,516
58476	7,8064	-2,5092	35,588	13,865
58477	7,8683	-1,5228	35,631	13,859
58478	8,4314	-2,0257	36,544	13,901
58479	8,6041	-2,0523	37,262	14,024
58480	8,1842	-2,5297	36,969	14,267
58481	8,1641	-1,5385	37,026	14,321
58482	7,0998	-1,9822	33,915	13,419
58483	7,8852	-1,9852	34,424	13,281
58484	7,7476	-1,9842	33,732	13,086
58485	7,3572	-2,4567	34,141	13,424
58486	7,498	-1,4896	34,174	13,385
58487	8,9648	-2,0143	35,662	13,18
58488	9,1399	-2,0246	36,361	13,271
58489	8,6684	-2,4804	36,053	13,515
58490	8,6984	-1,5124	36,111	13,527
58491	6,9797	-1,9755	33,215	13,177
58492	6,3408	-1,9692	33,373	13,444
58493	6,5394	-2,456	33,619	13,503
58494	6,1095	-2,2296	33,569	13,601
58495	6,7433	-1,4865	33,661	13,463
58496	8,7766	-2,003	34,956	13,008
58497	8,5991	-1,9916	34,251	12,878
58498	8,2531	-2,4614	34,659	13,209
58499	8,3432	-1,4944	34,698	13,184
58500	7,6275	-1,9776	33,032	12,837
58501	8,4614	-1,9906	33,559	12,673
58502	8,2776	-1,9814	32,861	12,529
58503	7,928	-2,4704	33,272	12,82
58504	8,0412	-1,4904	33,304	12,792
58505	9,4854	-2,0097	34,777	12,558
58506	9,6716	-2,0186	35,469	12,626
58507	9,1836	-2,4857	35,185	12,864
58508	9,2335	-1,5129	35,226	12,854
58509	7,4483	-1,9676	32,326	12,652
58510	6,8154	-1,9614	32,487	12,91
58511	7,0768	-2,4717	32,74	12,937
58512	7,2191	-1,478	32,764	12,906
58513	8,0985	-1,9715	32,155	12,337
58514	7,9097	-1,9645	31,453	12,183
58515	7,2782	-1,9587	31,613	12,429
58516	7,5789	-2,4757	31,865	12,433
58517	7,6838	-1,4751	31,891	12,414
58518	9,3079	-1,9983	34,072	12,416
58519	9,1223	-1,9907	33,377	12,317
58520	8,8006	-2,4755	33,788	12,603
58521	8,8828	-1,4982	33,821	12,58
58522	8,9386	-1,9816	32,679	12,165
58523	8,7437	-1,9759	31,985	12,05
58524	8,4283	-2,4764	32,398	12,302
58525	8,5167	-1,4842	32,424	12,282
58526	9,9709	-1,9951	33,884	12,025
58527	10,163	-2,001	34,57	12,076
58528	9,6758	-2,4821	34,301	12,297
58529	9,7313	-1,5017	34,33	12,28
58530	8,5549	-1,969	31,283	11,89
58531	8,3655	-1,9638	30,585	11,756
58532	7,7308	-1,9577	30,746	11,99
58533	8,064	-2,4812	30,993	11,976
58534	8,1402	-1,4736	31,02	11,967
58535	9,7853	-1,9875	33,189	11,916
58536	9,5928	-1,9834	32,5	11,838
58537	9,294	-2,4788	32,915	12,088
58538	9,3617	-1,49	32,939	12,069
58539	9,3979	-1,9778	31,805	11,716
58540	9,2036	-1,974	31,111	11,618
58541	8,9114	-2,4827	31,525	11,841
58542	8,9732	-1,4813	31,549	11,831
58543	10,444	-1,9874	33,001	11,557
58544	10,636	-1,9904	33,688	11,598
58545	10,166	-2,4824	33,424	11,796
58546	10,208	-1,4929	33,444	11,784
58547	10,252	-1,9832	32,312	11,471
58548	10,055	-1,9808	31,624	11,409
58549	9,7726	-2,4843	32,044	11,631
58550	9,8246	-1,4864	32,064	11,619
58551	9,0142	-1,9688	30,413	11,48
58552	9,861	-1,977	30,929	11,305
58553	9,6674	-1,9745	30,24	11,222
58554	9,3868	-2,4888	30,653	11,424
58555	9,4371	-1,4809	30,675	11,417
58556	10,909	-1,9849	32,121	11,137
58557	11,107	-1,9867	32,81	11,166
58558	10,643	-2,4855	32,548	11,35
58559	10,68	-1,4893	32,562	11,34
58560	8,8256	-1,9651	29,718	11,363
58561	8,1861	-1,9583	29,88	11,585
58562	8,5375	-2,4869	30,129	11,563
58563	8,5954	-1,4737	30,152	11,558
58564	10,712	-1,9825	31,433	11,068
58565	10,517	-1,9805	30,747	11,018
58566	10,244	-2,4894	31,168	11,218
58567	10,288	-1,4855	31,185	11,209
58568	10,323	-1,978	30,058	10,931
58569	9,4787	-1,9708	29,545	11,102
58570	10,137	-1,9765	29,368	10,857
58571	9,8521	-2,4925	29,791	11,047
58572	9,9009	-1,482	29,807	11,039
58573	11,373	-1,9847	31,246	10,754
58574	11,571	-1,9863	31,932	10,774
58575	11,107	-2,4892	31,674	10,951
58576	11,139	-1,4887	31,682	10,942
58577	11,178	-1,9828	30,56	10,699
58578	10,973	-1,9869	29,87	10,662
58579	10,711	-2,4921	30,301	10,844
58580	10,751	-1,4859	30,309	10,835
58581	9,2916	-1,9683	28,851	10,998
58582	8,6422	-1,9609	29,016	11,21
58583	9,0049	-2,4913	29,268	11,185
58584	9,0604	-1,4757	29,285	11,179
58585	11,835	-1,9889	30,371	10,403
58586	12,041	-1,9867	31,059	10,411
58587	11,58	-2,4911	30,804	10,581
58588	11,608	-1,4889	30,81	10,574
58589	9,9496	-1,9739	28,673	10,75
58590	10,786	-1,9854	29,18	10,585
58591	10,606	-1,9781	28,492	10,521
58592	10,326	-2,4942	28,919	10,695
58593	10,375	-1,4837	28,93	10,686
58594	9,7555	-1,9712	27,981	10,661
58595	9,1051	-1,965	28,151	10,861
58596	9,4717	-2,4937	28,404	10,835
58597	9,5272	-1,4783	28,418	10,828
58598	11,631	-1,993	29,681	10,362
58599	11,447	-1,988	28,996	10,328
58600	11,17	-2,4989	29,425	10,501
58601	11,211	-1,4924	29,432	10,493
58602	11,069	-1,9785	27,621	10,215
58603	10,412	-1,9754	27,8	10,429
58604	11,267	-1,9807	28,309	10,262
58605	10,798	-2,4946	28,054	10,373
58606	10,839	-1,4842	28,056	10,366
58607	10,875	-1,9757	26,932	10,134
58608	11,73	-1,9807	27,44	9,9708
58609	11,532	-1,9787	26,754	9,9339
58610	11,262	-2,4947	27,184	10,079
58611	11,3	-1,4842	27,188	10,074
58612	12,305	-1,9894	29,498	10,077
58613	12,505	-1,9908	30,182	10,077
58614	12,043	-2,4958	29,931	10,244
58615	12,073	-1,4932	29,934	10,237
58616	10,218	-1,9725	27,111	10,35
58617	9,5634	-1,9681	27,283	10,538
58618	9,9357	-2,4943	27,541	10,512
58619	9,9872	-1,4796	27,545	10,505
58620	11,928	-1,9829	28,127	10,02
58621	12,121	-1,9844	28,813	10,04
58622	11,657	-2,4941	28,56	10,178
58623	11,696	-1,4874	28,562	10,17
58624	10,681	-1,9735	26,244	10,065
58625	10,026	-1,9697	26,42	10,24
58626	10,404	-2,4943	26,672	10,212
58627	10,453	-1,4801	26,677	10,207
58628	12,596	-1,9846	27,943	9,7483
58629	12,396	-1,9834	27,255	9,7412
58630	12,128	-2,4948	27,69	9,8863
58631	12,163	-1,4875	27,693	9,8799
58632	12,788	-1,986	28,628	9,7707
58633	12,982	-1,9872	29,31	9,7633
58634	12,522	-2,4929	29,06	9,927
58635	12,548	-1,4896	29,063	9,9221
58636	12,197	-1,9813	26,569	9,7029
58637	11,338	-1,9765	26,066	9,8641
58638	12,	-1,9798	25,884	9,6758
58639	11,733	-2,4953	26,319	9,8085
58640	11,766	-1,4846	26,32	9,8047
58641	13,258	-1,9863	27,754	9,4935
58642	13,459	-1,9873	28,436	9,4731
58643	13,001	-2,4936	28,189	9,6349
58644	13,031	-1,4898	28,192	9,6285
58645	13,058	-1,9851	27,067	9,4846
58646	12,854	-1,9894	26,382	9,4893
58647	12,598	-2,4957	26,818	9,6182
58648	12,631	-1,4881	26,818	9,6126
58649	11,133	-1,9841	25,377	9,8071
58650	10,49	-1,9718	25,556	9,9655
58651	10,874	-2,4946	25,812	9,9386
58652	10,913	-1,4811	25,811	9,9346
58653	13,727	-1,9868	26,879	9,2397
58654	13,922	-1,9876	27,56	9,21
58655	13,461	-2,494	27,314	9,3727
58656	13,487	-1,49	27,316	9,368
58657	12,657	-1,9878	25,697	9,4614
58658	11,796	-1,9874	25,195	9,6183
58659	12,469	-1,9814	25,013	9,442
58660	12,201	-2,4964	25,447	9,5616
58661	12,237	-1,4858	25,448	9,5578
58662	13,523	-1,991	26,195	9,2432
58663	13,322	-1,9901	25,511	9,2583
58664	13,053	-2,5014	25,947	9,379
58665	13,086	-1,4938	25,948	9,374
58666	11,599	-1,9863	24,509	9,5701
58667	10,942	-1,9831	24,688	9,7166
58668	11,33	-2,5044	24,943	9,6907
58669	11,366	-1,4915	24,945	9,6886
58670	14,197	-1,9872	26,005	9,0085
58671	14,394	-1,991	26,686	8,9666
58672	13,939	-2,4943	26,442	9,127
58673	13,968	-1,4905	26,443	9,1214
58674	13,997	-1,9862	25,321	9,0229
58675	13,134	-1,9837	24,827	9,2387
58676	13,804	-1,9855	24,641	9,0475
58677	13,54	-2,4967	25,077	9,1542
58678	13,568	-1,4891	25,075	9,151
58679	14,667	-1,9871	25,13	8,8008
58680	14,863	-1,9882	25,81	8,7456
58681	14,406	-2,4946	25,567	8,9083
58682	14,427	-1,4905	25,567	8,9059
58683	12,94	-1,983	24,145	9,2331
58684	12,272	-1,9804	24,327	9,394
58685	12,673	-2,4974	24,58	9,3397
58686	12,702	-1,487	24,578	9,3377
58687	13,409	-1,9841	23,274	9,0502
58688	13,61	-1,9847	23,959	9,0422
58689	12,743	-1,9821	23,462	9,1966
58690	13,157	-2,4919	23,712	9,1401
58691	13,179	-1,488	23,713	9,1406
58692	14,066	-1,9897	23,083	8,876
58693	13,2	-1,9891	22,59	9,0279
58694	13,875	-1,9843	22,402	8,8949
58695	13,614	-2,4985	22,841	8,9728
58696	13,64	-1,4883	22,836	8,9727
58697	14,474	-1,9864	24,449	8,8253
58698	14,268	-1,9903	23,768	8,8671
58699	14,023	-2,4921	24,205	8,9552
58700	14,042	-1,4893	24,206	8,9554
58701	12,076	-1,9794	23,644	9,3567
58702	11,414	-1,9762	23,822	9,4888
58703	11,811	-2,4968	24,08	9,4634
58704	11,845	-1,4843	24,076	9,4618
58705	15,137	-1,9871	24,255	8,6171
58706	15,335	-1,9914	24,936	8,5477
58707	14,883	-2,4949	24,694	8,7096
58708	14,907	-1,4905	24,694	8,7068
58709	12,534	-1,9872	22,777	9,1729
58710	11,875	-1,978	22,958	9,2892
58711	12,276	-2,4979	23,213	9,2648
58712	12,309	-1,4856	23,211	9,2642
58713	14,931	-1,9911	23,574	8,6592
58714	14,728	-1,9954	22,894	8,7138
58715	14,477	-2,5016	23,334	8,7903
58716	14,499	-1,4941	23,329	8,7897
58717	13,003	-1,9879	21,909	9,0151
58718	12,335	-1,9854	22,091	9,1168
58719	12,735	-2,5048	22,35	9,0941
58720	12,769	-1,4926	22,342	9,0937
58721	13,679	-1,9831	21,722	8,884
58722	14,342	-1,9845	21,53	8,7685
58723	14,536	-1,9901	22,213	8,7341
58724	14,094	-2,4923	21,971	8,8286
58725	14,112	-1,4884	21,969	8,8309
58726	13,476	-1,9821	21,039	8,8864
58727	12,816	-1,98	21,227	8,9709
58728	13,228	-2,4908	21,478	8,9466
58729	13,247	-1,4866	21,476	8,9495
58730	15,607	-1,9873	23,38	8,4589
58731	15,805	-1,988	24,059	8,3738
58732	15,351	-2,4953	23,82	8,539
58733	15,368	-1,4905	23,818	8,5389
58734	14,139	-1,9834	20,847	8,7733
58735	15,008	-1,9855	21,336	8,6206
58736	14,802	-1,9898	20,659	8,6739
58737	14,554	-2,4984	21,1	8,7184
58738	14,573	-1,4885	21,092	8,7208
58739	15,203	-1,9911	22,02	8,5843
58740	15,404	-1,9916	22,7	8,5144
58741	14,945	-2,502	22,463	8,6482
58742	14,968	-1,4948	22,456	8,6481
58743	13,941	-1,9825	20,168	8,7907
58744	13,266	-1,9886	20,357	8,859
58745	13,692	-2,491	20,607	8,8344
58746	13,706	-1,4869	20,602	8,8385
58747	15,68	-1,9866	21,145	8,4843
58748	15,877	-1,9872	21,824	8,3982
58749	15,426	-2,4974	21,588	8,5313
58750	15,445	-1,4899	21,581	8,5331
58751	14,604	-1,9889	19,981	8,6943
58752	15,473	-1,991	20,468	8,5399
58753	15,27	-1,9901	19,787	8,6111
58754	15,016	-2,5037	20,236	8,639
58755	15,039	-1,4939	20,225	8,6417
58756	14,406	-1,9826	19,299	8,7295
58757	13,741	-1,9809	19,488	8,7787
58758	14,161	-2,492	19,741	8,7548
58759	14,177	-1,4871	19,735	8,7594
58760	16,145	-1,987	20,273	8,4188
58761	16,35	-1,9877	20,951	8,3114
58762	15,903	-2,4935	20,714	8,4466
58763	15,915	-1,4902	20,709	8,4505
58764	16,077	-1,9877	22,505	8,3269
58765	16,28	-1,9883	23,184	8,2238
58766	15,834	-2,4929	22,945	8,3892
58767	15,846	-1,4907	22,943	8,3912
58768	15,072	-1,9839	19,105	8,6497
58769	15,941	-1,9862	19,592	8,4927
58770	15,738	-1,9912	18,918	8,5836
58771	15,494	-2,499	19,36	8,5914
58772	15,509	-1,489	19,348	8,5965
58773	16,548	-1,9883	21,63	8,2235
58774	16,747	-1,9888	22,308	8,1029
58775	16,297	-2,4966	22,073	8,2733
58776	16,309	-1,4911	22,068	8,2757
58777	14,865	-1,9899	18,434	8,7055
58778	14,195	-1,9908	18,623	8,7361
58779	14,625	-2,4931	18,872	8,7114
58780	14,636	-1,4871	18,863	8,7172
58781	16,608	-1,9928	19,403	8,3872
58782	16,813	-1,9882	20,077	8,2597
58783	16,366	-2,4986	19,846	8,3977
58784	16,375	-1,4906	19,837	8,4032
58785	16,405	-1,9979	18,729	8,4809
58786	15,53	-1,9973	18,247	8,6428
58787	16,205	-1,99	18,047	8,5947
58788	15,958	-2,5055	18,501	8,582
58789	15,971	-1,4954	18,484	8,5887
58790	17,018	-1,9889	20,755	8,1502
58791	17,221	-1,9894	21,432	8,0083
58792	16,778	-2,4937	21,196	8,1812
58793	16,786	-1,4916	21,192	8,1853
58794	17,28	-1,9986	19,21	8,2401
58795	17,078	-1,9924	18,53	8,3913
58796	16,836	-2,5048	18,98	8,3817
58797	16,845	-1,4965	18,966	8,3884
58798	17,485	-1,994	19,883	8,1104
58799	17,69	-1,9901	20,557	7,9462
58800	17,243	-2,4986	20,326	8,125
58801	17,253	-1,4923	20,318	8,1299
58802	15,332	-1,9882	17,565	8,7206
58803	14,656	-1,9983	17,763	8,7314
58804	15,088	-2,5001	18,011	8,7057
58805	15,098	-1,4949	18,	8,7125
58806	17,956	-1,9944	19,009	8,1049
58807	18,157	-1,999	19,687	7,9164
58808	17,714	-2,5041	19,456	8,1001
58809	17,721	-1,4972	19,446	8,1069
58810	17,753	-1,9882	18,33	8,2586
58811	16,879	-1,9846	17,848	8,5084
58812	17,551	-1,9851	17,652	8,4355
58813	17,311	-2,4934	18,099	8,4045
58814	17,316	-1,4906	18,09	8,4128
58815	18,428	-1,9941	18,135	8,1368
58816	18,632	-1,9909	18,807	7,9218
58817	18,19	-2,4957	18,576	8,1124
58818	18,194	-1,4927	18,568	8,1205
58819	16,007	-1,981	17,365	8,6765
58820	16,678	-1,9809	17,169	8,6471
58821	16,438	-2,491	17,617	8,6122
58822	16,444	-1,4876	17,606	8,6203
58823	17,351	-1,9815	16,974	8,5777
58824	18,226	-1,991	17,458	8,3163
58825	18,021	-1,9814	16,779	8,5228
58826	17,785	-2,4921	17,225	8,4685
58827	17,789	-1,4884	17,214	8,4783
58828	15,799	-1,9866	16,699	8,7777
58829	15,132	-1,9776	16,884	8,7692
58830	15,561	-2,491	17,138	8,7411
58831	15,571	-1,4848	17,126	8,7492
58832	16,47	-1,9866	16,504	8,7525
58833	17,143	-1,9766	16,303	8,7438
58834	16,907	-2,4894	16,749	8,6852
58835	16,913	-1,4849	16,736	8,6951
58836	18,899	-1,9966	17,265	8,2097
58837	19,103	-1,9948	17,936	7,9656
58838	18,661	-2,5054	17,712	8,1624
58839	18,664	-1,4965	17,699	8,173
58840	16,26	-1,9825	15,836	8,8806
58841	15,589	-1,9952	16,035	8,8494
58842	16,025	-2,4975	16,282	8,8193
58843	16,03	-1,4919	16,269	8,8288
58844	16,933	-1,9726	15,634	8,8763
58845	16,728	-1,9672	14,972	9,0322
58846	16,055	-1,9706	15,161	8,9803
58847	16,49	-2,496	15,422	8,9446
58848	16,495	-1,4792	15,4	8,9569
58849	17,812	-1,9765	16,108	8,6923
58850	17,608	-1,9703	15,443	8,8862
58851	17,372	-2,4953	15,894	8,802
58852	17,373	-1,4812	15,873	8,8152
58853	17,404	-1,9649	14,781	9,0462
58854	17,201	-1,9577	14,127	9,2308
58855	16,523	-1,9632	14,309	9,1582
58856	16,962	-2,4935	14,567	9,1188
58857	16,963	-1,4732	14,548	9,1322
58858	18,693	-1,987	16,587	8,4188
58859	18,487	-1,9755	15,912	8,6558
58860	18,253	-2,4966	16,362	8,5762
58861	18,253	-1,4849	16,347	8,5888
58862	18,283	-1,9692	15,247	8,8532
58863	18,08	-1,9617	14,588	9,0774
58864	17,845	-2,4916	15,034	8,9675
58865	17,844	-1,4757	15,018	8,9814
58866	19,369	-1,987	16,385	8,3311
58867	19,574	-1,9965	17,065	8,0514
58868	19,134	-2,5043	16,84	8,2565
58869	19,134	-1,4944	16,825	8,2695
58870	19,163	-1,9755	15,71	8,571
58871	18,96	-1,9675	15,051	8,8363
58872	18,724	-2,4844	15,49	8,7333
58873	18,722	-1,48	15,481	8,746
58874	17,878	-1,9545	13,935	9,2663
58875	18,757	-1,96	14,392	9,0641
58876	18,56	-1,952	13,745	9,3194
58877	18,315	-2,4871	14,168	9,1884
58878	18,317	-1,4687	14,164	9,1995
58879	19,84	-1,9749	15,511	8,5004
58880	20,045	-1,9823	16,18	8,1888
58881	19,605	-2,4889	15,954	8,403
58882	19,605	-1,4851	15,943	8,4166
58883	17,681	-1,9454	13,294	9,4805
58884	16,998	-1,9513	13,473	9,3852
58885	17,433	-2,4885	13,714	9,3451
58886	17,438	-1,465	13,712	9,3559
58887	19,636	-1,9669	14,853	8,7685
58888	19,435	-1,9584	14,198	9,0682
58889	19,198	-2,4881	14,632	8,939
58890	19,198	-1,4733	14,626	8,9514
58891	19,237	-1,9504	13,55	9,3271
58892	18,363	-1,9429	13,104	9,5378
58893	19,047	-1,9417	12,908	9,6173
58894	18,794	-2,4817	13,319	9,4608
58895	18,802	-1,4612	13,331	9,4667
58896	20,311	-1,9667	14,65	8,7202
58897	20,517	-1,9806	15,319	8,3687
58898	20,079	-2,4924	15,096	8,5924
58899	20,077	-1,4787	15,085	8,6075
58900	20,11	-1,9581	13,996	9,0228
58901	19,914	-1,9494	13,348	9,3585
58902	19,673	-2,4716	13,772	9,2022
58903	19,673	-1,4664	13,776	9,2115
58904	18,172	-1,9329	12,465	9,7871
58905	17,483	-1,9337	12,652	9,6637
58906	17,915	-2,482	12,866	9,6278
58907	17,924	-1,4555	12,883	9,6331
58908	20,786	-1,9583	13,793	8,9975
58909	20,989	-1,9672	14,45	8,61
58910	20,55	-2,4775	14,224	8,8449
58911	20,548	-1,473	14,221	8,8579
58912	19,723	-1,9407	12,706	9,6529
58913	20,59	-1,9496	13,146	9,3364
58914	20,397	-1,9407	12,498	9,7162
58915	20,146	-2,4763	12,911	9,5311
58916	20,156	-1,4598	12,926	9,5341
58917	18,856	-1,9316	12,269	9,8712
58918	19,539	-1,9319	12,069	9,9821
58919	19,277	-2,4749	12,461	9,7999
58920	19,292	-1,4535	12,492	9,7975
58921	21,265	-1,9501	12,944	9,3393
58922	21,463	-1,959	13,594	8,909
58923	21,025	-2,4815	13,364	9,1564
58924	21,026	-1,4668	13,371	9,1642
58925	18,677	-1,9213	11,638	10,156
58926	17,99	-1,9172	11,837	10,001
58927	18,402	-2,4752	12,016	9,9739
58928	18,422	-1,4465	12,054	9,9707
58929	20,212	-1,9319	11,861	10,05
58930	21,071	-1,9413	12,295	9,7227
58931	20,883	-1,933	11,649	10,153
58932	20,622	-2,4677	12,042	9,9377
58933	20,64	-1,4535	12,075	9,9293
58934	19,359	-1,9216	11,438	10,273
58935	20,037	-1,9242	11,228	10,423
58936	19,759	-2,4664	11,597	10,216
58937	19,788	-1,4466	11,653	10,198
58938	21,745	-1,9418	12,092	9,7617
58939	21,939	-1,9505	12,739	9,2814
58940	21,499	-2,4736	12,498	9,5467
58941	21,505	-1,4606	12,522	9,5434
58942	19,19	-1,9134	10,808	10,603
58943	18,511	-1,9084	11,023	10,404
58944	18,896	-2,4678	11,16	10,392
58945	18,934	-1,4383	11,229	10,375
58946	20,708	-1,9253	11,015	10,531
58947	21,557	-1,9335	11,446	10,196
58948	21,366	-1,9487	10,775	10,702
58949	21,096	-2,459	11,161	10,443
58950	21,128	-1,4481	11,228	10,409
58951	19,868	-1,9161	10,598	10,76
58952	20,533	-1,9155	10,37	10,97
58953	20,251	-2,452	10,749	10,704
58954	20,29	-1,4417	10,808	10,683
58955	22,225	-1,9337	11,239	10,283
58956	22,416	-1,9416	11,886	9,7401
58957	21,971	-2,465	11,625	10,032
58958	21,987	-1,4542	11,669	10,011
58959	19,63	-1,8861	9,983	11,118
58960	18,987	-1,9377	10,164	10,897
58961	19,385	-2,4641	10,286	10,907
58962	19,449	-1,4342	10,393	10,866
58963	21,857	-1,9447	9,9255	11,36
58964	22,034	-1,9489	10,569	10,795
58965	21,191	-1,9389	10,13	11,15
58966	21,56	-2,4873	10,263	11,07
58967	21,615	-1,4662	10,354	11,012
58968	22,53	-1,922	9,7518	11,489
58969	22,346	-1,9489	9,0599	12,215
58970	21,703	-1,9256	9,3138	11,855
58971	22,096	-2,4563	9,4495	11,783
58972	22,109	-1,4415	9,5273	11,721
58973	22,707	-1,9262	10,395	10,92
58974	22,893	-1,9329	11,035	10,305
58975	22,437	-2,4615	10,742	10,64
58976	22,467	-1,4487	10,817	10,585
58977	20,295	-1,8856	9,7546	11,337
58978	21,037	-1,9199	9,5178	11,638
58979	20,728	-2,4876	9,841	11,349
58980	20,779	-1,4344	9,9462	11,288
58981	23,189	-1,9182	9,5601	11,711
58982	23,376	-1,9245	10,198	10,993
58983	22,909	-2,4702	9,863	11,39
58984	22,95	-1,4426	9,9797	11,283
58985	20,129	-1,8777	9,1299	11,766
58986	19,398	-1,8568	9,3862	11,412
58987	19,739	-2,4807	9,4657	11,45
58988	19,874	-1,4079	9,5629	11,426
58989	23,005	-1,945	8,8681	12,441
58990	22,825	-1,9365	8,2241	13,274
58991	22,17	-1,95	8,4166	12,825
58992	22,557	-2,529	8,4776	12,869
58993	22,584	-1,468	8,6383	12,691
58994	23,674	-1,9048	8,7412	12,702
58995	23,856	-1,9146	9,3666	11,851
58996	23,397	-2,476	9,0026	12,329
58997	23,426	-1,436	9,1453	12,161
58998	20,872	-1,912	8,8931	12,077
58999	21,527	-1,9268	8,6705	12,451
59000	21,336	-2,4624	8,9952	12,105
59001	21,287	-1,4453	9,1015	12,014
59002	23,493	-1,8964	8,0972	13,528
59003	24,159	-1,9214	7,8622	14,125
59004	24,344	-1,8994	8,5533	12,919
59005	23,88	-2,4717	8,1547	13,542
59006	23,918	-1,4236	8,3443	13,244
59007	20,677	-1,9096	8,2563	12,588
59008	20,019	-1,9054	8,498	12,171
59009	20,559	-2,4966	8,5678	12,287
59010	20,446	-1,4267	8,687	12,17
59011	23,341	-1,9131	7,4949	14,554
59012	22,652	-1,9027	7,6063	13,996
59013	23,048	-2,4927	7,6776	14,093
59014	23,061	-1,4245	7,86	13,809
59015	21,332	-1,9244	8,0337	12,975
59016	21,998	-1,9162	7,7987	13,542
59017	21,772	-2,4693	8,143	13,03
59018	21,752	-1,443	8,2423	12,927
59019	24,724	-1,8975	7,0729	15,8
59020	24,007	-1,9381	7,2599	15,148
59021	24,83	-1,9171	7,6674	14,448
59022	24,336	-2,496	7,225	15,33
59023	24,412	-1,4431	7,4625	14,83
59024	24,616	-1,8208	6,6116	16,873
59025	25,41	-1,8666	6,9499	16,052
59026	24,908	-1,9693	6,3521	17,94
59027	25,004	-1,3961	6,7555	16,57
59028	23,899	-1,8614	6,7986	16,245
59029	23,188	-1,9109	6,7362	15,748
59030	23,563	-2,4725	6,9517	15,64
59031	23,415	-2,248	6,5343	16,538
59032	23,614	-1,4345	7,1201	15,313
59033	23,844	-1,7898	6,3147	17,33
59034	23,698	-2,18	6,198	17,52
59035	24,474	-1,942	6,2027	18,275
59036	24,154	-1,3643	6,427	17,229
59037	21,134	-1,9327	7,3892	13,594
59038	20,483	-1,9241	7,6365	13,009
59039	20,995	-2,53	7,6724	13,229
59040	20,909	-1,4449	7,8248	13,053
59041	23,133	-1,8392	6,2523	16,897
59042	23,361	-2,1764	6,0504	17,723
59043	24,137	-1,9383	6,0551	18,395
59044	23,555	-1,3621	6,1302	17,626
59045	21,799	-1,9246	7,1542	14,179
59046	22,499	-1,9005	6,8476	15,214
59047	22,236	-2,5183	7,1806	14,446
59048	22,231	-1,4351	7,3598	14,18
59049	21,552	-1,9407	6,4966	14,923
59050	20,917	-1,9412	6,7536	14,073
59051	21,435	-2,5406	6,7826	14,435
59052	21,359	-1,4563	6,947	14,19
59053	22,251	-1,9166	6,1901	15,994
59054	22,738	-2,5057	6,2428	16,494
59055	22,987	-2,2295	6,1356	17,12
59056	22,785	-1,4208	6,363	16,262
59057	21,314	-1,9787	5,7818	15,528
59058	21,757	-2,4871	5,9464	15,886
59059	21,733	-1,4581	6,0385	15,713
59060	20,678	-1,9792	6,0387	14,627
59061	20,46	-2,0186	5,3384	15,054
59062	20,91	-2,5273	5,4886	15,429
59063	20,87	-1,5025	5,5571	15,306
59064	20,265	-1,9326	7,0009	13,461
59065	20,035	-1,9412	6,3699	13,824
59066	20,574	-2,5392	6,4318	14,168
59067	20,474	-1,458	6,5515	13,992
59068	19,817	-1,9806	5,6696	14,179
59069	19,57	-1,9923	5,0289	14,423
59070	20,119	-2,5654	5,1088	14,873
59071	20,009	-1,5059	5,1844	14,714
59072	19,825	-1,9199	7,8782	12,574
59073	19,621	-1,9223	7,2583	12,911
59074	20,215	-2,5271	7,3428	13,148
59075	20,06	-1,4437	7,4417	13,005
59076	19,391	-1,9308	6,6272	13,244
59077	19,159	-1,9388	6,0056	13,511
59078	19,728	-2,5274	6,0927	13,835
59079	19,601	-1,4569	6,1775	13,7
59080	19,288	-1,8845	8,7544	11,801
59081	19,169	-1,8784	8,1328	12,145
59082	19,764	-2,5234	8,2412	12,294
59083	19,595	-1,4368	8,3074	12,2
59084	18,964	-1,8807	7,5128	12,461
59085	18,746	-1,92	6,8951	12,731
59086	19,358	-2,5148	7,0089	12,974
59087	19,186	-1,4421	7,0673	12,863
59088	18,756	-1,9085	9,5668	11,184
59089	18,614	-1,8132	9,0245	11,429
59090	18,906	-2,4791	9,1108	11,467
59091	19,054	-1,4026	9,1788	11,485
59092	18,495	-1,8071	8,4029	11,755
59093	18,287	-1,8785	7,7686	12,026
59094	18,976	-2,4614	7,9156	12,222
59095	18,737	-1,3962	7,9452	12,125
59096	18,308	-1,9327	10,378	10,69
59097	18,102	-1,9483	9,7549	10,934
59098	18,478	-2,5006	9,8484	10,98
59099	18,574	-1,4578	9,9686	10,952
59100	17,961	-1,853	9,2126	11,172
59101	17,837	-1,8385	8,6515	11,406
59102	18,094	-2,412	8,7536	11,438
59103	17,726	-2,0592	8,8279	11,283
59104	18,261	-1,3612	8,8186	11,471
59105	17,67	-1,8873	10,624	10,451
59106	17,824	-1,9043	11,221	10,243
59107	18,038	-2,4685	10,738	10,478
59108	18,092	-1,4271	10,824	10,461
59109	17,464	-1,9028	10,001	10,685
59110	17,287	-1,9022	9,4073	10,886
59111	17,574	-2,4849	9,4591	10,953
59112	17,442	-2,1383	9,189	11,024
59113	17,733	-1,4375	9,5956	10,944
59114	16,97	-1,9238	10,8	10,257
59115	16,811	-1,9024	10,215	10,43
59116	17,181	-2,4637	10,333	10,48
59117	17,255	-1,4073	10,433	10,469
59118	17,125	-1,9409	11,398	10,054
59119	17,3	-1,9181	12,024	9,8729
59120	17,539	-2,4722	11,578	10,061
59121	17,561	-1,4333	11,629	10,056
59122	16,29	-1,9589	10,947	10,051
59123	16,433	-1,9818	11,57	9,8904
59124	16,671	-2,5134	11,135	10,077
59125	16,693	-1,4615	11,19	10,072
59126	16,13	-1,9374	10,361	10,22
59127	15,66	-1,8801	10,529	10,035
59128	15,623	-1,9717	11,105	9,8625
59129	15,834	-2,4955	10,726	10,026
59130	15,537	-2,2127	10,785	9,9324
59131	15,859	-1,4418	10,781	10,025
59132	16,634	-1,9018	9,6208	10,624
59133	16,	-1,91	9,8676	10,347
59134	16,32	-2,4654	9,9596	10,411
59135	16,132	-2,1334	9,6568	10,453
59136	16,422	-1,4314	10,026	10,425
59137	15,529	-1,8527	10,035	10,157
59138	14,916	-1,8069	10,543	9,8393
59139	15,216	-2,458	10,247	10,002
59140	15,308	-2,1493	10,592	9,9271
59141	15,416	-1,3831	10,355	10,036
59142	17,163	-1,8877	8,8462	11,113
59143	16,52	-1,8707	9,0954	10,79
59144	16,736	-2,4263	9,1355	10,844
59145	16,394	-2,1039	9,2768	10,68
59146	17,051	-2,1084	9,0226	10,993
59147	16,916	-1,4098	9,2472	10,868
59148	15,886	-1,8789	9,3422	10,504
59149	15,264	-1,8995	9,6032	10,215
59150	15,415	-2,4155	9,6453	10,249
59151	15,76	-2,112	9,5236	10,398
59152	15,637	-1,417	9,754	10,296
59153	17,629	-1,9099	8,0172	11,661
59154	17,062	-1,9251	8,2679	11,327
59155	17,687	-2,4767	8,5537	11,418
59156	17,318	-2,1238	8,6279	11,264
59157	17,423	-1,4276	8,4397	11,399
59158	16,419	-1,9081	8,517	10,992
59159	15,756	-1,9068	8,781	10,656
59160	16,36	-2,4247	8,99	10,786
59161	16,018	-2,1023	9,1313	10,621
59162	16,675	-2,1068	8,8771	10,936
59163	16,123	-1,4127	8,9406	10,741
59164	18,068	-1,9177	7,1509	12,277
59165	17,48	-1,9534	7,4114	11,889
59166	18,025	-2,4664	7,5433	12,058
59167	17,849	-1,4384	7,5812	11,977
59168	16,913	-1,9686	7,6621	11,539
59169	16,253	-1,9665	7,9282	11,161
59170	16,784	-2,4824	8,0896	11,305
59171	16,95	-2,1457	8,4443	11,196
59172	16,627	-1,4541	8,088	11,259
59173	18,514	-1,928	6,2735	12,968
59174	17,923	-1,9601	6,5387	12,524
59175	18,488	-2,5044	6,6737	12,741
59176	18,31	-1,4403	6,7151	12,645
59177	17,334	-1,9957	6,7992	12,116
59178	16,68	-1,9909	7,0791	11,695
59179	17,204	-2,4996	7,2366	11,861
59180	17,069	-1,4793	7,2421	11,814
59181	18,913	-1,9506	5,3649	13,698
59182	18,314	-1,968	5,6503	13,195
59183	18,868	-2,5164	5,7637	13,475
59184	18,724	-1,4547	5,8226	13,368
59185	17,722	-2,0001	5,9155	12,724
59186	17,08	-1,9986	6,207	12,267
59187	17,59	-2,5081	6,352	12,458
59188	17,485	-1,4903	6,3683	12,415
59189	18,652	-1,9564	4,7467	13,86
59190	19,276	-1,988	4,3788	14,42
59191	19,223	-2,528	4,8327	14,224
59192	19,111	-1,4757	4,8944	14,119
59193	18,053	-1,9739	5,0321	13,319
59194	17,446	-1,9951	5,3295	12,848
59195	18,017	-2,5464	5,4418	13,126
59196	17,87	-1,4837	5,4847	13,039
59197	17,734	-1,9409	4,452	13,386
59198	18,381	-1,9596	4,1235	13,882
59199	18,268	-2,4866	4,5633	13,678
59200	18,205	-1,464	4,5878	13,645
59201	19,005	-1,9912	3,7556	14,504
59202	19,498	-2,518	3,8302	14,873
59203	19,446	-1,5052	3,8795	14,829
59204	17,127	-1,9621	4,7493	12,888
59205	17,433	-1,9364	3,8625	13,381
59206	16,795	-1,925	4,1801	12,917
59207	17,336	-2,4778	4,3029	13,193
59208	17,274	-1,4512	4,3117	13,173
59209	18,66	-1,9886	3,1892	14,335
59210	18,08	-1,9551	3,5341	13,914
59211	18,586	-2,4966	3,6375	14,208
59212	18,573	-1,4809	3,6548	14,204
59213	16,804	-1,9936	5,6209	12,368
59214	16,485	-1,9543	5,0524	12,429
59215	17,096	-2,5482	5,1677	12,722
59216	16,95	-1,4777	5,1926	12,649
59217	18,305	-1,968	2,6149	14,273
59218	18,861	-2,0011	2,2787	14,591
59219	18,776	-2,5162	2,7173	14,541
59220	18,766	-1,4988	2,725	14,548
59221	16,425	-1,9938	6,4869	11,828
59222	16,113	-1,9563	5,9148	11,907
59223	16,748	-2,5483	6,0392	12,178
59224	16,573	-1,4776	6,0632	12,097
59225	17,726	-1,9345	2,9598	13,815
59226	17,137	-1,9699	3,2961	13,392
59227	17,63	-2,4746	3,4108	13,662
59228	17,591	-1,4568	3,4121	13,658
59229	15,709	-1,9533	6,7696	11,39
59230	16,02	-1,9888	7,3451	11,304
59231	16,372	-2,5431	6,9059	11,639
59232	16,162	-1,4759	6,9231	11,552
59233	15,794	-1,9169	5,3463	11,951
59234	15,396	-1,9157	6,1975	11,455
59235	15,134	-1,9176	5,6223	11,529
59236	15,707	-2,4729	5,7665	11,765
59237	15,603	-1,4378	5,7735	11,726
59238	16,154	-1,9171	4,4832	12,437
59239	15,508	-1,9125	4,7744	12,
59240	16,06	-2,4667	4,9148	12,251
59241	15,987	-1,4385	4,9189	12,228
59242	15,051	-1,956	7,0395	11,003
59243	14,729	-1,9183	6,4661	11,056
59244	15,319	-2,4724	6,6123	11,277
59245	15,188	-1,4367	6,6206	11,228
59246	17,964	-1,967	2,0758	14,121
59247	17,369	-1,9247	2,3874	13,748
59248	17,893	-2,4834	2,5162	14,039
59249	17,847	-1,4532	2,5086	14,031
59250	16,498	-1,9585	3,6136	12,902
59251	15,844	-1,9075	3,9168	12,45
59252	16,379	-2,4645	4,0533	12,716
59253	16,326	-1,439	4,0485	12,706
59254	15,362	-1,9915	7,615	10,929
59255	15,59	-1,9652	8,1922	10,813
59256	15,974	-2,5382	7,7649	11,126
59257	15,732	-1,4699	7,7739	11,038
59258	18,519	-2,0001	1,7396	14,467
59259	18,975	-2,5115	1,8289	14,694
59260	18,994	-1,4869	1,825	14,707
59261	14,7	-1,994	7,8871	10,575
59262	14,45	-2,0021	7,2977	10,663
59263	14,985	-2,5117	7,4511	10,839
59264	14,853	-1,4891	7,462	10,792
59265	17,597	-1,9933	1,5325	13,998
59266	18,156	-2,0033	1,2245	14,308
59267	18,083	-2,5163	1,6509	14,254
59268	18,072	-1,4857	1,6396	14,268
59269	14,927	-1,9676	8,4643	10,469
59270	15,134	-1,9274	9,0421	10,356
59271	15,466	-2,4802	8,6126	10,62
59272	15,63	-2,1399	8,9625	10,54
59273	15,29	-1,4497	8,6178	10,566
59274	16,78	-1,9601	2,7237	13,297
59275	16,193	-1,9976	3,069	12,881
59276	16,697	-2,5066	3,1894	13,153
59277	16,659	-1,481	3,1758	13,155
59278	14,031	-1,9997	8,1516	10,233
59279	14,283	-2,0031	8,76	10,147
59280	14,565	-2,5033	8,303	10,393
59281	14,4	-1,4786	8,3298	10,333
59282	17,002	-1,951	1,8441	13,601
59283	16,405	-1,9097	2,1521	13,208
59284	16,923	-2,4725	2,3026	13,493
59285	16,882	-1,4463	2,2706	13,497
59286	13,108	-2,0088	7,8104	9,9774
59287	13,782	-2,0078	7,5622	10,311
59288	13,373	-2,0237	8,416	9,9149
59289	13,65	-2,5214	7,9723	10,144
59290	13,527	-1,5032	7,9954	10,099
59291	17,272	-1,9889	0,9838	13,855
59292	16,626	-1,9459	1,2446	13,467
59293	17,135	-2,5034	1,4545	13,75
59294	17,102	-1,4656	1,3976	13,761
59295	12,836	-2,007	7,219	10,031
59296	12,441	-2,0178	8,0534	9,6665
59297	12,113	-1,9806	7,4485	9,6942
59298	12,714	-2,5248	7,6261	9,8802
59299	12,581	-1,4905	7,6468	9,8317
59300	14,128	-1,9645	6,7243	10,706
59301	13,51	-2,006	6,9707	10,372
59302	14,132	-2,5625	7,1276	10,589
59303	13,932	-1,4956	7,1416	10,511
59304	14,49	-1,9629	9,3379	10,046
59305	14,65	-1,8538	10,111	9,8802
59306	15,051	-2,4264	9,5142	10,178
59307	15,396	-2,1229	9,3924	10,327
59308	14,853	-1,4365	9,4963	10,134
59309	13,795	-1,9264	6,1456	10,736
59310	14,467	-1,9202	5,8909	11,118
59311	14,453	-2,518	6,3076	10,987
59312	14,264	-1,4449	6,3071	10,913
59313	17,831	-1,9989	0,67577	14,182
59314	18,272	-1,9963	0,40103	14,388
59315	18,236	-2,5215	0,8062	14,385
59316	18,247	-1,4911	0,80376	14,401
59317	13,177	-1,9679	6,3921	10,394
59318	12,536	-2,0008	6,6226	10,068
59319	13,086	-2,5139	6,8058	10,247
59320	12,985	-1,4961	6,8021	10,215
59321	17,541	-1,9808	0,27424	14,054
59322	16,901	-1,887	0,27837	13,686
59323	17,328	-2,5144	0,67112	13,923
59324	16,943	-2,3283	0,26899	13,689
59325	17,42	-1,4761	0,55333	13,999
59326	13,625	-2,0271	9,0244	9,8386
59327	13,838	-2,0729	9,7231	9,7306
59328	14,158	-2,522	9,1747	9,9862
59329	13,999	-1,4961	9,2335	9,9247
59330	13,554	-1,9653	5,5736	10,788
59331	12,881	-1,9648	5,809	10,426
59332	13,42	-2,4776	5,9896	10,616
59333	13,316	-1,4497	5,975	10,585
59334	17,982	-1,9782	-4,9443e-004	14,267
59335	17,534	-1,9189	-0,22177	14,055
59336	17,596	-2,5563	-2,2742e-002	14,1
59337	17,059	-2,3128	-3,9259e-003	13,768
59338	17,665	-1,4604	1,0794e-002	14,147
59339	12,938	-2,0982	9,3425	9,5282
59340	12,705	-2,0326	8,659	9,6115
59341	13,245	-2,5515	8,815	9,767
59342	13,106	-1,5168	8,8737	9,711
59343	18,314	-1,896	-0,3832	14,402
59344	18,298	-2,5907	-3,3174e-002	14,403
59345	18,323	-1,4749	1,0471e-002	14,43
59346	14,226	-1,9591	5,3189	11,18
59347	14,849	-1,9132	5,0505	11,564
59348	14,828	-2,5184	5,4779	11,428
59349	14,659	-1,4423	5,4686	11,361
59350	13,964	-2,0008	4,7598	11,205
59351	13,309	-2,0015	4,9936	10,831
59352	13,835	-2,5147	5,1867	11,032
59353	13,744	-1,4849	5,1565	11,008
59354	14,586	-1,955	4,4913	11,6
59355	15,199	-1,9029	4,208	11,997
59356	15,162	-2,5169	4,6517	11,857
59357	15,029	-1,438	4,629	11,808
59358	16,609	-1,959	12,197	9,714
59359	16,799	-1,9396	12,831	9,5639
59360	17,037	-2,4828	12,411	9,7128
59361	17,042	-1,4486	12,43	9,718
59362	13,675	-2,0056	4,1855	11,218
59363	14,304	-2,0033	3,948	11,587
59364	14,22	-2,5662	4,3987	11,438
59365	14,105	-1,478	4,3427	11,407
59366	15,766	-1,9946	11,728	9,7069
59367	15,923	-1,9712	12,364	9,5766
59368	16,175	-2,4974	11,966	9,725
59369	16,167	-1,4771	11,975	9,7316
59370	14,878	-1,8986	11,119	9,6648
59371	15,081	-1,9996	11,882	9,5394
59372	15,295	-2,5069	11,529	9,6714
59373	15,27	-2,2409	11,168	9,7561
59374	15,351	-1,4826	11,477	9,707
59375	12,635	-2,001	5,229	10,461
59376	12,24	-1,9977	6,0395	10,094
59377	11,909	-1,9795	5,4191	10,112
59378	12,49	-2,5128	5,6705	10,294
59379	12,392	-1,4871	5,6273	10,273
59380	13,02	-2,0063	4,4193	10,836
59381	12,394	-2,0224	4,5634	10,517
59382	12,861	-2,5124	4,8589	10,659
59383	12,784	-1,4846	4,812	10,645
59384	13,999	-1,9639	10,496	9,5863
59385	14,169	-1,8934	11,212	9,4766
59386	14,392	-2,4698	10,937	9,5969
59387	14,701	-2,4483	10,454	9,807
59388	14,793	-2,1396	10,799	9,7362
59389	14,399	-1,3864	10,716	9,6639
59390	13,378	-2,0055	3,6246	11,187
59391	12,811	-1,9519	3,8025	10,875
59392	13,226	-2,526	4,0683	11,031
59393	13,16	-1,4821	4,0043	11,017
59394	13,151	-2,144	10,041	9,434
59395	13,326	-2,0817	10,757	9,3385
59396	13,529	-2,6639	10,463	9,463
59397	13,748	-2,6579	10,047	9,6261
59398	13,549	-1,5634	10,24	9,5257
59399	16,112	-1,9519	12,999	9,431
59400	16,32	-1,9568	13,655	9,3079
59401	16,557	-2,4934	13,249	9,4255
59402	16,554	-1,4638	13,241	9,4371
59403	12,289	-2,1183	9,622	9,2504
59404	12,444	-2,1012	10,328	9,162
59405	12,634	-2,6912	10,057	9,2757
59406	12,848	-2,6888	9,6561	9,4302
59407	12,658	-1,5736	9,832	9,3369
59408	15,437	-1,9595	13,173	9,3162
59409	15,237	-1,9762	12,518	9,4134
59410	15,674	-2,5009	12,782	9,4347
59411	15,664	-1,4664	12,763	9,4468
59412	12,057	-2,0527	8,9385	9,3229
59413	11,778	-2,0217	8,2773	9,3753
59414	12,322	-2,5377	8,4488	9,531
59415	12,197	-1,5154	8,4909	9,4833
59416	15,644	-1,9644	13,829	9,1981
59417	15,85	-1,9666	14,498	9,1014
59418	16,08	-2,4981	14,09	9,1933
59419	16,081	-1,4728	14,074	9,2054
59420	11,347	-2,0174	9,1881	9,0341
59421	11,583	-2,03	9,8348	8,9899
59422	11,809	-2,6626	9,6485	9,0961
59423	11,95	-2,6058	9,2859	9,2181
59424	11,54	-2,3834	9,5273	9,0329
59425	11,807	-1,5416	9,3965	9,1522
59426	17,866	-1,8368	-0,60447	14,194
59427	18,245	-1,835	-1,1749	14,351
59428	18,269	-2,4919	-0,84654	14,389
59429	18,316	-1,3696	-0,76622	14,423
59430	14,771	-1,9721	13,342	9,1757
59431	14,975	-1,9684	14,011	9,1051
59432	15,202	-2,5055	13,616	9,1981
59433	15,203	-1,4756	13,586	9,2119
59434	11,813	-1,9744	6,8521	9,7262
59435	11,508	-1,9882	6,2279	9,7594
59436	12,093	-2,5062	6,4574	9,9346
59437	12,005	-1,4921	6,4311	9,9142
59438	16,893	-1,8251	-0,21764	13,687
59439	17,305	-1,8734	-0,90209	13,881
59440	17,292	-2,4479	-0,62905	13,904
59441	16,935	-2,2664	-0,22702	13,69
59442	17,372	-1,3963	-0,48714	13,979
59443	11,45	-1,9846	7,6723	9,3977
59444	11,098	-1,9633	7,0484	9,4162
59445	11,688	-2,4888	7,2674	9,5825
59446	11,59	-1,4703	7,2572	9,5556
59447	14,571	-1,9888	12,687	9,2677
59448	14,372	-1,9944	11,975	9,3528
59449	14,808	-2,507	12,299	9,3893
59450	14,792	-1,4936	12,245	9,4061
59451	11,068	-1,9864	8,5269	9,0795
59452	10,848	-2,02	7,8895	9,1407
59453	11,388	-2,5348	8,0733	9,2885
59454	11,265	-1,4956	8,0892	9,2484
59455	13,896	-1,9842	12,858	9,0987
59456	14,103	-1,9762	13,53	9,0497
59457	14,33	-2,5181	13,141	9,1452
59458	14,333	-1,4849	13,097	9,1601
59459	14,917	-1,9512	3,6647	11,997
59460	15,538	-1,9466	3,3722	12,41
59461	15,427	-2,4679	3,8113	12,244
59462	15,368	-1,4351	3,786	12,235
59463	13,697	-1,9899	12,146	9,1776
59464	13,497	-2,0112	11,473	9,2402
59465	13,936	-2,5075	11,757	9,3043
59466	13,932	-1,4947	11,677	9,3262
59467	10,629	-1,9199	9,3958	8,7697
59468	10,437	-1,997	8,7231	8,8347
59469	10,955	-2,522	8,8963	8,969
59470	11,014	-2,3217	9,3113	8,9024
59471	10,832	-1,4697	8,9608	8,9228
59472	13,026	-1,9877	12,358	8,9818
59473	13,225	-1,9826	13,046	8,9461
59474	13,458	-2,5016	12,645	9,0467
59475	13,456	-1,4938	12,615	9,0576
59476	14,007	-2,0032	3,3871	11,565
59477	14,61	-2,0031	3,1397	11,937
59478	14,522	-2,5748	3,5974	11,797
59479	14,44	-1,4748	3,5291	11,784
59480	15,818	-1,9472	2,4975	12,768
59481	15,231	-1,9985	2,8473	12,365
59482	15,737	-2,5143	2,9806	12,632
59483	15,696	-1,4734	2,9464	12,636
59484	13,689	-2,0015	2,847	11,493
59485	13,103	-1,9443	2,9939	11,174
59486	13,56	-2,5216	3,2743	11,356
59487	13,505	-1,4726	3,2066	11,355
59488	16,029	-1,9046	1,5525	13,051
59489	15,457	-1,8694	1,931	12,672
59490	15,964	-2,4722	2,1038	12,948
59491	15,933	-1,4269	2,0364	12,964
59492	14,292	-2,0013	2,5997	11,876
59493	14,871	-1,9207	2,2808	12,248
59494	14,794	-2,5855	2,7993	12,123
59495	14,743	-1,4687	2,715	12,128
59496	15,672	-1,9504	1,0463	12,91
59497	16,254	-1,844	0,53916	13,278
59498	16,169	-2,4844	1,2035	13,192
59499	16,134	-1,4346	1,0699	13,213
59500	12,619	-2,0389	11,045	9,0789
59501	12,826	-2,0091	11,685	9,0366
59502	13,054	-2,5384	11,323	9,1567
59503	13,055	-1,5112	11,228	9,1814
59504	13,948	-1,8881	2,0476	11,762
59505	13,423	-1,9076	2,2404	11,462
59506	13,831	-2,5186	2,5001	11,636
59507	13,812	-1,4631	2,4412	11,655
59508	11,738	-2,0128	10,541	8,9095
59509	11,954	-2,0073	11,216	8,872
59510	12,18	-2,5549	10,879	8,9881
59511	12,185	-1,5256	10,771	9,0139
59512	12,161	-1,9776	11,856	8,8349
59513	12,363	-1,9776	12,535	8,8115
59514	12,591	-2,5018	12,149	8,9121
59515	12,596	-1,4877	12,095	8,9267
59516	10,865	-1,9325	10,043	8,731
59517	11,076	-1,9669	10,7	8,6962
59518	11,305	-2,5343	10,389	8,8114
59519	11,25	-2,3343	9,958	8,8621
59520	11,301	-1,4854	10,265	8,8355
59521	14,527	-1,8076	1,7287	12,151
59522	15,101	-1,9152	1,4248	12,51
59523	15,031	-2,5254	1,9568	12,409
59524	15,001	-1,3856	1,8281	12,432
59525	11,291	-1,9614	11,375	8,6633
59526	11,494	-1,9647	12,049	8,6465
59527	11,719	-2,4957	11,676	8,747
59528	11,726	-1,48	11,614	8,762
59529	10,214	-1,9104	10,231	8,5128
59530	9,9976	-1,901	9,5748	8,5474
59531	10,429	-2,5126	9,9741	8,6126
59532	10,648	-2,5604	9,656	8,7333
59533	10,821	-2,2859	9,735	8,7706
59534	10,434	-1,4329	9,8083	8,6473
59535	15,181	-1,9707	14,681	9,0138
59536	15,384	-1,9833	15,36	8,9438
59537	15,611	-2,4998	14,946	9,0116
59538	15,617	-1,478	14,925	9,0232
59539	14,188	-1,7785	1,1967	12,004
59540	13,673	-1,748	1,4539	11,706
59541	14,071	-2,4932	1,7604	11,884
59542	14,07	-1,3389	1,6417	11,916
59543	10,629	-1,9498	11,561	8,468
59544	10,425	-1,9449	10,889	8,4834
59545	10,846	-2,4969	11,212	8,5647
59546	10,861	-1,466	11,137	8,5834
59547	14,307	-1,9726	14,2	8,9852
59548	14,509	-1,9856	14,876	8,9416
59549	14,74	-2,49	14,457	9,0135
59550	14,744	-1,4786	14,437	9,0241
59551	14,922	-1,9862	16,219	8,8363
59552	14,712	-1,9983	15,555	8,8776
59553	15,143	-2,5108	15,808	8,88
59554	15,153	-1,4931	15,789	8,8898
59555	14,762	-1,8861	0,89276	12,38
59556	15,313	-1,9165	0,47527	12,7
59557	15,252	-2,633	1,1796	12,641
59558	15,204	-1,4573	0,96205	12,652
59559	13,432	-1,9745	13,719	8,9037
59560	13,637	-1,9849	14,394	8,8822
59561	13,865	-2,4947	13,981	8,9556
59562	13,87	-1,4826	13,96	8,9657
59563	14,456	-1,9877	17,082	8,7752
59564	14,258	-1,9747	16,402	8,7937
59565	14,679	-2,499	16,664	8,7974
59566	14,694	-1,4823	16,644	8,8058
59567	13,988	-1,7802	0,7379	11,937
59568	14,27	-1,7643	0,32317	12,101
59569	14,313	-2,4488	0,83968	12,121
59570	13,809	-1,845	0,5999	11,837
59571	14,34	-1,3389	0,77375	12,156
59572	12,562	-1,9724	13,223	8,7823
59573	12,763	-1,9873	13,906	8,7758
59574	12,991	-2,4977	13,498	8,8512
59575	12,998	-1,4832	13,469	8,8616
59576	13,472	-1,7497	0,99518	11,629
59577	13,535	-1,7655	0,35144	11,678
59578	13,472	-2,4459	0,78201	11,639
59579	13,136	-2,0201	1,1763	11,463
59580	13,485	-1,8434	0,57627	11,645
59581	13,678	-1,3299	0,70006	11,771
59582	13,987	-1,9992	17,952	8,7578
59583	13,783	-2,0002	17,276	8,7531
59584	14,209	-2,51	17,531	8,7591
59585	14,224	-1,4964	17,516	8,7659
59586	13,147	-1,7675	1,6468	11,397
59587	13,034	-1,6926	0,8846	11,404
59588	13,058	-2,4259	1,38	11,392
59589	12,944	-1,9912	1,4572	11,357
59590	13,293	-1,8145	0,85718	11,526
59591	13,267	-1,3089	1,2668	11,519
59592	11,696	-1,9647	12,728	8,6302
59593	11,898	-1,9813	13,408	8,6349
59594	12,125	-2,4877	13,001	8,7127
59595	12,133	-1,4787	12,97	8,7229
59596	12,836	-1,8505	2,3872	11,139
59597	12,478	-1,7673	1,631	11,058
59598	12,96	-2,4722	2,1686	11,24
59599	12,811	-2,0379	1,8279	11,24
59600	12,988	-1,3678	1,9661	11,293
59601	13,839	-1,9979	15,07	8,8451
59602	14,048	-1,9868	15,737	8,8298
59603	14,271	-2,503	15,321	8,8763
59604	14,278	-1,4951	15,308	8,8851
59605	12,536	-1,8907	3,1718	10,855
59606	12,163	-1,8655	2,4502	10,796
59607	12,678	-2,5136	2,8929	10,984
59608	12,633	-2,0742	2,1977	11,086
59609	12,623	-1,4168	2,7373	10,996
59610	10,831	-1,9531	12,234	8,4577
59611	11,032	-1,9762	12,915	8,4676
59612	11,255	-2,4859	12,519	8,546
59613	11,266	-1,471	12,482	8,5566
59614	12,968	-1,9976	14,582	8,761
59615	13,178	-1,9829	15,248	8,7678
59616	13,399	-2,5026	14,835	8,8159
59617	13,407	-1,4908	14,82	8,8245
59618	12,185	-1,968	3,9466	10,551
59619	11,862	-1,8805	3,2409	10,524
59620	12,434	-2,5355	3,6969	10,709
59621	12,511	-2,0781	2,6125	10,922
59622	12,311	-1,4346	3,5846	10,692
59623	10,17	-1,9726	12,418	8,2862
59624	9,9738	-1,9416	11,733	8,278
59625	10,39	-2,4784	12,026	8,3662
59626	10,404	-1,4613	11,986	8,3773
59627	11,667	-2,0009	4,7535	10,163
59628	11,452	-2,0254	4,0072	10,237
59629	11,966	-2,5442	4,4035	10,368
59630	12,281	-2,1515	2,9724	10,724
59631	11,866	-1,5068	4,3559	10,344
59632	13,53	-1,989	18,812	8,7814
59633	13,319	-1,9996	18,138	8,7568
59634	13,743	-2,5097	18,392	8,7635
59635	13,762	-1,4945	18,38	8,7691
59636	11,177	-1,97	5,6075	9,7744
59637	10,907	-1,9712	4,9722	9,8091
59638	11,467	-2,4964	5,2731	9,9704
59639	11,37	-1,4731	5,2035	9,952
59640	12,869	-1,9764	18,993	8,8
59641	13,066	-1,987	19,677	8,8433
59642	13,282	-2,4994	19,252	8,8072
59643	13,306	-1,4846	19,241	8,8115
59644	12,098	-1,9961	14,09	8,6354
59645	12,302	-1,9988	14,763	8,6578
59646	12,527	-2,505	14,348	8,7082
59647	12,536	-1,4957	14,33	8,7166
59648	10,793	-1,9771	6,4242	9,4464
59649	10,406	-2,0443	5,8015	9,4488
59650	11,068	-2,5062	6,0754	9,6295
59651	10,967	-1,4872	6,0129	9,6125
59652	13,387	-1,9718	15,915	8,7583
59653	13,585	-1,9871	16,596	8,7661
59654	13,806	-2,501	16,175	8,7898
59655	13,821	-1,4833	16,161	8,7979
59656	10,496	-1,9987	7,2656	9,1548
59657	10,114	-2,0236	6,6199	9,1697
59658	10,718	-2,5073	6,8933	9,318
59659	10,603	-1,4841	6,8269	9,2985
59660	11,234	-1,9928	13,595	8,4795
59661	11,436	-1,9938	14,266	8,5127
59662	11,659	-2,5021	13,857	8,5647
59663	11,671	-1,4875	13,833	8,5734
59664	12,716	-1,9841	16,103	8,7016
59665	12,513	-1,9841	15,429	8,6709
59666	12,935	-2,5036	15,686	8,7262
59667	12,951	-1,4816	15,671	8,7344
59668	10,371	-1,9957	13,099	8,3029
59669	10,574	-1,9928	13,767	8,3421
59670	10,796	-2,4995	13,362	8,3963
59671	10,806	-1,4854	13,339	8,404
59672	12,914	-1,9995	16,784	8,7155
59673	13,116	-2,0006	17,462	8,7471
59674	13,337	-2,5133	17,041	8,7491
59675	13,354	-1,4953	17,026	8,756
59676	10,217	-2,0306	8,0857	8,8915
59677	9,8364	-2,0112	7,4391	8,9026
59678	10,437	-2,5354	7,7097	9,0429
59679	10,34	-1,5015	7,68	9,0228
59680	12,249	-1,9986	16,966	8,6814
59681	12,047	-1,9988	16,288	8,6269
59682	12,466	-2,5148	16,548	8,6836
59683	12,487	-1,4916	16,534	8,6909
59684	15,895	-1,8102	-3,1926e-002	13,098
59685	16,302	-1,8469	-0,57197	13,305
59686	16,358	-2,4927	0,32473	13,366
59687	16,348	-2,4809	-0,3679	13,356
59688	16,418	-2,219	2,0581e-004	13,401
59689	16,382	-1,3647	-6,7073e-003	13,421
59690	12,658	-1,987	18,319	8,771
59691	12,451	-1,9998	17,643	8,7186
59692	12,872	-2,5123	17,901	8,7527
59693	12,892	-1,494	17,888	8,7586
59694	14,821	-1,7947	-9,4322e-002	12,444
59695	15,288	-1,8729	-0,53922	12,704
59696	15,401	-2,6328	0,22692	12,781
59697	15,411	-2,5884	-0,10866	12,8
59698	15,414	-2,5631	-0,41006	12,78
59699	15,937	-2,2515	-4,1306e-002	13,101
59700	15,373	-1,3976	-7,8094e-002	12,793
59701	12,005	-1,9708	18,493	8,7631
59702	12,197	-1,9846	19,179	8,8342
59703	12,41	-2,4987	18,755	8,7969
59704	12,435	-1,4831	18,745	8,8018
59705	9,5607	-1,9302	10,39	8,3058
59706	9,7698	-1,9366	11,062	8,2879
59707	9,9834	-2,4839	10,715	8,3854
59708	9,9951	-1,4537	10,644	8,4018
59709	9,7151	-1,9993	13,265	8,1561
59710	9,5124	-1,9994	12,593	8,1172
59711	9,9319	-2,5041	12,865	8,212
59712	9,9455	-1,4854	12,836	8,2201
59713	9,8061	-1,9781	8,902	8,6077
59714	9,5245	-2,0768	8,2162	8,6512
59715	10,122	-2,5499	8,4759	8,7861
59716	9,999	-1,5117	8,485	8,7508
59717	11,798	-1,9836	17,818	8,7058
59718	11,587	-1,9984	17,143	8,6296
59719	12,005	-2,5142	17,404	8,6869
59720	12,025	-1,4957	17,39	8,6929
59721	9,3442	-1,9208	9,7335	8,3371
59722	9,1998	-2,0035	9,1007	8,3942
59723	9,6471	-2,5598	9,4421	8,4702
59724	9,7478	-2,5661	9,1841	8,5421
59725	9,5615	-1,4488	9,3258	8,4682
59726	11,338	-1,9816	18,674	8,7705
59727	11,147	-1,9649	17,99	8,6756
59728	11,548	-2,4983	18,255	8,7321
59729	11,576	-1,4793	18,242	8,7374
59730	8,9156	-1,929	10,542	8,116
59731	8,7058	-1,9658	9,8904	8,1399
59732	9,0998	-2,5334	10,254	8,2001
59733	9,1283	-1,4445	10,139	8,2261
59734	9,144	-2,0574	7,5697	8,6635
59735	9,4546	-2,0361	6,7934	8,9164
59736	8,7357	-2,0069	7,0171	8,655
59737	9,4022	-2,5337	7,3241	8,7919
59738	9,0475	-2,3228	6,9619	8,7563
59739	9,2873	-1,4985	7,1849	8,7903
59740	8,6136	-2,0369	7,8746	8,453
59741	8,9182	-2,1022	8,4148	8,4338
59742	9,1551	-2,5999	8,0722	8,57
59743	9,0177	-1,5571	7,9942	8,5496
59744	13,818	-1,7496	-6,3296e-002	11,857
59745	14,182	-1,7709	-0,49041	12,05
59746	14,322	-2,543	0,11926	12,141
59747	14,36	-2,3363	-0,21173	12,163
59748	13,768	-1,8274	0,16153	11,815
59749	14,278	-1,3299	-8,1075e-002	12,135
59750	12,394	-1,9952	19,863	8,8817
59751	12,606	-1,9864	20,545	8,9405
59752	12,81	-2,5071	20,119	8,8882
59753	12,835	-1,4924	20,111	8,8916
59754	13,097	-1,7085	0,24086	11,46
59755	13,226	-1,8051	-0,34938	11,516
59756	13,633	-2,2873	-0,11192	11,749
59757	13,356	-1,8303	0,21344	11,583
59758	13,411	-1,3224	1,4476e-003	11,644
59759	11,53	-1,9954	19,36	8,8464
59760	11,738	-1,984	20,043	8,9342
59761	11,943	-2,5094	19,62	8,8797
59762	11,97	-1,4915	19,61	8,8836
59763	8,1147	-1,9537	7,9606	8,2986
59764	8,2053	-1,9864	7,322	8,4397
59765	8,2736	-2,4622	7,9915	8,3352
59766	8,0537	-2,2425	7,6705	8,3368
59767	8,2869	-1,4707	7,7422	8,3905
59768	10,878	-1,9808	19,535	8,8734
59769	10,67	-1,995	18,852	8,7604
59770	11,08	-2,5119	19,116	8,8171
59771	11,108	-1,4916	19,104	8,8213
59772	9,7266	-2,0908	5,9972	9,1704
59773	9,024	-2,0824	6,1729	8,9158
59774	9,7608	-2,5781	6,576	9,0623
59775	9,2626	-2,5571	6,5243	8,9153
59776	9,2103	-2,3594	6,5743	8,8894
59777	9,5882	-1,5461	6,407	9,0478
59778	11,95	-1,9753	20,726	8,9965
59779	12,147	-1,9775	21,408	9,0701
59780	12,362	-2,4896	20,98	9,0011
59781	12,386	-1,4839	20,979	9,0045
59782	10,136	-2,0455	5,1662	9,4814
59783	9,3714	-2,0477	5,3665	9,1849
59784	10,072	-2,6261	5,7039	9,3519
59785	9,5525	-2,6099	5,6309	9,1971
59786	9,6861	-2,5677	5,0641	9,3425
59787	9,1349	-2,289	5,1945	9,1456
59788	10,011	-2,3251	5,0262	9,4649
59789	9,8944	-1,5628	5,5709	9,3251
59790	11,086	-1,9694	20,218	8,9651
59791	11,273	-1,9835	20,903	9,0681
59792	11,495	-2,4882	20,476	8,9963
59793	11,516	-1,4799	20,474	9,0006
59794	10,692	-1,9957	4,2259	9,8785
59795	10,095	-1,9575	4,478	9,6062
59796	10,58	-2,5494	4,9021	9,6919
59797	10,311	-2,2616	4,6039	9,6615
59798	10,412	-1,4913	4,7425	9,6775
59799	11,64	-1,9965	14,939	8,5416
59800	11,843	-1,9988	15,614	8,5898
59801	12,066	-2,5039	15,196	8,6162
59802	12,077	-1,4957	15,183	8,6234
59803	10,229	-1,9626	19,703	8,8825
59804	10,415	-1,9817	20,391	9,0109
59805	10,635	-2,4868	19,966	8,9372
59806	10,659	-1,4752	19,962	8,9418
59807	10,777	-1,9939	14,438	8,3819
59808	10,98	-1,9945	15,113	8,442
59809	11,199	-2,5034	14,699	8,4694
59810	11,212	-1,4939	14,684	8,4765
59811	11,13	-1,9379	3,3015	10,212
59812	10,506	-2,0004	3,4948	9,9539
59813	10,987	-2,549	4,0227	10,046
59814	11,071	-2,6222	3,6487	10,145
59815	11,778	-2,1356	2,6731	10,61
59816	10,568	-2,2753	4,0859	9,869
59817	10,915	-1,4958	3,8103	10,06
59818	9,9185	-1,9963	13,933	8,2014
59819	10,119	-1,9965	14,608	8,2674
59820	10,338	-2,5018	14,198	8,297
59821	10,351	-1,4935	14,181	8,3037
59822	11,183	-1,9967	15,788	8,4966
59823	11,385	-1,9986	16,466	8,5692
59824	11,605	-2,5058	16,047	8,5722
59825	11,62	-1,491	16,035	8,5789
59826	11,49	-1,8553	2,5192	10,465
59827	10,905	-1,9381	2,6959	10,203
59828	11,417	-2,4969	2,8599	10,389
59829	11,959	-2,064	2,2667	10,753
59830	11,319	-1,4185	2,9941	10,346
59831	10,322	-1,9971	15,282	8,3339
59832	10,525	-1,995	15,96	8,4195
59833	10,743	-2,5015	15,543	8,4233
59834	10,761	-1,4864	15,529	8,4302
59835	9,0654	-2,003	13,42	8,0106
59836	9,266	-2,0003	14,096	8,077
59837	9,48	-2,5083	13,692	8,1086
59838	9,4975	-1,497	13,671	8,1156
59839	9,1247	-1,9355	11,214	8,1019
59840	9,3163	-1,9684	11,908	8,1028
59841	9,5284	-2,4797	11,527	8,1828
59842	9,5495	-1,4532	11,481	8,196
59843	11,805	-1,7823	1,694	10,715
59844	11,312	-1,8907	1,9172	10,47
59845	11,751	-2,4854	2,0976	10,647
59846	12,138	-2,053	1,8909	10,896
59847	11,701	-1,3986	2,2369	10,625
59848	8,4721	-1,9661	11,374	7,9282
59849	8,2748	-1,9376	10,667	7,9376
59850	8,6601	-2,5204	11,028	8,0029
59851	8,7014	-1,4511	10,946	8,0238
59852	9,4668	-2,0005	14,771	8,1492
59853	9,6679	-1,9975	15,449	8,242
59854	9,8825	-2,5064	15,037	8,247
59855	9,8998	-1,4971	15,023	8,2534
59856	8,8627	-2,0032	12,748	7,9662
59857	8,6637	-1,9991	12,068	7,9342
59858	9,0724	-2,5109	12,355	8,0238
59859	9,0957	-1,4837	12,32	8,0341
59860	12,366	-1,6924	0,86888	11,068
59861	12,51	-1,7638	7,6132e-002	11,155
59862	13,034	-2,3888	0,67143	11,416
59863	13,082	-2,373	0,36702	11,455
59864	12,698	-1,963	1,0657	11,238
59865	13,047	-1,7863	0,46568	11,424
59866	12,086	-1,9574	0,54961	10,947
59867	12,788	-1,2858	0,4956	11,308
59868	8,2194	-2,0079	12,895	7,8199
59869	8,4198	-1,9977	13,572	7,8809
59870	8,6249	-2,5168	13,175	7,9145
59871	8,6511	-1,5005	13,151	7,9229
59872	11,622	-1,7768	1,2278	10,688
59873	11,701	-1,8487	0,56549	10,735
59874	12,611	-2,4168	1,0472	11,187
59875	11,901	-2,4971	1,3417	10,812
59876	12,275	-1,991	1,4415	11,019
59877	11,663	-1,9854	0,9254	10,716
59878	11,981	-1,3283	1,2083	10,873
59879	8,0204	-2,0039	12,215	7,7831
59880	7,8477	-1,9637	11,507	7,7699
59881	8,2065	-2,5433	11,84	7,839
59882	8,2597	-1,4812	11,786	7,8567
59883	8,6204	-1,995	14,249	7,953
59884	8,8182	-1,997	14,929	8,0468
59885	9,0296	-2,5067	14,521	8,054
59886	9,0498	-1,4969	14,506	8,0604
59887	8,5614	-2,0486	9,2576	8,1938
59888	8,4193	-2,019	8,5009	8,2782
59889	8,9107	-2,6409	8,8785	8,3511
59890	9,1025	-2,6503	8,7795	8,4261
59891	8,7734	-1,526	8,8551	8,3213
59892	7,5806	-2,0052	13,039	7,6891
59893	7,3907	-2,0033	12,353	7,6413
59894	7,7635	-2,5437	12,659	7,7227
59895	7,8164	-1,5008	12,616	7,7365
59896	7,781	-1,9949	13,716	7,755
59897	7,9771	-1,9908	14,398	7,8441
59898	8,1833	-2,5037	13,995	7,8542
59899	8,2103	-1,491	13,978	7,8614
59900	8,065	-1,9744	10,016	7,9598
59901	7,8496	-1,9853	9,325	7,9988
59902	8,286	-2,522	9,6768	8,0613
59903	8,2721	-1,4888	9,6161	8,0693
59904	6,9553	-1,9982	13,173	7,5663
59905	7,1426	-1,9973	13,856	7,6434
59906	7,3423	-2,5131	13,459	7,6573
59907	7,379	-1,4959	13,439	7,6659
59908	7,6504	-1,9352	10,801	7,7761
59909	7,4097	-1,9568	10,098	7,7905
59910	7,8263	-2,4824	10,437	7,8537
59911	7,8423	-1,4573	10,385	7,8657
59912	10,937	-1,9798	17,315	8,5941
59913	10,727	-1,9968	16,638	8,4983
59914	11,141	-2,5162	16,903	8,5745
59915	11,165	-1,4936	16,887	8,5807
59916	7,218	-1,9631	11,645	7,6237
59917	7,005	-1,9673	10,95	7,6177
59918	7,4108	-2,4743	11,25	7,6879
59919	7,4519	-1,4489	11,209	7,7023
59920	10,294	-1,9587	17,48	8,5456
59921	10,48	-1,9784	18,167	8,6602
59922	10,687	-2,4978	17,751	8,6207
59923	10,717	-1,476	17,737	8,6264
59924	6,5683	-1,9984	11,796	7,4813
59925	6,7655	-1,9964	12,487	7,5144
59926	6,9572	-2,5096	12,09	7,5558
59927	6,9993	-1,4948	12,064	7,5669
59928	11,129	-1,8852	1,451	10,437
59929	11,151	-1,8578	0,80635	10,49
59930	11,215	-2,477	1,1552	10,502
59931	11,343	-2,0418	0,90856	10,561
59932	11,271	-1,3904	1,184	10,534
59933	10,084	-1,9757	16,803	8,4443
59934	9,8704	-1,9953	16,126	8,3338
59935	10,274	-2,5193	16,398	8,4236
59936	10,308	-1,4873	16,379	8,4308
59937	10,727	-1,9735	2,0938	10,204
59938	10,607	-1,9186	1,4333	10,223
59939	10,86	-2,5078	1,6756	10,308
59940	11,17	-2,0937	1,1486	10,461
59941	10,781	-2,2216	1,5106	10,29
59942	10,951	-1,4438	1,7136	10,356
59943	9,4435	-1,9512	16,963	8,381
59944	9,631	-1,9739	17,649	8,5108
59945	9,8343	-2,4978	17,239	8,4709
59946	9,8729	-1,4671	17,222	8,4774
59947	10,281	-2,0007	2,8892	9,9413
59948	10,092	-2,0056	2,2107	9,9526
59949	10,512	-2,5161	2,489	10,08
59950	10,47	-1,4893	2,5641	10,064
59951	7,7075	-1,9558	8,5683	8,0846
59952	7,5675	-1,9687	7,8945	8,17
59953	8,1572	-2,4574	8,1613	8,2736
59954	7,9374	-2,2377	7,8402	8,2725
59955	7,9391	-1,4665	8,1644	8,219
59956	9,2295	-1,9708	16,286	8,2649
59957	9,0192	-1,994	15,607	8,1456
59958	9,4215	-2,5228	15,883	8,245
59959	9,456	-1,4846	15,861	8,252
59960	7,1942	-1,9677	9,4074	7,8305
59961	7,0083	-1,9915	8,7298	7,8919
59962	7,4405	-2,4968	9,057	7,9417
59963	7,4034	-1,4771	9,0015	7,9439
59964	8,5948	-1,9418	16,437	8,1905
59965	8,7803	-1,9684	17,127	8,3307
59966	8,9766	-2,4972	16,719	8,2902
59967	9,0178	-1,4608	16,705	8,2975
59968	9,9081	-1,9621	3,7469	9,6748
59969	9,6419	-2,0004	2,9961	9,7014
59970	10,108	-2,5227	3,2626	9,8358
59971	10,125	-2,2663	3,8728	9,7224
59972	10,007	-1,4918	3,3372	9,7886
59973	6,7642	-1,9889	10,247	7,6299
59974	6,5312	-1,9938	9,5559	7,6633
59975	6,9706	-2,4985	9,8577	7,7208
59976	6,9726	-1,4826	9,8154	7,7287
59977	9,3303	-1,9597	4,6783	9,3063
59978	9,1909	-1,9902	3,8862	9,4088
59979	9,8351	-2,4098	4,1033	9,595
59980	9,9702	-2,2371	4,3379	9,5955
59981	9,6305	-1,4746	4,1942	9,5075
59982	10,021	-1,9769	19,02	8,7652
59983	9,8163	-1,9936	18,337	8,631
59984	10,221	-2,5142	18,606	8,7074
59985	10,253	-1,4898	18,593	8,7119
59986	8,6689	-2,0393	5,5422	8,9303
59987	8,4559	-2,0769	4,8303	9,0084
59988	8,5864	-2,5266	5,2203	8,9757
59989	9,2217	-2,5065	4,8421	9,2396
59990	8,6705	-2,2278	4,9724	9,0442
59991	9,5469	-2,2639	4,8042	9,3605
59992	8,9373	-1,5138	5,1154	9,1027
59993	9,378	-1,9552	19,182	8,7564
59994	9,5622	-1,9762	19,87	8,906
59995	9,7777	-2,4841	19,449	8,8307
59996	9,8026	-1,4737	19,443	8,8351
59997	6,3553	-2,0025	11,101	7,4719
59998	6,1248	-2,0109	10,421	7,4805
59999	6,5456	-2,5112	10,703	7,5415
60000	6,5767	-1,4932	10,657	7,5531
60001	8,175	-1,9928	15,078	7,9435
60002	8,3845	-1,965	15,757	8,0657
60003	8,5719	-2,5257	15,361	8,0475
60004	8,6037	-1,4813	15,341	8,0541
60005	5,9413	-2,0107	11,923	7,3585
60006	5,7317	-2,0908	11,274	7,3417
60007	6,1308	-2,5099	11,527	7,4058
60008	6,2304	-1,4814	11,512	7,4275
60009	6,1384	-2,0086	12,614	7,3947
60010	6,3257	-1,9939	13,302	7,4563
60011	6,5237	-2,5064	12,908	7,4758
60012	6,5667	-1,4945	12,887	7,4852
60013	7,3387	-1,9932	14,538	7,7375
60014	7,5495	-1,96	15,217	7,8569
60015	7,7271	-2,5278	14,83	7,8408
60016	7,7718	-1,4783	14,803	7,8487
60017	5,5113	-2,0139	12,73	7,2883
60018	5,3902	-2,0885	11,966	7,2586
60019	5,7016	-2,5215	12,344	7,3138
60020	5,7552	-1,5135	12,324	7,3246
60021	7,759	-1,9322	15,897	7,9842
60022	7,9384	-1,9629	16,59	8,1284
60023	8,1316	-2,4955	16,188	8,0892
60024	8,1757	-1,4532	16,171	8,0965
60025	6,5129	-1,993	13,986	7,5377
60026	6,7202	-1,9571	14,665	7,6475
60027	6,879	-2,532	14,285	7,6329
60028	6,9457	-1,477	14,257	7,6443
60029	6,931	-1,9238	15,345	7,7712
60030	7,1062	-1,9584	16,043	7,9139
60031	7,2935	-2,4944	15,645	7,8767
60032	7,3461	-1,4464	15,625	7,8847
60033	5,6986	-1,9992	13,418	7,3531
60034	5,9037	-1,9528	14,103	7,4482
60035	6,0497	-2,5349	13,729	7,4376
60036	6,128	-1,474	13,697	7,4503
60037	8,9678	-1,9911	17,813	8,4663
60038	9,1731	-1,9719	18,499	8,6176
60039	9,3665	-2,5158	18,089	8,5582
60040	9,4026	-1,487	18,074	8,5629
60041	5,1005	-1,9602	13,525	7,2675
60042	4,8854	-2,0054	12,839	7,1912
60043	5,2635	-2,5143	13,143	7,2663
60044	5,3233	-1,4805	13,127	7,2764
60045	8,3051	-2,0532	6,3965	8,6539
60046	7,9807	-2,1401	5,625	8,7219
60047	8,1711	-2,5528	6,0499	8,6938
60048	8,4324	-2,2806	5,3701	8,8924
60049	8,617	-2,3691	6,3413	8,7536
60050	8,1129	-2,3609	5,7718	8,7311
60051	8,4883	-1,561	5,9093	8,8142
60052	8,3345	-1,9667	17,966	8,4378
60053	8,1239	-1,9895	17,28	8,2743
60054	8,5157	-2,5179	17,561	8,3771
60055	8,5577	-1,482	17,55	8,3834
60056	8,5399	-1,9475	18,652	8,5938
60057	8,7163	-1,9729	19,344	8,7612
60058	8,9293	-2,481	18,927	8,6843
60059	8,9587	-1,4661	18,919	8,6889
60060	6,111	-1,9168	14,783	7,5615
60061	6,2814	-1,9534	15,483	7,6963
60062	6,4587	-2,4949	15,092	7,6621
60063	6,5189	-1,4405	15,067	7,6704
60064	7,707	-1,9389	18,109	8,4021
60065	7,8832	-1,9662	18,804	8,5826
60066	8,0904	-2,4779	18,391	8,5048
60067	8,1265	-1,4583	18,383	8,5102
60068	5,3055	-1,9138	14,21	7,3653
60069	5,4647	-1,9517	14,913	7,4855
60070	5,6329	-2,4963	14,529	7,4558
60071	5,7046	-1,4359	14,501	7,465
60072	11,47	-1,9857	21,586	9,1447
60073	11,676	-1,9762	22,271	9,2312
60074	11,882	-2,4974	21,845	9,1489
60075	11,91	-1,4831	21,839	9,1505
60076	4,5047	-1,9189	13,626	7,1896
60077	4,6602	-1,9529	14,33	7,2907
60078	4,8497	-2,4687	13,938	7,2699
60079	4,9045	-1,4361	13,919	7,2772
60080	10,813	-1,982	21,762	9,2326
60081	10,602	-1,9957	21,076	9,1174
60082	11,006	-2,5082	21,338	9,1481
60083	11,043	-1,4912	21,332	9,15
60084	11,018	-1,9725	22,448	9,3213
60085	11,214	-1,9747	23,136	9,42
60086	11,412	-2,4964	22,708	9,325
60087	11,444	-1,4821	22,704	9,3258
60088	7,2856	-1,9891	16,737	8,0637
60089	7,4964	-1,9616	17,423	8,2341
60090	7,6673	-2,5208	17,028	8,1737
60091	7,7191	-1,4793	17,008	8,1797
60092	7,6581	-2,0014	7,2559	8,3148
60093	7,5853	-1,981	6,5361	8,4393
60094	8,2932	-2,5895	7,0706	8,5188
60095	7,8904	-2,5645	6,8256	8,4593
60096	8,0279	-2,2703	7,2016	8,4183
60097	8,4914	-2,3301	6,7979	8,6285
60098	8,219	-1,503	6,8619	8,5432
60099	6,6662	-1,9564	16,871	8,0158
60100	6,4566	-1,988	16,181	7,8442
60101	6,8313	-2,5248	16,475	7,9556
60102	6,8902	-1,4771	16,456	7,9627
60103	10,153	-1,9816	21,933	9,2983
60104	10,362	-1,9689	22,623	9,4256
60105	10,553	-2,4956	22,194	9,327
60106	10,595	-1,4776	22,192	9,3283
60107	10,757	-1,9729	24,001	9,6346
60108	10,558	-1,971	23,312	9,526
60109	10,95	-2,4956	23,573	9,528
60110	10,986	-1,4808	23,568	9,5273
60111	9,7477	-1,9953	20,558	9,0384
60112	9,9426	-1,9954	21,247	9,1806
60113	10,146	-2,5126	20,824	9,0921
60114	10,188	-1,4902	20,819	9,0953
60115	10,101	-1,9694	24,177	9,7563
60116	10,299	-1,9708	24,867	9,875
60117	10,482	-2,4953	24,432	9,7566
60118	10,53	-1,4794	24,434	9,7545
60119	8,9004	-1,9939	20,033	8,9151
60120	9,1124	-1,9742	20,721	9,0795
60121	9,2949	-2,5142	20,304	8,9891
60122	9,3394	-1,4866	20,296	8,9927
60123	9,3074	-1,9743	21,41	9,2248
60124	9,4836	-1,9935	22,102	9,3794
60125	9,6819	-2,5113	21,679	9,2775
60126	9,728	-1,4881	21,677	9,2801
60127	8,2696	-1,9705	20,188	8,9382
60128	8,0596	-1,9915	19,497	8,7544
60129	8,4439	-2,5177	19,778	8,8456
60130	8,4934	-1,4851	19,767	8,8494
60131	6,8683	-2,0045	8,0561	7,9754
60132	6,7427	-2,0078	7,338	8,0801
60133	7,1041	-2,4832	7,6002	8,113
60134	7,5066	-2,2575	7,6044	8,2107
60135	7,139	-1,498	7,6434	8,1169
60136	8,4816	-1,9508	20,877	9,1058
60137	8,6732	-1,9535	21,571	9,2825
60138	8,8476	-2,4956	21,152	9,1783
60139	8,9032	-1,4668	21,145	9,181
60140	6,3453	-2,0176	8,8784	7,7233
60141	6,1668	-2,0397	8,1558	7,8079
60142	6,6138	-2,5227	8,4766	7,8478
60143	6,5783	-1,517	8,4339	7,8492
60144	7,0491	-1,9617	18,256	8,3786
60145	6,8771	-1,9289	17,557	8,1903
60146	7,2527	-2,4741	17,845	8,3005
60147	7,292	-1,4514	17,836	8,306
60148	7,6446	-1,9421	20,335	8,9494
60149	7,8402	-1,9453	21,031	9,1455
60150	8,007	-2,4954	20,618	9,0389
60151	8,0641	-1,4607	20,609	9,0422
60152	5,8918	-2,0158	9,7299	7,5111
60153	5,5915	-2,058	9,0107	7,555
60154	6,1027	-2,5192	9,3174	7,6089
60155	6,073	-1,5116	9,2881	7,6087
60156	7,2253	-1,9891	18,951	8,5636
60157	7,4346	-1,9632	19,644	8,7623
60158	7,6061	-2,5184	19,236	8,6673
60159	7,6596	-1,4804	19,224	8,6718
60160	5,5012	-2,0992	10,594	7,3469
60161	5,0351	-2,0238	9,9226	7,3343
60162	5,7048	-2,5318	10,127	7,4307
60163	5,1392	-2,3618	10,106	7,3307
60164	5,6904	-1,5106	10,157	7,426
60165	6,4037	-1,9832	18,392	8,3506
60166	6,6043	-1,9574	19,091	8,5597
60167	6,7679	-2,5226	18,687	8,4632
60168	6,8295	-1,4781	18,674	8,4685
60169	6,8136	-1,9316	19,784	8,7616
60170	7,0095	-1,9359	20,48	8,9731
60171	7,1694	-2,495	20,072	8,864
60172	7,2298	-1,454	20,063	8,8682
60173	6,2316	-1,9504	17,693	8,1579
60174	6,0586	-1,9196	16,996	7,9676
60175	6,4271	-2,4659	17,288	8,0808
60176	6,467	-1,4437	17,28	8,0865
60177	9,6924	-1,9808	22,792	9,5086
60178	9,9021	-1,9675	23,488	9,6467
60179	10,09	-2,4955	23,056	9,5355
60180	10,132	-1,4781	23,054	9,5358
60181	5,8005	-1,9451	18,52	8,3379
60182	5,5919	-1,9774	17,82	8,1237
60183	5,9754	-2,4883	18,113	8,2411
60184	6,0136	-1,4692	18,109	8,2468
60185	8,8494	-1,9727	22,263	9,4397
60186	9,0247	-1,9932	22,956	9,6049
60187	9,22	-2,5119	22,532	9,4906
60188	9,271	-1,4875	22,53	9,4919
60189	5,849	-1,9512	16,306	7,7922
60190	5,6352	-1,9882	15,613	7,6251
60191	6,0023	-2,5283	15,915	7,734
60192	6,0677	-1,474	15,893	7,7412
60193	6,0012	-1,9193	19,219	8,5501
60194	6,1833	-1,9238	19,923	8,7734
60195	6,3357	-2,4939	19,518	8,6621
60196	6,4031	-1,4453	19,506	8,6667
60197	5,2515	-1,9134	16,421	7,7421
60198	5,4189	-1,9465	17,122	7,9294
60199	5,6045	-2,4671	16,722	7,854
60200	5,655	-1,4374	16,712	7,8603
60201	5,1838	-1,9426	18,639	8,32
60202	5,3886	-1,911	19,345	8,5515
60203	5,5571	-2,4568	18,936	8,4391
60204	5,6014	-1,4424	18,93	8,4439
60205	8,0318	-1,948	21,725	9,3249
60206	8,218	-1,9506	22,421	9,5124
60207	8,3895	-2,4956	22,002	9,3963
60208	8,4473	-1,4649	21,998	9,3984
60209	9,2344	-1,9799	23,651	9,7443
60210	9,4442	-1,9652	24,345	9,8913
60211	9,6256	-2,4956	23,917	9,7699
60212	9,6741	-1,4772	23,915	9,7689
60213	5,1806	-2,1686	11,317	7,243
60214	5,027	-2,1894	10,881	7,2449
60215	5,2848	-2,6243	11,013	7,279
60216	4,9473	-2,4442	10,544	7,2533
60217	5,331	-1,5834	11,011	7,2873
60218	8,3932	-1,9711	23,114	9,6796
60219	8,5648	-1,9963	23,808	9,8549
60220	8,7607	-2,5129	23,384	9,729
60221	8,8165	-1,4869	23,384	9,7293
60222	5,0377	-1,9504	15,728	7,5718
60223	4,8194	-1,9907	15,034	7,4151
60224	5,1773	-2,5343	15,344	7,5172
60225	5,2501	-1,4741	15,321	7,5247
60226	4,7642	-2,08	12,075	7,1575
60227	4,7252	-2,1397	11,43	7,165
60228	4,9238	-2,6237	11,7	7,1877
60229	5,0338	-1,5884	11,692	7,2063
60230	4,6187	-1,9409	16,536	7,7008
60231	4,4466	-1,911	15,835	7,5222
60232	4,8008	-2,4596	16,139	7,6294
60233	4,8517	-1,434	16,129	7,6352
60234	4,7862	-1,974	17,237	7,8917
60235	4,9752	-1,9749	17,939	8,1032
60236	5,158	-2,4906	17,537	8,0097
60237	5,2049	-1,4746	17,529	8,0145
60238	4,2896	-1,964	12,94	7,1115
60239	4,2434	-2,0205	12,335	7,0844
60240	4,4439	-2,5125	12,562	7,1176
60241	4,5085	-1,4939	12,545	7,1273
60242	4,177	-1,9718	17,346	7,8679
60243	3,9884	-1,9674	16,643	7,6631
60244	4,3566	-2,4848	16,947	7,7772
60245	4,4058	-1,4706	16,939	7,782
60246	4,366	-1,9727	18,047	8,0818
60247	4,5555	-1,9703	18,752	8,3122
60248	4,7378	-2,4834	18,348	8,2024
60249	4,7836	-1,4721	18,344	8,2076
60250	3,8529	-1,9604	13,735	7,1186
60251	3,6596	-1,9683	13,039	7,037
60252	4,0155	-2,5068	13,361	7,1039
60253	4,0982	-1,448	13,329	7,1127
60254	3,5719	-1,9677	17,45	7,8469
60255	3,7621	-1,9701	18,154	8,0725
60256	3,9278	-2,4904	17,755	7,9643
60257	3,9867	-1,475	17,748	7,9693
60258	7,3963	-1,9418	21,874	9,3791
60259	7,2051	-1,939	21,176	9,1719
60260	7,5536	-2,4961	21,459	9,2601
60261	7,6208	-1,4586	21,453	9,2631
60262	7,5825	-1,9445	22,57	9,5686
60263	7,744	-1,9755	23,267	9,7667
60264	7,9323	-2,4956	22,847	9,6387
60265	7,9927	-1,4665	22,844	9,6396
60266	9,642	-1,9666	25,036	10,01
60267	9,835	-1,9681	25,731	10,14
60268	10,021	-2,495	25,295	10,01
60269	10,07	-1,4776	25,301	10,007
60270	6,7626	-1,9352	22,018	9,4203
60271	6,9257	-1,9681	22,714	9,6366
60272	7,1057	-2,4963	22,299	9,5065
60273	7,1768	-1,4557	22,295	9,5086
60274	4,0084	-1,9944	14,44	7,223
60275	4,2283	-1,9513	15,14	7,3632
60276	4,36	-2,5385	14,761	7,3148
60277	4,4409	-1,4754	14,733	7,3216
60278	6,3792	-1,928	20,62	8,9876
60279	6,5713	-1,9323	21,32	9,2111
60280	6,7222	-2,4963	20,907	9,0888
60281	6,7939	-1,4508	20,898	9,0919
60282	3,4202	-1,9548	14,537	7,175
60283	3,193	-2,0023	13,839	7,0574
60284	3,5744	-2,5044	14,146	7,1353
60285	3,6312	-1,4811	14,13	7,1404
60286	5,7527	-1,9205	20,753	9,0132
60287	5,5707	-1,9155	20,049	8,7775
60288	5,8937	-2,4956	20,346	8,8892
60289	5,974	-1,4424	20,336	8,8931
60290	5,9449	-1,9248	21,454	9,2387
60291	6,1071	-1,9637	22,153	9,4712
60292	6,2752	-2,4972	21,745	9,3402
60293	6,3537	-1,4487	21,741	9,3437
60294	8,7745	-1,9816	24,502	10,002
60295	8,9881	-1,9615	25,201	10,159
60296	9,1627	-2,4955	24,772	10,027
60297	9,2163	-1,4752	24,77	10,025
60298	3,6401	-1,9117	15,238	7,3167
60299	3,8162	-1,9375	15,942	7,4816
60300	3,9938	-2,4582	15,546	7,4152
60301	4,0437	-1,4336	15,538	7,4204
60302	8,1072	-1,9989	24,658	10,127
60303	7,9155	-2,0008	23,96	9,9432
60304	8,2968	-2,5174	24,235	9,9913
60305	8,3534	-1,4936	24,233	9,9903
60306	9,1811	-1,963	25,897	10,289
60307	9,3711	-1,9653	26,591	10,429
60308	9,5531	-2,4945	26,157	10,288
60309	9,6028	-1,4755	26,162	10,285
60310	4,5717	-2,1604	10,995	7,166
60311	4,561	-2,1141	10,21	7,2271
60312	4,4797	-2,6322	10,54	7,1857
60313	4,3735	-2,3746	10,797	7,1514
60314	4,665	-2,4521	10,393	7,2252
60315	4,7445	-1,6218	10,716	7,2125
60316	8,3208	-1,9787	25,357	10,284
60317	8,536	-1,9569	26,058	10,449
60318	8,7071	-2,4944	25,625	10,306
60319	8,7633	-1,4703	25,631	10,304
60320	4,2045	-2,0802	11,69	7,0814
60321	4,0417	-2,1548	10,865	7,0969
60322	4,0101	-2,5205	11,359	7,0664
60323	4,2005	-2,3378	11,061	7,1076
60324	4,303	-1,5497	11,216	7,113
60325	3,0321	-1,9059	15,337	7,2816
60326	2,8003	-1,9598	14,636	7,1328
60327	3,185	-2,4652	14,942	7,2197
60328	3,232	-1,4448	14,934	7,2236
60329	3,2083	-1,9317	16,041	7,4487
60330	3,3833	-1,9633	16,747	7,64
60331	3,5563	-2,4797	16,349	7,5532
60332	3,6143	-1,458	16,342	7,5582
60333	3,6135	-2,0247	12,434	7,0062
60334	3,5115	-2,1102	11,718	6,9913
60335	3,6723	-2,4984	12,033	7,0079
60336	3,8987	-1,5262	12,027	7,0372
60337	2,6331	-1,8877	16,141	7,4306
60338	2,3913	-1,9515	15,445	7,2538
60339	2,7696	-2,459	15,745	7,3474
60340	2,83	-1,4251	15,736	7,3515
60341	2,9997	-2,0102	13,143	6,9743
60342	2,8143	-2,013	12,428	6,9208
60343	3,0531	-2,4934	12,735	6,9556
60344	3,2464	-1,4985	12,732	6,976
60345	7,4658	-1,9978	24,809	10,228
60346	7,6578	-1,9938	25,508	10,42
60347	7,8405	-2,5178	25,083	10,275
60348	7,903	-1,4875	25,089	10,274
60349	7,0871	-1,9991	23,411	9,8363
60350	7,274	-1,9997	24,111	10,043
60351	7,4602	-2,5231	23,689	9,9045
60352	7,52	-1,4934	23,689	9,9052
60353	2,8081	-1,9193	16,846	7,6238
60354	2,9782	-1,9573	17,554	7,8387
60355	3,1349	-2,4813	17,153	7,7327
60356	3,2081	-1,4539	17,145	7,7376
60357	6,4572	-1,9945	23,553	9,9159
60358	6,2702	-1,9966	22,85	9,6891
60359	6,6315	-2,5258	23,135	9,7754
60360	6,699	-1,4908	23,133	9,777
60361	5,2968	-1,9596	21,575	9,2735
60362	5,1425	-1,9128	20,872	9,029
60363	5,4635	-2,497	21,168	9,1399
60364	5,5409	-1,4453	21,163	9,1441
60365	6,6441	-1,9951	24,253	10,123
60366	6,8534	-1,9663	24,962	10,339
60367	7,0077	-2,522	24,535	10,192
60368	7,0738	-1,4846	24,539	10,192
60369	2,0138	-1,9362	16,256	7,4205
60370	2,244	-1,8524	16,942	7,6181
60371	2,3658	-2,4427	16,547	7,5172
60372	2,444	-1,4094	16,537	7,5206
60373	5,8346	-1,9914	23,685	9,9783
60374	6,0471	-1,9597	24,396	10,213
60375	6,1845	-2,5248	23,973	10,065
60376	6,261	-1,4862	23,974	10,066
60377	5,459	-1,9986	22,275	9,5076
60378	5,6476	-1,9936	22,981	9,7509
60379	5,8138	-2,5318	22,567	9,609
60380	5,8865	-1,4903	22,565	9,6115
60381	2,5731	-2,0073	13,938	7,0146
60382	2,3525	-2,0105	13,251	6,9265
60383	2,7353	-2,5443	13,542	6,9841
60384	2,8119	-1,4941	13,528	6,9899
60385	4,8427	-1,9976	22,396	9,5546
60386	4,6628	-1,9969	21,684	9,2975
60387	5,0044	-2,5392	21,984	9,4106
60388	5,0804	-1,4915	21,984	9,4149
60389	4,9604	-1,9078	20,168	8,7914
60390	4,7603	-1,9387	19,458	8,5458
60391	5,1264	-2,4539	19,758	8,6659
60392	5,1752	-1,4377	19,754	8,6706
60393	5,0313	-1,9926	23,102	9,7985
60394	5,2448	-1,9553	23,819	10,051
60395	5,3769	-2,5292	23,395	9,8989
60396	5,4558	-1,4851	23,398	9,9022
60397	2,1596	-2,0054	14,744	7,1045
60398	1,9495	-2,0063	14,064	6,9857
60399	2,342	-2,5181	14,344	7,0524
60400	2,3965	-1,485	14,327	7,0547
60401	4,2356	-1,9999	22,503	9,5888
60402	4,4504	-1,9557	23,227	9,8569
60403	4,5759	-2,5371	22,804	9,7017
60404	4,6569	-1,4865	22,81	9,7072
60405	4,5085	-1,9501	20,981	9,0514
60406	4,3347	-1,9402	20,274	8,7969
60407	4,6989	-2,4555	20,574	8,917
60408	4,7455	-1,4401	20,575	8,9224
60409	3,9517	-1,9678	18,859	8,3048
60410	4,1346	-1,9712	19,564	8,5499
60411	4,318	-2,4763	19,161	8,4272
60412	4,3724	-1,4595	19,162	8,4338
60413	4,0557	-1,9993	21,791	9,3311
60414	3,8817	-1,9935	21,079	9,0662
60415	4,2438	-2,5051	21,384	9,1874
60416	4,2923	-1,4875	21,386	9,1927
60417	1,772	-2,	15,56	7,2435
60418	1,573	-1,9941	14,857	7,0917
60419	1,9157	-2,5691	15,14	7,1634
60420	1,977	-1,4907	15,148	7,1691
60421	3,451	-2,0022	21,892	9,3575
60422	3,6342	-1,9994	22,607	9,6311
60423	3,8121	-2,5169	22,197	9,4785
60424	3,8654	-1,4951	22,202	9,4845
60425	1,4173	-1,9691	16,377	7,4281
60426	1,1072	-2,0316	15,706	7,249
60427	1,5122	-2,5723	15,952	7,3224
60428	1,6158	-1,4696	15,949	7,328
60429	3,1684	-1,9597	18,258	8,0658
60430	3,3537	-1,9664	18,962	8,3076
60431	3,5231	-2,4768	18,561	8,1855
60432	3,5781	-1,4705	18,558	8,1904
60433	3,5366	-1,9698	19,667	8,554
60434	3,708	-1,9836	20,372	8,8107
60435	3,8961	-2,4835	19,97	8,677
60436	3,9484	-1,4612	19,976	8,6846
60437	2,4141	-1,8904	17,65	7,8343
60438	2,5839	-1,9464	18,357	8,0686
60439	2,7424	-2,4621	17,96	7,9497
60440	2,8056	-1,4537	17,955	7,9538
60441	2,7692	-1,9531	19,061	8,3113
60442	2,939	-1,9762	19,763	8,5655
60443	3,1158	-2,4805	19,365	8,4337
60444	3,1708	-1,4684	19,364	8,4385
60445	1,6476	-1,8852	17,063	7,6263
60446	1,8776	-1,8097	17,755	7,8449
60447	1,9707	-2,4085	17,355	7,7248
60448	2,0565	-1,3859	17,354	7,7306
60449	2,0474	-1,8657	18,462	8,0803
60450	2,1891	-1,9436	19,154	8,3233
60451	2,3409	-2,4687	18,762	8,1929
60452	2,4259	-1,4334	18,755	8,197
60453	3,1103	-1,99	20,468	8,823
60454	3,2771	-1,9964	21,18	9,0921
60455	3,4618	-2,5073	20,777	8,9487
60456	3,5142	-1,4864	20,778	8,9538
60457	1,0142	-1,8853	17,231	7,658
60458	0,94399	-1,8877	16,543	7,4588
60459	1,1586	-2,51	16,73	7,5176
60460	1,2847	-1,4335	16,811	7,5442
60461	2,3589	-1,9668	19,856	8,5781
60462	2,5111	-1,9984	20,558	8,8426
60463	2,6902	-2,5087	20,162	8,7014
60464	2,7491	-1,4838	20,161	8,7058
60465	1,2443	-1,8098	17,923	7,8775
60466	1,4381	-1,6811	18,461	8,0617
60467	1,6033	-2,3885	18,182	7,9745
60468	1,7188	-1,3485	18,166	7,9738
60469	2,6778	-2,0048	21,271	9,112
60470	2,8521	-2,005	21,986	9,3902
60471	3,0369	-2,5147	21,582	9,2387
60472	3,0829	-1,4973	21,584	9,2436
60473	1,5798	-1,759	19,153	8,3033
60474	1,7724	-1,9722	19,927	8,5902
60475	1,9489	-2,4853	19,556	8,4607
60476	2,0101	-1,4474	19,54	8,4583
60477	0,69161	-1,8049	18,121	7,9304
60478	0,57848	-1,8251	17,54	7,742
60479	0,68087	-2,4207	17,684	7,7913
60480	0,39275	-2,1805	18,365	8,0092
60481	0,87698	-1,3664	17,67	7,7916
60482	1,9246	-2,0038	20,629	8,8546
60483	2,0847	-2,0128	21,348	9,1342
60484	2,2643	-2,5334	20,957	8,9884
60485	2,3159	-1,5016	20,951	8,9901
60486	0,8854	-1,6763	18,659	8,1151
60487	1,0294	-1,7131	19,167	8,3007
60488	1,1043	-2,2915	18,849	8,1861
60489	1,2509	-1,2351	18,836	8,1895
60490	1,222	-1,9263	19,941	8,5859
60491	1,3349	-2,0062	20,666	8,8621
60492	1,5339	-2,519	20,319	8,7317
60493	1,5917	-1,4637	20,311	8,7334
60494	0,56345	-1,854	18,817	8,168
60495	0,17085	-1,7683	18,292	7,9804
60496	0,46352	-2,5022	18,655	8,1098
60497	0,30207	-2,1569	18,807	8,1602
60498	0,58318	-1,3555	18,508	8,0601
60499	0,70744	-1,8909	19,325	8,3548
60500	0,50805	-1,9893	19,908	8,5689
60501	0,82431	-2,4558	19,727	8,5059
60502	0,44607	-2,1938	19,315	8,3459
60503	0,89963	-1,4008	19,62	8,4662
60504	0,23354	-1,9627	19,361	8,3607
60505	-0,1903	-1,9713	18,973	8,2175
60506	0,4275	-2,5529	19,181	8,2999
60507	0,26459	-2,2296	19,06	8,2539
60508	0,35725	-1,4377	19,124	8,2804
60509	3,4149e-002	-2,0611	19,945	8,5783
60510	-0,42337	-1,9999	19,695	8,4843
60511	-0,18339	-2,6545	19,464	8,3987
60512	-2,7828e-002	-2,2656	19,351	8,3557
60513	-4,2193e-002	-1,4924	19,686	8,482
60514	0,62098	-2,0692	20,633	8,8432
60515	-0,10897	-2,0826	20,479	8,7824
60516	3,2766e-002	-2,7094	20,087	8,6337
60517	0,25702	-2,6802	20,333	8,7308
60518	6,5192e-002	-2,328	19,644	8,4667
60519	0,19738	-2,4301	20,577	8,8199
60520	0,2819	-1,5549	20,251	8,6996
60521	1,495	-2,0152	21,385	9,1406
60522	0,79113	-1,9971	21,429	9,1558
60523	1,1371	-2,5658	21,077	9,0214
60524	0,69119	-2,3758	20,973	8,9727
60525	1,115	-1,5029	21,018	8,9999
60526	2,259	-2,013	22,064	9,412
60527	1,8216	-2,0237	22,195	9,4633
60528	1,8071	-2,5876	21,742	9,2844
60529	1,8851	-1,5023	21,737	9,287
60530	8,726	-1,9592	26,753	10,588
60531	8,913	-1,9619	27,452	10,74
60532	9,0869	-2,4938	27,012	10,588
60533	9,1431	-1,4737	27,021	10,584
60534	3,0354	-2,0022	22,701	9,6635
60535	2,4774	-1,9694	22,798	9,7036
60536	2,6147	-2,5227	22,386	9,5438
60537	2,6672	-1,4994	22,388	9,5486
60538	7,873	-1,9719	26,209	10,585
60539	8,0834	-1,9519	26,915	10,761
60540	8,2483	-2,4927	26,478	10,608
60541	8,3136	-1,4667	26,485	10,604
60542	3,849	-1,9551	23,331	9,8987
60543	3,2566	-1,9557	23,435	9,9489
60544	3,3977	-2,5053	23,014	9,7861
60545	3,4535	-1,486	23,02	9,7922
60546	7,0454	-1,9622	25,662	10,531
60547	7,2114	-1,9886	26,357	10,733
60548	7,3898	-2,5142	25,931	10,578
60549	7,4579	-1,4818	25,939	10,577
60550	4,6639	-1,9184	23,944	10,11
60551	4,0603	-1,9159	24,058	10,173
60552	4,1725	-2,4978	23,632	10,011
60553	4,2709	-1,4375	23,646	10,019
60554	6,2564	-1,931	25,105	10,428
60555	6,4402	-1,9331	25,811	10,651
60556	6,585	-2,4915	25,381	10,496
60557	6,6585	-1,4521	25,391	10,497
60558	5,4573	-1,9237	24,53	10,286
60559	4,846	-1,9191	24,654	10,366
60560	4,9657	-2,4944	24,229	10,207
60561	5,0595	-1,4409	24,241	10,212
60562	5,6382	-1,9254	25,239	10,527
60563	5,7715	-2,4925	24,811	10,37
60564	5,8593	-1,4459	24,819	10,372
60565	8,2704	-1,9546	27,614	10,911
60566	8,4557	-1,9577	28,316	11,076
60567	8,6236	-2,492	27,873	10,913
60568	8,6875	-1,4709	27,885	10,907
60569	7,635	-1,9473	27,771	11,095
60570	7,4218	-1,9685	27,062	10,908
60571	7,7898	-2,4905	27,332	10,932
60572	7,8587	-1,463	27,344	10,929
60573	7,8204	-1,9504	28,473	11,257
60574	8,0028	-1,9541	29,178	11,436
60575	8,1657	-2,4893	28,732	11,261
60576	8,2293	-1,4676	28,749	11,256
60577	7,193	-1,9442	28,624	11,448
60578	6,9782	-1,9657	27,912	11,249
60579	7,3356	-2,4883	28,182	11,277
60580	7,4171	-1,4599	28,198	11,271
60581	7,3755	-1,9478	29,33	11,624
60582	7,5514	-1,9522	30,041	11,823
60583	7,7034	-2,4857	29,584	11,633
60584	7,7819	-1,4654	29,609	11,627
60585	6,6063	-1,9594	26,505	10,852
60586	6,765	-1,9868	27,203	11,064
60587	6,9341	-2,5138	26,779	10,902
60588	7,0163	-1,4797	26,787	10,898
60589	6,7514	-1,9423	29,48	11,826
60590	6,5351	-1,9639	28,762	11,611
60591	6,8814	-2,4859	29,032	11,644
60592	6,9741	-1,4579	29,052	11,637
60593	6,9274	-1,9466	30,191	12,021
60594	7,0993	-1,9518	30,906	12,24
60595	7,2323	-2,4812	30,45	12,041
60596	7,3263	-1,4645	30,475	12,031
60597	5,8221	-1,9275	25,945	10,749
60598	6,013	-1,9303	26,649	10,978
60599	6,1395	-2,4897	26,22	10,817
60600	6,227	-1,4491	26,23	10,817
60601	6,3092	-1,9399	30,34	12,231
60602	6,0926	-1,9632	29,616	11,997
60603	6,4209	-2,4836	29,894	12,04
60604	6,5335	-1,4569	29,91	12,028
60605	6,4811	-1,945	31,055	12,446
60606	6,6453	-1,9524	31,775	12,692
60607	6,7547	-2,4783	31,319	12,482
60608	6,8777	-1,4649	31,341	12,463
60609	5,2073	-1,923	26,074	10,855
60610	5,0269	-1,9208	25,363	10,606
60611	5,3283	-2,491	25,645	10,692
60612	5,4214	-1,4435	25,659	10,695
60613	5,8646	-1,935	31,205	12,663
60614	5,6481	-1,9613	30,473	12,406
60615	5,953	-2,4831	30,757	12,463
60616	6,0904	-1,4547	30,772	12,446
60617	6,3203	-1,9854	28,049	11,415
60618	6,1717	-1,9577	27,346	11,189
60619	6,4803	-2,5129	27,619	11,243
60620	6,5757	-1,4778	27,632	11,238
60621	6,0288	-1,9424	31,924	12,905
60622	6,1765	-1,9551	32,645	13,185
60623	6,2593	-2,4769	32,19	12,962
60624	6,4194	-1,4659	32,213	12,937
60625	5,8762	-1,9847	28,897	11,786
60626	5,7332	-1,9565	28,19	11,546
60627	6,0284	-2,5116	28,467	11,605
60628	6,1371	-1,4767	28,478	11,597
60629	5,5846	-1,9288	27,487	11,322
60630	5,3982	-1,9258	26,778	11,083
60631	5,6996	-2,4888	27,057	11,154
60632	5,8032	-1,4476	27,067	11,151
60633	5,4315	-1,9846	29,749	12,177
60634	5,3014	-1,9559	29,033	11,919
60635	5,5775	-2,5126	29,318	11,988
60636	5,6993	-1,4763	29,328	11,977
60637	5,1583	-1,9276	28,325	11,681
60638	4,9702	-1,9248	27,611	11,431
60639	5,2575	-2,4874	27,896	11,508
60640	5,3697	-1,4467	27,908	11,505
60641	5,2141	-1,9425	31,325	12,834
60642	5,4292	-1,9403	32,068	13,117
60643	5,5328	-2,4591	31,619	12,902
60644	5,6465	-1,4507	31,639	12,893
60645	4,9975	-1,9687	30,594	12,583
60646	4,8697	-1,9525	29,881	12,311
60647	5,1183	-2,5172	30,172	12,392
60648	5,2556	-1,4769	30,178	12,378
60649	4,7396	-1,9239	29,165	12,055
60650	4,5059	-1,9563	28,443	11,796
60651	4,8205	-2,4874	28,738	11,878
60652	4,9506	-1,4457	28,743	11,87
60653	4,7838	-1,9218	26,902	11,194
60654	4,5672	-1,9511	26,185	10,938
60655	4,8908	-2,4894	26,477	11,027
60656	4,9969	-1,4422	26,489	11,028
60657	4,4516	-1,9282	30,72	12,712
60658	4,5989	-1,9263	31,45	13,007
60659	4,6301	-2,4833	31,011	12,812
60660	4,2596	-2,2305	30,938	12,828
60661	4,8336	-1,4575	31,026	12,793
60662	4,2424	-1,9166	24,768	10,429
60663	4,3868	-1,9489	25,474	10,69
60664	4,5364	-2,4929	25,052	10,526
60665	4,6359	-1,4388	25,067	10,531
60666	4,3237	-1,912	30,006	12,442
60667	4,0825	-1,9542	29,287	12,174
60668	4,3859	-2,4949	29,587	12,265
60669	4,5337	-1,4413	29,586	12,252
60670	4,1754	-1,9179	27,016	11,282
60671	4,3178	-1,9535	27,729	11,548
60672	4,4551	-2,4877	27,303	11,373
60673	4,5741	-1,4416	27,315	11,372
60674	3,7002	-1,9246	30,128	12,557
60675	3,9398	-1,8775	30,875	12,854
60676	3,9456	-2,5161	30,434	12,663
60677	3,925	-2,2057	30,644	12,758
60678	4,1209	-1,4287	30,427	12,646
60679	3,4679	-1,9165	24,162	10,222
60680	3,6095	-1,9441	24,875	10,497
60681	3,7459	-2,4972	24,449	10,329
60682	3,8506	-1,4368	24,47	10,339
60683	3,7539	-1,9764	25,581	10,758
60684	3,9587	-1,9471	26,299	11,028
60685	4,0649	-2,523	25,87	10,858
60686	4,1749	-1,4694	25,888	10,863
60687	2,8777	-1,9164	24,273	10,281
60688	2,6986	-1,923	23,531	9,9879
60689	3,0169	-2,4607	23,839	10,109
60690	3,0834	-1,4389	23,852	10,118
60691	3,0194	-1,944	24,987	10,556
60692	3,1825	-1,9406	25,702	10,835
60693	3,2888	-2,5239	25,26	10,657
60694	3,3991	-1,4665	25,288	10,669
60695	3,5283	-1,9438	27,132	11,379
60696	3,3873	-1,9114	26,42	11,103
60697	3,7006	-2,4578	26,709	11,202
60698	3,7799	-1,4363	26,718	11,206
60699	3,6707	-1,9794	27,844	11,643
60700	3,8488	-1,9866	28,565	11,919
60701	3,976	-2,5169	28,137	11,737
60702	4,1039	-1,4773	28,144	11,734
60703	2,453	-1,9121	25,121	10,627
60704	2,2965	-1,9128	24,383	10,332
60705	2,5942	-2,4564	24,668	10,443
60706	2,6702	-1,4369	24,693	10,456
60707	3,0687	-1,975	27,968	11,74
60708	2,8818	-1,9706	27,248	11,457
60709	3,2332	-2,4856	27,55	11,563
60710	3,3236	-1,4651	27,541	11,559
60711	3,2469	-1,9822	28,689	12,013
60712	3,459	-1,9668	29,409	12,293
60713	3,5496	-2,5344	28,989	12,116
60714	3,6805	-1,4771	28,984	12,107
60715	2,6162	-1,9088	25,835	10,905
60716	2,7408	-1,9382	26,537	11,183
60717	2,9241	-2,4516	26,108	11,006
60718	2,9975	-1,4321	26,122	11,014
60719	2,4393	-1,9383	28,091	11,821
60720	2,6469	-1,9228	28,819	12,114
60721	2,7637	-2,5282	28,379	11,924
60722	2,9071	-1,4629	28,374	11,92
60723	2,859	-1,9074	29,539	12,391
60724	3,0965	-1,9886	30,312	12,701
60725	3,1428	-2,5208	29,839	12,496
60726	3,5082	-2,2269	30,347	12,678
60727	3,3235	-1,4533	29,842	12,49
60728	2,0035	-1,9097	25,974	10,983
60729	1,8201	-1,9417	25,233	10,682
60730	2,1599	-2,4462	25,523	10,796
60731	2,2297	-1,4374	25,545	10,808
60732	2,1282	-1,9391	26,676	11,261
60733	2,2523	-1,9339	27,371	11,54
60734	2,447	-2,4787	26,959	11,365
60735	2,527	-1,4607	26,941	11,361
60736	1,493	-1,922	26,828	11,339
60737	1,3526	-1,9423	26,107	11,048
60738	1,6947	-2,4482	26,39	11,162
60739	1,7621	-1,4382	26,398	11,168
60740	1,6171	-1,9168	27,523	11,617
60741	1,9401	-1,7822	28,155	11,88
60742	2,0022	-2,4918	27,884	11,763
60743	1,7817	-2,1508	28,251	11,92
60744	2,0704	-1,4214	27,777	11,722
60745	2,1478	-1,7667	28,883	12,171
60746	2,0626	-1,8163	29,448	12,407
60747	2,3122	-1,9184	29,72	12,51
60748	2,3579	-2,4708	29,301	12,332
60749	1,9893	-2,1354	28,979	12,21
60750	2,4879	-1,3944	29,212	12,294
60751	0,97456	-1,8485	27,657	11,691
60752	0,8079	-1,9576	26,977	11,41
60753	1,1575	-2,4707	27,252	11,518
60754	1,3794	-2,1677	27,983	11,816
60755	1,2391	-1,4438	27,229	11,516
60756	1,2975	-1,7139	28,289	11,949
60757	1,5673	-1,7263	28,801	12,167
60758	1,8382	-2,391	28,661	12,093
60759	1,7024	-2,0331	28,615	12,078
60760	1,8174	-1,2859	28,47	12,022
60761	0,74071	-1,8137	28,286	11,97
60762	0,18793	-1,8412	27,859	11,786
60763	0,62348	-2,3776	28,081	11,879
60764	1,1391	-2,0825	28,384	11,991
60765	0,83405	-1,345	28,056	11,872
60766	5,5768	-1,9529	32,789	13,392
60767	5,6844	-1,9588	33,513	13,725
60768	5,7448	-2,4674	33,045	13,475
60769	5,7061	-2,2176	33,276	13,603
60770	5,9427	-1,4688	33,084	13,451
60771	1,0104	-1,8262	28,799	12,184
60772	0,51751	-1,876	28,686	12,143
60773	0,62998	-2,428	28,309	11,981
60774	1,1456	-2,133	28,612	12,093
60775	0,75904	-1,3824	28,572	12,096
60776	4,814	-1,9241	32,192	13,284
60777	4,9311	-1,9563	32,944	13,621
60778	5,0603	-2,4794	32,464	13,366
60779	5,3456	-2,2134	32,985	13,557
60780	5,2031	-1,4582	32,498	13,362
60781	1,4821	-1,776	29,366	12,404
60782	1,0099	-1,7582	29,355	12,413
60783	1,1564	-2,39	28,934	12,238
60784	1,4088	-2,095	28,897	12,208
60785	1,2838	-1,3302	29,068	12,291
60786	4,0871	-1,8755	31,605	13,146
60787	4,1843	-1,8894	32,298	13,446
60788	4,2336	-2,4229	31,852	13,237
60789	4,0723	-2,2038	31,374	13,049
60790	4,4326	-1,4269	31,894	13,233
60791	1,9401	-1,8657	29,921	12,612
60792	1,4826	-1,7344	29,919	12,638
60793	1,5049	-2,4142	29,529	12,467
60794	1,6173	-2,0827	29,179	12,315
60795	1,7283	-1,321	29,63	12,51
60796	3,336	-1,9414	31,059	12,994
60797	3,5144	-1,8551	31,721	13,27
60798	3,9091	-2,3989	31,571	13,159
60799	3,7478	-2,1798	31,093	12,974
60800	3,771	-1,3966	31,324	13,074
60801	2,5496	-1,9995	30,493	12,817
60802	2,0493	-1,8638	30,531	12,862
60803	2,1071	-2,5008	30,136	12,698
60804	1,8668	-2,1848	29,452	12,415
60805	2,2676	-1,4458	30,237	12,735
60806	2,7418	-1,9258	31,145	13,085
60807	2,7714	-2,5896	30,698	12,896
60808	3,1009	-2,632	31,025	13,005
60809	3,3213	-2,2697	30,828	12,898
60810	3,007	-1,4796	30,749	12,902
60811	5,145	-1,9216	34,394	14,326
60812	5,0386	-1,9622	33,667	13,948
60813	5,5913	-2,4617	34,201	14,102
60814	5,4531	-2,2193	33,709	13,888
60815	5,4365	-1,4712	33,936	14,012
60816	4,5989	-1,9528	35,171	14,892
60817	4,4763	-1,9182	34,477	14,496
60818	4,974	-2,3883	34,983	14,699
60819	4,8773	-1,4313	34,802	14,627
60820	4,0173	-2,0065	35,924	15,456
60821	3,9623	-2,012	35,299	15,048
60822	4,3378	-2,5389	35,707	15,286
60823	4,3323	-1,5085	35,538	15,183
60824	3,3742	-1,996	36,746	16,021
60825	3,3283	-2,0127	36,121	15,599
60826	3,6766	-2,5271	36,502	15,886
60827	3,6999	-1,4956	36,356	15,795
60828	2,7176	-2,0027	37,542	16,444
60829	2,6839	-2,0219	36,902	16,025
60830	3,0242	-2,5338	37,293	16,391
60831	3,0587	-1,5047	37,15	16,308
60832	1,9368	-1,9803	38,341	16,473
60833	2,0235	-2,0196	37,652	16,272
60834	2,3605	-2,5366	38,054	16,685
60835	2,3919	-1,5059	37,943	16,644
60836	1,1427	-1,9956	38,371	16,075
60837	1,6335	-2,5379	38,789	16,491
60838	0,62863	-2,288	39,087	15,811
60839	1,6102	-1,4742	38,665	16,456
60840	17,684	-1,8716	-1,4725	14,054
60841	18,085	-1,8895	-2,0271	14,195
60842	18,122	-2,5117	-1,689	14,274
60843	18,169	-1,4058	-1,5987	14,326
60844	16,714	-1,8952	-1,2564	13,525
60845	17,111	-1,8912	-1,8161	13,673
60846	17,168	-2,4415	-1,4608	13,769
60847	17,197	-1,4069	-1,3634	13,822
60848	15,695	-1,9097	-1,0793	12,941
60849	16,151	-1,9147	-1,632	13,122
60850	16,204	-2,4796	-1,2974	13,213
60851	16,225	-1,4399	-1,1546	13,27
60852	14,649	-1,8492	-0,9353	12,329
60853	15,149	-1,8697	-1,466	12,553
60854	15,219	-2,5107	-1,1889	12,642
60855	15,186	-1,4151	-0,9987	12,654
60856	13,59	-1,8265	-0,77649	11,721
60857	14,058	-1,7999	-1,2326	11,93
60858	14,217	-2,3598	-0,82849	12,067
60859	14,189	-1,3622	-0,88831	12,063
60860	4,3014	-1,9217	33,049	13,778
60861	4,3699	-1,9589	33,751	14,125
60862	4,4376	-2,5103	33,331	13,902
60863	4,7639	-2,491	33,614	13,987
60864	4,2082	-2,2134	33,373	13,942
60865	5,0603	-2,221	33,431	13,826
60866	4,6676	-1,4662	33,365	13,886
60867	12,638	-1,8605	-0,5141	11,219
60868	13,056	-1,914	-1,0416	11,392
60869	13,247	-2,3829	-0,68669	11,525
60870	13,123	-1,3845	-0,72935	11,474
60871	3,6116	-1,869	32,414	13,567
60872	3,6776	-1,8823	33,208	13,941
60873	3,7326	-2,4162	32,593	13,636
60874	3,8638	-2,1711	33,034	13,832
60875	3,9546	-1,4157	32,717	13,68
60876	3,7462	-1,9195	33,91	14,284
60877	3,8397	-1,9774	34,605	14,657
60878	4,1684	-2,4846	34,306	14,456
60879	3,9323	-2,2083	33,735	14,176
60880	4,1232	-1,4629	34,131	14,373
60881	11,846	-1,9201	-0,22726	10,839
60882	12,2	-1,9152	-0,74244	10,982
60883	12,398	-2,5327	-0,28662	11,108
60884	11,808	-2,0568	0,13265	10,8
60885	12,318	-1,3954	-0,3364	11,075
60886	2,9202	-1,8395	31,808	13,357
60887	2,9816	-1,8596	32,494	13,666
60888	3,3873	-2,4058	32,297	13,538
60889	3,5184	-2,1607	32,738	13,732
60890	3,2662	-1,3966	32,116	13,478
60891	3,1361	-1,9342	34,075	14,421
60892	3,0477	-1,873	33,289	14,038
60893	3,4231	-2,4848	33,857	14,293
60894	3,5845	-2,1741	33,532	14,106
60895	3,409	-1,4229	33,621	14,182
60896	11,23	-1,9297	0,14401	10,555
60897	11,349	-1,9148	-0,48165	10,595
60898	11,669	-2,4835	-0,10051	10,752
60899	11,422	-2,1137	0,24623	10,621
60900	11,54	-1,4544	-2,6069e-002	10,706
60901	3,2296	-1,9921	34,77	14,792
60902	3,2732	-2,0182	35,496	15,194
60903	3,6228	-2,5315	35,28	15,066
60904	3,5753	-1,4941	35,03	14,932
60905	2,2415	-1,7901	31,182	13,127
60906	2,2764	-1,9566	31,916	13,454
60907	2,3436	-2,5039	31,44	13,237
60908	2,6883	-2,492	31,735	13,346
60909	2,5714	-1,3724	31,501	13,26
60910	2,5089	-2,0304	34,83	14,815
60911	2,5586	-1,947	34,071	14,45
60912	2,8945	-2,5162	34,538	14,678
60913	2,3074	-2,3125	34,301	14,552
60914	2,8616	-1,4719	34,367	14,595
60915	2,5525	-2,0564	35,557	15,217
60916	2,638	-2,0386	36,278	15,603
60917	2,9721	-2,5657	36,064	15,542
60918	2,967	-1,5093	35,805	15,391
60919	1,5917	-1,7325	30,529	12,886
60920	1,6072	-1,7776	31,311	13,199
60921	1,6763	-2,4694	30,837	13,007
60922	0,63652	-2,2126	32,118	13,565
60923	1,9274	-1,3262	30,869	13,02
60924	1,8455	-1,9782	34,798	14,794
60925	1,8283	-2,1065	35,572	15,135
60926	1,8718	-2,6365	35,109	14,937
60927	2,2195	-2,5935	35,418	15,113
60928	1,9424	-2,3598	34,69	14,747
60929	2,1957	-1,5341	35,153	14,983
60930	2,3378	-1,9767	32,602	13,762
60931	2,4702	-1,8858	33,285	14,069
60932	2,7572	-2,4511	33,065	13,953
60933	3,2338	-2,1617	33,114	13,925
60934	2,7081	-1,4076	32,884	13,877
60935	10,629	-1,8912	0,78868	10,278
60936	10,71	-1,8797	4,4805e-002	10,332
60937	11,285	-2,4526	0,38573	10,581
60938	11,192	-2,0663	0,50392	10,525
60939	10,955	-1,4132	0,48101	10,44
60940	1,702	-2,0794	32,683	13,819
60941	1,6421	-1,9441	32,045	13,527
60942	1,7503	-2,6208	32,284	13,648
60943	2,1112	-2,6192	32,541	13,75
60944	2,0184	-1,5061	32,292	13,646
60945	1,8344	-1,9885	33,365	14,123
60946	1,8953	-1,8949	34,038	14,427
60947	2,2657	-2,5358	33,836	14,34
60948	1,9922	-2,2764	33,93	14,381
60949	2,2004	-1,4278	33,672	14,269
60950	9,9713	-1,9506	1,5502	9,9696
60951	9,9733	-1,91	0,81002	10,015
60952	10,694	-2,5104	1,1375	10,289
60953	10,022	-2,4697	1,1767	10,02
60954	10,821	-2,0752	0,8909	10,348
60955	10,432	-2,2031	1,2529	10,173
60956	10,228	-1,4274	1,1718	10,106
60957	1,1042	-1,9853	32,763	13,85
60958	1,1593	-1,9939	33,374	14,132
60959	1,2166	-2,6091	32,975	13,959
60960	1,5593	-2,6239	33,267	14,084
60961	1,5832	-2,3539	33,595	14,232
60962	1,4603	-1,4974	33,007	13,975
60963	1,9898	-2,0388	37,012	15,847
60964	1,9138	-2,0887	36,293	15,521
60965	2,3192	-2,5745	36,837	15,885
60966	2,317	-1,5236	36,577	15,746
60967	1,0104	-1,7166	29,909	12,647
60968	1,0048	-1,697	30,543	12,911
60969	0,97553	-2,4331	30,164	12,751
60970	0,31935	-2,1852	31,779	13,455
60971	1,2952	-1,2884	30,233	12,782
60972	1,2295	-2,0349	37,681	15,865
60973	1,2566	-2,0599	36,966	15,668
60974	1,6726	-2,5641	37,474	15,977
60975	1,2303	-2,3624	37,399	15,798
60976	1,6633	-1,5129	37,29	15,906
60977	1,248	-1,8911	34,741	14,727
60978	1,2202	-1,9003	34,047	14,435
60979	1,3195	-2,5214	34,405	14,589
60980	1,6441	-2,2603	34,269	14,535
60981	1,5573	-1,4149	34,384	14,593
60982	1,2308	-2,0194	35,515	15,07
60983	1,1807	-2,1098	36,247	15,339
60984	1,2556	-2,6173	35,843	15,206
60985	1,6199	-2,6691	36,136	15,38
60986	1,5631	-1,5658	35,873	15,257
60987	0,44101	-1,766	29,876	12,633
60988	0,51699	-1,808	29,242	12,372
60989	0,54999	-2,2999	29,65	12,542
60990	0,73574	-1,3007	29,625	12,536
60991	0,62741	-1,9087	35,46	14,995
60992	0,62527	-1,8926	34,76	14,723
60993	0,75019	-2,4713	35,102	14,866
60994	0,95181	-1,4299	35,11	14,882
60995	9,4527	-2,0052	2,3176	9,7118
60996	9,3972	-1,9851	1,557	9,7681
60997	9,6358	-2,5344	1,9449	9,8197
60998	9,6817	-1,4909	1,9404	9,8445
60999	0,4476	-2,0249	37,611	15,667
61000	0,42464	-1,9915	38,306	15,734
61001	0,62933	-2,6232	37,981	15,762
61002	0,94747	-2,654	38,203	15,925
61003	0,28024	-2,3265	38,716	15,549
61004	0,79513	-2,3616	37,717	15,746
61005	0,89199	-1,5086	37,948	15,82
61006	0,57722	-1,999	36,192	15,266
61007	0,47471	-2,0499	36,895	15,467
61008	0,62585	-2,559	36,559	15,39
61009	0,93329	-2,5907	36,863	15,535
61010	0,82224	-2,3866	37,002	15,547
61011	0,9155	-1,5285	36,542	15,422
61012	1,0444	-1,85	32,125	13,558
61013	1,0203	-1,7422	31,325	13,223
61014	1,1	-2,5013	31,684	13,373
61015	0,33489	-2,2303	32,561	13,766
61016	1,3529	-1,3582	31,681	13,382
61017	-0,14439	-1,9541	36,159	15,236
61018	-9,024e-002	-1,9514	35,461	14,986
61019	0,11133	-2,47	35,811	15,114
61020	0,29976	-1,4399	35,811	15,118
61021	-0,24689	-2,005	36,862	15,438
61022	-0,27755	-1,9967	37,558	15,583
61023	-2,9682e-002	-2,5405	37,22	15,521
61024	0,44842	-2,3524	37,329	15,599
61025	0,18291	-1,4992	37,218	15,52
61026	-0,30051	-1,9633	38,253	15,65
61027	-5,8876e-002	-2,5632	38,569	15,648
61028	-8,9436e-002	-2,2839	39,022	15,47
61029	7,8858e-002	-1,4293	38,594	15,642
61030	0,51883	-1,8547	32,053	13,547
61031	0,49352	-1,8921	32,815	13,88
61032	0,59613	-2,5546	32,454	13,723
61033	7,3644e-002	-2,285	32,931	13,941
61034	0,81332	-1,4212	32,411	13,712
61035	-0,87686	-1,9609	36,856	15,514
61036	-0,8872	-1,988	36,139	15,27
61037	-0,772	-2,5382	36,496	15,381
61038	-0,50382	-1,4884	36,499	15,356
61039	0,43541	-1,7464	30,51	12,897
61040	0,49475	-1,7469	31,253	13,213
61041	0,70574	-2,4251	30,517	12,898
61042	4,9565e-002	-2,1771	32,131	13,607
61043	0,76753	-1,2943	30,906	13,074
61044	0,5974	-1,9018	34,067	14,43
61045	0,54855	-1,9007	33,426	14,16
61046	0,62978	-2,531	33,704	14,282
61047	1,3171	-2,2818	33,939	14,386
61048	0,89767	-1,4332	33,715	14,294
61049	-0,10324	-1,8854	30,396	12,853
61050	-0,25502	-1,8652	29,787	12,595
61051	0,24482	-2,3377	29,899	12,647
61052	0,1774	-1,3562	30,161	12,764
61053	-4,3899e-002	-1,8859	31,138	13,168
61054	-2,3378e-002	-1,8202	31,975	13,527
61055	0,18998	-2,4857	31,343	13,241
61056	-0,19066	-2,235	32,489	13,767
61057	0,25026	-1,3655	31,605	13,379
61058	8,9247	-2,0284	3,1354	9,4343
61059	8,8284	-2,0186	2,3804	9,5023
61060	9,2499	-2,5289	2,7441	9,5966
61061	9,1796	-1,5089	2,7299	9,5817
61062	-0,62022	-1,97	31,023	13,122
61063	-0,60007	-1,9828	30,316	12,817
61064	-0,33379	-2,4888	30,566	12,925
61065	-0,32883	-1,4509	30,758	13,019
61066	-9,2388e-002	-1,9353	34,761	14,714
61067	-0,10244	-1,8768	34,038	14,423
61068	0,11792	-2,4515	34,414	14,569
61069	0,30218	-1,4137	34,422	14,583
61070	8,3165	-2,1073	4,0382	9,1108
61071	8,2734	-2,0364	3,1989	9,23
61072	8,7379	-2,5362	3,5319	9,3203
61073	8,6352	-1,5379	3,5588	9,2914
61074	-0,90751	-1,9527	37,552	15,657
61075	-0,90511	-1,8938	38,246	15,876
61076	-0,75604	-2,4952	37,927	15,699
61077	-1,694	-2,3502	38,457	16,655
61078	-0,55927	-1,4669	37,884	15,658
61079	7,7677	-2,1777	4,9131	8,8022
61080	7,6407	-2,1618	4,1174	8,9109
61081	8,3085	-2,6267	4,3097	9,0699
61082	8,2194	-2,3182	4,6582	8,978
61083	8,0343	-1,613	4,4674	8,9644
61084	-1,4504	-1,8841	36,773	15,585
61085	-1,5306	-1,8194	37,473	15,947
61086	-1,4395	-2,4539	37,19	15,741
61087	-1,9455	-2,3251	38,115	16,674
61088	-1,0997	-1,4478	37,197	15,666
61089	-0,15129	-1,8757	33,398	14,154
61090	-4,8686e-002	-1,8576	32,737	13,86
61091	3,3195e-002	-2,5087	33,125	14,039
61092	-0,21596	-2,2724	33,251	14,1
61093	0,23662	-1,4099	33,079	14,019
61094	-0,83305	-1,9853	35,441	15,02
61095	-0,78182	-1,9378	34,694	14,699
61096	-0,57867	-2,5044	35,103	14,861
61097	-0,42036	-1,4734	35,101	14,858
61098	-0,71583	-1,8628	33,318	14,116
61099	-0,79188	-1,8793	33,971	14,408
61100	-0,57423	-2,5069	33,733	14,301
61101	-0,57117	-2,2685	33,514	14,224
61102	-0,43122	-1,4074	33,672	14,28
61103	-1,4607	-1,9112	36,056	15,343
61104	-1,4314	-1,9353	35,373	15,022
61105	-1,248	-2,4936	35,768	15,188
61106	-1,1078	-1,4737	35,771	15,171
61107	7,2609	-2,068	5,7646	8,5087
61108	7,1377	-2,1888	4,9769	8,6322
61109	7,8982	-2,6275	5,3031	8,7678
61110	7,2901	-2,5929	5,4871	8,5731
61111	6,9708	-2,4123	5,5227	8,4962
61112	7,9823	-2,3287	5,0553	8,8361
61113	7,6629	-2,4089	5,4569	8,6702
61114	7,5433	-1,6164	5,284	8,6788
61115	-2,0935	-1,8567	36,64	15,729
61116	-2,0243	-1,8805	35,989	15,367
61117	-1,9435	-2,388	36,442	15,579
61118	-1,7091	-1,4024	36,383	15,52
61119	-0,5997	-1,9044	31,86	13,481
61120	-0,61323	-1,8447	32,657	13,82
61121	-0,35777	-2,5111	32,08	13,568
61122	-0,46857	-2,2505	32,853	13,928
61123	-0,30425	-1,3769	32,327	13,693
61124	-1,2094	-1,9704	31,721	13,42
61125	-1,1571	-1,9833	31,02	13,112
61126	-0,90006	-2,5008	31,278	13,232
61127	-0,89293	-1,4657	31,449	13,313
61128	-1,2229	-1,9108	32,518	13,76
61129	-1,276	-1,861	33,167	14,04
61130	-0,94676	-2,5013	32,717	13,85
61131	-0,78051	-2,2596	33,171	14,063
61132	-0,92864	-1,3932	32,982	13,971
61133	-1,5282	-1,7606	38,167	16,16
61134	-1,4536	-1,8585	38,885	16,478
61135	-1,2475	-2,5038	38,616	16,167
61136	-0,69404	-2,2144	39,015	15,696
61137	-1,9431	-2,2662	38,809	16,886
61138	-1,1443	-1,3832	38,573	16,084
61139	-1,853	-1,9716	32,357	13,681
61140	-1,7918	-1,9642	31,694	13,39
61141	-1,521	-2,4892	31,966	13,525
61142	-1,5163	-1,4586	32,129	13,597
61143	-1,352	-1,8776	33,82	14,333
61144	-1,3802	-1,8879	34,625	14,701
61145	-1,0848	-2,5436	34,404	14,594
61146	-0,85655	-2,2761	33,825	14,355
61147	-1,0413	-1,4187	34,305	14,553
61148	6,6699	-1,9875	6,6181	8,2062
61149	6,5749	-2,037	5,804	8,3461
61150	6,8114	-2,451	6,311	8,2982
61151	6,701	-2,2921	5,9771	8,3446
61152	6,985	-1,4891	6,1628	8,373
61153	-1,9061	-1,9218	33,006	13,962
61154	-1,9514	-1,8755	33,649	14,257
61155	-1,6002	-2,5027	33,215	14,072
61156	-1,1313	-2,2668	33,363	14,145
61157	-1,6168	-1,4106	33,457	14,177
61158	-2,1738	-1,7921	37,34	16,088
61159	-2,2644	-1,8247	37,982	16,587
61160	-1,8111	-2,3458	37,452	16,018
61161	-2,3171	-2,217	38,378	16,953
61162	-1,8418	-1,3318	37,754	16,214
61163	-2,5242	-1,9815	32,974	13,921
61164	-2,4602	-1,9313	32,356	13,646
61165	-2,1846	-2,4938	32,569	13,763
61166	-2,1846	-1,4609	32,758	13,849
61167	-1,9796	-1,8858	34,455	14,624
61168	-1,995	-1,9047	35,306	15,048
61169	-1,6926	-2,5656	35,1	14,926
61170	-1,1595	-2,2771	34,168	14,512
61171	-1,6694	-1,423	34,978	14,87
61172	6,0411	-2,0431	7,4377	7,9135
61173	5,9117	-2,055	6,6154	8,0454
61174	6,2408	-2,5221	7,0797	8,0239
61175	6,3799	-2,3318	6,3763	8,1872
61176	6,3505	-1,5294	6,9826	8,069
61177	-2,5696	-1,9352	33,618	14,217
61178	-2,6119	-1,9072	34,394	14,614
61179	-2,2512	-2,4945	33,779	14,318
61180	-1,4559	-2,274	33,654	14,268
61181	-2,2753	-1,4212	34,066	14,455
61182	-2,7099	-1,9012	36,6	15,804
61183	-2,8014	-1,981	37,229	16,281
61184	-2,2953	-2,4041	36,746	15,808
61185	-2,4219	-1,419	36,973	16,
61186	-3,2224	-1,9645	33,674	14,206
61187	-3,1581	-1,9549	32,975	13,872
61188	-2,8648	-2,4992	33,205	14,005
61189	-2,8703	-1,4748	33,38	14,098
61190	5,413	-2,0801	8,2882	7,6398
61191	5,3077	-2,0709	7,5415	7,758
61192	5,7439	-2,5517	7,8923	7,7726
61193	5,7258	-1,5461	7,8295	7,7824
61194	-2,6273	-1,9261	35,245	15,038
61195	-2,6407	-1,925	35,949	15,443
61196	-2,3519	-2,6142	35,841	15,349
61197	-1,4714	-2,2929	34,505	14,692
61198	-2,3102	-1,4423	35,644	15,245
61199	2,1174	-1,9194	23,641	10,039
61200	2,0399	-1,9801	22,93	9,7545
61201	2,2415	-2,4754	23,203	9,8638
61202	2,3108	-1,4473	23,209	9,87
61203	-3,2971	-1,9334	35,15	15,02
61204	-3,2647	-1,9365	34,45	14,605
61205	-2,9005	-2,53	34,566	14,696
61206	-1,7918	-2,2985	34,108	14,482
61207	-2,9514	-1,4497	34,85	14,853
61208	-3,3104	-1,9323	35,853	15,424
61209	-3,3592	-2,0128	36,495	15,859
61210	-2,6857	-2,6188	36,147	15,555
61211	-1,8052	-2,2975	34,811	14,888
61212	-2,9843	-1,4465	36,251	15,671
61213	4,7349	-2,066	9,2034	7,3785
61214	4,7133	-2,1073	8,3992	7,5041
61215	5,1776	-2,5744	8,7402	7,524
61216	5,1197	-1,5666	8,7038	7,5215
61217	1,6636	-1,9424	24,496	10,388
61218	1,559	-1,9162	23,808	10,108
61219	1,8304	-2,4484	24,043	10,204
61220	1,9277	-1,4351	24,071	10,219
61221	1,1692	-1,9743	25,366	10,75
61222	0,99607	-1,8769	24,615	10,442
61223	1,3528	-2,4755	24,901	10,558
61224	1,4638	-1,4638	24,952	10,582
61225	-3,97	-1,9715	34,982	14,876
61226	-4,0063	-2,0212	35,695	15,311
61227	-3,5809	-2,5033	35,17	15,039
61228	-2,1411	-2,3002	34,409	14,641
61229	-3,6479	-1,4504	35,439	15,193
61230	0,66505	-1,942	25,58	10,843
61231	0,66744	-1,9778	26,256	11,121
61232	0,86453	-2,4756	25,802	10,933
61233	0,96949	-1,4674	25,838	10,951
61234	1,4816	-1,9769	23,097	9,8225
61235	1,1177	-2,0056	22,24	9,474
61236	1,6011	-2,5243	22,601	9,6257
61237	1,6494	-1,5022	22,618	9,6358
61238	-3,9377	-1,9746	34,283	14,459
61239	-3,8894	-1,9485	33,649	14,13
61240	-3,5628	-2,5152	33,82	14,252
61241	-3,5886	-1,4582	34,053	14,386
61242	4,031	-2,1084	10,08	7,1647
61243	4,0583	-2,0612	9,3187	7,2628
61244	4,5722	-2,4946	9,6568	7,2925
61245	4,1898	-2,2914	10,276	7,1658
61246	4,4813	-2,3689	9,8723	7,2508
61247	4,4581	-1,5259	9,7447	7,2649
61248	-4,6326	-2,0084	34,141	14,288
61249	-4,6266	-1,9687	34,958	14,756
61250	-4,2486	-2,5465	34,336	14,466
61251	-4,3059	-1,4928	34,571	14,596
61252	0,89148	-1,8507	23,927	10,162
61253	0,87439	-1,8176	23,28	9,8965
61254	1,0012	-2,3981	23,346	9,9233
61255	0,88255	-2,1609	23,511	9,9884
61256	1,2024	-1,4347	23,473	9,9802
61257	3,3487	-2,1848	10,894	7,009
61258	3,2999	-2,1135	10,122	7,0688
61259	3,3759	-2,5472	10,743	7,018
61260	3,9497	-2,6266	10,411	7,1219
61261	3,8436	-2,369	10,667	7,087
61262	4,1351	-2,4464	10,264	7,1598
61263	3,66	-1,6077	10,494	7,0774
61264	0,49194	-1,8446	24,829	10,536
61265	0,4351	-1,7515	24,11	10,24
61266	0,25734	-2,341	24,212	10,279
61267	0,57885	-2,0896	23,895	10,148
61268	0,69784	-1,3578	24,365	10,348
61269	-0,17904	-1,9072	29,152	12,332
61270	-3,527e-002	-1,9035	28,259	11,961
61271	-3,1458e-002	-2,5016	28,806	12,191
61272	0,26406	-1,4016	28,883	12,23
61273	2,7124	-2,0985	11,712	6,9084
61274	2,585	-2,1012	11,017	6,9244
61275	2,8879	-2,5545	11,382	6,9344
61276	3,0137	-1,6068	11,308	6,9502
61277	-0,75184	-1,9626	29,707	12,561
61278	-0,98182	-1,9331	29,094	12,299
61279	-0,4983	-2,5209	29,101	12,312
61280	-0,50864	-1,4254	29,419	12,451
61281	3,0575e-002	-1,8766	25,095	10,645
61282	6,6445e-002	-1,9177	25,779	10,926
61283	0,21702	-2,4473	25,339	10,746
61284	0,36353	-1,4275	25,33	10,747
61285	-1,137	-1,9961	30,313	12,806
61286	-1,1038	-1,9968	29,743	12,564
61287	-0,78672	-2,5597	29,787	12,592
61288	-0,87105	-1,4776	30,044	12,706
61289	-2,6269e-002	-1,7836	24,376	10,349
61290	8,7257e-002	-1,7334	23,774	10,099
61291	0,41801	-1,7185	23,463	9,9734
61292	0,10467	-2,3131	24,01	10,197
61293	0,42618	-2,0618	23,694	10,066
61294	0,25192	-1,3156	23,93	10,17
61295	2,1671	-2,0133	12,535	6,8715
61296	1,9999	-2,0446	11,809	6,8502
61297	2,3756	-2,5177	12,121	6,8777
61298	2,4215	-1,5072	12,109	6,8816
61299	-0,51398	-1,8485	24,467	10,385
61300	-0,5813	-1,85	25,159	10,67
61301	-0,45072	-2,415	24,951	10,587
61302	-0,27502	-1,3749	24,816	10,535
61303	1,7289	-2,0094	13,376	6,8964
61304	1,3844	-1,968	12,7	6,8312
61305	1,8931	-2,5386	12,934	6,8722
61306	1,9341	-1,5037	12,959	6,8769
61307	-0,40046	-1,7983	23,866	10,133
61308	-5,7643e-002	-1,7985	23,29	9,8995
61309	-9,0502e-002	-2,3228	23,876	10,139
61310	-0,15632	-1,3243	23,656	10,055
61311	-1,6439	-2,001	30,283	12,782
61312	-1,7395	-1,977	30,993	13,08
61313	-1,4273	-2,5191	30,571	12,912
61314	-1,4174	-1,486	30,719	12,982
61315	-1,0288	-1,9	24,427	10,362
61316	-0,86573	-1,9015	23,77	10,096
61317	-0,72869	-2,4238	24,225	10,282
61318	-0,71171	-1,3671	24,057	10,22
61319	0,51053	-1,8463	22,424	9,5512
61320	0,27311	-1,7836	22,978	9,7748
61321	0,21358	-2,4055	23,023	9,7929
61322	0,42201	-2,4012	22,834	9,7154
61323	0,56176	-2,0566	23,248	9,8831
61324	0,28722	-2,1337	22,647	9,64
61325	0,54611	-1,3137	22,989	9,7849
61326	1,363	-1,995	14,177	6,972
61327	1,0876	-1,9612	13,602	6,8894
61328	1,5117	-2,5193	13,794	6,9286
61329	1,5727	-1,487	13,759	6,9275
61330	4,2174e-002	-2,0019	21,946	9,3578
61331	6,1183e-002	-2,0105	21,276	9,0894
61332	0,22364	-2,6038	21,686	9,2545
61333	0,49585	-2,5583	21,829	9,3152
61334	0,24415	-2,2667	22,054	9,4024
61335	0,36753	-2,358	21,374	9,1298
61336	0,5096	-1,4652	21,836	9,32
61337	2,127e-002	-1,9503	27,18	11,507
61338	6,8829e-002	-1,9535	26,455	11,205
61339	0,35983	-2,4874	26,697	11,306
61340	0,41343	-1,48	26,743	11,331
61341	0,90815	-2,0258	15,003	7,0953
61342	0,87849	-1,9854	14,385	6,9846
61343	1,1689	-2,5352	14,593	7,029
61344	1,1923	-1,4762	14,569	7,0269
61345	-1,6107	-2,0018	29,714	12,54
61346	-1,3338	-1,9674	29,13	12,305
61347	-1,1958	-2,5629	29,378	12,411
61348	-1,3389	-1,4836	29,601	12,505
61349	0,6339	-1,9503	15,872	7,279
61350	0,50823	-1,8275	16,851	7,5347
61351	0,18503	-1,8485	16,202	7,3548
61352	0,583	-2,5192	16,247	7,372
61353	0,64371	-1,3803	16,357	7,4031
61354	0,31976	-2,0075	14,957	7,0745
61355	0,17715	-1,9654	15,773	7,248
61356	0,22431	-2,6333	15,411	7,166
61357	0,61984	-2,6441	15,373	7,1637
61358	0,647	-1,5099	15,399	7,1709
61359	4,5059e-002	-1,8772	17,188	7,6313
61360	5,7725e-002	-1,7885	17,71	7,7905
61361	0,47707	-2,4173	17,546	7,7434
61362	0,18895	-2,1771	18,226	7,9597
61363	0,43375	-1,3569	17,347	7,6816
61364	-0,66421	-1,9576	27,371	11,578
61365	-0,83805	-1,9294	28,2	11,925
61366	-0,57139	-2,5583	28,009	11,851
61367	-0,30773	-2,5247	27,594	11,682
61368	-0,30365	-1,4459	27,734	11,747
61369	-2,0832	-2,0212	29,546	12,453
61370	-2,2234	-1,9966	30,226	12,729
61371	-1,9106	-2,5487	29,848	12,59
61372	-1,8563	-1,4987	29,96	12,643
61373	-0,61665	-1,9609	26,646	11,274
61374	-0,54543	-1,8911	25,842	10,95
61375	-0,32689	-2,4623	26,176	11,09
61376	-0,26445	-1,4452	26,188	11,101
61377	0,2901	-1,9671	14,339	6,9658
61378	0,6031	-1,9515	13,809	6,8994
61379	0,49204	-2,5734	14,27	6,9583
61380	0,60185	-1,4841	14,213	6,9525
61381	-1,3431	-2,0103	27,375	11,565
61382	-1,2814	-1,9995	26,635	11,263
61383	-1,0408	-2,565	27,074	11,441
61384	-0,98411	-1,5013	27,066	11,453
61385	-0,13597	-1,9371	14,085	6,9299
61386	-0,39272	-1,9288	14,847	7,0543
61387	-0,16237	-2,4805	14,572	7,0042
61388	4,2968e-002	-1,4576	14,539	6,9994
61389	-1,0961	-1,9014	25,118	10,648
61390	-1,2101	-1,9297	25,832	10,938
61391	-0,89698	-2,4246	25,505	10,81
61392	-0,83261	-1,403	25,494	10,811
61393	-0,19525	-1,9393	22,5	9,5808
61394	-0,52292	-1,9017	23,194	9,8596
61395	-6,6904e-002	-2,4759	22,984	9,7783
61396	6,7309e-003	-2,2041	22,608	9,625
61397	-0,13956	-1,3913	22,994	9,7847
61398	-1,7285	-1,9734	25,089	10,625
61399	-1,5748	-1,9606	24,385	10,343
61400	-1,3996	-2,4741	24,796	10,513
61401	-1,3355	-1,4351	24,734	10,494
61402	-0,89056	-2,0113	22,354	9,5202
61403	-0,71617	-2,0243	21,656	9,2425
61404	-0,56371	-2,5637	21,988	9,3761
61405	-0,18114	-2,2893	22,169	9,448
61406	-0,44735	-1,4813	22,115	9,431
61407	-0,69716	-2,0329	20,986	8,9773
61408	-0,56649	-2,0214	20,229	8,6873
61409	-0,5111	-2,6175	20,608	8,8308
61410	-3,8755e-002	-2,3892	20,819	8,9096
61411	-0,23531	-1,4939	20,743	8,885
61412	-1,8062	-1,9868	28,962	12,215
61413	-1,517	-1,9821	28,205	11,915
61414	-1,6182	-2,5467	28,562	12,061
61415	-1,0511	-2,5686	28,548	12,068
61416	-1,2662	-1,4566	28,684	12,129
61417	-0,27813	-1,8982	16,54	7,4469
61418	-0,5366	-1,9509	17,195	7,6368
61419	-0,31705	-2,518	16,942	7,5625
61420	-0,25316	-1,433	16,971	7,5698
61421	-2,458	-2,0043	28,771	12,108
61422	-2,6739	-2,0207	29,464	12,377
61423	-2,4282	-2,564	28,963	12,19
61424	-2,2619	-1,5136	29,195	12,301
61425	0,17703	-1,9216	13,556	6,8663
61426	0,74306	-1,9197	12,926	6,8219
61427	0,5515	-2,5036	13,373	6,8529
61428	0,67028	-1,445	13,391	6,8565
61429	-2,1688	-1,9996	28,014	11,803
61430	-2,0133	-1,9962	27,25	11,501
61431	-1,9097	-2,5472	27,696	11,689
61432	-1,7426	-1,5035	27,683	11,695
61433	-0,71858	-1,8823	14,075	6,9367
61434	-0,38584	-1,9589	13,309	6,8448
61435	-0,48139	-2,4784	13,661	6,8804
61436	-0,28392	-1,4513	13,716	6,8846
61437	-1,2182	-1,9738	23,048	9,8032
61438	-1,4117	-1,9621	23,728	10,076
61439	-1,0649	-2,539	23,488	9,9826
61440	-1,0164	-1,4222	23,367	9,9375
61441	-0,53532	-1,8867	15,663	7,2264
61442	-0,74638	-1,9129	16,371	7,405
61443	-0,42875	-2,472	16,02	7,3103
61444	-0,28169	-1,4074	16,139	7,3408
61445	-1,6036	-1,9965	22,229	9,4755
61446	-1,7929	-1,9938	22,935	9,7551
61447	-1,4321	-2,5049	22,655	9,6456
61448	-1,3685	-1,4857	22,634	9,6409
61449	-0,97532	-1,8739	14,837	7,066
61450	-1,1472	-1,9056	15,544	7,214
61451	-0,89317	-2,4502	15,171	7,1275
61452	-0,75691	-1,4338	15,213	7,1338
61453	-2,8482	-1,9698	27,935	11,741
61454	-3,0624	-1,9922	28,647	12,01
61455	-2,7271	-2,5141	28,315	11,902
61456	-2,6197	-1,4809	28,354	11,931
61457	-1,3057	-1,8977	14,025	6,9486
61458	-1,5921	-1,8365	14,761	7,0749
61459	-1,2955	-2,3612	14,265	6,982
61460	-1,1403	-1,4045	14,414	6,9995
61461	-1,4292	-2,0094	21,531	9,1965
61462	-1,2534	-2,0113	20,81	8,9147
61463	-1,1111	-2,5405	21,236	9,0797
61464	-0,99115	-1,5071	21,264	9,0937
61465	-2,399	-1,9238	31,694	13,353
61466	-2,3189	-1,9726	30,936	13,029
61467	-2,0761	-2,4898	31,238	13,175
61468	-2,0576	-1,4628	31,37	13,239
61469	-2,0192	-1,9922	21,398	9,1535
61470	-2,1989	-1,9882	22,109	9,43
61471	-1,8546	-2,5033	21,821	9,3171
61472	-1,7747	-1,4893	21,806	9,3139
61473	-1,8425	-2,0017	25,802	10,916
61474	-1,9515	-1,9854	26,51	11,198
61475	-1,6253	-2,5177	26,193	11,082
61476	-1,5648	-1,4926	26,194	11,088
61477	-3,0941	-1,9046	32,358	13,595
61478	-2,9941	-1,8936	31,654	13,292
61479	-2,7545	-2,4475	31,926	13,434
61480	-2,7447	-1,4182	32,063	13,502
61481	-2,4667	-2,0026	25,736	10,869
61482	-2,3181	-2,0014	25,024	10,591
61483	-2,1194	-2,5117	25,425	10,757
61484	-2,0667	-1,4894	25,406	10,755
61485	-3,8251	-1,939	32,951	13,793
61486	-3,7257	-1,9283	32,25	13,482
61487	-3,4793	-2,512	32,467	13,611
61488	-3,4621	-1,4444	32,658	13,709
61489	-2,6927	-1,9664	27,171	11,437
61490	-2,5757	-1,9863	26,444	11,152
61491	-2,3995	-2,5439	26,855	11,325
61492	-2,305	-1,4797	26,839	11,329
61493	-4,5843	-1,9823	33,508	13,955
61494	-4,4839	-1,9616	32,84	13,651
61495	-4,2119	-2,5068	33,089	13,814
61496	-4,2067	-1,4699	33,249	13,902
61497	-3,3106	-1,9538	27,095	11,378
61498	-3,5154	-1,9841	27,814	11,643
61499	-3,1663	-2,5038	27,499	11,548
61500	-3,0698	-1,4757	27,513	11,564
61501	-5,2945	-2,0063	33,375	13,754
61502	-5,3877	-1,9769	34,07	14,069
61503	-4,9792	-2,5131	33,723	14,001
61504	-4,9756	-1,5056	33,81	14,055
61505	-2,914	-1,9424	30,897	12,965
61506	-2,8141	-1,9961	30,144	12,655
61507	-2,6026	-2,5111	30,484	12,816
61508	-2,5593	-1,4778	30,58	12,865
61509	-3,1935	-1,9736	26,368	11,093
61510	-3,0743	-2,0051	25,656	10,82
61511	-2,8779	-2,5195	26,062	10,989
61512	-2,8054	-1,4876	26,057	10,995
61513	-1,9864	-1,9822	23,614	10,029
61514	-2,1644	-1,9886	24,32	10,308
61515	-1,836	-2,5549	24,046	10,205
61516	-1,7623	-1,4602	23,982	10,184
61517	-3,6256	-1,9172	31,547	13,176
61518	-3,5292	-1,9478	30,803	12,869
61519	-3,2992	-2,4611	31,153	13,044
61520	-3,2626	-1,4291	31,248	13,096
61521	-2,5785	-1,9953	23,527	9,9875
61522	-2,3882	-1,9856	22,816	9,7105
61523	-2,221	-2,5071	23,239	9,8791
61524	-2,1658	-1,4852	23,207	9,87
61525	-4,3845	-1,9509	32,139	13,336
61526	-4,2811	-1,9586	31,41	13,036
61527	-4,0391	-2,4701	31,767	13,227
61528	-4,007	-1,4538	31,846	13,273
61529	-3,8171	-1,9745	26,276	11,027
61530	-3,9783	-1,9701	26,989	11,285
61531	-3,6293	-2,4894	26,685	11,197
61532	-3,5445	-1,4587	26,683	11,207
61533	-0,84722	-2,0085	19,306	8,3463
61534	-1,1227	-1,9998	20,053	8,6261
61535	-0,95171	-2,5706	19,633	8,4712
61536	-0,39233	-2,2668	19,394	8,3744
61537	-0,67846	-1,4889	19,842	8,5467
61538	-5,1941	-1,9856	32,707	13,444
61539	-5,0663	-1,98	32,001	13,163
61540	-4,8115	-2,4855	32,373	13,377
61541	-4,777	-1,4776	32,429	13,417
61542	-2,7565	-2,0017	24,233	10,267
61543	-2,9257	-2,004	24,943	10,54
61544	-2,5979	-2,5606	24,667	10,443
61545	-2,5079	-1,4752	24,621	10,431
61546	-5,8756	-2,0058	32,573	13,237
61547	-6,0493	-2,005	33,288	13,498
61548	-5,6473	-2,5018	32,973	13,475
61549	-5,6089	-1,5071	33,003	13,506
61550	-0,58289	-1,8856	18,448	8,0369
61551	-0,52394	-1,8622	17,717	7,7955
61552	-0,3799	-2,4324	18,176	7,9436
61553	-0,12801	-2,1439	18,535	8,066
61554	-0,23168	-1,3228	17,994	7,8869
61555	-3,3579	-2,0014	24,139	10,216
61556	-3,1737	-1,9935	23,425	9,9458
61557	-3,0007	-2,5145	23,846	10,112
61558	-2,9302	-1,4761	23,817	10,106
61559	-3,5272	-2,0036	24,85	10,49
61560	-3,6979	-2,006	25,564	10,754
61561	-3,3694	-2,5511	25,279	10,662
61562	-3,2674	-1,4834	25,251	10,66
61563	-1,2159	-1,9989	18,458	8,053
61564	-1,3258	-1,9612	19,181	8,3066
61565	-1,0803	-2,5397	18,875	8,1922
61566	-0,45167	-2,2742	18,963	8,2162
61567	-0,87035	-1,4682	18,84	8,1822
61568	-1,8434	-1,9941	20,678	8,8715
61569	-1,6013	-1,9526	19,927	8,5871
61570	-1,584	-2,5629	20,379	8,7563
61571	-1,3997	-1,4805	20,373	8,7535
61572	-1,0048	-1,9657	17,026	7,5936
61573	-1,157	-1,9755	17,727	7,8105
61574	-0,84069	-2,4966	17,415	7,706
61575	-0,76522	-1,4404	17,41	7,7055
61576	-3,9556	-1,9933	24,034	10,166
61577	-4,137	-1,9994	24,749	10,426
61578	-3,779	-2,5132	24,455	10,331
61579	-3,7086	-1,4808	24,438	10,331
61580	-1,3583	-1,9318	16,252	7,3925
61581	-1,5915	-1,9674	16,954	7,5912
61582	-1,3184	-2,5268	16,627	7,4908
61583	-1,1753	-1,4489	16,627	7,4883
61584	-2,6111	-1,9809	21,29	9,1183
61585	-2,389	-1,9562	20,572	8,8452
61586	-2,3301	-2,5459	21,007	9,0083
61587	-2,1818	-1,4768	20,977	8,9977
61588	-0,97293	-1,9742	13,259	6,8524
61589	-1,6775	-1,9699	13,276	6,8845
61590	-1,8679	-1,9247	13,964	6,9673
61591	-1,4495	-2,4207	13,837	6,9306
61592	-1,4551	-1,4718	13,589	6,9029
61593	-1,764	-1,8682	15,468	7,223
61594	-1,8901	-1,9016	16,184	7,3964
61595	-1,6134	-2,4396	15,816	7,2948
61596	-1,4987	-1,4272	15,86	7,3016
61597	0,18019	-1,957	12,679	6,7985
61598	-0,68963	-2,0014	12,549	6,8014
61599	-0,58179	-2,5108	13,272	6,844
61600	-0,48494	-1,4993	12,909	6,8156
61601	-2,7908	-1,9769	22,001	9,3951
61602	-2,9834	-1,9837	22,714	9,668
61603	-2,6259	-2,493	22,421	9,5569
61604	-2,5649	-1,4822	22,401	9,5529
61605	-3,2783	-2,0086	29,339	12,281
61606	-3,4293	-2,0015	30,05	12,557
61607	-3,1314	-2,5854	29,683	12,435
61608	-3,0245	-1,4938	29,767	12,486
61609	-3,3886	-1,972	21,897	9,3588
61610	-3,1696	-1,9464	21,186	9,0923
61611	-3,039	-2,4874	21,602	9,2461
61612	-2,9575	-1,4653	21,584	9,2419
61613	-3,5812	-1,9789	22,61	9,6321
61614	-3,7713	-1,9855	23,321	9,896
61615	-3,4092	-2,4949	23,028	9,7916
61616	-3,3504	-1,4803	23,009	9,7887
61617	-3,7295	-2,0066	28,526	11,914
61618	-3,8609	-1,9814	29,255	12,188
61619	-3,6025	-2,5714	28,906	12,077
61620	-3,4726	-1,5002	28,946	12,111
61621	-4,1788	-1,9699	22,502	9,5889
61622	-3,964	-1,9469	21,796	9,3319
61623	-3,8209	-2,4833	22,208	9,4828
61624	-3,7518	-1,4659	22,197	9,4821
61625	-1,7436	-1,9772	17,655	7,8082
61626	-1,8483	-1,9456	18,381	8,046
61627	-1,5807	-2,4902	18,052	7,9299
61628	-1,4818	-1,4647	18,037	7,9241
61629	1,2172	-1,9992	11,974	6,8066
61630	0,41409	-1,9582	12,019	6,7835
61631	0,95486	-2,4768	12,369	6,8024
61632	0,81926	-1,4732	12,415	6,7997
61633	-4,3689	-1,9765	23,213	9,8529
61634	-4,5622	-1,9861	23,923	10,104
61635	-4,1957	-2,4948	23,631	10,01
61636	-4,1294	-1,4732	23,619	10,012
61637	-2,1543	-1,8636	14,7	7,0958
61638	-2,3525	-1,8801	15,405	7,2438
61639	-2,2041	-2,4397	14,877	7,1307
61640	-1,9763	-1,3962	15,063	7,1525
61641	-4,9818	-1,9739	23,097	9,7976
61642	-4,7613	-1,9483	22,396	9,555
61643	-4,6059	-2,4778	22,809	9,7031
61644	-4,5473	-1,4658	22,803	9,7057
61645	1,195	-2,038	11,139	6,8277
61646	1,8725	-2,0473	11,114	6,8651
61647	1,5716	-2,5506	11,509	6,83
61648	1,5913	-1,5444	11,483	6,8322
61649	-4,3077	-2,0018	25,463	10,691
61650	-4,4822	-2,004	26,174	10,94
61651	-4,1543	-2,5459	25,891	10,86
61652	-4,0588	-1,4978	25,868	10,862
61653	0,39194	-1,9969	11,184	6,803
61654	0,42541	-1,9964	10,435	6,857
61655	1,1061	-2,0576	10,312	6,8867
61656	0,85276	-2,5023	10,81	6,8359
61657	0,40347	-2,2707	10,896	6,8207
61658	0,80816	-1,5082	10,768	6,8375
61659	-4,7436	-1,9921	24,638	10,364
61660	-4,9242	-1,9963	25,349	10,607
61661	-4,565	-2,5098	25,058	10,526
61662	-4,5017	-1,4916	25,047	10,53
61663	-0,45573	-2,0026	11,889	6,7844
61664	-0,30932	-1,9988	11,175	6,802
61665	-0,17808	-2,481	11,826	6,7813
61666	0,1394	-2,4862	11,625	6,7844
61667	-6,9061e-003	-2,2674	11,311	6,795
61668	-1,1635e-002	-1,4986	11,558	6,7856
61669	-5,175	-1,9835	23,807	10,049
61670	-5,3574	-1,9852	24,516	10,286
61671	-4,9919	-2,4962	24,227	10,205
61672	-4,9378	-1,4857	24,22	10,209
61673	-4,1831	-2,0004	27,708	11,552
61674	-4,3171	-1,9809	28,429	11,813
61675	-4,0551	-2,5527	28,11	11,72
61676	-3,9172	-1,4919	28,125	11,744
61677	-1,3942	-1,9971	12,567	6,8261
61678	-1,1626	-1,9847	11,803	6,8052
61679	-1,0356	-2,4879	12,396	6,8066
61680	-0,88538	-1,512	12,171	6,7964
61681	-4,6434	-1,9996	26,886	11,2
61682	-4,7741	-1,9767	27,599	11,448
61683	-4,5	-2,5413	27,305	11,37
61684	-4,38	-1,4909	27,298	11,383
61685	-2,3278	-1,9815	13,256	6,925
61686	-2,0877	-1,96	12,511	6,8649
61687	-1,9812	-2,4909	13,071	6,8869
61688	-1,8644	-1,4821	12,896	6,8684
61689	-2,5182	-1,9363	13,944	7,0105
61690	-2,7446	-1,9547	14,598	7,1213
61691	-2,3259	-2,4683	14,507	7,0758
61692	-2,295	-1,4309	14,3	7,0427
61693	-2,1233	-1,9372	16,885	7,596
61694	-2,3381	-1,9716	17,591	7,8124
61695	-2,0039	-2,4858	17,259	7,698
61696	-1,9162	-1,4596	17,281	7,7024
61697	-5,0987	-1,9986	26,059	10,858
61698	-5,2375	-1,9771	26,767	11,096
61699	-4,9515	-2,5389	26,487	11,025
61700	-4,8459	-1,4942	26,471	11,033
61701	-2,4787	-1,9136	16,121	7,4163
61702	-2,6755	-1,9061	16,815	7,6066
61703	-2,388	-2,45	16,465	7,4969
61704	-2,2872	-1,4276	16,499	7,5016
61705	-5,538	-1,9894	25,227	10,529
61706	-5,6879	-1,9736	25,934	10,758
61707	-5,3888	-2,5337	25,662	10,693
61708	-5,2958	-1,4913	25,641	10,697
61709	-2,9429	-1,9712	15,303	7,2679
61710	-3,1215	-1,9513	16,03	7,4393
61711	-2,8786	-2,4609	15,64	7,3333
61712	-2,6877	-1,4416	15,719	7,3375
61713	-2,9495	-1,9519	13,13	6,969
61714	-3,1808	-1,986	13,855	7,0582
61715	-2,811	-2,5142	13,643	7,001
61716	-2,7364	-1,4798	13,522	6,983
61717	-3,4073	-2,0044	14,51	7,1695
61718	-3,6044	-2,0012	15,197	7,3056
61719	-3,3008	-2,5007	14,909	7,225
61720	-3,1743	-1,4955	14,886	7,2101
61721	-5,7875	-1,976	23,682	9,9793
61722	-5,6064	-1,9779	22,976	9,7502
61723	-5,4191	-2,4867	23,394	9,8973
61724	-5,3614	-1,474	23,394	9,9034
61725	-5,9699	-1,9777	24,391	10,216
61726	-6,1303	-1,9678	25,098	10,436
61727	-5,7896	-2,4948	24,815	10,37
61728	-5,7358	-1,484	24,807	10,375
61729	-1,8561	-1,9477	11,748	6,8412
61730	-2,7093	-1,9304	12,385	6,9103
61731	-2,518	-1,9211	11,691	6,8918
61732	-2,3601	-2,4618	12,139	6,8768
61733	-2,2702	-1,4561	12,071	6,8696
61734	-1,0162	-1,981	11,09	6,8228
61735	-1,6892	-1,934	11,059	6,8557
61736	-1,5899	-2,4774	11,546	6,8297
61737	-1,4184	-1,4737	11,435	6,8244
61738	-4,1847	-1,9892	30,667	12,727
61739	-4,0119	-1,9743	29,967	12,466
61740	-3,8412	-2,5083	30,334	12,636
61741	-3,7789	-1,4831	30,386	12,672
61742	-6,5749	-1,9638	24,258	10,13
61743	-6,4122	-1,9753	23,552	9,9175
61744	-6,2178	-2,4819	23,975	10,064
61745	-6,1666	-1,4732	23,973	10,07
61746	-0,27585	-1,9983	10,426	6,8555
61747	-0,88744	-1,958	10,391	6,8707
61748	-0,75681	-2,5056	10,864	6,8291
61749	-0,29779	-2,2726	10,887	6,8196
61750	-0,59938	-1,5039	10,777	6,8314
61751	-4,9629	-1,9877	31,272	12,859
61752	-4,7867	-1,9724	30,574	12,609
61753	-4,6015	-2,4948	30,955	12,794
61754	-4,5455	-1,4807	30,989	12,824
61755	1,7836	-2,0669	10,287	6,9229
61756	2,5361	-2,0299	10,246	6,9803
61757	2,0537	-2,4869	10,779	6,8986
61758	1,9885	-2,2847	10,35	6,9289
61759	2,2009	-1,528	10,668	6,9172
61760	0,47922	-2,0429	9,5614	6,9559
61761	-0,31118	-1,9674	9,7248	6,9331
61762	-2,7282e-003	-2,5185	10,184	6,878
61763	2,657e-002	-2,2669	10,563	6,8425
61764	9,2835e-002	-1,4966	10,066	6,8904
61765	1,1599	-2,1041	9,4381	6,9917
61766	1,7557	-2,1128	9,4878	7,0165
61767	1,3211	-2,6383	10,016	6,9253
61768	1,527	-2,612	9,5958	6,9886
61769	1,6148	-2,3329	9,9189	6,952
61770	1,4615	-1,5805	9,8972	6,9474
61771	-3,5792	-1,955	13,03	7,0273
61772	-3,3568	-1,9127	12,323	6,9744
61773	-3,1948	-2,458	12,756	6,9711
61774	-3,1318	-1,4431	12,703	6,9628
61775	0,41734	-1,9519	8,7351	7,0794
61776	1,113	-2,0706	8,6067	7,1179
61777	0,6409	-2,6262	9,2744	6,9988
61778	0,84737	-2,6337	8,9216	7,0585
61779	0,84891	-1,5519	9,101	7,0305
61780	-3,8106	-1,989	13,756	7,1157
61781	-4,0051	-1,986	14,445	7,2233
61782	-3,6251	-2,4999	14,173	7,144
61783	-3,5766	-1,486	14,136	7,1351
61784	-0,37307	-1,8764	8,8985	7,0516
61785	-0,92278	-1,927	9,6894	6,9498
61786	-0,93909	-1,8538	9,0458	7,0427
61787	-0,89577	-2,52	9,3524	6,9952
61788	-0,55051	-1,458	9,3451	6,9878
61789	-5,7478	-2,0002	31,868	12,949
61790	-5,592	-1,9869	31,157	12,701
61791	-5,3982	-2,4975	31,56	12,905
61792	-5,3442	-1,4918	31,578	12,931
61793	-0,32131	-1,8328	8,2429	7,1599
61794	3,6719e-002	-1,8716	8,0351	7,2005
61795	-0,40852	-2,4154	8,5553	7,1093
61796	-0,23786	-2,4178	8,4375	7,1283
61797	-0,15676	-2,0444	8,1088	7,1888
61798	-9,3194e-003	-1,3914	8,453	7,1254
61799	-1,5605	-1,911	10,36	6,9018
61800	-1,4911	-1,8172	9,7217	6,9684
61801	-1,3365	-2,4313	10,068	6,9205
61802	-1,1597	-1,439	10,043	6,9161
61803	-1,9582	-1,9079	19,104	8,299
61804	-2,1469	-1,9147	19,822	8,56
61805	-1,8672	-2,4588	19,512	8,4419
61806	-1,7528	-1,4318	19,49	8,4344
61807	-2,1378	-1,8582	10,281	6,9453
61808	-2,3511	-1,9075	11,002	6,9049
61809	-2,1518	-2,4902	10,701	6,9104
61810	-1,9361	-1,4359	10,699	6,8954
61811	-1,5074	-1,744	9,0781	7,0604
61812	-0,88734	-1,8103	8,3902	7,1461
61813	-1,3758	-1,777	8,3171	7,1814
61814	-1,5004	-2,2874	8,7014	7,1223
61815	-1,8125	-1,8745	9,1572	7,0668
61816	-1,3013	-2,0519	8,4322	7,1569
61817	-1,114	-1,3424	8,6928	7,1064
61818	-2,4429	-1,94	18,318	8,0491
61819	-2,5759	-1,9146	19,038	8,2957
61820	-2,274	-2,45	18,716	8,1754
61821	-2,1832	-1,4331	18,718	8,1749
61822	-2,0684	-1,7643	9,6425	7,0129
61823	-1,993	-1,7456	8,9632	7,1048
61824	-1,9917	-2,2574	9,2852	7,0562
61825	-2,1127	-1,853	9,4915	7,0372
61826	-1,7555	-1,3232	9,3624	7,0315
61827	-0,71816	-1,7972	7,7645	7,2583
61828	-0,42077	-1,9531	7,3222	7,3341
61829	-0,84025	-2,3471	8,007	7,2122
61830	-0,40282	-2,0666	7,9025	7,227
61831	-0,98131	-2,0966	8,0786	7,205
61832	-0,53895	-1,4025	7,95	7,2182
61833	-2,7713	-1,8383	10,229	7,0038
61834	-2,6424	-1,8423	9,6122	7,0649
61835	-2,5696	-2,3725	9,9406	7,017
61836	-2,3735	-1,8949	9,7216	7,0269
61837	-2,3744	-1,3722	9,9178	7,0036
61838	-6,4291	-2,0041	31,738	12,738
61839	-6,5947	-2,0046	32,449	12,962
61840	-6,1951	-2,5018	32,161	12,971
61841	-6,1388	-1,5052	32,165	12,995
61842	-1,2066	-1,7639	7,6914	7,2934
61843	-0,82871	-1,7733	7,1605	7,3826
61844	-0,51111	-2,3347	7,4349	7,3224
61845	-0,55361	-2,0088	7,6303	7,2883
61846	-1,1321	-2,0388	7,8064	7,2662
61847	-0,85524	-1,3277	7,4689	7,3245
61848	-4,2113	-1,9437	12,953	7,1019
61849	-4,4293	-1,9882	13,65	7,1816
61850	-4,046	-2,4989	13,369	7,1085
61851	-3,9887	-1,4734	13,349	7,1006
61852	-1,8613	-1,7786	8,2022	7,2276
61853	-1,7916	-1,753	7,5324	7,349
61854	-1,3287	-2,3138	7,9338	7,2479
61855	-1,981	-1,886	8,7306	7,1408
61856	-1,4698	-2,0634	8,0055	7,2421
61857	-1,4862	-1,3469	7,9086	7,2617
61858	-4,614	-1,9575	29,874	12,344
61859	-4,4485	-1,9557	29,158	12,089
61860	-4,2929	-2,4881	29,547	12,261
61861	-4,2207	-1,4657	29,574	12,287
61862	-2,5669	-1,8236	8,9329	7,156
61863	-2,3798	-1,8187	8,2071	7,2621
61864	-1,9859	-2,289	8,5865	7,1684
61865	-2,298	-1,8762	9,0423	7,1147
61866	-1,7868	-2,0536	8,3173	7,2017
61867	-2,1799	-1,3438	8,5598	7,1865
61868	-5,4158	-1,9716	30,459	12,446
61869	-5,2465	-1,9641	29,747	12,207
61870	-5,0732	-2,4823	30,152	12,392
61871	-5,0135	-1,473	30,173	12,416
61872	-2,8904	-1,9405	17,52	7,8232
61873	-3,1033	-1,9734	18,226	8,0515
61874	-2,809	-2,5287	17,895	7,9329
61875	-2,6769	-1,4631	17,924	7,9368
61876	-2,9846	-1,8876	10,951	6,9657
61877	-3,1655	-1,9034	11,63	6,9547
61878	-2,8482	-2,4549	11,357	6,9314
61879	-2,7488	-1,431	11,322	6,9237
61880	-3,3184	-1,9438	16,724	7,6289
61881	-3,4545	-1,9128	17,44	7,8356
61882	-3,1511	-2,4592	17,108	7,7211
61883	-3,0681	-1,4332	17,128	7,7229
61884	-3,6536	-1,9203	10,9	7,0438
61885	-3,4679	-1,8556	10,209	7,0796
61886	-3,3283	-2,4285	10,616	7,0268
61887	-3,208	-1,4052	10,593	7,0157
61888	-4,9081	-1,9571	28,32	11,71
61889	-5,081	-1,9623	29,032	11,949
61890	-4,7589	-2,488	28,73	11,883
61891	-4,6797	-1,4693	28,741	11,903
61892	-3,8345	-1,9361	11,58	7,0346
61893	-3,989	-1,9015	12,246	7,0487
61894	-3,6373	-2,4439	11,974	7,0041
61895	-3,5703	-1,4281	11,949	6,9968
61896	-6,2733	-1,9907	31,028	12,484
61897	-6,0692	-1,9798	30,317	12,273
61898	-5,8875	-2,4919	30,74	12,471
61899	-5,8258	-1,4873	30,749	12,494
61900	-5,3682	-1,9542	27,48	11,345
61901	-5,5462	-1,9598	28,185	11,57
61902	-5,2185	-2,4853	27,901	11,515
61903	-5,1387	-1,4675	27,901	11,531
61904	-3,783	-1,9813	15,924	7,4744
61905	-3,9286	-1,9481	16,634	7,6556
61906	-3,6588	-2,5407	16,313	7,5534
61907	-3,5372	-1,4726	16,322	7,5467
61908	-5,8268	-1,9521	26,642	10,996
61909	-6,0111	-1,957	27,345	11,21
61910	-5,6715	-2,4806	27,065	11,16
61911	-5,6004	-1,4652	27,062	11,173
61912	-4,325	-1,9688	10,849	7,1369
61913	-4,4667	-1,924	11,498	7,1234
61914	-4,1388	-2,4842	11,227	7,0885
61915	-4,0549	-1,4554	11,209	7,0787
61916	-6,2803	-1,952	25,805	10,665
61917	-6,469	-1,9564	26,507	10,869
61918	-6,1241	-2,4798	26,23	10,822
61919	-6,0568	-1,4644	26,225	10,833
61920	-6,9711	-2,0004	30,882	12,267
61921	-7,1178	-2,0059	31,58	12,466
61922	-6,7978	-2,5083	31,328	12,475
61923	-6,6952	-1,5014	31,311	12,503
61924	-4,6212	-1,8894	12,164	7,1367
61925	-4,8364	-1,9398	12,849	7,1843
61926	-4,4543	-2,4478	12,568	7,1193
61927	-4,4003	-1,4271	12,552	7,1122
61928	-5,8999	-1,9724	29,605	12,03
61929	-5,7191	-1,965	28,897	11,811
61930	-5,5519	-2,4836	29,321	11,993
61931	-5,4857	-1,4755	29,324	12,011
61932	-3,339	-1,8595	9,5921	7,1381
61933	-3,2724	-1,9871	9,1072	7,2004
61934	-3,229	-2,4434	9,4346	7,1488
61935	-2,5656	-2,3353	9,2549	7,1072
61936	-3,1651	-2,2472	9,1789	7,1769
61937	-2,6866	-1,9309	9,4612	7,09
61938	-2,9358	-1,4067	9,3048	7,1352
61939	-6,7671	-1,9895	30,171	12,05
61940	-6,5528	-1,9756	29,46	11,861
61941	-6,3827	-2,4916	29,897	12,05
61942	-6,3183	-1,4849	29,89	12,067
61943	-4,1393	-1,904	10,157	7,1707
61944	-3,9678	-1,9205	9,5251	7,2227
61945	-3,9119	-2,4878	9,8446	7,1756
61946	-3,5486	-2,2284	9,4192	7,1829
61947	-3,6908	-1,3818	9,8536	7,1469
61948	-7,4255	-1,9905	30,017	11,848
61949	-7,6131	-1,9985	30,718	12,016
61950	-7,2916	-2,5143	30,477	12,034
61951	-7,1883	-1,4987	30,452	12,06
61952	-4,9552	-1,9718	10,767	7,2392
61953	-4,7959	-1,9819	10,118	7,2732
61954	-4,6084	-2,4914	10,49	7,2078
61955	-4,5087	-1,4468	10,474	7,195
61956	-5,0969	-1,927	11,416	7,225
61957	-5,2492	-1,8824	12,068	7,2348
61958	-4,9008	-2,4449	11,801	7,1822
61959	-4,8374	-1,4104	11,785	7,1736
61960	-4,2023	-1,9828	15,132	7,3589
61961	-4,3602	-1,9534	15,833	7,5125
61962	-4,031	-2,4967	15,527	7,4151
61963	-3,9656	-1,4788	15,529	7,41
61964	-2,7646	-1,9214	19,756	8,5571
61965	-2,9475	-1,9217	20,469	8,8188
61966	-2,649	-2,4683	20,164	8,7011
61967	-2,5496	-1,4424	20,158	8,699
61968	-6,372	-1,9683	28,753	11,639
61969	-6,1891	-1,9626	28,05	11,436
61970	-6,028	-2,485	28,481	11,61
61971	-5,9563	-1,4736	28,473	11,625
61972	-4,6238	-1,9852	14,339	7,2869
61973	-4,7813	-1,9515	15,036	7,4108
61974	-4,4397	-2,4951	14,737	7,3207
61975	-4,3874	-1,4788	14,734	7,3153
61976	-7,2112	-1,9767	29,306	11,654
61977	-7,0203	-1,9711	28,611	11,479
61978	-6,8541	-2,4885	29,047	11,654
61979	-6,7903	-1,4805	29,036	11,67
61980	-3,3818	-1,9208	19,662	8,5458
61981	-3,2363	-1,948	18,946	8,2965
61982	-3,0662	-2,4607	19,348	8,4259
61983	-2,981	-1,4403	19,355	8,4275
61984	-3,5647	-1,9212	20,375	8,8071
61985	-3,745	-1,9213	21,085	9,0652
61986	-3,4212	-2,4562	20,783	8,9501
61987	-3,3468	-1,4408	20,779	8,9501
61988	-6,7354	-1,9538	24,965	10,35
61989	-6,9246	-1,9575	25,665	10,545
61990	-6,5663	-2,4745	25,388	10,5
61991	-6,5085	-1,4651	25,388	10,51
61992	-4,1848	-1,9242	20,272	8,7907
61993	-4,0309	-1,9484	19,561	8,5438
61994	-3,8566	-2,4615	19,967	8,6744
61995	-3,784	-1,4417	19,97	8,6759
61996	-7,3828	-1,9604	24,822	10,24
61997	-7,1913	-1,9572	24,122	10,053
61998	-7,0153	-2,4725	24,541	10,193
61999	-6,9675	-1,4674	24,543	10,202
62000	-7,8658	-1,9785	29,156	11,463
62001	-8,0605	-1,9835	29,849	11,611
62002	-7,6945	-2,4926	29,596	11,64
62003	-7,6336	-1,4864	29,581	11,656
62004	-5,7292	-1,9213	11,323	7,3386
62005	-5,5864	-1,9818	10,682	7,3548
62006	-5,4216	-2,5764	11,073	7,2981
62007	-5,3157	-1,4538	11,044	7,2826
62008	-4,3651	-1,9243	20,982	9,0479
62009	-4,5464	-1,9253	21,69	9,2981
62010	-4,2099	-2,4551	21,391	9,1891
62011	-4,1456	-1,4422	21,39	9,1913
62012	-5,0543	-1,9843	13,546	7,2623
62013	-5,2453	-1,9894	14,23	7,3586
62014	-4,8916	-2,5561	13,943	7,2764
62015	-4,8103	-1,4747	13,94	7,2658
62016	-5,0197	-1,9532	20,865	9,0224
62017	-4,8351	-1,9529	20,161	8,7835
62018	-4,6528	-2,4639	20,57	8,914
62019	-4,5883	-1,4454	20,575	8,9169
62020	-3,6673	-1,9457	18,145	8,0634
62021	-3,8854	-1,9756	18,845	8,2963
62022	-3,5782	-2,532	18,53	8,179
62023	-3,4603	-1,4707	18,543	8,1785
62024	-5,201	-1,9542	21,572	9,2713
62025	-5,3858	-1,9524	22,275	9,5078
62026	-5,0084	-2,4564	21,985	9,4112
62027	-4,9514	-1,4473	21,989	9,4162
62028	-6,6533	-1,9613	27,21	11,083
62029	-6,8374	-1,9655	27,909	11,273
62030	-6,491	-2,4838	27,639	11,248
62031	-6,4248	-1,4717	27,63	11,261
62032	-5,8611	-1,9817	21,442	9,2336
62033	-5,6783	-1,9838	20,74	9,0065
62034	-5,4874	-2,4908	21,151	9,135
62035	-5,4322	-1,478	21,157	9,1395
62036	-6,0459	-1,9799	22,145	9,4687
62037	-6,2311	-1,9773	22,846	9,6891
62038	-5,8522	-2,4835	22,561	9,6063
62039	-5,796	-1,4732	22,567	9,6136
62040	-4,6245	-1,9983	9,4857	7,323
62041	-5,4271	-1,9919	10,033	7,3888
62042	-5,2454	-1,965	9,395	7,4369
62043	-5,0848	-2,5164	9,7604	7,3623
62044	-4,97	-1,4543	9,7514	7,3453
62045	-7,1133	-1,9619	26,367	10,749
62046	-7,3021	-1,9652	27,066	10,929
62047	-6,9449	-2,482	26,796	10,906
62048	-6,8852	-1,4715	26,792	10,919
62049	-3,9012	-2,0481	9,0402	7,2847
62050	-4,4442	-1,9614	8,8437	7,3898
62051	-4,2958	-2,5355	9,2091	7,3131
62052	-3,7939	-2,3081	9,1119	7,2593
62053	-4,1839	-1,4754	9,1963	7,3
62054	-7,7633	-1,9667	26,217	10,604
62055	-7,5721	-1,9641	25,522	10,435
62056	-7,3991	-2,481	25,946	10,581
62057	-7,3455	-1,4727	25,943	10,593
62058	-4,2431	-1,9192	18,057	8,0754
62059	-4,0647	-1,917	17,35	7,8596
62060	-3,9266	-2,4665	17,736	7,9588
62061	-3,8443	-1,4371	17,753	7,96
62062	-3,7535	-1,994	8,3552	7,3763
62063	-3,0852	-1,9823	8,3814	7,2963
62064	-3,5006	-2,4785	8,7217	7,2854
62065	-3,482	-2,356	8,9344	7,249
62066	-3,484	-1,5176	8,7119	7,286
62067	-7,6749	-1,973	28,461	11,285
62068	-7,4862	-1,9693	27,765	11,121
62069	-7,3163	-2,487	28,199	11,286
62070	-7,2526	-1,4777	28,19	11,301
62071	-5,4643	-1,9328	12,753	7,2814
62072	-5,681	-1,9823	13,435	7,3515
62073	-5,2941	-2,5002	13,155	7,2721
62074	-5,2413	-1,4667	13,149	7,2647
62075	-8,331	-1,9762	28,308	11,103
62076	-8,5221	-1,9794	28,998	11,237
62077	-8,1554	-2,4894	28,744	11,267
62078	-8,0992	-1,4829	28,736	11,284
62079	-5,8815	-1,8767	11,975	7,3469
62080	-6,074	-1,8924	12,641	7,3836
62081	-5,7099	-2,4476	12,37	7,3154
62082	-5,6582	-1,417	12,361	7,3077
62083	-8,1424	-1,9726	27,611	10,937
62084	-7,9521	-1,97	26,916	10,785
62085	-7,779	-2,4862	27,348	10,939
62086	-7,7226	-1,4774	27,342	10,953
62087	-4,4612	-1,949	18,757	8,3074
62088	-4,6813	-1,9771	19,45	8,5387
62089	-4,3639	-2,5306	19,144	8,4245
62090	-4,2484	-1,4684	19,16	8,4256
62091	-8,8231	-1,9849	27,453	10,76
62092	-8,9929	-1,9789	28,143	10,887
62093	-8,6178	-2,4886	27,887	10,918
62094	-8,5651	-1,4824	27,883	10,934
62095	-5,0522	-1,927	18,655	8,315
62096	-4,8637	-1,9245	17,954	8,098
62097	-4,7206	-2,4701	18,344	8,1999
62098	-4,6457	-1,443	18,362	8,2025
62099	-6,3237	-1,8572	11,215	7,4587
62100	-6,5169	-1,8732	11,867	7,4693
62101	-6,1844	-2,5146	11,616	7,4131
62102	-6,1039	-1,402	11,599	7,3998
62103	-6,4935	-1,9857	21,312	9,2073
62104	-6,6538	-1,9674	22,018	9,4211
62105	-6,2985	-2,4917	21,726	9,3339
62106	-6,2482	-1,481	21,733	9,3401
62107	-6,1809	-1,9177	10,575	7,4767
62108	-6,0405	-1,9803	9,9465	7,5139
62109	-5,8602	-2,5134	10,319	7,4393
62110	-5,769	-1,4538	10,31	7,4244
62111	-8,6328	-1,9824	26,758	10,606
62112	-8,4165	-1,9719	26,063	10,469
62113	-8,2375	-2,4863	26,494	10,615
62114	-8,1849	-1,4787	26,492	10,628
62115	-6,8007	-1,9052	10,472	7,6155
62116	-6,9576	-1,856	11,103	7,5962
62117	-6,6068	-2,4328	10,85	7,5415
62118	-6,5509	-1,398	10,841	7,5325
62119	-9,2901	-1,9864	26,594	10,446
62120	-9,4862	-1,9881	27,284	10,557
62121	-9,136	-2,5111	27,034	10,583
62122	-9,0614	-1,4917	27,024	10,602
62123	-5,4937	-1,9836	20,037	8,7696
62124	-5,2722	-1,955	19,348	8,5449
62125	-5,1568	-2,5308	19,741	8,662
62126	-5,0545	-1,4724	19,755	8,6644
62127	-5,8588	-1,9533	9,3081	7,5613
62128	-5,0652	-1,928	8,753	7,503
62129	-5,6526	-1,9025	8,7235	7,6076
62130	-5,5807	-2,5403	9,0379	7,5494
62131	-5,3974	-1,4173	9,0423	7,5169
62132	-6,6603	-1,9677	9,843	7,6537
62133	-6,3752	-1,9381	9,274	7,6697
62134	-6,3516	-2,569	9,5889	7,6221
62135	-6,2216	-1,4626	9,5814	7,598
62136	-6,0926	-1,9635	19,923	8,7684
62137	-6,3106	-1,9878	20,61	8,9823
62138	-5,9641	-2,5307	20,319	8,8835
62139	-5,8744	-1,4787	20,335	8,8884
62140	-7,2753	-1,9417	9,7419	7,8028
62141	-7,4325	-1,9079	10,353	7,7679
62142	-7,0945	-2,4899	10,117	7,7181
62143	-7,0211	-1,4419	10,103	7,7052
62144	-5,8712	-1,935	19,233	8,5454
62145	-5,6804	-1,9325	18,537	8,333
62146	-5,5264	-2,472	18,932	8,4356
62147	-5,4629	-1,4488	18,948	8,4391
62148	-4,2965	-1,9073	8,1587	7,4847
62149	-4,8863	-1,8718	8,1703	7,5708
62150	-4,7287	-2,4432	8,465	7,4959
62151	-4,6282	-1,4199	8,4769	7,4799
62152	-6,6983	-1,9438	19,798	8,7594
62153	-6,5092	-1,9412	19,103	8,5564
62154	-6,342	-2,4755	19,503	8,6583
62155	-6,2842	-1,4552	19,52	8,6632
62156	-6,9902	-1,9121	9,1729	7,8173
62157	-7,8808	-1,8918	9,6551	7,9581
62158	-7,6645	-1,869	9,0552	7,9951
62159	-7,5503	-2,4744	9,4001	7,9134
62160	-8,0527	-2,2012	9,447	8,0343
62161	-7,4544	-1,4203	9,3677	7,8993
62162	-8,2253	-1,9693	25,367	10,3
62163	-8,0336	-1,967	24,673	10,139
62164	-7,8474	-2,4783	25,096	10,277
62165	-7,8029	-1,4749	25,101	10,289
62166	-6,9163	-1,968	20,486	8,9712
62167	-7,105	-1,971	21,182	9,1725
62168	-6,7751	-2,5251	20,884	9,0832
62169	-6,6968	-1,4838	20,9	9,09
62170	-3,5244	-1,8675	7,5166	7,5036
62171	-4,093	-1,8079	7,5522	7,5675
62172	-3,9514	-2,4014	7,8311	7,4974
62173	-3,8474	-1,386	7,88	7,4755
62174	-7,3421	-1,9503	19,659	8,7613
62175	-7,5308	-1,9532	20,352	8,95
62176	-7,1724	-2,4818	20,059	8,8605
62177	-7,1174	-1,4621	20,077	8,867
62178	-4,5058	-1,9202	16,543	7,6907
62179	-4,6853	-1,9223	17,247	7,8847
62180	-4,396	-2,5133	16,925	7,7754
62181	-4,2886	-1,4397	16,947	7,7732
62182	-2,8562	-1,8558	7,5429	7,4277
62183	-2,3101	-1,7931	7,5372	7,3817
62184	-2,5759	-2,3641	7,8997	7,335
62185	-2,5794	-1,3857	7,8887	7,3389
62186	-4,9392	-1,9221	15,736	7,5613
62187	-5,128	-1,9246	16,432	7,7303
62188	-4,7894	-2,4711	16,127	7,6254
62189	-4,7258	-1,4415	16,138	7,6228
62190	-3,3458	-1,7677	6,9153	7,6007
62191	-2,7647	-1,8274	6,8524	7,5561
62192	-3,1539	-2,3516	7,1683	7,5315
62193	-3,0783	-1,3612	7,2206	7,5138
62194	-9,0738	-1,976	25,899	10,308
62195	-8,8823	-1,9742	25,207	10,176
62196	-8,6943	-2,4842	25,632	10,31
62197	-8,6514	-1,4803	25,634	10,322
62198	-5,4919	-1,93	17,837	8,1189
62199	-5,3075	-1,9267	17,137	7,9212
62200	-5,1868	-2,5125	17,525	8,0093
62201	-5,0858	-1,445	17,547	8,008
62202	-5,4028	-1,9557	14,927	7,4788
62203	-5,5893	-1,9542	15,618	7,6196
62204	-5,212	-2,4682	15,325	7,5185
62205	-5,1549	-1,4424	15,336	7,5147
62206	-6,3183	-1,9387	18,407	8,3472
62207	-6,1253	-1,9355	17,714	8,1521
62208	-5,9926	-2,5112	18,105	8,2409
62209	-5,9024	-1,4514	18,128	8,2416
62210	-5,872	-1,9874	14,119	7,4447
62211	-6,0673	-1,9952	14,801	7,557
62212	-5,7053	-2,5542	14,513	7,4648
62213	-5,6363	-1,4862	14,52	7,4569
62214	-7,1529	-1,9477	18,964	8,5617
62215	-6,9585	-1,9447	18,273	8,3745
62216	-6,8159	-2,5101	18,665	8,4616
62217	-6,739	-1,4582	18,687	8,4646
62218	-6,169	-1,8872	8,6894	7,7134
62219	-6,7121	-1,9913	8,4555	7,8687
62220	-6,697	-2,4361	8,9774	7,7835
62221	-6,5653	-2,3601	8,6972	7,8004
62222	-6,5392	-1,4231	8,9079	7,7628
62223	-8,0167	-1,9745	19,502	8,7529
62224	-7,7976	-1,9537	18,823	8,5805
62225	-7,6452	-2,509	19,214	8,6645
62226	-7,5716	-1,4649	19,242	8,6705
62227	-5,4738	-1,8463	8,1408	7,6724
62228	-6,0491	-1,8943	7,9295	7,819
62229	-6,0114	-2,5016	8,2958	7,7485
62230	-6,2465	-2,3444	8,4186	7,7775
62231	-5,8136	-1,3972	8,3747	7,6988
62232	-6,2907	-1,9419	13,323	7,4513
62233	-6,5078	-1,9898	13,999	7,538
62234	-6,1145	-2,4997	13,721	7,4479
62235	-6,0656	-1,4725	13,721	7,4415
62236	-4,6828	-1,7724	7,5638	7,6495
62237	-5,1764	-1,8248	7,574	7,7272
62238	-5,2503	-2,4433	7,7613	7,7066
62239	-5,8701	-2,3192	8,1486	7,7522
62240	-5,0446	-1,3678	7,8339	7,659
62241	-9,7344	-1,9796	25,734	10,16
62242	-9,9308	-1,9811	26,426	10,262
62243	-9,5463	-2,4896	26,162	10,291
62244	-9,4989	-1,4846	26,165	10,306
62245	-3,9144	-1,7081	6,9509	7,6607
62246	-4,4089	-1,7093	6,9316	7,7328
62247	-4,4721	-2,2608	7,0548	7,7183
62248	-4,2469	-1,2992	7,2518	7,6486
62249	-6,7094	-1,889	12,533	7,5038
62250	-6,9075	-1,9039	13,201	7,5584
62251	-6,5304	-2,454	12,93	7,4778
62252	-6,4893	-1,4252	12,931	7,4721
62253	-7,0286	-1,9687	23,417	9,8412
62254	-6,8389	-1,9648	22,719	9,6402
62255	-6,666	-2,4837	23,13	9,7726
62256	-6,623	-1,4801	23,134	9,7799
62257	-3,2267	-1,7633	6,2997	7,7101
62258	-3,7503	-1,6835	6,3105	7,768
62259	-3,8592	-2,212	6,328	7,7779
62260	-3,5263	-1,2684	6,6718	7,6717
62261	-7,6506	-1,9603	23,278	9,7751
62262	-7,842	-1,9637	23,973	9,9526
62263	-7,4642	-2,4728	23,694	9,9056
62264	-7,4201	-1,47	23,702	9,9155
62265	-7,1508	-1,872	11,755	7,605
62266	-7,3482	-1,8867	12,406	7,6321
62267	-6,9933	-2,5166	12,152	7,5622
62268	-6,932	-1,4113	12,143	7,5518
62269	-5,7781	-1,9567	16,314	7,785
62270	-5,9409	-1,9322	17,014	7,958
62271	-5,592	-2,4738	16,714	7,8509
62272	-5,5333	-1,4464	16,728	7,8497
62273	-7,2653	-1,9528	21,888	9,384
62274	-7,4609	-1,9564	22,58	9,5752
62275	-7,0904	-2,474	22,296	9,5059
62276	-7,0409	-1,4643	22,306	9,5145
62277	-6,2538	-1,9936	15,492	7,6937
62278	-6,4377	-1,9878	16,182	7,8419
62279	-6,0511	-2,4968	15,895	7,7369
62280	-6,0094	-1,4824	15,903	7,735
62281	-2,2185	-1,7647	6,8467	7,512
62282	-1,4137	-1,7624	7,0015	7,4362
62283	-1,9624	-2,0706	7,1307	7,4373
62284	-1,9418	-1,3143	7,1738	7,4292
62285	-6,7031	-1,9976	14,681	7,6464
62286	-6,8976	-2,0018	15,361	7,7682
62287	-6,5243	-2,5552	15,083	7,671
62288	-6,4648	-1,494	15,087	7,6645
62289	-2,6456	-1,823	6,2368	7,6688
62290	-2,0821	-1,8276	6,2744	7,619
62291	-2,4265	-2,3117	6,4996	7,599
62292	-2,3723	-1,3571	6,4938	7,5962
62293	-7,341	-1,9945	14,55	7,7392
62294	-7,1246	-1,9517	13,876	7,6417
62295	-6,9402	-2,5052	14,275	7,6427
62296	-6,9078	-1,4862	14,28	7,6397
62297	-3,0656	-1,8065	5,8392	7,7876
62298	-2,7096	-1,8757	5,6852	7,7824
62299	-3,2317	-2,3132	5,7793	7,8162
62300	-2,9229	-1,3633	5,9943	7,7444
62301	-7,9151	-1,9591	21,74	9,3302
62302	-7,7195	-1,9562	21,048	9,1487
62303	-7,5697	-2,5025	21,446	9,2563
62304	-7,4946	-1,4666	21,469	9,2672
62305	-8,1108	-1,9627	22,433	9,5195
62306	-8,306	-1,9658	23,123	9,6871
62307	-7,9253	-2,4767	22,844	9,638
62308	-7,8856	-1,4719	22,855	9,6478
62309	-3,5891	-1,7267	5,8501	7,8435
62310	-3,2515	-1,778	5,3654	7,8991
62311	-3,4043	-2,2855	5,664	7,858
62312	-3,2999	-1,3343	5,7243	7,8366
62313	-8,5676	-1,9651	21,589	9,2889
62314	-8,7647	-1,9673	22,278	9,4468
62315	-8,3868	-2,4842	21,994	9,3942
62316	-8,34	-1,4735	22,011	9,4048
62317	-8,2054	-1,9774	20,195	8,9379
62318	-8,3719	-1,9623	20,898	9,1099
62319	-8,0245	-2,5053	20,597	9,0338
62320	-7,9489	-1,4693	20,628	9,0445
62321	-4,2448	-1,6848	6,2913	7,8379
62322	-4,0139	-1,7194	5,6982	7,9224
62323	-4,0489	-2,2032	5,9937	7,8704
62324	-3,9009	-1,2701	6,0056	7,8507
62325	-8,8886	-1,9979	20,026	8,9133
62326	-8,6734	-1,9799	19,353	8,7607
62327	-8,5122	-2,5261	19,743	8,8404
62328	-8,4437	-1,4899	19,771	8,8482
62329	-9,0552	-1,9827	20,729	9,0813
62330	-9,2295	-1,9698	21,433	9,2313
62331	-8,8667	-2,5043	21,132	9,1735
62332	-8,799	-1,4755	21,168	9,1871
62333	-7,5894	-1,8587	10,985	7,7466
62334	-7,7888	-1,8715	11,629	7,7503
62335	-7,4211	-2,4436	11,38	7,682
62336	-7,373	-1,3999	11,374	7,6742
62337	-9,5246	-1,984	19,879	8,9066
62338	-9,7393	-1,9988	20,551	9,0368
62339	-9,3573	-2,523	20,269	8,9827
62340	-9,2932	-1,4928	20,301	8,993
62341	-8,038	-1,858	10,266	7,923
62342	-8,2228	-1,8625	10,852	7,9069
62343	-7,8924	-2,5099	10,628	7,8499
62344	-7,8098	-1,3918	10,603	7,8352
62345	-6,7654	-1,9415	17,58	8,1832
62346	-6,6005	-1,9633	16,882	8,01
62347	-6,4069	-2,4773	17,286	8,078
62348	-6,3527	-1,4533	17,301	8,0783
62349	-4,9025	-1,7616	6,9418	7,8066
62350	-4,702	-1,6623	6,1779	7,9242
62351	-4,6128	-2,2463	6,7295	7,8049
62352	-4,5655	-1,2772	6,6017	7,8244
62353	-8,4781	-1,8288	9,4276	8,1444
62354	-8,7131	-1,9236	10,146	8,109
62355	-8,371	-2,5105	9,9287	8,0479
62356	-8,4409	-2,1718	9,7243	8,0959
62357	-8,2635	-1,3961	9,8883	8,0293
62358	-8,4974	-1,9692	23,818	9,8637
62359	-8,6905	-1,9719	24,512	10,015
62360	-8,3154	-2,4845	24,239	9,9907
62361	-8,2681	-1,4769	24,245	10,002
62362	-5,7516	-1,8728	7,3627	7,8747
62363	-5,4424	-1,7122	6,8376	7,9166
62364	-5,3292	-2,447	7,4646	7,7767
62365	-5,949	-2,3229	7,8519	7,8173
62366	-5,2949	-1,3567	7,187	7,8262
62367	-8,9599	-1,9704	22,969	9,6128
62368	-9,1553	-1,9729	23,657	9,7539
62369	-8,7742	-2,4852	23,381	9,7271
62370	-8,7301	-1,4779	23,392	9,7384
62371	-7,6032	-1,9507	18,132	8,3973
62372	-7,4324	-1,969	17,436	8,2295
62373	-7,2336	-2,4811	17,843	8,2981
62374	-7,1826	-1,4604	17,86	8,3001
62375	-6,5922	-1,9983	7,6956	7,9805
62376	-6,3642	-1,9005	7,1044	8,0452
62377	-5,8255	-2,4913	7,55	7,8537
62378	-6,4454	-2,3672	7,9373	7,9031
62379	-6,1962	-1,4244	7,5239	7,9327
62380	-7,0814	-1,9959	16,051	7,9116
62381	-7,2674	-1,9909	16,738	8,0616
62382	-6,874	-2,5003	16,458	7,9579
62383	-6,8354	-1,4857	16,467	7,9573
62384	-7,3864	-1,9482	8,3378	8,0455
62385	-7,0888	-2,036	7,6271	8,1048
62386	-7,246	-2,4865	8,1239	8,0511
62387	-6,5545	-2,6056	8,0619	7,9063
62388	-6,7896	-2,4484	8,1847	7,9365
62389	-6,9646	-1,4966	8,0363	8,0039
62390	-8,4544	-1,9591	18,675	8,592
62391	-8,2573	-1,956	17,984	8,434
62392	-8,0742	-2,4847	18,387	8,5026
62393	-8,0279	-1,4671	18,405	8,5064
62394	-8,2618	-1,806	8,8277	8,1861
62395	-7,941	-1,8193	8,2761	8,1951
62396	-7,9729	-2,2518	8,7786	8,1185
62397	-8,2246	-2,149	9,1244	8,1263
62398	-8,176	-2,1236	8,33	8,2461
62399	-7,8286	-1,3795	8,665	8,1045
62400	-7,5356	-1,9988	15,23	7,8562
62401	-7,7258	-1,9964	15,911	7,9811
62402	-7,3495	-2,5487	15,633	7,8835
62403	-7,2874	-1,4864	15,65	7,8792
62404	-1,2772	-1,8253	6,4292	7,5437
62405	-0,53133	-1,9292	6,7182	7,466
62406	-0,59449	-2,1622	6,6494	7,4792
62407	-0,51337	-2,0427	7,2985	7,348
62408	-0,80929	-1,3767	6,7814	7,4578
62409	-7,9775	-1,9891	14,416	7,8457
62410	-8,1647	-1,969	15,093	7,9436
62411	-7,7716	-2,5081	14,819	7,8474
62412	-7,74	-1,4822	14,829	7,8458
62413	-9,3094	-1,966	19,206	8,7575
62414	-9,1126	-1,9636	18,519	8,617
62415	-8,9242	-2,4878	18,924	8,6834
62416	-8,8843	-1,4728	18,945	8,6896
62417	-2,1461	-1,8803	5,7227	7,7323
62418	-1,5672	-1,9737	5,7736	7,6896
62419	-1,5157	-2,2625	5,7978	7,6818
62420	-1,7464	-1,3932	6,0327	7,6477
62421	-10,16	-1,9713	19,723	8,8848
62422	-9,9663	-1,969	19,039	8,7661
62423	-9,7737	-2,4876	19,446	8,8299
62424	-9,7371	-1,477	19,468	8,8373
62425	-2,8955	-1,8472	5,2113	7,8951
62426	-2,2386	-1,9942	5,0194	7,8752
62427	-2,4064	-2,3334	5,0488	7,8784
62428	-2,5043	-1,4317	5,3971	7,8251
62429	-8,0866	-1,9744	17,288	8,2714
62430	-7,9118	-1,9914	16,598	8,1259
62431	-7,7056	-2,5009	17,007	8,1742
62432	-7,6631	-1,4836	17,021	8,175
62433	-7,7611	-1,9463	13,743	7,7526
62434	-7,5463	-1,9016	13,074	7,6832
62435	-7,3582	-2,4609	13,475	7,6612
62436	-7,3263	-1,4341	13,48	7,6578
62437	-8,9156	-1,9606	17,828	8,4638
62438	-8,7199	-1,9564	17,143	8,3261
62439	-8,5277	-2,483	17,551	8,3763
62440	-8,4904	-1,4682	17,564	8,3787
62441	-8,6138	-1,9572	14,274	7,9535
62442	-8,4195	-1,9819	13,606	7,8821
62443	-8,2097	-2,4966	14,007	7,8601
62444	-8,1889	-1,4733	14,013	7,8595
62445	-3,6763	-1,7707	5,2135	7,9774
62446	-3,1479	-1,8492	4,4138	8,0608
62447	-3,4536	-2,339	4,8082	8,0266
62448	-3,1641	-2,3118	4,5079	8,0507
62449	-3,642	-1,9393	4,9761	8,0196
62450	-3,2994	-1,3476	4,9485	7,9875
62451	-8,3549	-1,9667	15,775	8,0633
62452	-8,5452	-1,9733	16,454	8,1861
62453	-8,1748	-2,5368	16,177	8,0938
62454	-8,1228	-1,483	16,191	8,0915
62455	-7,9863	-1,8862	12,281	7,7744
62456	-8,2047	-1,9372	12,938	7,817
62457	-7,8154	-2,5158	12,674	7,7339
62458	-7,7707	-1,4254	12,677	7,7269
62459	-8,801	-1,9371	14,952	8,0459
62460	-8,9932	-1,9467	15,628	8,1438
62461	-8,5975	-2,4809	15,356	8,0513
62462	-8,5715	-1,4579	15,367	8,0517
62463	-9,5894	-1,9775	17,665	8,5092
62464	-9,7696	-1,9667	18,352	8,6303
62465	-9,3767	-2,4848	18,079	8,5573
62466	-9,3437	-1,4735	18,094	8,5613
62467	-9,4587	-1,9366	14,795	8,1495
62468	-9,2488	-1,9254	14,126	8,075
62469	-9,0498	-2,4726	14,533	8,0587
62470	-9,0294	-1,4526	14,539	8,0589
62471	-9,1364	-1,9346	9,198	8,3616
62472	-8,915	-1,8259	8,615	8,3986
62473	-8,3983	-2,2409	8,8736	8,2125
62474	-8,65	-2,1382	9,2194	8,2252
62475	-8,6014	-2,1128	8,425	8,3379
62476	-8,6914	-1,373	8,9934	8,2764
62477	-9,1835	-1,9533	16,307	8,2611
62478	-9,3937	-1,9733	16,98	8,3771
62479	-9,0006	-2,5133	16,71	8,2921
62480	-8,9525	-1,4675	16,725	8,2917
62481	-8,4222	-1,8753	11,496	7,9079
62482	-8,6495	-1,9379	12,147	7,9278
62483	-8,2472	-2,4511	11,896	7,846
62484	-8,2073	-1,4111	11,893	7,8398
62485	-9,4265	-1,972	22,122	9,3869
62486	-9,6201	-1,9737	22,807	9,518
62487	-9,2557	-2,4996	22,52	9,4855
62488	-9,1928	-1,4787	22,546	9,5004
62489	-8,8979	-1,9281	10,732	8,0917
62490	-9,0898	-1,9333	11,361	8,0803
62491	-8,7166	-2,5155	11,123	8,008
62492	-8,6418	-1,4052	11,107	7,9944
62493	-9,9136	-1,9858	21,255	9,1831
62494	-10,09	-1,9757	21,956	9,3069
62495	-9,7224	-2,5032	21,658	9,2714
62496	-9,6632	-1,4803	21,698	9,2873
62497	-9,3714	-2,0294	9,9166	8,3199
62498	-9,5769	-2,0013	10,596	8,2851
62499	-9,1939	-2,5297	10,372	8,2121
62500	-8,885	-2,2329	9,938	8,1809
62501	-9,1247	-1,4625	10,342	8,1998
62502	-10,375	-1,9861	20,395	9,0117
62503	-10,571	-1,9891	21,078	9,1191
62504	-10,207	-2,5192	20,787	9,084
62505	-10,147	-1,4938	20,822	9,0966
62506	-10,03	-2,0614	9,7655	8,5281
62507	-9,7682	-2,0817	9,0996	8,5606
62508	-9,7031	-2,6376	9,5636	8,4689
62509	-9,3117	-2,6424	9,3259	8,3937
62510	-9,0992	-2,2776	9,4948	8,3093
62511	-9,5855	-1,5267	9,5056	8,4477
62512	-9,6509	-1,9462	15,471	8,2413
62513	-9,849	-1,955	16,148	8,3331
62514	-9,4422	-2,4829	15,88	8,2479
62515	-9,4167	-1,4641	15,893	8,2494
62516	-10,059	-1,975	16,821	8,4435
62517	-10,25	-1,98	17,499	8,5438
62518	-9,8697	-2,5257	17,226	8,4731
62519	-9,825	-1,4864	17,242	8,4746
62520	-10,319	-1,9457	15,308	8,3351
62521	-10,108	-1,936	14,638	8,2668
62522	-9,9007	-2,4724	15,046	8,251
62523	-9,8866	-1,4574	15,055	8,2534
62524	-10,834	-1,9838	19,543	8,8743
62525	-11,019	-1,9765	20,234	8,9687
62526	-10,626	-2,4915	19,958	8,936
62527	-10,585	-1,4807	19,978	8,9443
62528	-10,517	-1,9546	15,985	8,4207
62529	-10,718	-1,9621	16,658	8,4992
62530	-10,302	-2,4821	16,395	8,427
62531	-10,283	-1,4701	16,407	8,4304
62532	-9,0545	-1,9502	13,459	8,0091
62533	-8,8679	-1,9889	12,804	7,9668
62534	-8,6701	-2,5506	13,198	7,9247
62535	-8,6275	-1,4689	13,205	7,9187
62536	-10,43	-1,9691	18,186	8,6594
62537	-10,641	-1,9814	18,86	8,7603
62538	-10,232	-2,4888	18,596	8,7064
62539	-10,198	-1,4771	18,611	8,7116
62540	-9,5429	-1,9778	25,042	10,027
62541	-9,3484	-1,9756	24,351	9,9048
62542	-9,1599	-2,4869	24,773	10,028
62543	-9,1161	-1,4819	24,781	10,041
62544	-9,7014	-1,9548	13,312	8,153
62545	-9,8983	-1,9248	13,97	8,1982
62546	-9,4998	-2,5115	13,708	8,1133
62547	-9,4672	-1,4409	13,718	8,1104
62548	-10,908	-1,9671	17,337	8,5938
62549	-11,094	-1,9714	18,015	8,6749
62550	-10,71	-2,5109	17,744	8,6218
62551	-10,664	-1,4772	17,763	8,6251
62552	-10,973	-1,9448	15,147	8,4424
62553	-11,186	-1,9532	15,816	8,4987
62554	-10,762	-2,4762	15,556	8,4271
62555	-10,752	-1,4636	15,568	8,4312
62556	-9,5148	-1,9935	12,657	8,1159
62557	-9,317	-1,9959	12,012	8,0972
62558	-9,1102	-2,5136	12,408	8,0309
62559	-9,0749	-1,4767	12,405	8,0262
62560	-10,207	-1,9805	24,876	9,8925
62561	-10,399	-1,9823	25,56	9,9844
62562	-10,013	-2,4893	25,296	10,012
62563	-9,9721	-1,4855	25,305	10,026
62564	-10,35	-1,9557	13,157	8,297
62565	-10,161	-1,9919	12,511	8,2793
62566	-9,9511	-2,5044	12,91	8,2152
62567	-9,9203	-1,4738	12,909	8,2123
62568	-10,547	-1,9258	13,815	8,3365
62569	-10,763	-1,935	14,478	8,3801
62570	-10,358	-2,5097	14,215	8,3014
62571	-10,331	-1,4491	14,229	8,3008
62572	-9,8155	-1,9762	23,496	9,6578
62573	-10,013	-1,9784	24,185	9,7704
62574	-9,649	-2,4987	23,906	9,7648
62575	-9,5832	-1,4823	23,923	9,7814
62576	-11,202	-1,9258	13,651	8,4714
62577	-10,988	-1,9166	13,002	8,4533
62578	-10,792	-2,4692	13,405	8,3944
62579	-10,765	-1,442	13,408	8,3933
62580	-11,417	-1,935	14,314	8,509
62581	-11,629	-1,9433	14,977	8,5404
62582	-11,217	-2,5084	14,713	8,4729
62583	-11,195	-1,4559	14,733	8,4745
62584	-10,284	-1,9774	22,641	9,436
62585	-10,477	-1,9788	23,324	9,5381
62586	-10,112	-2,499	23,038	9,5295
62587	-10,05	-1,4828	23,069	9,5472
62588	-11,861	-1,926	13,491	8,6227
62589	-12,076	-1,9343	14,146	8,6296
62590	-11,66	-2,4711	13,896	8,5639
62591	-11,64	-1,4489	13,901	8,5654
62592	-11,305	-1,9837	18,689	8,771
62593	-11,5	-1,9865	19,366	8,8474
62594	-11,103	-2,499	19,101	8,8154
62595	-11,073	-1,4909	19,115	8,8219
62596	-9,9635	-1,9943	11,866	8,2652
62597	-9,7687	-2,0065	11,225	8,2708
62598	-9,5751	-2,5698	11,62	8,1878
62599	-9,5224	-1,4826	11,615	8,1783
62600	-4,4712	-1,697	5,5848	8,0082
62601	-4,0704	-1,8279	4,9992	8,0621
62602	-4,2433	-2,2747	5,3551	8,0203
62603	-4,6318	-2,0466	5,4129	8,0638
62604	-4,0535	-1,9328	5,1828	8,0267
62605	-4,0891	-1,3308	5,3796	7,9971
62606	-10,618	-2,0024	11,721	8,4497
62607	-10,799	-1,9528	12,356	8,4409
62608	-10,404	-2,5136	12,115	8,3631
62609	-10,374	-1,4858	12,112	8,36
62610	-10,236	-2,0334	10,445	8,4897
62611	-10,423	-2,0146	11,081	8,4593
62612	-10,025	-2,5388	10,84	8,3813
62613	-9,96	-1,4833	10,823	8,3698
62614	-5,242	-1,6128	6,0736	8,0336
62615	-4,7673	-1,7466	5,3025	8,1044
62616	-5,0928	-2,2957	5,7933	8,0639
62617	-5,0151	-1,9795	5,5775	8,0887
62618	-4,4368	-1,8656	5,3474	8,0472
62619	-4,9201	-1,1918	5,7063	8,0559
62620	-10,895	-2,0398	10,306	8,6976
62621	-10,822	-2,0792	9,6189	8,7931
62622	-10,506	-2,5789	10,066	8,6245
62623	-10,46	-1,527	10,053	8,6169
62624	-11,083	-2,0211	10,942	8,6639
62625	-11,253	-1,957	11,567	8,6303
62626	-10,867	-2,5271	11,333	8,5565
62627	-10,832	-1,4969	11,326	8,5527
62628	-11,582	-1,9674	17,164	8,6309
62629	-11,387	-1,9607	16,489	8,5712
62630	-11,168	-2,4855	16,901	8,5771
62631	-11,153	-1,4744	16,913	8,5818
62632	-11,714	-1,9638	10,797	8,8616
62633	-11,569	-2,0463	10,251	8,9122
62634	-11,334	-2,5478	10,559	8,7919
62635	-11,308	-1,514	10,554	8,7898
62636	-6,0549	-1,7399	6,5793	8,0879
62637	-5,5987	-1,6832	5,8813	8,1349
62638	-5,863	-2,2946	6,4721	8,0716
62639	-5,4026	-1,9625	5,9017	8,088
62640	-5,6302	-1,2444	6,3636	8,05
62641	-10,674	-1,981	24,014	9,6497
62642	-10,874	-1,9827	24,702	9,7314
62643	-10,504	-2,498	24,425	9,7518
62644	-10,444	-1,4859	24,448	9,7713
62645	-6,8608	-1,9382	7,036	8,168
62646	-6,5758	-1,9063	6,3928	8,2286
62647	-6,2884	-2,4387	6,6535	8,1212
62648	-5,828	-2,1065	6,0831	8,1289
62649	-6,4955	-1,401	6,8121	8,1346
62650	-10,748	-1,9789	21,779	9,2399
62651	-10,95	-1,9802	22,468	9,3315
62652	-10,578	-2,5028	22,175	9,3214
62653	-10,52	-1,4841	22,214	9,3383
62654	-11,143	-1,9817	23,151	9,4319
62655	-11,339	-1,9829	23,833	9,503
62656	-10,968	-2,4991	23,547	9,5209
62657	-10,906	-1,4861	23,579	9,5406
62658	-11,412	-1,9816	21,599	9,1515
62659	-11,216	-1,9795	20,917	9,0729
62660	-11,018	-2,4931	21,323	9,1446
62661	-10,978	-1,485	21,344	9,1558
62662	-7,6435	-1,9071	7,5654	8,2517
62663	-7,3509	-2,0362	6,9028	8,3047
62664	-6,9908	-2,53	7,4559	8,1173
62665	-7,2869	-1,4671	7,335	8,2123
62666	-11,614	-1,9829	22,288	9,2407
62667	-11,813	-1,9838	22,973	9,3006
62668	-11,435	-2,5028	22,68	9,3178
62669	-11,382	-1,487	22,722	9,3363
62670	-11,768	-1,9717	17,842	8,7064
62671	-11,958	-1,9763	18,519	8,7641
62672	-11,572	-2,5098	18,246	8,7323
62673	-11,526	-1,4806	18,27	8,7379
62674	-12,084	-1,9837	21,424	9,0779
62675	-12,28	-1,9848	22,104	9,1253
62676	-11,884	-2,4945	21,831	9,147
62677	-11,849	-1,4879	21,854	9,1591
62678	-12,247	-1,9657	16,991	8,6826
62679	-12,447	-1,9721	17,664	8,7196
62680	-12,038	-2,5081	17,393	8,6885
62681	-12,012	-1,4779	17,418	8,6938
62682	-8,5942	-1,8392	8,0633	8,4089
62683	-8,2581	-1,9531	7,4559	8,4326
62684	-8,0775	-2,2543	8,322	8,2186
62685	-7,8006	-2,3576	8,0622	8,1996
62686	-8,2805	-2,1261	7,8734	8,3576
62687	-8,1307	-1,3854	7,8231	8,3339
62688	-11,647	-1,9168	12,842	8,6101
62689	-11,434	-1,9074	12,202	8,6165
62690	-11,256	-2,5139	12,602	8,5403
62691	-11,212	-1,4352	12,603	8,5349
62692	-11,888	-1,9815	20,742	9,0023
62693	-11,685	-1,9792	20,057	8,9376
62694	-11,49	-2,4943	20,468	8,9954
62695	-11,456	-1,4848	20,491	9,0053
62696	-9,5467	-1,973	8,5165	8,5973
62697	-9,2989	-1,9147	7,8971	8,6454
62698	-8,9523	-2,4259	8,166	8,4903
62699	-8,8291	-2,1435	8,1173	8,462
62700	-9,1448	-1,4014	8,3101	8,525
62701	-12,554	-1,9837	20,56	8,9459
62702	-12,754	-1,9849	21,241	8,9791
62703	-12,349	-2,4926	20,973	9,0015
62704	-12,321	-1,4879	20,993	9,0116
62705	-12,308	-1,916	12,682	8,7835
62706	-12,519	-1,9258	13,324	8,765
62707	-12,121	-2,5119	13,079	8,7058
62708	-12,083	-1,4423	13,087	8,7024
62709	-10,56	-2,0995	8,953	8,8267
62710	-10,231	-2,0163	8,3276	8,846
62711	-10,164	-2,6519	8,8048	8,733
62712	-9,803	-2,6302	8,6088	8,6595
62713	-10,331	-2,4086	8,6498	8,8139
62714	-9,9993	-1,526	8,7337	8,7009
62715	-12,051	-1,9591	16,317	8,6288
62716	-11,842	-1,9517	15,645	8,5906
62717	-11,628	-2,4801	16,056	8,5755
62718	-11,621	-1,4682	16,069	8,5807
62719	-11,884	-1,8998	11,422	8,8238
62720	-12,095	-1,9066	12,042	8,7951
62721	-11,702	-2,5186	11,808	8,727
62722	-11,656	-1,4281	11,807	8,7203
62723	-12,352	-1,9814	19,875	8,8847
62724	-12,153	-1,979	19,196	8,8362
62725	-11,951	-2,4942	19,609	8,8783
62726	-11,916	-1,4847	19,624	8,8861
62727	-12,557	-1,8986	11,264	9,026
62728	-12,357	-1,9562	10,665	9,0755
62729	-12,146	-2,4727	11,046	8,9517
62730	-12,112	-1,4232	11,04	8,9497
62731	-13,024	-1,9832	19,696	8,8469
62732	-13,222	-1,9849	20,373	8,8644
62733	-12,815	-2,4927	20,112	8,8873
62734	-12,789	-1,4879	20,127	8,896
62735	-12,768	-1,9053	11,884	8,9927
62736	-12,975	-1,9164	12,514	8,9495
62737	-12,576	-2,5159	12,283	8,8916
62738	-12,536	-1,4343	12,283	8,8881
62739	-12,918	-1,9644	16,812	8,7164
62740	-12,71	-1,9575	16,14	8,7013
62741	-12,492	-2,4843	16,552	8,6861
62742	-12,482	-1,4722	16,569	8,6915
62743	-13,234	-1,9386	11,098	9,2473
62744	-13,436	-1,9077	11,71	9,1828
62745	-13,018	-2,4617	11,493	9,1184
62746	-13,001	-1,4326	11,491	9,1216
62747	-12,288	-1,9426	14,809	8,6549
62748	-12,5	-1,9501	15,469	8,6692
62749	-12,08	-2,5063	15,205	8,6185
62750	-12,064	-1,4612	15,227	8,6218
62751	-12,637	-1,9767	18,341	8,7722
62752	-12,826	-1,9808	19,017	8,8024
62753	-12,421	-2,4945	18,753	8,7966
62754	-12,392	-1,4845	18,77	8,8036
62755	-13,118	-1,9707	17,485	8,7479
62756	-13,318	-1,9765	18,158	8,7574
62757	-12,905	-2,5075	17,889	8,753
62758	-12,882	-1,4815	17,914	8,7595
62759	-11,495	-2,0858	9,5638	9,0074
62760	-11,678	-2,1003	9,2343	9,1354
62761	-11,244	-2,0389	8,7097	9,0988
62762	-11,262	-2,691	9,0865	9,0308
62763	-11,126	-2,7003	9,1676	8,9723
62764	-10,94	-2,4188	8,8769	8,9625
62765	-11,393	-2,3899	9,2482	9,0403
62766	-11,122	-1,5569	9,1809	8,9737
62767	-12,735	-1,9341	13,978	8,7661
62768	-12,949	-1,9422	14,635	8,7559
62769	-12,53	-2,4737	14,385	8,7073
62770	-12,513	-1,4547	14,396	8,7102
62771	-12,211	-2,0387	10,119	9,1289
62772	-12,004	-2,0763	9,6179	9,1638
62773	-11,786	-2,5652	9,9131	9,0393
62774	-11,719	-2,366	9,6318	9,0671
62775	-11,814	-1,5315	9,9591	9,0461
62776	-13,582	-1,9634	16,632	8,7654
62777	-13,789	-1,9693	17,303	8,7531
62778	-13,361	-2,4869	17,045	8,7502
62779	-13,353	-1,4761	17,06	8,7562
62780	-13,034	-1,9962	10,499	9,3012
62781	-12,811	-2,0153	9,9167	9,3592
62782	-12,605	-2,5342	10,295	9,2189
62783	-12,602	-1,5014	10,294	9,224
62784	-13,186	-1,9263	13,156	8,9254
62785	-13,397	-1,9342	13,8	8,8897
62786	-12,994	-2,509	13,549	8,8472
62787	-12,958	-1,4486	13,566	8,8454
62788	-13,374	-1,9565	15,959	8,756
62789	-13,161	-1,9497	15,295	8,7642
62790	-12,949	-2,5038	15,694	8,7279
62791	-12,937	-1,4659	15,716	8,7324
62792	-13,507	-1,9806	18,834	8,7831
62793	-13,696	-1,984	19,511	8,7828
62794	-13,287	-2,4948	19,25	8,8067
62795	-13,261	-1,4873	19,266	8,8147
62796	-14,034	-1,9565	15,785	8,8262
62797	-14,248	-1,9623	16,448	8,791
62798	-13,822	-2,5017	16,186	8,7906
62799	-13,81	-1,4706	16,207	8,7957
62800	-13,907	-1,9747	10,919	9,4621
62801	-13,704	-1,9355	10,305	9,5503
62802	-13,469	-2,5029	10,711	9,3912
62803	-13,468	-1,4634	10,7	9,4009
62804	-13,989	-1,975	17,975	8,7578
62805	-14,19	-1,9797	18,648	8,7363
62806	-13,772	-2,5071	18,381	8,7626
62807	-13,754	-1,4844	18,405	8,7697
62808	-13,611	-1,9422	14,457	8,8735
62809	-13,822	-1,9497	15,12	8,84
62810	-13,401	-2,4772	14,866	8,8143
62811	-13,386	-1,4605	14,878	8,8184
62812	-13,85	-1,9275	12,981	9,0719
62813	-13,643	-1,9187	12,34	9,134
62814	-13,453	-2,5127	12,743	9,0322
62815	-13,416	-1,4429	12,752	9,03
62816	-14,061	-1,9355	13,625	9,0304
62817	-14,276	-1,9426	14,278	8,9721
62818	-13,869	-2,5053	14,024	8,9519
62819	-13,838	-1,4548	14,04	8,9524
62820	-12,604	-2,0529	9,4154	9,399
62821	-12,336	-2,0057	8,8725	9,4323
62822	-12,165	-2,6017	9,2043	9,3044
62823	-11,902	-2,3805	9,3023	9,1937
62824	-12,223	-1,5441	9,2437	9,3193
62825	-14,455	-1,9682	17,12	8,7736
62826	-14,663	-1,9839	17,784	8,7304
62827	-14,232	-2,489	17,533	8,7588
62828	-14,224	-1,4793	17,549	8,7653
62829	-13,481	-1,9546	9,7224	9,6136
62830	-13,257	-1,957	9,1405	9,6868
62831	-13,012	-2,5257	9,5454	9,5085
62832	-13,03	-1,4967	9,5395	9,5227
62833	-14,527	-1,9594	12,801	9,2387
62834	-14,725	-1,9374	13,452	9,1504
62835	-14,325	-2,5087	13,2	9,135
62836	-14,288	-1,4504	13,215	9,1338
62837	-14,32	-1,9506	12,16	9,3066
62838	-14,109	-1,9438	11,531	9,3922
62839	-13,89	-2,4648	11,934	9,26
62840	-13,876	-1,4423	11,936	9,2641
62841	-14,697	-1,9564	15,602	8,8727
62842	-14,486	-1,9501	14,941	8,9328
62843	-14,273	-2,4793	15,35	8,8743
62844	-14,259	-1,4658	15,367	8,8789
62845	-14,911	-1,9622	16,266	8,8323
62846	-15,126	-1,9791	16,928	8,7659
62847	-14,696	-2,5004	16,674	8,797
62848	-14,686	-1,4744	16,694	8,8027
62849	-14,996	-1,9828	11,977	9,4984
62850	-15,193	-1,9639	12,626	9,3824
62851	-14,776	-2,4981	12,384	9,3652
62852	-14,761	-1,4785	12,394	9,3686
62853	-15,366	-1,9567	15,417	8,936
62854	-15,582	-1,9762	16,074	8,8448
62855	-15,149	-2,4813	15,827	8,8782
62856	-15,136	-1,4703	15,842	8,884
62857	-15,156	-1,9504	14,755	9,0015
62858	-14,939	-1,9445	14,105	9,0866
62859	-14,744	-2,502	14,496	9,009
62860	-14,716	-1,461	14,52	9,0107
62861	-14,785	-1,976	11,349	9,5897
62862	-14,584	-1,9422	10,722	9,7023
62863	-14,346	-2,4854	11,131	9,5393
62864	-14,35	-1,4657	11,132	9,5487
62865	-14,382	-1,903	10,107	9,7968
62866	-14,168	-1,8966	9,5044	9,8986
62867	-13,914	-2,4548	9,9136	9,7101
62868	-13,944	-1,422	9,9031	9,7311
62869	-15,458	-1,9555	11,153	9,8104
62870	-15,655	-1,9615	11,797	9,6664
62871	-15,224	-2,4896	11,561	9,6474
62872	-15,223	-1,4732	11,568	9,6546
62873	-15,82	-1,952	14,574	9,0863
62874	-16,044	-1,9738	15,224	8,9694
62875	-15,62	-2,499	14,967	9,0089
62876	-15,597	-1,4662	14,995	9,0117
62877	-15,391	-1,9419	13,277	9,2886
62878	-15,603	-1,9461	13,923	9,1765
62879	-15,203	-2,5044	13,664	9,1898
62880	-15,164	-1,4574	13,693	9,1879
62881	-15,257	-1,9218	10,526	9,9294
62882	-15,029	-1,9403	9,9048	10,055
62883	-14,793	-2,4675	10,315	9,8687
62884	-14,826	-1,4353	10,314	9,888
62885	-15,853	-1,9426	12,446	9,5448
62886	-16,072	-1,9665	13,082	9,4059
62887	-15,655	-2,5092	12,829	9,4211
62888	-15,62	-1,4569	12,863	9,4171
62889	-16,129	-1,9397	10,959	10,011
62890	-15,909	-1,9554	10,318	10,176
62891	-15,67	-2,4764	10,732	9,9837
62892	-15,697	-1,4501	10,741	9,998
62893	-16,285	-1,9707	13,729	9,2882
62894	-16,498	-1,9722	14,381	9,1413
62895	-16,069	-2,4815	14,136	9,1831
62896	-16,045	-1,4631	14,156	9,1862
62897	-16,326	-1,9456	11,604	9,861
62898	-16,527	-1,948	12,259	9,6843
62899	-16,097	-2,4773	12,008	9,7005
62900	-16,09	-1,4586	12,029	9,703
62901	-16,746	-1,9719	12,896	9,5401
62902	-16,968	-1,993	13,532	9,3674
62903	-16,549	-2,5246	13,271	9,4193
62904	-16,517	-1,4836	13,316	9,4143
62905	-17,001	-1,9527	11,408	10,03
62906	-16,786	-1,9651	10,747	10,239
62907	-16,552	-2,4734	11,165	10,044
62908	-16,568	-1,4617	11,18	10,053
62909	-17,202	-1,9551	12,063	9,8476
62910	-17,407	-1,9543	12,726	9,6344
62911	-16,978	-2,4791	12,46	9,6918
62912	-16,968	-1,4649	12,489	9,6919
62913	-17,671	-1,9609	11,203	10,228
62914	-17,873	-1,9731	11,85	9,9844
62915	-17,43	-2,4796	11,609	10,035
62916	-17,438	-1,469	11,637	10,037
62917	-18,144	-1,9681	10,322	10,688
62918	-17,457	-1,9733	10,541	10,443
62919	-18,336	-1,9658	11,005	10,389
62920	-17,881	-2,484	10,744	10,45
62921	-17,909	-1,4739	10,767	10,457
62922	-18,548	-1,9862	9,4219	11,22
62923	-17,947	-1,9644	9,6583	10,943
62924	-18,806	-1,9765	10,115	10,893
62925	-18,318	-2,494	9,8614	10,943
62926	-18,385	-1,4805	9,8746	10,963
62927	-18,914	-1,9991	8,506	11,837
62928	-18,275	-1,9981	8,7643	11,482
62929	-19,171	-1,9945	9,1864	11,486
62930	-18,64	-2,5276	8,9609	11,495
62931	-18,748	-1,4953	8,9697	11,533
62932	-19,286	-1,9923	7,5701	12,559
62933	-18,663	-2,0016	7,8518	12,124
62934	-19,558	-1,9863	8,2401	12,202
62935	-19,069	-2,5022	8,0472	12,17
62936	-19,152	-1,4922	8,039	12,22
62937	-20,256	-1,9806	4,6839	15,253
62938	-19,983	-1,978	4,0516	15,36
62939	-20,375	-2,4891	4,2357	15,751
62940	-20,549	-1,9787	3,6497	16,068
62941	-20,463	-1,4779	4,1613	15,887
62942	-19,958	-1,9797	5,6581	14,297
62943	-19,69	-1,9747	5,0169	14,532
62944	-20,537	-1,9766	5,3397	15,14
62945	-20,071	-2,489	5,1997	14,752
62946	-20,138	-1,4813	5,1603	14,854
62947	-19,632	-1,983	6,6178	13,385
62948	-19,029	-1,9852	6,9159	12,86
62949	-19,959	-1,957	7,2695	13,071
62950	-19,415	-2,4939	7,1097	12,933
62951	-19,493	-1,4856	7,0877	13,001
62952	-19,378	-1,9759	5,969	13,678
62953	-20,231	-1,975	6,3052	14,021
62954	-19,757	-2,4886	6,1598	13,807
62955	-19,855	-1,473	6,1169	13,918
62956	-17,26	-1,9695	9,8776	10,689
62957	-16,566	-1,9808	10,105	10,411
62958	-16,986	-2,4961	10,305	10,449
62959	-17,023	-1,4813	10,318	10,464
62960	-17,674	-1,9763	9,0007	11,192
62961	-17,068	-1,9478	9,2401	10,896
62962	-17,435	-2,49	9,4375	10,925
62963	-17,517	-1,4688	9,4418	10,958
62964	-15,68	-1,974	9,6966	10,309
62965	-16,374	-1,959	9,4675	10,608
62966	-16,1	-2,4885	9,8939	10,372
62967	-16,142	-1,4769	9,8969	10,394
62968	-18,024	-2,0007	8,1101	11,751
62969	-17,444	-1,9695	8,3615	11,414
62970	-17,743	-2,5386	8,5634	11,428
62971	-17,873	-1,4905	8,5583	11,487
62972	-14,815	-1,9339	9,3018	10,164
62973	-15,481	-1,9451	9,0762	10,465
62974	-15,209	-2,4884	9,4985	10,237
62975	-15,264	-1,4647	9,4968	10,266
62976	-18,405	-1,9945	7,1976	12,399
62977	-17,833	-1,9725	7,4646	12,006
62978	-18,11	-2,5405	7,6774	12,018
62979	-18,255	-1,4955	7,6531	12,104
62980	-13,943	-1,8991	8,9224	9,9783
62981	-14,602	-1,9018	8,7009	10,281
62982	-14,336	-2,4556	9,1171	10,065
62983	-14,396	-1,4254	9,1059	10,098
62984	-16,838	-1,941	8,6009	11,105
62985	-16,174	-1,9302	8,8472	10,773
62986	-16,548	-2,4739	9,0427	10,828
62987	-16,628	-1,4556	9,0403	10,867
62988	-12,989	-1,9098	8,5975	9,7282
62989	-13,68	-1,9009	8,3522	10,047
62990	-13,431	-2,4553	8,7584	9,8472
62991	-13,491	-1,4255	8,7361	9,8836
62992	-17,253	-1,9414	7,716	11,653
62993	-16,542	-1,9692	7,9943	11,247
62994	-16,952	-2,4803	8,1765	11,332
62995	-17,057	-1,4584	8,1645	11,39
62996	-18,774	-1,978	6,267	13,116
62997	-18,21	-1,9577	6,5487	12,664
62998	-18,542	-2,4947	6,7507	12,725
62999	-18,632	-1,4826	6,7264	12,801
63000	-15,268	-1,913	8,4754	10,591
63001	-15,878	-1,9584	8,2405	10,904
63002	-15,642	-2,4746	8,6642	10,666
63003	-15,729	-1,4425	8,6559	10,712
63004	-17,637	-1,9358	6,8157	12,248
63005	-16,932	-1,9686	7,1185	11,789
63006	-17,339	-2,4756	7,2938	11,891
63007	-17,457	-1,4561	7,2721	11,968
63008	-14,339	-1,9036	8,1307	10,357
63009	-14,959	-1,9475	7,8929	10,675
63010	-14,726	-2,4682	8,3091	10,452
63011	-14,813	-1,4302	8,2947	10,501
63012	-19,11	-1,9708	5,3278	13,857
63013	-18,556	-1,9486	5,6222	13,357
63014	-18,893	-2,4861	5,8213	13,46
63015	-18,979	-1,4748	5,7876	13,548
63016	-11,902	-1,9443	8,3479	9,4052
63017	-12,647	-1,9631	8,073	9,7369
63018	-12,451	-2,4927	8,4687	9,5711
63019	-12,48	-1,4429	8,4554	9,5922
63020	-19,417	-1,9721	4,3846	14,553
63021	-18,871	-1,9467	4,6913	14,041
63022	-19,183	-2,5006	4,9004	14,168
63023	-19,294	-1,4735	4,8438	14,296
63024	-14,065	-1,9063	7,5625	10,426
63025	-13,337	-1,9542	7,8277	10,061
63026	-13,788	-2,4604	7,9806	10,195
63027	-13,855	-1,4338	7,9689	10,234
63028	-19,111	-1,9724	3,7934	14,582
63029	-19,525	-2,4818	3,9361	14,87
63030	-19,587	-1,4786	3,905	14,942
63031	-17,991	-1,9284	5,9038	12,874
63032	-17,294	-1,9603	6,23	12,365
63033	-17,71	-2,4659	6,3961	12,498
63034	-17,824	-1,4502	6,365	12,588
63035	-15,569	-1,9929	7,6581	10,997
63036	-16,22	-1,9964	7,3968	11,368
63037	-15,929	-2,5563	7,8391	11,081
63038	-16,071	-1,4855	7,819	11,157
63039	-17,647	-1,9475	5,3272	12,966
63040	-18,317	-1,9245	4,9856	13,497
63041	-18,056	-2,4584	5,4865	13,128
63042	-18,162	-1,4447	5,4475	13,227
63043	-14,685	-1,9501	7,3248	10,752
63044	-15,282	-1,9928	7,0753	11,09
63045	-15,002	-2,5585	7,509	10,827
63046	-15,153	-1,4757	7,4817	10,91
63047	-16,588	-1,993	6,5329	11,885
63048	-15,933	-1,9963	6,814	11,473
63049	-16,358	-2,5087	6,9787	11,603
63050	-16,449	-1,4895	6,9592	11,666
63051	-14,39	-1,947	6,7616	10,808
63052	-13,723	-1,9466	7,0223	10,447
63053	-14,16	-2,4628	7,178	10,585
63054	-14,264	-1,4327	7,1589	10,646
63055	-16,95	-1,9794	5,6534	12,431
63056	-16,296	-1,9865	5,9551	11,983
63057	-16,719	-2,4976	6,1109	12,134
63058	-16,809	-1,4836	6,0865	12,205
63059	-17,336	-1,9394	4,7469	13,008
63060	-16,656	-1,9678	5,0796	12,513
63061	-17,079	-2,4825	5,2251	12,689
63062	-17,173	-1,4652	5,1957	12,772
63063	-18,006	-1,9164	4,4054	13,574
63064	-18,565	-1,9471	4,1001	14,018
63065	-18,377	-2,4563	4,5684	13,744
63066	-18,475	-1,4439	4,5256	13,844
63067	-11,565	-1,9869	7,8187	9,4066
63068	-10,915	-1,9558	8,0843	9,1234
63069	-11,322	-2,5666	8,2572	9,226
63070	-11,015	-2,3481	8,4065	9,0882
63071	-11,385	-1,4716	8,238	9,2575
63072	-12,31	-2,0056	7,5438	9,7443
63073	-12,995	-1,9944	7,2875	10,075
63074	-12,771	-2,5118	7,6904	9,8843
63075	-12,833	-1,4898	7,6843	9,9174
63076	-14,986	-1,9897	6,5122	11,156
63077	-15,641	-1,9897	6,2362	11,555
63078	-15,361	-2,5531	6,6864	11,27
63079	-15,508	-1,4843	6,6492	11,362
63080	-11,362	-1,9647	7,2476	9,4656
63081	-11,991	-2,0064	7,0002	9,7573
63082	-11,768	-2,5236	7,3947	9,5813
63083	-11,862	-1,4867	7,4049	9,6203
63084	-17,671	-1,9058	3,8421	13,536
63085	-17,058	-1,9023	4,1744	13,075
63086	-17,444	-2,4487	4,318	13,253
63087	-17,542	-1,4327	4,287	13,343
63088	-14,756	-1,9442	5,9394	11,239
63089	-14,03	-1,9876	6,2269	10,817
63090	-14,465	-2,4992	6,374	10,97
63091	-14,562	-1,4747	6,3557	11,032
63092	-18,23	-1,9365	3,5368	14,015
63093	-18,801	-1,9684	3,2215	14,425
63094	-18,617	-2,4775	3,6893	14,219
63095	-18,689	-1,4694	3,6558	14,289
63096	-16,003	-1,9749	5,3813	12,044
63097	-15,411	-1,9442	5,6633	11,651
63098	-15,775	-2,4966	5,8241	11,778
63099	-15,884	-1,4703	5,7973	11,858
63100	-17,314	-1,8955	3,3029	13,504
63101	-17,911	-1,8942	2,9598	13,925
63102	-17,724	-2,4455	3,4243	13,722
63103	-17,809	-1,4291	3,4022	13,803
63104	-16,378	-1,9308	4,5071	12,553
63105	-15,748	-1,9312	4,8177	12,114
63106	-16,083	-2,524	4,9837	12,239
63107	-16,213	-1,4646	4,9425	12,341
63108	-15,156	-1,9005	5,0998	11,705
63109	-14,447	-1,9361	5,3927	11,266
63110	-14,887	-2,4532	5,5355	11,438
63111	-14,998	-1,4288	5,5165	11,513
63112	-16,701	-1,8921	3,6353	13,015
63113	-16,085	-1,8931	3,9589	12,576
63114	-16,445	-2,4837	4,1014	12,739
63115	-16,565	-1,4243	4,0676	12,838
63116	-10,712	-1,9335	7,5132	9,1758
63117	-9,9831	-1,9581	7,7081	8,8972
63118	-10,387	-2,5111	7,8708	8,993
63119	-10,611	-2,3356	8,2515	8,9819
63120	-10,503	-1,4557	7,9358	9,0232
63121	-16,893	-1,9265	2,7744	13,356
63122	-16,329	-1,8864	3,1125	12,955
63123	-16,713	-2,4759	3,2269	13,155
63124	-16,826	-1,4174	3,2104	13,248
63125	-15,454	-1,8934	4,2695	12,118
63126	-14,771	-1,9261	4,57	11,674
63127	-15,209	-2,452	4,7038	11,865
63128	-15,316	-1,4234	4,6872	11,943
63129	-18,481	-1,9261	2,6445	14,374
63130	-18,933	-2,4786	2,7777	14,639
63131	-18,98	-1,4672	2,7463	14,688
63132	-15,714	-1,8873	3,4361	12,495
63133	-15,05	-1,9233	3,7413	12,053
63134	-15,503	-2,4394	3,8619	12,273
63135	-15,593	-1,4182	3,8562	12,344
63136	-17,49	-1,9251	2,4313	13,805
63137	-18,078	-1,921	2,0979	14,183
63138	-17,959	-2,4323	2,5357	14,063
63139	-18,024	-1,4177	2,5279	14,119
63140	-11,061	-1,9544	6,6923	9,4829
63141	-10,31	-1,9279	6,9439	9,1682
63142	-10,773	-2,5165	7,1048	9,2893
63143	-10,897	-1,4496	7,0889	9,3426
63144	-17,062	-1,9629	1,9087	13,624
63145	-16,465	-1,9674	2,24	13,226
63146	-16,915	-2,5134	2,3398	13,482
63147	-16,985	-1,4615	2,3466	13,544
63148	-17,65	-1,9588	1,5753	14,024
63149	-16,671	-1,9598	1,3681	13,478
63150	-17,239	-1,9363	1,099	13,83
63151	-17,144	-2,4766	1,4597	13,754
63152	-17,179	-1,4468	1,4937	13,79
63153	-18,21	-1,9504	1,2472	14,334
63154	-18,12	-2,4713	1,6754	14,28
63155	-18,169	-1,4447	1,6761	14,325
63156	-15,901	-1,9273	2,578	12,803
63157	-15,297	-1,9228	2,9052	12,394
63158	-15,757	-2,4437	3,0139	12,638
63159	-15,82	-1,4221	3,015	12,695
63160	-12,677	-1,9952	6,7439	10,094
63161	-13,364	-1,9871	6,4876	10,447
63162	-13,138	-2,4964	6,89	10,245
63163	-13,23	-1,47	6,8805	10,294
63164	-16,074	-1,9643	1,6995	13,058
63165	-15,481	-1,9645	2,0438	12,667
63166	-15,937	-2,5146	2,1388	12,926
63167	-15,989	-1,4676	2,1474	12,974
63168	-11,69	-1,9961	6,4449	9,7802
63169	-12,365	-1,9935	6,1978	10,106
63170	-12,139	-2,5101	6,5982	9,9182
63171	-12,21	-1,496	6,5973	9,9543
63172	-16,327	-1,8918	0,87544	13,306
63173	-15,697	-1,9658	1,1621	12,907
63174	-16,144	-2,5098	1,2011	13,182
63175	-16,192	-1,4432	1,289	13,222
63176	-17,799	-1,9279	0,77087	14,154
63177	-18,327	-1,862	0,38063	14,413
63178	-18,276	-2,459	0,81884	14,394
63179	-18,303	-1,426	0,82339	14,422
63180	-16,895	-1,8683	0,60626	13,673
63181	-17,41	-1,8594	0,3611	13,974
63182	-17,39	-2,4547	0,6331	13,959
63183	-17,339	-1,4181	0,72204	13,949
63184	-13,052	-1,9854	5,9415	10,465
63185	-13,721	-1,9795	5,6803	10,833
63186	-13,496	-2,503	6,0947	10,62
63187	-13,592	-1,4744	6,081	10,677
63188	-16,587	-1,7904	0,2565	13,506
63189	-15,98	-1,8713	0,47111	13,135
63190	-16,475	-2,5519	0,19815	13,441
63191	-16,483	-1,3758	0,51016	13,458
63192	-11,392	-1,9842	5,8972	9,7895
63193	-10,732	-1,9474	6,0451	9,5162
63194	-11,162	-2,4962	6,2841	9,6193
63195	-11,245	-1,4776	6,2868	9,655
63196	-12,067	-1,9816	5,65	10,12
63197	-12,782	-1,9418	5,4031	10,485
63198	-12,518	-2,4903	5,7979	10,275
63199	-12,59	-1,4775	5,7946	10,315
63200	-13,451	-1,9359	5,1419	10,861
63201	-14,062	-1,9618	4,8629	11,223
63202	-13,854	-2,4815	5,2795	11,014
63203	-13,936	-1,465	5,2685	11,068
63204	-17,103	-1,7815	1,1347e-002	13,817
63205	-16,585	-1,8118	-0,23853	13,509
63206	-11,785	-1,947	5,1182	10,126
63207	-11,051	-1,9995	5,3702	9,7806
63208	-11,559	-2,4897	5,4726	9,9561
63209	-17,939	-1,7935	-2,9133e-002	14,243
63210	-17,381	-1,8085	-0,40844	13,955
63211	-17,595	-2,3954	-3,8221e-003	14,096
63212	-12,5	-1,9073	4,8712	10,496
63213	-13,157	-1,9009	4,6144	10,851
63214	-12,918	-2,4467	5,01	10,649
63215	-13,767	-1,9268	4,3355	11,223
63216	-14,367	-1,956	4,0419	11,595
63217	-14,184	-2,4683	4,4608	11,401
63218	-18,307	-1,7882	-0,46437	14,403
63219	-18,352	-2,3758	-1,9408e-002	14,43
63220	-12,108	-1,941	4,3196	10,439
63221	-11,475	-2,0322	4,53	10,141
63222	-11,953	-2,4283	4,6705	10,302
63223	-12,765	-1,9347	4,0627	10,801
63224	-13,444	-1,8934	3,8147	11,176
63225	-13,217	-2,4559	4,2219	10,979
63226	-14,043	-1,9226	3,5211	11,56
63227	-14,633	-1,9588	3,2105	11,936
63228	-14,47	-2,471	3,6316	11,761
63229	-12,353	-1,9842	3,4966	10,713
63230	-11,64	-2,1074	3,6801	10,374
63231	-12,182	-2,4831	3,9513	10,553
63232	-13,032	-1,9429	3,2486	11,097
63233	-13,668	-1,9288	2,9887	11,459
63234	-13,504	-2,4415	3,4059	11,303
63235	-14,258	-1,9649	2,6781	11,849
63236	-14,877	-1,96	2,371	12,24
63237	-14,732	-2,4736	2,7879	12,091
63238	-12,623	-1,9842	2,6968	10,981
63239	-11,975	-2,1117	2,8606	10,656
63240	-12,457	-2,5022	3,1117	10,84
63241	-13,259	-1,97	2,4369	11,353
63242	-13,881	-1,9629	2,1451	11,714
63243	-13,729	-2,4849	2,5612	11,579
63244	-12,894	-1,9533	1,9033	11,224
63245	-12,282	-1,9725	2,1342	10,905
63246	-12,712	-2,515	2,337	11,087
63247	-14,5	-1,958	1,838	12,12
63248	-15,104	-1,966	1,5064	12,496
63249	-14,972	-2,4747	1,9361	12,381
63250	-13,517	-1,9461	1,6114	11,597
63251	-14,122	-1,9181	1,351	11,95
63252	-13,987	-2,4681	1,7142	11,841
63253	-17,748	-1,8032	-0,84369	14,126
63254	-18,169	-1,8781	-1,2822	14,312
63255	-18,264	-2,3889	-0,8305	14,385
63256	-15,35	-1,9453	0,75776	12,724
63257	-14,726	-1,9262	1,0194	12,341
63258	-15,201	-2,4874	1,0398	12,62
63259	-16,863	-1,8388	-0,65832	13,658
63260	-17,193	-1,8868	-1,1424	13,806
63261	-17,332	-2,4024	-0,71053	13,923
63262	-17,614	-1,9617	-1,5809	14,004
63263	-17,993	-1,9708	-2,1284	14,131
63264	-18,118	-2,4806	-1,6628	14,276
63265	-15,978	-1,8926	-2,3918e-002	13,126
63266	-16,323	-1,9057	-0,86703	13,316
63267	-16,473	-2,5732	-0,29688	13,447
63268	-13,122	-1,8105	1,102	11,422
63269	-12,557	-1,8747	1,3601	11,124
63270	-13,001	-2,5079	1,4743	11,336
63271	-14,899	-1,8995	0,21544	12,483
63272	-15,284	-1,9164	-0,15179	12,689
63273	-15,577	-2,6212	0,17065	12,891
63274	-16,653	-1,9537	-1,3511	13,475
63275	-17,017	-1,9704	-1,9047	13,604
63276	-17,145	-2,4789	-1,4461	13,757
63277	-13,727	-1,7825	0,8416	11,785
63278	-14,274	-1,8803	0,47709	12,087
63279	-14,277	-2,3743	0,9748	12,081
63280	-15,628	-1,9295	-0,9949	12,89
63281	-16,05	-1,957	-1,6737	13,06
63282	-16,182	-2,488	-1,2197	13,212
63283	-13,23	-1,7012	0,35722	11,527
63284	-12,772	-1,693	0,57467	11,281
63285	-13,185	-2,3778	0,64203	11,497
63286	-12,717	-1,7815	0,42754	11,254
63287	-13,777	-1,799	-7,2959e-003	11,844
63288	-14,254	-1,9215	-0,41096	12,084
63289	-14,329	-2,4213	-4,6011e-003	12,145
63290	-14,639	-1,9384	-0,77819	12,313
63291	-15,017	-1,9413	-1,3304	12,468
63292	-15,116	-2,4727	-0,86462	12,59
63293	-13,246	-1,7872	-0,31019	11,538
63294	-12,8	-1,7062	-0,15833	11,316
63295	-13,199	-2,3932	0,29179	11,515
63296	-12,731	-1,7969	7,7309e-002	11,278
63297	-13,722	-1,9097	-0,71386	11,788
63298	-14,095	-1,9636	-1,2375	11,949
63299	-14,183	-2,4812	-0,79581	12,041
63300	-12,976	-1,8404	-0,67895	11,383
63301	-13,178	-1,935	-0,92508	11,475
63302	-13,249	-2,5207	-0,78611	11,53
63303	-12,733	-1,8675	-0,23986	11,26
63304	-12,531	-1,7595	-0,52708	11,156
63305	-12,49	-1,854	-0,9974	11,115
63306	-12,384	-2,452	-0,83807	11,08
63307	-12,461	-1,8502	-0,29144	11,111
63308	-12,343	-1,6981	5,9125e-002	11,062
63309	-12,03	-1,6874	-0,58944	10,919
63310	-11,838	-2,4901	-0,36075	10,833
63311	-12,287	-1,7866	-8,8e-002	11,041
63312	-12,208	-1,7572	0,83278	10,973
63313	-11,849	-1,7516	0,29932	10,838
63314	-12,327	-2,3724	0,41786	11,061
63315	-12,273	-1,7887	0,29476	11,028
63316	-11,944	-1,894	1,5911	10,797
63317	-11,63	-1,8203	0,9917	10,706
63318	-12,093	-2,3951	1,2017	10,907
63319	-11,634	-2,1	2,298	10,576
63320	-11,339	-1,9652	1,758	10,513
63321	-11,801	-2,483	1,9814	10,697
63322	-11,262	-2,2348	3,0441	10,313
63323	-10,986	-2,1162	2,4921	10,28
63324	-11,44	-2,6215	2,7438	10,436
63325	-11,006	-2,1986	3,8906	10,072
63326	-10,565	-2,0931	3,332	9,9961
63327	-11,027	-2,6402	3,5578	10,138
63328	-10,392	-2,1426	3,886	9,8291
63329	-10,741	-2,0847	4,782	9,7911
63330	-10,34	-1,9764	4,0993	9,7812
63331	-11,076	-2,5651	4,3692	10,017
63332	-10,34	-2,0978	4,3259	9,7358
63333	-10,392	-1,9627	5,5182	9,5069
63334	-10,154	-1,8794	5,0148	9,5235
63335	-10,667	-2,4892	5,0474	9,7083
63336	-10,127	-2,0288	4,7774	9,5458
63337	-9,5805	-1,9525	7,1389	8,8888
63338	-8,9629	-2,0286	7,2896	8,6688
63339	-9,3585	-2,5495	7,4255	8,7636
63340	-8,9853	-2,2016	7,7071	8,5918
63341	-9,9812	-1,9209	6,2968	9,1967
63342	-9,3069	-1,9209	6,5883	8,9192
63343	-9,7138	-2,4663	6,8453	8,9971
63344	-9,8363	-1,9	5,6298	9,2905
63345	-10,225	-2,4871	5,6503	9,4235
63346	-2,1898	-1,9226	38,701	16,89
63347	-1,5469	-2,5525	38,903	16,539
63348	-0,99344	-2,2631	39,302	16,067
63349	-2,2425	-2,3149	39,096	17,259
63350	-2,892	-2,0136	37,872	16,777
63351	-2,9507	-1,9696	38,525	17,449
63352	-2,8185	-2,5973	38,375	17,223
63353	-2,5331	-2,5553	38,014	16,739
63354	-2,6792	-2,3303	38,625	17,32
63355	-3,4507	-2,0926	37,125	16,337
63356	-3,5737	-2,0156	37,84	16,989
63357	-3,3712	-2,6296	37,625	16,766
63358	-3,0216	-2,6283	37,329	16,42
63359	-4,055	-2,1017	36,337	15,748
63360	-4,1471	-2,0165	37,048	16,302
63361	-3,9518	-2,645	36,836	16,151
63362	-3,6031	-2,7669	36,549	15,934
63363	-4,6628	-2,0184	35,671	15,195
63364	-4,7294	-2,0253	36,245	15,578
63365	-4,5506	-2,6428	36,045	15,476
63366	-4,2377	-2,6464	35,772	15,334
63367	-5,318	-1,8886	35,539	14,952
63368	-5,3817	-1,9372	34,887	14,542
63369	-5,0947	-2,5325	35,445	14,964
63370	-5,0412	-2,4508	35,163	14,799
63371	-5,8461	-1,8247	35,913	15,035
63372	-5,3846	-1,8954	36,113	15,343
63373	-6,163	-1,8338	35,391	14,578
63374	-5,7317	-2,4305	35,651	14,905
63375	-5,8248	-1,791	36,518	15,471
63376	-6,2942	-1,8376	36,086	14,948
63377	-6,1664	-2,369	36,247	15,112
63378	-5,3632	-1,8618	36,718	15,775
63379	-4,8215	-1,9401	36,956	16,143
63380	-5,1688	-2,4614	36,567	15,73
63381	-5,3887	-1,7624	37,321	16,3
63382	-5,9377	-1,8038	37,047	15,782
63383	-5,8447	-2,303	36,969	15,78
63384	-4,8471	-1,8408	37,56	16,66
63385	-4,2701	-1,9395	37,764	16,966
63386	-4,6409	-2,4516	37,385	16,554
63387	-4,8185	-1,757	38,254	17,408
63388	-5,5364	-1,7464	37,957	16,756
63389	-5,3674	-2,2691	37,859	16,769
63390	-4,2415	-1,8557	38,458	17,709
63391	-3,6325	-1,9715	38,494	17,661
63392	-4,0901	-2,4533	38,195	17,428
63393	-4,6025	-1,7606	39,154	18,574
63394	-4,1825	-1,7487	39,08	18,512
63395	-5,0847	-1,8122	38,9	17,925
63396	-4,8133	-2,1702	38,867	18,063
63397	-4,52	-1,968	39,071	18,461
63398	-3,5734	-1,8645	39,115	18,468
63399	-3,4945	-2,5365	38,887	18,143
63400	-3,0035	-2,3619	38,92	17,808
63401	-4,5451	-1,7582	39,836	19,667
63402	-5,0043	-1,7137	39,69	19,082
63403	-4,6293	-1,9591	39,475	18,997
63404	-4,1252	-1,7463	39,762	19,6
63405	-4,3273	-2,2877	39,576	19,17
63406	-4,2094	-1,9472	39,401	18,929
63407	-3,3019	-2,2252	39,215	18,301
63408	-4,691	-1,7505	40,423	20,442
63409	-4,5806	-2,3061	39,928	19,81
63410	-4,4626	-1,9656	39,753	19,554
63411	-3,5552	-2,2436	39,567	18,851
63412	-5,1501	-1,706	40,278	19,908
63413	-5,255	-1,7695	40,912	20,675
63414	-5,2049	-2,2351	40,573	20,226
63415	-5,5268	-1,6805	40,084	19,159
63416	-5,4865	-1,7653	39,436	18,492
63417	-5,0397	-2,2616	39,782	19,235
63418	-4,9218	-1,9211	39,607	18,953
63419	-5,6317	-1,744	40,718	19,96
63420	-5,9355	-1,7396	41,308	20,006
63421	-5,7089	-2,3198	40,971	20,162
63422	-6,1296	-1,6874	42,003	20,476
63423	-6,2483	-1,801	42,689	20,459
63424	-6,0491	-2,2997	42,349	20,906
63425	-5,9832	-1,7878	39,854	18,468
63426	-6,1596	-1,7681	40,525	18,845
63427	-5,5816	-2,2095	40,38	19,49
63428	-6,1738	-1,8511	44,29	20,631
63429	-6,2139	-1,7994	44,846	19,945
63430	-5,5935	-1,9973	44,73	23,58
63431	-5,5852	-2,3198	44,775	23,511
63432	-6,4634	-1,7637	41,115	18,971
63433	-6,6674	-1,8225	41,789	18,907
63434	-6,4954	-1,927	43,412	19,688
63435	-6,6916	-1,9305	44,048	18,82
63436	-5,8089	-2,0966	44,365	22,86
63437	-5,943	-1,8726	39,206	17,777
63438	-5,8026	-1,8015	38,603	17,325
63439	-5,4049	-2,2128	39,017	17,994
63440	-5,1116	-2,0106	39,221	18,352
63441	-6,7861	-1,9361	42,475	18,945
63442	-6,9918	-1,8888	43,106	18,328
63443	-6,6718	-1,8787	39,548	17,263
63444	-6,4144	-1,906	38,911	17,083
63445	-6,1352	-2,3826	39,377	17,773
63446	-6,8482	-1,859	40,218	17,7
63447	-7,0343	-1,8692	40,89	17,739
63448	-6,2369	-2,3439	40,777	19,074
63449	-7,2383	-1,9281	41,564	17,722
63450	-7,4075	-1,9314	42,238	17,419
63451	-6,5868	-2,4348	42,135	19,351
63452	-7,5272	-1,8828	39,945	16,453
63453	-7,2853	-1,9035	39,3	16,442
63454	-6,933	-2,4157	39,811	17,206
63455	-7,7132	-1,893	40,616	16,535
63456	-7,896	-1,8985	41,295	16,358
63457	-7,2773	-2,4087	41,168	17,482
63458	-6,2741	-1,835	38,307	16,609
63459	-6,0853	-1,7878	37,683	16,258
63460	-5,76	-2,271	38,057	16,755
63461	-8,1242	-1,9078	39,699	15,592
63462	-8,3162	-1,9096	40,38	15,498
63463	-7,7529	-2,4254	40,24	16,318
63464	-7,0279	-1,9308	38,663	16,22
63465	-6,8275	-1,9301	37,995	15,979
63466	-6,5747	-2,4146	38,465	16,532
63467	-7,8823	-1,9286	39,055	15,551
63468	-7,6514	-1,9492	38,406	15,502
63469	-7,3508	-2,4566	38,906	16,098
63470	-6,6387	-1,8829	37,37	15,604
63471	-6,4071	-1,8504	36,614	15,268
63472	-6,1487	-2,3264	37,132	15,755
63473	-8,5333	-1,9313	38,787	14,75
63474	-8,7332	-1,9265	39,47	14,704
63475	-8,2248	-2,4407	39,313	15,298
63476	27,753	-1,9165	5,5585	18,6
63477	28,374	-1,9644	5,3657	18,464
63478	27,885	-2,1694	4,8805	20,523
63479	-7,451	-1,9484	37,737	15,231
63480	-7,2253	-1,9499	37,049	15,04
63481	-7,0134	-2,446	37,531	15,486
63482	-8,3024	-1,952	38,138	14,675
63483	-8,0782	-1,9681	37,473	14,608
63484	-7,8225	-2,4666	37,972	15,073
63485	-6,9936	-1,9175	36,293	14,683
63486	-6,611	-1,8467	35,564	14,497
63487	-6,4447	-2,405	36,18	14,936
63488	-8,9486	-1,9642	37,902	14,007
63489	-9,1569	-1,9509	38,57	13,979
63490	-8,6843	-2,4582	38,392	14,429
63491	27,34	-1,9123	6,2967	16,97
63492	27,997	-1,9166	6,0984	17,068
63493	27,539	-2,4573	5,795	18,155
63494	-7,8526	-1,9697	36,785	14,394
63495	-7,5945	-1,9794	36,067	14,245
63496	-7,4057	-2,4542	36,581	14,626
63497	-6,2268	-1,8824	34,74	14,164
63498	-6,1425	-1,9756	33,983	13,821
63499	-5,7825	-2,4146	34,407	14,15
63500	-8,7244	-1,9803	37,237	13,92
63501	-8,5108	-1,9867	36,544	13,842
63502	-8,2837	-2,4752	37,037	14,218
63503	-7,2119	-1,9087	35,338	14,038
63504	-7,0181	-1,9053	34,638	13,821
63505	-6,7452	-2,248	35,125	14,181
63506	26,677	-1,891	6,4374	17,076
63507	26,017	-1,8818	6,6532	16,807
63508	26,101	-1,9366	5,7993	19,863
63509	-8,2528	-1,9965	35,826	13,673
63510	-8,0116	-2,0233	35,118	13,546
63511	-7,822	-2,4861	35,602	13,866
63512	-9,3785	-1,9907	37,011	13,338
63513	-9,5911	-1,9807	37,699	13,33
63514	-9,1539	-2,4823	37,489	13,67
63515	26,846	-1,9015	7,1192	15,296
63516	27,51	-1,904	6,9109	15,485
63517	27,009	-2,4557	6,5104	16,658
63518	-6,7684	-2,0038	33,164	13,232
63519	-6,9338	-1,9985	33,882	13,466
63520	-6,5438	-2,4738	33,616	13,51
63521	-9,165	-1,9971	36,317	13,243
63522	-8,9511	-2,0109	35,625	13,176
63523	-8,7423	-2,492	36,102	13,484
63524	-7,4915	-2,0015	33,005	12,879
63525	-7,2833	-2,0064	32,291	12,697
63526	-7,1346	-2,4874	32,758	12,927
63527	-9,8311	-2,0051	36,113	12,728
63528	-10,041	-1,9973	36,799	12,729
63529	-9,6113	-2,4962	36,574	13,013
63530	-7,8178	-2,02	34,418	13,312
63531	-7,657	-1,9962	33,723	13,123
63532	-7,4528	-2,4704	34,191	13,404
63533	26,185	-1,8923	7,335	15,
63534	25,515	-1,8862	7,5443	14,729
63535	25,667	-2,4375	6,8781	16,253
63536	-8,7099	-2,0377	34,916	13,033
63537	-8,5242	-2,0284	34,234	12,91
63538	-8,2961	-2,5213	34,692	13,197
63539	-8,3634	-2,0047	33,539	12,71
63540	-8,1524	-2,009	32,829	12,57
63541	-7,9865	-2,4895	33,304	12,807
63542	-9,6172	-2,0189	35,421	12,647
63543	-9,408	-2,0249	34,727	12,589
63544	-9,2	-2,5133	35,189	12,856
63545	26,356	-1,9015	7,9453	13,761
63546	27,023	-1,9043	7,733	13,954
63547	26,53	-2,4475	7,3375	14,923
63548	-10,301	-2,0137	35,239	12,182
63549	-10,513	-2,0069	35,929	12,184
63550	-10,082	-2,5067	35,69	12,432
63551	-9,2223	-2,0156	34,044	12,454
63552	-9,0236	-2,0117	33,351	12,357
63553	-8,8549	-2,4987	33,825	12,588
63554	-7,9442	-2,0139	32,114	12,38
63555	-7,7597	-2,004	31,415	12,22
63556	-7,6106	-2,5062	31,881	12,427
63557	25,687	-1,8954	8,1546	13,468
63558	25,015	-1,8951	8,3585	13,255
63559	25,199	-2,4491	7,7459	14,32
63560	-8,8126	-2,0161	32,641	12,208
63561	-8,619	-2,0082	31,947	12,087
63562	-8,4333	-2,5086	32,4	12,302
63563	-10,092	-2,0198	34,545	12,111
63564	-9,8865	-2,019	33,852	12,062
63565	-9,6798	-2,5151	34,307	12,296
63566	25,871	-1,9082	8,7743	12,431
63567	26,542	-1,9102	8,5646	12,561
63568	26,06	-2,4499	8,1927	13,348
63569	-10,775	-2,0149	34,364	11,688
63570	-10,987	-2,0108	35,052	11,69
63571	-10,562	-2,5114	34,811	11,91
63572	25,199	-1,9079	8,9782	12,206
63573	24,526	-1,9092	9,1787	12,072
63574	24,728	-2,4583	8,6036	12,852
63575	-9,6878	-2,0152	33,159	11,956
63576	-9,4873	-2,0093	32,465	11,877
63577	-9,327	-2,5106	32,933	12,078
63578	-8,4345	-1,9983	31,247	11,921
63579	-8,2481	-1,9915	30,55	11,783
63580	-8,1055	-2,5067	31,015	11,969
63581	25,387	-1,9185	9,6043	11,33
63582	26,061	-1,9193	9,3981	11,378
63583	25,594	-2,4547	9,0527	12,041
63584	-10,569	-2,0142	33,67	11,63
63585	-10,364	-2,0108	32,98	11,592
63586	-10,188	-2,5129	33,439	11,788
63587	24,043	-1,921	10,004	11,132
63588	24,714	-1,9198	9,8048	11,19
63589	24,251	-2,4625	9,461	11,719
63590	-11,248	-2,0118	33,489	11,242
63591	-11,458	-2,0109	34,178	11,243
63592	-11,04	-2,5118	33,934	11,44
63593	-9,2937	-2,0015	31,772	11,749
63594	-9,1274	-2,0021	31,089	11,64
63595	-8,9167	-2,5033	31,531	11,841
63596	23,562	-1,9312	10,838	10,375
63597	24,233	-1,9304	10,636	10,37
63598	23,779	-2,4626	10,327	10,818
63599	-10,163	-2,005	32,287	11,506
63600	-9,9631	-2,	31,599	11,442
63601	-9,8083	-2,5095	32,057	11,619
63602	24,905	-1,9291	10,437	10,43
63603	25,577	-1,9298	10,228	10,408
63604	25,119	-2,4589	9,9129	10,979
63605	-8,941	-1,9953	30,392	11,497
63606	-8,7168	-1,9844	29,691	11,388
63607	-8,5767	-2,5056	30,148	11,557
63608	-11,042	-2,0084	32,799	11,196
63609	-10,838	-2,0049	32,11	11,168
63610	-10,667	-2,5131	32,565	11,342
63611	-9,7968	-2,0005	30,916	11,327
63612	-9,5981	-1,9962	30,223	11,242
63613	-9,4512	-2,5123	30,68	11,407
63614	-11,721	-2,0082	32,616	10,834
63615	-11,931	-2,0079	33,303	10,83
63616	-11,529	-2,5153	33,063	11,008
63617	23,757	-1,9545	11,465	9,7135
63618	23,084	-1,9408	11,681	9,7587
63619	23,311	-2,4628	11,2	10,094
63620	-9,3739	-1,9853	29,522	11,129
63621	-9,184	-1,982	28,833	11,024
63622	-9,0347	-2,5043	29,286	11,18
63623	-10,638	-1,9999	31,422	11,098
63624	-10,435	-1,9958	30,734	11,048
63625	-10,278	-2,5089	31,188	11,208
63626	24,429	-1,9537	11,263	9,709
63627	25,104	-1,9403	11,07	9,604
63628	24,656	-2,4615	10,784	10,11
63629	-10,236	-1,9914	30,041	10,958
63630	-10,042	-1,9879	29,355	10,886
63631	-9,8596	-2,4978	29,796	11,045
63632	-11,517	-2,0047	31,928	10,799
63633	-11,313	-2,0019	31,241	10,78
63634	-11,139	-2,5125	31,691	10,939
63635	-11,11	-1,9978	30,553	10,725
63636	-10,907	-1,9943	29,867	10,686
63637	-10,744	-2,508	30,317	10,835
63638	-12,194	-2,0059	31,744	10,458
63639	-12,404	-2,0053	32,429	10,448
63640	-12,004	-2,5147	32,189	10,617
63641	23,956	-1,964	12,109	9,1133
63642	24,631	-1,9651	11,905	8,9658
63643	24,189	-2,4817	11,644	9,4233
63644	-11,99	-2,003	31,057	10,433
63645	-11,786	-2,0005	30,372	10,424
63646	-11,609	-2,5116	30,818	10,571
63647	-9,656	-1,9821	27,974	10,686
63648	-9,852	-1,9847	28,666	10,778
63649	-9,5021	-2,5035	28,42	10,83
63650	23,283	-1,9503	12,326	9,1599
63651	22,61	-1,9503	12,533	9,257
63652	22,843	-2,4709	12,075	9,5109
63653	-10,127	-1,9828	27,116	10,374
63654	-10,318	-1,9849	27,8	10,456
63655	-9,9632	-2,5022	27,554	10,507
63656	-12,877	-2,0039	31,555	10,092
63657	-12,667	-2,0046	30,871	10,11
63658	-12,475	-2,5138	31,314	10,258
63659	-10,794	-1,9855	26,942	10,157
63660	-10,595	-1,9839	26,251	10,087
63661	-10,431	-2,5004	26,685	10,208
63662	-10,713	-1,9907	29,182	10,61
63663	-10,514	-1,9875	28,491	10,55
63664	-10,357	-2,5044	28,941	10,689
63665	23,483	-1,9598	12,977	8,6196
63666	24,161	-1,9697	12,77	8,4333
63667	23,72	-2,4763	12,528	8,8548
63668	-11,583	-1,997	29,686	10,381
63669	-11,38	-1,9936	28,999	10,353
63670	-11,212	-2,5068	29,445	10,489
63671	-13,087	-2,0033	32,24	10,088
63672	-12,614	-2,0049	33,115	10,451
63673	-13,289	-2,0021	32,92	10,063
63674	-12,872	-2,5127	32,679	10,253
63675	-10,985	-1,9876	27,625	10,24
63676	-11,181	-1,9904	28,309	10,29
63677	-10,817	-2,5027	28,065	10,369
63678	-12,259	-1,9997	29,501	10,096
63679	-12,463	-2,0021	30,186	10,096
63680	-12,077	-2,5101	29,944	10,232
63681	-11,657	-1,9904	27,446	9,9945
63682	-11,458	-1,9879	26,758	9,9555
63683	-11,286	-2,5009	27,195	10,074
63684	-11,853	-1,9932	28,13	10,047
63685	-12,056	-1,9963	28,815	10,065
63686	-11,68	-2,5047	28,568	10,172
63687	-13,559	-2,0024	31,365	9,7481
63688	-13,762	-2,0012	32,044	9,7166
63689	-13,343	-2,5118	31,802	9,9028
63690	-12,524	-1,9961	27,945	9,7743
63691	-12,326	-1,9929	27,26	9,7649
63692	-12,149	-2,5024	27,691	9,8792
63693	-12,936	-2,0017	29,314	9,7829
63694	-12,727	-1,9992	28,629	9,795
63695	-12,547	-2,5075	29,068	9,9183
63696	-13,141	-2,0041	29,998	9,7864
63697	-13,35	-2,0032	30,681	9,7602
63698	-12,945	-2,5122	30,438	9,924
63699	22,81	-1,9598	13,184	8,7177
63700	22,137	-1,9594	13,39	8,8488
63701	22,374	-2,4797	12,95	9,0415
63702	-13,823	-2,0031	29,806	9,4502
63703	-13,614	-2,0042	29,124	9,4861
63704	-13,415	-2,5099	29,56	9,6138
63705	-13,404	-2,0017	28,44	9,495
63706	-13,196	-1,9989	27,756	9,5173
63707	-13,011	-2,5049	28,189	9,6308
63708	-14,032	-2,0022	30,489	9,4286
63709	-14,234	-2,0007	31,168	9,3884
63710	-13,814	-2,5101	30,924	9,574
63711	23,014	-1,9687	13,842	8,2285
63712	23,69	-1,9775	13,637	8,0109
63713	23,25	-2,4849	13,405	8,4074
63714	-12,818	-2,0036	33,796	10,43
63715	-12,141	-2,007	33,991	10,839
63716	-12,402	-2,5132	33,556	10,625
63717	22,34	-1,9684	14,048	8,3606
63718	21,665	-1,9679	14,251	8,5196
63719	21,902	-2,4872	13,819	8,6688
63720	-14,504	-2,0024	29,614	9,129
63721	-14,707	-2,0005	30,292	9,0783
63722	-14,285	-2,5081	30,043	9,2653
63723	-14,295	-2,0034	28,931	9,1611
63724	-14,087	-2,0042	28,249	9,2078
63725	-13,885	-2,5075	28,677	9,3258
63726	-13,493	-2,0009	33,601	10,049
63727	-13,964	-2,	32,724	9,6982
63728	-13,739	-2,5084	33,163	9,8641
63729	-13,022	-2,002	34,479	10,416
63730	-13,269	-2,509	34,04	10,222
63731	-14,436	-1,9995	31,847	9,3628
63732	-14,211	-2,5073	32,284	9,5209
63733	22,545	-1,9763	14,713	7,9185
63734	23,221	-1,9835	14,508	7,6788
63735	22,78	-2,4916	14,276	8,0571
63736	-15,183	-2,0023	29,41	8,7845
63737	-14,977	-2,0026	28,737	8,849
63738	-14,756	-2,506	29,156	8,9754
63739	-11,066	-1,9845	25,386	9,8232
63740	-11,259	-1,9862	26,068	9,8841
63741	-10,891	-2,4988	25,808	9,9339
63742	-12,346	-2,0053	34,673	10,818
63743	-11,671	-2,0068	34,866	11,254
63744	-11,919	-2,5083	34,43	11,032
63745	21,194	-1,9811	15,119	8,2566
63746	21,87	-1,9758	14,915	8,0784
63747	21,431	-2,483	14,686	8,3738
63748	-14,909	-1,999	30,971	9,0432
63749	-14,681	-2,5021	31,406	9,1946
63750	-12,553	-2,0026	35,355	10,8
63751	-12,795	-2,5041	34,917	10,599
63752	21,398	-1,9879	15,79	7,8587
63753	20,722	-1,988	15,988	8,0553
63754	20,959	-2,5022	15,562	8,1402
63755	22,074	-1,9827	15,586	7,6795
63756	22,749	-1,9876	15,382	7,4235
63757	22,309	-2,4885	15,15	7,7839
63758	21,602	-1,9878	16,46	7,5018
63759	22,278	-1,9909	16,257	7,2341
63760	21,837	-2,4927	16,024	7,5778
63761	-11,737	-1,9862	25,208	9,6342
63762	-11,539	-1,9846	24,522	9,5841
63763	-11,362	-2,4972	24,932	9,6821
63764	-15,385	-2,0004	30,088	8,7383
63765	-15,153	-2,5032	30,523	8,8831
63766	-11,2	-2,0039	35,741	11,703
63767	-11,878	-2,0041	35,547	11,227
63768	-11,445	-2,5055	35,306	11,463
63769	-12,126	-1,9904	26,573	9,7244
63770	-11,93	-1,988	25,89	9,6954
63771	-11,749	-2,4988	26,314	9,8031
63772	-12,998	-1,9957	27,072	9,5059
63773	-12,799	-1,9925	26,39	9,5074
63774	-12,616	-2,5	26,81	9,6114
63775	-10,723	-1,9991	36,615	12,197
63776	-11,404	-2,0013	36,425	11,669
63777	-10,973	-2,5016	36,187	11,932
63778	-12,602	-1,9901	25,707	9,4776
63779	-12,402	-1,988	25,022	9,4597
63780	-12,22	-2,4972	25,436	9,5552
63781	-13,878	-2,0015	27,566	9,2276
63782	-13,67	-1,9986	26,884	9,2609
63783	-13,481	-2,5025	27,304	9,3643
63784	-15,863	-2,0001	29,213	8,4502
63785	-15,627	-2,503	29,628	8,5872
63786	-14,56	-2,0039	27,374	8,951
63787	-14,768	-2,0034	28,056	8,8925
63788	-14,356	-2,5055	27,787	9,0588
63789	-13,472	-1,9954	26,201	9,2611
63790	-13,268	-1,9923	25,52	9,2753
63791	-13,085	-2,4984	25,928	9,3674
63792	-10,254	-1,9872	37,488	12,735
63793	-10,927	-1,9958	37,3	12,146
63794	-10,491	-2,4952	37,064	12,453
63795	-14,352	-2,0011	26,692	8,9824
63796	-14,144	-1,9983	26,011	9,0276
63797	-13,952	-2,5018	26,414	9,1202
63798	-9,7994	-1,9674	38,366	13,318
63799	-10,459	-1,9817	38,172	12,657
63800	-10,021	-2,4804	37,957	13,022
63801	-12,082	-2,0014	36,231	11,202
63802	-12,325	-2,5034	35,794	10,992
63803	-15,241	-2,003	27,18	8,6446
63804	-15,034	-2,0033	26,499	8,7159
63805	-14,828	-2,5056	26,902	8,8138
63806	-9,3568	-1,946	39,253	13,952
63807	-10,002	-1,9633	39,053	13,203
63808	-9,5439	-2,4649	38,853	13,663
63809	20,925	-1,9878	16,658	7,6995
63810	20,249	-1,9918	16,86	7,9069
63811	20,486	-2,4927	16,426	7,9695
63812	-12,009	-1,9851	23,656	9,3705
63813	-12,205	-1,9864	24,337	9,4099
63814	-11,827	-2,4986	24,053	9,4564
63815	-8,9252	-1,9283	40,152	14,631
63816	-9,5519	-1,9453	39,939	13,785
63817	-9,0695	-2,4498	39,752	14,375
63818	-15,657	-2,0004	28,54	8,5107
63819	-15,45	-2,0024	27,861	8,5886
63820	-15,228	-2,5046	28,268	8,7054
63821	-8,4989	-1,915	41,059	15,346
63822	-9,1204	-1,9308	40,836	14,376
63823	-8,5999	-2,4358	40,668	15,156
63824	21,129	-1,9945	17,335	7,3778
63825	21,805	-1,9941	17,133	7,1018
63826	21,365	-2,4952	16,899	7,4283
63827	-12,479	-1,9857	22,789	9,1834
63828	-12,679	-1,9868	23,473	9,2106
63829	-12,299	-2,5023	23,179	9,2566
63830	-16,336	-1,9981	28,343	8,1815
63831	-16,103	-2,501	28,754	8,3087
63832	-13,147	-1,9872	22,601	9,0385
63833	-12,95	-1,9861	21,921	9,024
63834	-12,768	-2,5062	22,314	9,0857
63835	-13,068	-1,9901	24,835	9,2572
63836	-12,874	-1,988	24,153	9,2491
63837	-12,689	-2,4983	24,55	9,3323
63838	-11,608	-1,998	37,109	11,628
63839	-11,848	-2,5003	36,672	11,408
63840	-13,941	-1,9952	25,329	9,0411
63841	-13,742	-1,9923	24,648	9,0661
63842	-13,552	-2,4996	25,046	9,1481
63843	-16,129	-2,0001	27,663	8,2561
63844	-15,922	-2,0019	26,984	8,3483
63845	-15,704	-2,5051	27,386	8,4543
63846	-14,826	-2,0005	25,818	8,7598
63847	-14,619	-1,9979	25,138	8,8177
63848	-14,426	-2,5031	25,533	8,8996
63849	-16,808	-1,9979	27,465	7,9316
63850	-16,576	-2,5025	27,871	8,0494
63851	-13,548	-1,9903	23,967	9,0584
63852	-13,348	-1,9884	23,285	9,0643
63853	-13,164	-2,5018	23,677	9,1354
63854	-15,507	-2,0023	25,624	8,5029
63855	-15,715	-2,0022	26,304	8,4177
63856	-15,302	-2,5067	26,023	8,5903
63857	-14,42	-1,995	24,457	8,8425
63858	-14,216	-1,9923	23,778	8,8818
63859	-14,032	-2,5029	24,167	8,9507
63860	-14,016	-1,9904	23,095	8,8886
63861	-13,836	-1,9953	22,403	8,903
63862	-13,638	-2,5057	22,806	8,9654
63863	-15,3	-1,9997	24,944	8,5601
63864	-15,093	-1,9972	24,265	8,6318
63865	-14,901	-2,5056	24,659	8,7025
63866	-16,188	-2,0013	25,428	8,2126
63867	-15,981	-2,001	24,749	8,313
63868	-15,778	-2,5087	25,146	8,3887
63869	-14,89	-1,9945	23,585	8,6714
63870	-14,69	-1,9919	22,906	8,7241
63871	-14,506	-2,5065	23,3	8,7816
63872	-16,395	-2,0012	26,107	8,1287
63873	-16,602	-1,9997	26,786	8,021
63874	-16,178	-2,5066	26,509	8,2245
63875	-11,132	-1,9903	37,984	12,08
63876	-11,373	-2,4957	37,553	11,847
63877	-15,585	-2,0011	23,382	8,4661
63878	-15,774	-1,9985	24,07	8,3845
63879	-15,381	-2,5087	23,788	8,5289
63880	-13,639	-1,9941	21,724	8,8905
63881	-13,422	-1,9861	21,055	8,8945
63882	-13,22	-2,4961	21,468	8,9473
63883	-14,51	-1,9968	22,215	8,74
63884	-14,324	-2,0017	21,527	8,7716
63885	-14,127	-2,5147	21,937	8,8208
63886	-16,868	-2,0004	25,23	7,9306
63887	-17,074	-1,9992	25,909	7,8063
63888	-16,653	-2,5086	25,638	8,0149
63889	-15,385	-1,9986	22,703	8,5197
63890	-15,165	-1,9911	22,036	8,5938
63891	-14,965	-2,5008	22,447	8,643
63892	-17,281	-1,9977	26,587	7,7008
63893	-17,051	-2,5044	26,997	7,8082
63894	-16,265	-2,0022	23,186	8,229
63895	-16,071	-2,0035	22,502	8,3288
63896	-15,87	-2,5155	22,915	8,3785
63897	-16,455	-1,9996	23,874	8,147
63898	-16,661	-2,0001	24,552	8,0302
63899	-16,257	-2,5111	24,278	8,2096
63900	-8,0652	-1,9018	41,969	16,086
63901	-8,6867	-1,9196	41,739	14,972
63902	-8,1211	-2,4219	41,588	16,009
63903	-17,134	-1,999	23,676	7,8717
63904	-16,928	-1,998	22,999	8,0063
63905	-16,732	-2,5125	23,414	8,056
63906	3,3271	-2,0663	9,361	7,1656
63907	2,5083	-2,0758	9,4468	7,0741
63908	2,5665	-2,4995	10,139	6,9933
63909	3,2588	-2,594	9,7533	7,1057
63910	2,3673	-2,2958	9,8779	7,0062
63911	3,4586	-2,2965	10,318	7,0669
63912	-17,341	-1,9995	24,354	7,7552
63913	-17,547	-1,9987	25,031	7,6128
63914	-17,131	-2,5111	24,769	7,8261
63915	4,0367	-2,1025	8,5145	7,3858
63916	3,267	-2,1525	8,5447	7,2876
63917	3,8972	-2,5959	8,996	7,2902
63918	-17,753	-1,9975	25,71	7,49
63919	-17,528	-2,5067	26,127	7,5854
63920	4,608	-2,0981	7,6526	7,6223
63921	3,8438	-2,1702	7,703	7,507
63922	4,4081	-2,6066	8,1771	7,4975
63923	19,778	-1,9947	17,736	7,8052
63924	20,453	-1,9984	17,537	7,5866
63925	20,013	-2,5054	17,307	7,8437
63926	-7,6132	-1,884	42,869	16,833
63927	-8,2436	-1,9057	42,643	15,552
63928	-7,6313	-2,4027	42,509	16,92
63929	-18,019	-1,9981	24,154	7,4418
63930	-17,813	-1,9986	23,477	7,6037
63931	-17,6	-2,5123	23,902	7,6639
63932	5,1782	-2,0828	6,7192	7,8912
63933	4,318	-2,1856	6,8525	7,7352
63934	4,8795	-2,6022	7,2904	7,7349
63935	4,816	-2,4058	6,7639	7,8247
63936	-18,225	-1,9972	24,832	7,3003
63937	-18,003	-2,5088	25,259	7,3836
63938	19,982	-1,9961	18,409	7,521
63939	19,308	-1,9916	18,608	7,7487
63940	19,541	-2,5015	18,178	7,7673
63941	5,8168	-2,1046	5,8012	8,1898
63942	5,0448	-2,0759	5,8172	8,0488
63943	5,4201	-2,5809	6,4097	7,9945
63944	5,5715	-2,5696	5,9719	8,1108
63945	5,9429	-2,3597	5,9743	8,1857
63946	5,1125	-2,4059	6,2582	7,9753
63947	-7,1881	-1,8922	43,743	17,476
63948	-7,7868	-1,8872	43,532	16,085
63949	-7,1471	-2,3838	43,415	17,812
63950	6,4518	-2,1579	5,0163	8,4727
63951	5,6705	-2,0911	4,9768	8,3233
63952	6,0488	-2,632	5,2119	8,3527
63953	6,2849	-2,3814	5,5621	8,3366
63954	-18,697	-1,9969	23,954	7,133
63955	-18,47	-2,5092	24,389	7,2067
63956	7,0107	-2,1729	4,1811	8,7426
63957	6,2016	-2,0059	4,1798	8,5679
63958	6,8971	-2,5936	5,1539	8,5401
63959	7,0588	-2,6545	4,5808	8,6941
63960	6,5317	-2,6606	4,498	8,5853
63961	6,5779	-2,413	5,1895	8,4651
63962	6,4445	-2,1427	3,78	8,6697
63963	7,2699	-2,4095	5,1237	8,6351
63964	7,5976	-2,0909	3,278	9,0304
63965	6,9458	-1,9978	3,2975	8,8681
63966	7,4388	-2,593	3,7185	8,9274
63967	6,7104	-2,1261	3,3175	8,8151
63968	-7,3455	-1,9037	44,393	16,522
63969	-6,7318	-1,8788	44,604	18,149
63970	-6,7377	-2,3772	44,379	18,441
63971	20,656	-1,9998	18,211	7,301
63972	21,332	-1,9995	18,009	7,0186
63973	20,891	-2,5048	17,775	7,3295
63974	-10,661	-1,9775	38,859	12,555
63975	-10,896	-2,4865	38,436	12,312
63976	8,1771	-2,0266	2,4439	9,2987
63977	7,5032	-1,9456	2,4251	9,1137
63978	7,9399	-2,5221	2,8622	9,1845
63979	-10,197	-1,9625	39,738	13,049
63980	-10,414	-2,475	39,323	12,811
63981	20,184	-2,0006	19,087	7,2663
63982	20,86	-2,0005	18,885	6,9787
63983	20,419	-2,505	18,651	7,2748
63984	2,4482	-2,162	8,6305	7,1957
63985	1,7088	-2,0793	8,6564	7,1397
63986	2,1035	-2,6085	8,8782	7,1303
63987	2,1599	-2,5344	9,8126	6,9991
63988	2,4756	-2,6363	9,1476	7,1174
63989	1,9607	-2,3307	9,5514	7,0192
63990	3,052	-2,3313	9,9913	7,0578
63991	8,7728	-1,9985	1,6198	9,5584
63992	8,0055	-1,9816	1,6182	9,3304
63993	8,3446	-2,4967	2,1105	9,386
63994	9,3992	-1,9446	0,81677	9,8143
63995	8,8074	-2,0076	0,80594	9,6161
63996	8,8322	-2,4867	1,2703	9,6078
63997	8,8003	-2,4039	0,95243	9,6115
63998	3,0741	-2,2202	7,7332	7,4128
63999	2,3146	-2,1576	7,7242	7,3474
64000	2,6075	-2,726	7,9776	7,3242
64001	3,0158	-2,6582	8,2931	7,305
64002	3,5538	-2,2577	6,9029	7,6248
64003	2,9186	-2,1822	6,9428	7,5504
64004	3,1147	-2,7338	7,1902	7,5231
64005	3,5275	-2,7289	7,5045	7,5067
64006	-9,7471	-1,9478	40,623	13,543
64007	-9,933	-2,4626	40,213	13,339
64008	-14,107	-1,9937	20,858	8,778
64009	-13,894	-1,9857	20,188	8,7968
64010	-13,687	-2,4969	20,604	8,835
64011	4,1845	-2,1787	5,9505	7,8941
64012	3,397	-2,2002	6,291	7,7332
64013	3,5192	-2,7242	6,4211	7,7187
64014	3,8895	-2,7565	6,5703	7,7336
64015	3,9661	-2,7438	6,2488	7,8063
64016	4,2522	-2,5086	6,3915	7,8196
64017	10,054	-1,8986	6,6143e-002	10,069
64018	9,5645	-1,8645	0,18711	9,89
64019	10,016	-2,4772	0,36038	10,059
64020	9,3958	-2,4648	0,49543	9,8261
64021	10,147	-2,2131	0,88727	10,079
64022	-9,3082	-1,9354	41,516	14,016
64023	-9,4636	-2,4507	41,108	13,869
64024	-14,979	-1,996	21,349	8,6272
64025	-14,795	-2,0011	20,663	8,6752
64026	-14,594	-2,5146	21,08	8,7108
64027	-8,8651	-1,9235	42,413	14,452
64028	-8,9884	-2,4398	42,011	14,399
64029	4,8985	-2,0624	4,9928	8,186
64030	4,2087	-2,0818	5,0669	8,0727
64031	4,6379	-2,5762	5,3675	8,0763
64032	4,6826	-2,3989	5,8619	7,983
64033	-15,852	-1,996	21,836	8,4042
64034	-15,639	-1,9894	21,165	8,4932
64035	-15,431	-2,4992	21,583	8,5302
64036	-14,379	-1,9831	19,325	8,7321
64037	-14,582	-1,9931	19,993	8,6969
64038	-14,167	-2,5082	19,733	8,7543
64039	-16,735	-1,9992	22,315	8,1069
64040	-16,53	-1,9961	21,64	8,2283
64041	-16,319	-2,5048	22,062	8,2671
64042	-15,058	-1,9815	19,136	8,6503
64043	-14,864	-1,9886	18,457	8,7047
64044	-14,645	-2,5055	18,872	8,7097
64045	5,4204	-1,9391	4,1403	8,4243
64046	4,8841	-2,0743	4,1618	8,3314
64047	5,1094	-2,5224	4,567	8,2982
64048	-15,456	-1,9945	20,48	8,5435
64049	-15,261	-1,9915	19,805	8,6119
64050	-15,055	-2,5137	20,214	8,6328
64051	-17,607	-1,9975	22,8	7,7385
64052	-17,402	-1,9957	22,124	7,8926
64053	-17,186	-2,5036	22,55	7,9361
64054	-16,317	-1,9894	20,97	8,319
64055	-16,121	-1,9856	20,295	8,4228
64056	-15,903	-2,4968	20,715	8,4465
64057	-15,926	-1,9827	19,621	8,4937
64058	-15,733	-1,9892	18,942	8,5829
64059	-15,505	-2,4934	19,366	8,5894
64060	-16,992	-1,9883	20,776	8,1562
64061	-17,197	-1,9925	21,449	8,0152
64062	-16,777	-2,4991	21,199	8,1813
64063	-18,492	-1,9974	23,277	7,2945
64064	-18,286	-1,9974	22,6	7,4776
64065	-18,068	-2,5118	23,03	7,5272
64066	-16,795	-1,9845	20,101	8,262
64067	-16,601	-1,9804	19,431	8,3861
64068	-16,376	-2,4922	19,85	8,395
64069	10,829	-1,8648	-0,58086	10,375
64070	10,277	-1,902	-0,64507	10,147
64071	10,562	-2,285	-0,34981	10,269
64072	-17,67	-1,9885	20,576	7,9503
64073	-17,466	-1,9837	19,905	8,1131
64074	-17,244	-2,4927	20,331	8,124
64075	-19,17	-1,9966	23,076	6,9894
64076	-18,939	-2,5086	23,513	7,0526
64077	0,73238	-1,9903	7,9067	7,236
64078	1,5753	-2,0749	7,7501	7,2938
64079	1,2804	-2,5566	8,1349	7,2086
64080	-8,4172	-1,9089	43,305	14,817
64081	-8,515	-2,4313	42,912	14,876
64082	0,59986	-1,9857	7,0751	7,3934
64083	-6,2743e-002	-1,9919	7,1143	7,3807
64084	-2,2885e-003	-2,4313	7,4993	7,3039
64085	-4,4786e-002	-2,1054	7,6947	7,2697
64086	-7,9443	-1,8987	44,182	15,141
64087	-8,0533	-2,428	43,808	15,242
64088	5,3722	-1,9773	3,3209	8,5388
64089	6,1368	-1,8308	3,2962	8,6973
64090	5,5601	-2,3857	3,7761	8,5125
64091	5,9013	-1,9591	3,3161	8,6456
64092	5,4784	-2,2953	3,3137	8,558
64093	-7,4277	-1,9148	45,063	15,454
64094	-7,6268	-2,4217	44,674	15,402
64095	2,1592	-2,1195	6,9338	7,4892
64096	1,4428	-2,0703	6,9184	7,4521
64097	1,7701	-2,5958	7,2747	7,3985
64098	2,7618	-2,1247	6,3309	7,6608
64099	2,0959	-2,1219	6,1253	7,6471
64100	2,3304	-2,6495	6,4787	7,5942
64101	-18,08	-1,9955	21,924	7,6324
64102	-17,875	-1,9927	21,249	7,8078
64103	-17,652	-2,499	21,679	7,8392
64104	1,3795	-2,0726	6,11	7,6122
64105	0,66851	-2,0376	6,092	7,594
64106	0,97789	-2,5303	6,5101	7,5175
64107	5,904e-003	-2,0438	6,1313	7,5797
64108	-0,82131	-2,0776	6,0627	7,605
64109	-0,33734	-2,2841	6,5388	7,5
64110	-0,25622	-2,1647	7,188	7,3672
64111	2,6636	-2,1088	5,5158	7,8133
64112	3,4212	-2,1034	5,4074	7,9064
64113	2,8432	-2,5973	6,0673	7,7258
64114	3,2134	-2,6208	5,8324	7,8064
64115	1,9977	-2,1059	5,3102	7,8053
64116	1,3746	-2,1851	5,2335	7,7862
64117	1,6521	-2,7414	5,7249	7,7035
64118	0,66357	-2,1501	5,2155	7,7691
64119	-0,10877	-2,0309	5,1919	7,7662
64120	0,23892	-2,3343	5,6432	7,6799
64121	2,6769	-2,1204	4,4342	8,0199
64122	1,9414	-2,1768	4,3717	7,9742
64123	2,5008	-2,6171	4,9687	7,9079
64124	2,3612	-2,3511	4,2529	8,0205
64125	-18,759	-1,9957	21,724	7,3788
64126	-18,964	-1,9965	22,4	7,1725
64127	-18,53	-2,5006	22,158	7,4188
64128	3,4345	-2,115	4,3259	8,1133
64129	4,1943	-2,0936	4,2359	8,2191
64130	3,7224	-2,4644	4,699	8,0801
64131	1,3183	-2,256	4,295	7,9573
64132	0,67554	-2,3193	4,329	7,9331
64133	0,93929	-2,6682	4,7943	7,8577
64134	2,7298	-2,226	3,3498	8,1957
64135	3,4053	-2,1653	3,4106	8,2523
64136	3,0475	-2,6358	4,0106	8,1277
64137	2,7507	-2,3661	3,7575	8,1439
64138	-18,553	-1,9928	21,049	7,5551
64139	-18,348	-1,9893	20,375	7,7538
64140	-18,122	-2,4969	20,806	7,7706
64141	4,836	-2,1125	3,3425	8,4472
64142	4,1651	-2,1439	3,3206	8,3573
64143	4,3006	-2,5316	3,8076	8,3069
64144	4,233	-2,368	3,4411	8,3495
64145	-19,437	-1,9953	21,523	7,0777
64146	-19,231	-1,9937	20,847	7,3091
64147	-19,	-2,4988	21,283	7,3351
64148	1,9943	-2,2824	3,2872	8,1518
64149	1,3634	-2,3043	3,3701	8,1068
64150	1,5171	-2,7391	3,9519	8,0259
64151	1,6621	-2,711	3,5264	8,1008
64152	2,0152	-2,4225	3,695	8,099
64153	-19,642	-1,9961	22,199	6,8712
64154	-19,404	-2,5068	22,636	6,925
64155	2,7962	-2,2936	2,4012	8,3276
64156	2,1545	-2,2994	2,303	8,2831
64157	2,7799	-2,7065	2,9363	8,264
64158	2,3095	-2,783	2,5613	8,2712
64159	2,3763	-2,4224	1,9572	8,3247
64160	2,414	-2,4567	3,1685	8,1988
64161	4,6641	-2,1818	2,5573	8,5236
64162	5,4244	-2,1249	2,4106	8,6669
64163	4,781	-2,5587	2,9632	8,494
64164	5,432	-2,5373	2,757	8,6286
64165	5,6151	-2,1141	2,9212	8,6478
64166	5,1921	-2,4503	2,9188	8,5614
64167	3,4717	-2,2329	2,462	8,3829
64168	3,9933	-2,2132	2,5355	8,4359
64169	4,1101	-2,5901	2,9413	8,405
64170	3,4554	-2,6458	2,9971	8,3201
64171	3,8121	-2,4193	3,0028	8,3559
64172	3,0896	-2,396	3,2292	8,254
64173	-20,114	-1,9954	21,321	6,7802
64174	-19,879	-2,4994	21,758	6,8185
64175	3,4748	-2,3306	1,6521	8,4618
64176	2,9369	-2,2521	1,6244	8,4107
64177	3,1829	-2,6835	2,5768	8,3386
64178	3,3842	-2,6214	2,0034	8,4263
64179	3,5396	-2,457	2,5824	8,3735
64180	2,7793	-2,3994	1,5976	8,4007
64181	2,8171	-2,4337	2,8089	8,2724
64182	4,7168	-2,2155	1,6827	8,6177
64183	3,9964	-2,3109	1,7257	8,5138
64184	4,5266	-2,6278	2,1568	8,5534
64185	11,704	-1,9099	-0,99684	10,745
64186	11,046	-1,9087	-1,2724	10,427
64187	11,32	-2,413	-0,81795	10,577
64188	-6,814	-1,8899	45,274	17,077
64189	-6,391	-2,1243	45,717	17,728
64190	-5,8491	-2,0449	44,921	22,146
64191	19,51	-1,9961	19,285	7,4953
64192	18,834	-1,9955	19,486	7,7315
64193	19,069	-2,4971	19,051	7,7314
64194	6,189	-1,9784	2,3859	8,8241
64195	6,8515	-1,8526	2,4447	8,9535
64196	6,7821	-2,4206	2,8609	8,8987
64197	6,3796	-1,9676	2,8964	8,8074
64198	12,618	-1,9687	-1,2699	11,163
64199	12,015	-1,9669	-1,5459	10,841
64200	12,213	-2,5779	-1,13	10,976
64201	5,4771	-2,1587	1,536	8,7619
64202	6,0206	-2,1181	1,5088	8,8663
64203	5,9451	-2,5331	1,7911	8,8343
64204	5,9535	-2,1067	2,4058	8,7726
64205	-15,539	-1,9962	18,262	8,6409
64206	-15,335	-1,9948	17,592	8,7182
64207	-15,108	-2,5008	18,013	8,7042
64208	13,523	-1,8874	-1,4977	11,612
64209	12,944	-1,9797	-1,7852	11,269
64210	13,118	-2,5125	-1,3695	11,408
64211	-16,408	-1,9869	18,752	8,4782
64212	-16,208	-1,994	18,074	8,5914
64213	-15,98	-2,4987	18,497	8,5791
64214	13,858	-1,8085	-1,9742	11,729
64215	14,557	-1,8204	-1,7633	12,169
64216	13,998	-2,4551	-1,5172	11,871
64217	5,6362	-2,11	0,66329	8,8281
64218	5,0083	-2,1599	0,65896	8,7145
64219	5,2371	-2,5972	1,0867	8,7432
64220	-17,272	-1,9796	19,235	8,2394
64221	-17,075	-1,9754	18,565	8,3874
64222	-16,848	-2,4883	18,986	8,3783
64223	-6,7354	-2,1671	45,954	16,26
64224	6,6831	-1,9922	1,5676	8,9922
64225	7,3317	-1,9005	1,5994	9,1479
64226	7,1123	-2,491	2,1469	9,0459
64227	7,3389	-2,2575	1,1731	9,1634
64228	6,616	-1,9809	2,4646	8,9011
64229	-18,144	-1,9845	19,704	7,9183
64230	-17,945	-1,987	19,032	8,1039
64231	-17,718	-2,4925	19,459	8,0986
64232	-19,026	-1,9901	20,174	7,509
64233	-18,825	-1,9919	19,5	7,732
64234	-18,598	-2,5033	19,929	7,7325
64235	6,1797	-2,0693	0,6361	8,9326
64236	6,7352	-2,1034	0,65365	9,0534
64237	6,3859	-2,495	0,94732	8,9676
64238	6,9341	-2,3839	0,72787	9,1136
64239	6,2112	-2,1073	2,0194	8,8391
64240	19,711	-2,0004	19,963	7,2695
64241	20,387	-2,0007	19,762	6,9775
64242	19,946	-2,5041	19,526	7,2599
64243	-19,909	-1,9938	20,646	7,0122
64244	-19,704	-1,9913	19,971	7,271
64245	-19,472	-2,5041	20,405	7,2811
64246	6,4157	-1,9805	-0,1757	8,9948
64247	5,8121	-2,0724	-0,27838	8,8682
64248	5,9596	-2,4592	5,6268e-002	8,9061
64249	6,1025	-2,0833	-9,9418e-002	8,9315
64250	-16,004	-1,9926	17,404	8,6724
64251	-15,797	-1,9931	16,735	8,7737
64252	-15,573	-2,5114	17,147	8,7397
64253	-20,586	-1,9943	20,443	6,7189
64254	-20,35	-2,5024	20,881	6,7427
64255	7,3838	-2,0117	0,68543	9,2077
64256	8,04	-1,9906	0,80432	9,3891
64257	7,5795	-2,496	1,3269	9,2395
64258	7,5827	-2,2922	0,75965	9,2688
64259	-16,875	-1,9826	17,887	8,5036
64260	-16,673	-1,9923	17,214	8,6411
64261	-16,451	-2,5084	17,627	8,6094
64262	7,6118	-2,0847	-0,10916	9,2852
64263	6,9712	-2,0146	-0,15816	9,1159
64264	7,0788	-2,5342	0,13476	9,1435
64265	7,3911	-2,3686	0,25914	9,2331
64266	-16,467	-1,9927	16,546	8,7463
64267	-16,26	-1,9933	15,881	8,8734
64268	-16,034	-2,4984	16,299	8,8167
64269	-17,748	-1,9829	18,361	8,2544
64270	-17,538	-1,9715	17,702	8,4291
64271	-17,317	-2,4868	18,116	8,4008
64272	-17,336	-1,9812	17,03	8,5698
64273	-17,138	-1,9931	16,357	8,7339
64274	-16,91	-2,4967	16,776	8,6803
64275	-18,422	-1,9907	18,16	8,1331
64276	-18,626	-1,9944	18,828	7,9196
64277	-18,192	-2,4952	18,587	8,1095
64278	-18,212	-1,9793	17,501	8,3104
64279	-18,003	-1,9679	16,846	8,5113
64280	-17,778	-2,4832	17,259	8,4633
64281	-19,097	-1,9916	17,958	7,9623
64282	-18,889	-1,9787	17,301	8,2033
64283	-18,661	-2,4922	17,72	8,1607
64284	-19,301	-1,9954	18,626	7,7469
64285	-19,503	-1,9932	19,298	7,4954
64286	-19,068	-2,4988	19,057	7,7303
64287	8,2681	-2,0637	9,7394e-003	9,4645
64288	8,9727	-1,9275	0,17628	9,6917
64289	8,2217	-2,591	0,63019	9,4458
64290	8,8039	-2,5278	0,4846	9,628
64291	8,0473	-2,3476	0,37804	9,4134
64292	8,4976	-2,4424	0,56921	9,5278
64293	-19,976	-1,9951	18,423	7,5196
64294	-19,771	-1,9838	17,756	7,8025
64295	-19,539	-2,496	18,185	7,766
64296	7,9429	-1,999	-0,68761	9,3677
64297	8,4543	-2,0341	-0,71866	9,517
64298	8,108	-2,7517	-0,25107	9,4277
64299	7,8108	-2,3652	-3,4934e-002	9,3446
64300	7,3022	-1,9288	-0,73661	9,1978
64301	6,4879	-2,0004	-0,98576	8,9774
64302	6,4954	-2,4351	-0,67932	9,0006
64303	6,437	-2,0438	-0,42495	8,9971
64304	7,1171	-2,2734	-1,1635	9,113
64305	7,1701	-2,2951	-8,3933e-002	9,1747
64306	-20,178	-1,9929	19,095	7,2668
64307	-20,381	-1,9918	19,769	6,9785
64308	-19,944	-2,496	19,53	7,26
64309	8,1403	-1,9237	-1,3785	9,3939
64310	7,4158	-1,9769	-1,7383	9,153
64311	7,7296	-2,5934	-0,93498	9,3034
64312	7,6692	-2,2612	-1,3989	9,2546
64313	7,7221	-2,2829	-0,31931	9,3088
64314	9,159	-1,898	-0,55212	9,7405
64315	9,7875	-1,868	-0,5241	9,9636
64316	9,6639	-2,3505	-3,3619e-002	9,9303
64317	4,2879	-2,2552	0,70193	8,6103
64318	3,614	-2,247	0,77981	8,5216
64319	3,8063	-2,7051	1,2098	8,5314
64320	8,6518	-1,9589	-1,4096	9,5449
64321	9,2635	-1,9705	-1,3876	9,7413
64322	8,847	-2,4946	-1,0481	9,6281
64323	-20,856	-1,9969	18,892	6,9786
64324	-20,651	-1,9874	18,219	7,3011
64325	-20,417	-2,4974	18,655	7,2742
64326	8,9002	-1,9203	-2,1168	9,57
64327	8,1905	-1,9041	-2,4122	9,3094
64328	8,1585	-2,4544	-1,8639	9,3705
64329	7,9552	-2,2683	-1,8054	9,3158
64330	10,494	-1,9459	-1,3367	10,2
64331	9,892	-1,9405	-1,3596	9,9647
64332	10,247	-2,2474	-0,90468	10,132
64333	-21,059	-1,9958	19,566	6,6894
64334	-20,824	-2,4973	20,003	6,6958
64335	11,357	-1,9658	-1,8215	10,531
64336	10,774	-1,9595	-2,0984	10,246
64337	10,891	-2,4593	-1,6279	10,346
64338	-21,531	-1,9916	18,688	6,6965
64339	-21,296	-2,4987	19,126	6,6835
64340	5,1842	-2,1223	-0,28272	8,7543
64341	4,4558	-2,12	-0,31781	8,6476
64342	4,6886	-2,5589	0,15697	8,6819
64343	9,512	-1,932	-2,0948	9,7679
64344	10,172	-1,9541	-2,1213	10,009
64345	9,5174	-2,4771	-1,7876	9,8021
64346	9,7639	-1,9785	-2,8385	9,7706
64347	9,2475	-1,9331	-2,9553	9,5758
64348	9,0444	-2,4622	-2,4935	9,5784
64349	8,429	-2,2578	-2,1371	9,4273
64350	18,362	-1,9951	20,361	7,7506
64351	19,036	-1,9998	20,163	7,507
64352	18,593	-2,5036	19,929	7,7342
64353	5,8843	-2,0923	-1,0884	8,8518
64354	5,1036	-2,04	-1,2235	8,7024
64355	5,8918	-2,5271	-0,782	8,8744
64356	5,3024	-2,4993	-0,79234	8,7646
64357	5,8334	-2,1357	-0,52763	8,8708
64358	6,5136	-2,3653	-1,2662	8,9864
64359	5,3619	-2,4279	-0,92053	8,767
64360	-0,93598	-2,0647	5,1233	7,7938
64361	-1,6597	-2,0876	5,0703	7,832
64362	-1,3169	-2,3929	5,5419	7,7257
64363	12,341	-1,9779	-2,0612	10,955
64364	11,635	-2,0181	-2,4004	10,58
64365	11,858	-2,4846	-1,9483	10,739
64366	11,051	-2,0119	-2,6772	10,303
64367	10,424	-2,0007	-2,865	10,016
64368	10,442	-2,4381	-2,5282	10,075
64369	13,279	-1,9008	-2,2617	11,396
64370	12,666	-2,0045	-2,5861	11,04
64371	12,834	-2,5102	-2,1367	11,185
64372	11,96	-2,0448	-2,9252	10,675
64373	11,277	-2,0968	-3,3449	10,292
64374	11,462	-2,5235	-2,8194	10,457
64375	11,173	-2,5283	-3,3075	10,249
64376	13,583	-1,8543	-2,763	11,483
64377	14,286	-1,8284	-2,5335	11,897
64378	13,767	-2,471	-2,2393	11,65
64379	12,971	-1,9581	-3,0874	11,139
64380	12,272	-2,1162	-3,5314	10,694
64381	12,533	-2,5627	-2,9391	10,939
64382	12,713	-2,3443	-3,3124	10,957
64383	18,565	-1,9948	21,037	7,5521
64384	17,893	-1,9906	21,235	7,8029
64385	18,122	-2,4985	20,802	7,771
64386	13,323	-1,9548	-3,725	11,172
64387	13,992	-1,9093	-3,3975	11,606
64388	13,516	-2,5514	-3,0029	11,423
64389	13,447	-2,5383	-3,4028	11,318
64390	13,172	-2,2825	-3,4023	11,18
64391	-9,6799e-002	-2,2001	4,3054	7,9305
64392	-0,94495	-1,9563	4,2528	7,9524
64393	-0,58847	-2,4791	4,6971	7,867
64394	6,6015	-2,0484	-1,9875	8,9371
64395	6,0245	-2,0821	-1,9895	8,8112
64396	6,6055	-2,5957	-1,5365	8,9819
64397	6,1747	-2,1032	-0,90947	8,9127
64398	6,8548	-2,3327	-1,648	9,0355
64399	0,72066	-2,3676	3,4041	8,0827
64400	8,4339e-002	-2,7067	3,836	8,0126
64401	-4,8247e-002	-2,3853	2,8545	8,1363
64402	-8,6892	-1,9971	6,739	8,6995
64403	-7,9655	-2,0823	6,7933	8,4836
64404	-8,2606	-2,5926	7,2648	8,4719
64405	-8,5531	-2,6159	6,9744	8,6101
64406	-8,4931	-2,2575	7,5098	8,4812
64407	7,466	-1,9573	-2,7721	9,0776
64408	6,8547	-2,0044	-2,8422	8,9083
64409	7,1335	-2,5738	-2,5271	9,0181
64410	7,2308	-2,3214	-2,1652	9,0787
64411	10,65	-2,0856	-3,5327	10,009
64412	9,8561	-2,1104	-3,5379	9,7029
64413	9,7832	-2,5653	-3,2833	9,7242
64414	10,309	-2,6314	-3,511	9,8764
64415	10,546	-2,5171	-3,4953	9,9665
64416	8,5378	-1,9169	-3,2508	9,3212
64417	7,7222	-1,8825	-3,4147	9,0524
64418	8,3347	-2,446	-2,789	9,3202
64419	7,9949	-2,4706	-3,1298	9,1708
64420	7,7193	-2,2416	-2,4326	9,1688
64421	7,6041	-2,1438	-4,0957	8,8822
64422	11,589	-2,1683	-3,9511	10,325
64423	11,044	-2,0786	-4,0812	10,074
64424	11,005	-2,613	-3,9792	10,077
64425	11,248	-2,7205	-3,6812	10,234
64426	11,042	-2,5555	-3,7995	10,122
64427	9,3396	-2,065	-3,6547	9,5094
64428	8,8499	-1,9679	-3,845	9,3248
64429	8,9179	-2,4854	-3,0003	9,4647
64430	9,2668	-2,5198	-3,4001	9,5301
64431	8,3025	-2,281	-2,6439	9,3062
64432	8,1872	-2,1833	-4,3071	9,0344
64433	-9,162	-1,9	5,9213	9,0064
64434	-8,3249	-1,9475	6,0158	8,7418
64435	-8,87	-2,4774	6,422	8,8192
64436	12,624	-2,1129	-4,169	10,746
64437	11,998	-2,0484	-4,3916	10,414
64438	11,695	-2,7319	-4,1078	10,343
64439	12,166	-2,7757	-3,9032	10,586
64440	12,12	-2,7415	-4,1925	10,506
64441	11,485	-2,5997	-3,9137	10,281
64442	12,473	-2,4406	-3,8464	10,744
64443	-9,5983	-1,8168	5,1265	9,3074
64444	-8,8059	-1,8794	5,2498	9,0372
64445	-9,3123	-2,4497	5,1096	9,2179
64446	-9,571	-1,9661	4,8891	9,3298
64447	13,051	-1,9895	-4,6401	10,847
64448	13,714	-2,0105	-4,3814	11,226
64449	13,203	-2,5804	-4,3721	10,977
64450	13,065	-2,3411	-3,95	11,002
64451	10,25	-2,1035	-4,0865	9,7627
64452	9,5357	-2,1076	-4,2624	9,4678
64453	9,7492	-2,6938	-3,9332	9,6049
64454	-9,0632	-1,7998	4,7699	9,2152
64455	-9,753	-1,7711	4,332	9,5086
64456	-9,7355	-2,3466	4,3662	9,4983
64457	-9,7532	-1,8925	4,5586	9,4652
64458	11,453	-1,9588	-4,5217	10,164
64459	10,672	-2,0587	-4,7186	9,7977
64460	10,747	-2,5746	-4,4592	9,8849
64461	-16,93	-1,9937	15,692	8,865
64462	-16,721	-1,9939	15,031	9,0196
64463	-16,505	-2,5142	15,437	8,9416
64464	19,238	-1,9995	20,839	7,3073
64465	19,914	-2,0006	20,638	7,0111
64466	19,473	-2,5033	20,403	7,2812
64467	12,424	-1,925	-4,8627	10,519
64468	11,727	-1,8229	-5,1167	10,156
64469	11,508	-2,5033	-4,8355	10,125
64470	11,848	-2,4596	-4,9527	10,238
64471	11,639	-2,2801	-6,028	9,8611
64472	-17,804	-1,9798	16,173	8,6786
64473	-17,602	-1,9938	15,503	8,8723
64474	-17,376	-2,4989	15,919	8,7962
64475	12,765	-1,9186	-5,3953	10,548
64476	13,396	-1,9804	-5,1502	10,884
64477	12,846	-2,5268	-5,1399	10,643
64478	12,1	-2,3207	-6,1729	10,046
64479	-18,68	-1,9673	16,646	8,4067
64480	-18,471	-1,9633	15,994	8,6365
64481	-18,249	-2,4829	16,397	8,5682
64482	18,766	-1,9984	21,715	7,3768
64483	19,442	-1,9992	21,515	7,0766
64484	19,	-2,5017	21,279	7,3355
64485	-19,356	-1,9654	16,447	8,3157
64486	-19,563	-1,9709	17,099	8,0454
64487	-19,128	-2,4837	16,858	8,2531
64488	-17,181	-1,9945	14,185	9,2155
64489	-17,393	-1,9941	14,842	9,0311
64490	-16,971	-2,5161	14,586	9,1142
64491	-17,842	-1,9756	14,016	9,2425
64492	-17,628	-1,9754	13,362	9,4576
64493	-17,431	-2,5183	13,733	9,3401
64494	-18,268	-1,9774	15,324	8,8334
64495	-18,054	-1,9753	14,674	9,0546
64496	-17,849	-2,5119	15,054	8,9621
64497	-19,147	-1,9614	15,795	8,5482
64498	-18,935	-1,9582	15,151	8,8081
64499	-18,722	-2,4931	15,533	8,7214
64500	-20,033	-1,9638	16,243	8,1709
64501	-19,823	-1,9591	15,595	8,4748
64502	-19,602	-2,4919	15,985	8,394
64503	-20,24	-1,9693	16,895	7,8986
64504	-20,446	-1,9761	17,552	7,5853
64505	-20,009	-2,4858	17,314	7,8429
64506	-20,917	-1,9685	16,692	7,6902
64507	-20,708	-1,962	16,044	8,0381
64508	-20,478	-2,4903	16,442	7,9666
64509	-21,123	-1,9753	17,349	7,3757
64510	-21,327	-1,9821	18,014	7,0198
64511	-20,888	-2,4944	17,776	7,3309
64512	-18,722	-1,9561	14,5	9,0321
64513	-18,502	-1,9562	13,849	9,2866
64514	-18,292	-2,4802	14,232	9,17
64515	-21,594	-1,968	16,488	7,4934
64516	-21,801	-1,9752	17,149	7,0977
64517	-21,36	-2,4902	16,906	7,4283
64518	-19,612	-1,9559	14,951	8,7374
64519	-19,4	-1,9725	14,279	9,0426
64520	-19,185	-2,4898	14,677	8,9253
64521	-20,499	-1,9573	15,396	8,3438
64522	-20,288	-1,9696	14,73	8,6926
64523	-20,067	-2,4876	15,122	8,5852
64524	-21,385	-1,9615	15,84	7,8424
64525	-21,175	-1,971	15,18	8,2358
64526	-20,945	-2,4858	15,581	8,1369
64527	-18,288	-1,9561	13,195	9,5052
64528	-18,078	-1,9724	12,512	9,7646
64529	-17,86	-2,4818	12,919	9,6081
64530	-22,063	-1,975	15,624	7,666
64531	-22,271	-1,9683	16,288	7,2235
64532	-21,83	-2,4858	16,039	7,5747
64533	-19,18	-1,9726	13,628	9,3017
64534	-18,961	-1,9739	12,971	9,5947
64535	-18,744	-2,4801	13,377	9,4411
64536	-20,076	-1,9862	14,059	9,0014
64537	-19,857	-1,99	13,398	9,3436
64538	-19,643	-2,5052	13,782	9,2021
64539	-7,6012	-2,0326	6,0701	8,5308
64540	-7,0658	-2,0043	6,2597	8,3654
64541	-7,4524	-2,5603	6,6807	8,3736
64542	-20,964	-1,9833	14,514	8,587
64543	-20,747	-1,9846	13,858	8,9751
64544	-20,526	-2,4992	14,24	8,8436
64545	-7,9689	-1,9269	5,3443	8,7766
64546	-7,4242	-2,0498	5,4143	8,6202
64547	-7,8103	-2,4574	5,8842	8,6257
64548	-21,853	-1,9845	14,964	8,0608
64549	-21,639	-1,9813	14,313	8,496
64550	-21,413	-2,4964	14,702	8,372
64551	1,5236	-2,3212	2,3858	8,2378
64552	0,8485	-2,7208	3,0831	8,1341
64553	1,1075	-2,8099	2,7148	8,1883
64554	0,36248	-2,3781	2,3768	8,216
64555	-22,531	-1,9683	14,776	7,8895
64556	-22,741	-1,9756	15,422	7,4066
64557	-22,3	-2,4952	15,165	7,7809
64558	-8,2708	-1,8624	4,8932	8,9492
64559	-7,7484	-1,9123	4,7783	8,8268
64560	-8,3703	-2,3565	5,4058	8,8752
64561	2,2951	-2,2579	1,5263	8,3668
64562	1,7023	-2,8805	1,6619	8,3197
64563	2,1376	-2,4051	1,4995	8,3569
64564	-8,6537	-1,8441	4,1417	9,1872
64565	-8,018	-1,8812	4,4459	8,9583
64566	-8,7772	-2,4327	4,753	9,1285
64567	-9,0359	-1,9491	4,5325	9,2434
64568	-8,1075	-2,091	4,2445	9,009
64569	-9,3435	-1,8155	3,7039	9,489
64570	-9,8982	-1,8709	3,5407	9,7024
64571	-9,467	-2,4041	4,3152	9,4211
64572	-9,7257	-1,9205	4,0946	9,5407
64573	3,076	-2,1685	0,7521	8,4709
64574	2,3052	-2,103	0,54736	8,4095
64575	2,7277	-2,5884	1,0703	8,4308
64576	2,5169	-2,3809	1,1805	8,4094
64577	-9,1554	-1,9119	3,1094	9,5123
64578	-8,5636	-1,9436	3,233	9,3153
64579	-8,5607	-2,2933	3,7496	9,2345
64580	-9,3436	-1,9369	3,9305	9,4376
64581	-8,4152	-2,0788	3,6426	9,2107
64582	-6,1196	-1,8496	5,6949	8,2751
64583	-6,8888	-2,0214	5,6039	8,4527
64584	-6,6173	-2,4281	5,937	8,3283
64585	-5,9235	-2,1288	5,7153	8,2269
64586	3,7819	-2,1117	-0,23993	8,5582
64587	3,087	-1,9886	-0,30622	8,4714
64588	3,3736	-2,4881	0,30418	8,5115
64589	2,9185	-2,3158	0,72529	8,4611
64590	-9,7101	-1,9673	2,9462	9,7278
64591	-10,288	-1,9744	2,7799	9,9562
64592	-9,8807	-2,4463	3,5749	9,6908
64593	-9,8984	-1,9922	3,7673	9,6494
64594	4,3752	-2,0376	-1,2586	8,5957
64595	3,7198	-2,0468	-1,2455	8,5192
64596	3,9327	-2,5011	-0,70591	8,5731
64597	3,2228	-2,3241	0,18842	8,4945
64598	4,2288	-2,2023	-1,3736	8,5631
64599	-9,4195	-2,0338	2,2664	9,7063
64600	-8,9067	-2,0253	2,3453	9,5331
64601	-9,1388	-2,4071	2,8032	9,5571
64602	-5,124	-1,817	5,1102	8,2073
64603	-5,7266	-1,7078	4,9415	8,3386
64604	-5,6897	-2,3436	5,3471	8,2626
64605	-5,3718	-2,0498	5,3852	8,1914
64606	-7,2037	-2,0352	4,8483	8,6719
64607	-6,4959	-1,8796	4,8505	8,5118
64608	-7,0741	-2,5184	5,2368	8,5709
64609	-9,9975	-2,0409	2,1002	9,9376
64610	-10,69	-1,9814	1,9521	10,212
64611	-10,485	-2,4998	2,4079	10,089
64612	-7,4955	-1,9311	4,331	8,8408
64613	-6,9309	-1,8103	4,2465	8,7172
64614	-7,41	-2,4335	4,5738	8,7758
64615	-7,3199	-2,023	4,3924	8,7838
64616	-9,5948	-2,0612	1,4882	9,8431
64617	-9,116	-2,054	1,5037	9,679
64618	-9,5368	-2,5164	1,8854	9,7941
64619	-4,8726	-1,8971	4,4006	8,2895
64620	-4,3665	-1,8775	4,7169	8,1607
64621	-4,5395	-2,3243	5,0728	8,1173
64622	-4,9279	-2,0962	5,1306	8,1616
64623	-4,3497	-1,9824	4,9005	8,1242
64624	-7,2055	-1,6444	3,7065	8,8731
64625	-7,9279	-1,9807	3,5371	9,0788
64626	-7,9251	-2,3304	4,0537	9,0021
64627	-7,2769	-2,3525	3,9234	8,8542
64628	-7,5144	-1,9979	4,2095	8,8674
64629	-6,833	-2,0579	3,6359	8,7985
64630	-7,7796	-2,1158	3,9467	8,978
64631	-5,4752	-1,7879	4,2319	8,4205
64632	-6,2231	-1,6547	4,2487	8,5611
64633	-6,0886	-2,3066	4,5311	8,4831
64634	-5,7937	-2,2748	4,0684	8,5021
64635	-5,9306	-1,9274	3,8209	8,5606
64636	-5,5305	-1,987	4,9619	8,2917
64637	5,2438	-2,0298	-2,1246	8,662
64638	4,5095	-1,9656	-2,1049	8,5417
64639	5,0909	-2,445	-1,6955	8,6743
64640	4,4601	-2,444	-1,7023	8,5752
64641	4,5177	-2,1198	-1,8555	8,5673
64642	4,9225	-2,3431	-1,4375	8,6622
64643	-4,7111	-1,9501	3,7408	8,3772
64644	-5,3004	-1,9894	3,6176	8,4835
64645	-5,0902	-2,3927	4,2245	8,3569
64646	-5,5204	-2,0703	3,5346	8,5442
64647	-5,1203	-2,1299	4,6756	8,2671
64648	-4,2051	-1,9306	4,0571	8,246
64649	-3,542	-1,9065	4,1995	8,146
64650	-3,8476	-2,3963	4,5938	8,1118
64651	-4,036	-1,9965	4,7618	8,1049
64652	-6,0483	-1,8563	3,6344	8,6207
64653	-6,6409	-1,5236	3,622	8,7546
64654	-6,7123	-2,2317	3,8389	8,7341
64655	-6,9498	-1,8772	4,1251	8,7444
64656	-6,2684	-1,9371	3,5514	8,6823
64657	-4,4704	-2,0059	3,0281	8,4366
64658	-3,8996	-1,9507	3,1677	8,3471
64659	-4,4114	-2,4456	3,6086	8,352
64660	-1,6687	-1,9792	4,1998	7,9904
64661	-2,4911	-1,9962	4,2219	8,0429
64662	-2,1188	-2,4104	4,6524	7,9364
64663	-5,0597	-2,0452	2,9049	8,5421
64664	-5,6518	-1,9669	2,9655	8,6374
64665	-5,619	-2,4764	3,4541	8,5661
64666	-5,7559	-2,1289	3,2067	8,6281
64667	-1,7474	-1,9855	3,3469	8,1286
64668	-1,5438	-2,2784	3,6508	8,0779
64669	-6,2443	-1,6343	2,953	8,7684
64670	-7,0206	-1,6141	2,5868	8,9748
64671	-6,4114	-2,0569	3,1077	8,7821
64672	-7,0299	-1,7363	3,7679	8,8159
64673	-6,3485	-1,7963	3,1942	8,76
64674	-6,4894	-1,8879	2,5904	8,8479
64675	-7,743	-1,9504	2,4175	9,1821
64676	-8,315	-2,057	2,4688	9,3355
64677	-7,8601	-2,4241	2,929	9,1601
64678	-8,0174	-2,1905	3,3357	9,1361
64679	-4,7459	-2,0968	2,0832	8,5859
64680	-4,1969	-2,0598	2,1198	8,509
64681	-4,8309	-2,4431	2,5608	8,5565
64682	-4,5029	-2,2048	2,2217	8,5375
64683	-4,7376	-2,3496	2,1336	8,5779
64684	-5,338	-2,0185	2,1438	8,6782
64685	-6,0434	-2,0776	1,9878	8,8191
64686	-5,9347	-2,3084	2,7959	8,7219
64687	-5,8718	-2,0478	2,8824	8,6994
64688	-6,0127	-2,1394	2,2786	8,7921
64689	-6,8197	-2,0574	1,6216	9,0306
64690	-7,3366	-1,8336	1,5468	9,1571
64691	-7,1933	-2,3917	1,9586	9,0924
64692	-6,789	-2,1193	1,9124	9,0021
64693	-5,1667	-2,2517	1,1767	8,7202
64694	-4,5446	-2,2147	1,2066	8,6224
64695	-5,3294	-2,5111	1,7748	8,716
64696	-4,6607	-2,5799	1,7429	8,6083
64697	-5,583	-2,2721	1,7811	8,763
64698	-4,6653	-2,2593	1,7847	8,6027
64699	-4,9	-2,4041	1,6967	8,6436
64700	-5,8722	-2,3108	1,0207	8,8621
64701	-6,5444	-2,1422	0,87488	9,0063
64702	-6,0349	-2,5701	1,6189	8,8576
64703	-6,3844	-2,6227	1,2796	8,9537
64704	-6,4712	-2,4829	0,80785	8,9903
64705	-6,2885	-2,3312	1,6251	8,9052
64706	-3,2365	-1,9266	3,3101	8,2481
64707	-2,5698	-2,0025	3,3689	8,1804
64708	-3,0472	-2,3838	3,9149	8,1443
64709	-3,1718	-2,114	2,9912	8,278
64710	-3,5251	-2,0113	4,3831	8,1075
64711	-3,6261	-2,0046	2,2595	8,4198
64712	-3,5938	-2,4655	2,8002	8,3624
64713	-3,3772	-2,1194	2,4805	8,3748
64714	6,2777	-2,0381	-2,8442	8,7795
64715	5,6506	-2,0638	-2,9214	8,6426
64716	5,9796	-2,4973	-2,4827	8,7636
64717	-3,9956	-2,1777	1,2432	8,5461
64718	-4,1117	-2,5429	1,7796	8,5315
64719	-3,8582	-2,5085	1,259	8,5308
64720	-3,4312	-2,2407	0,96084	8,4864
64721	-3,5614	-2,192	1,9406	8,4526
64722	-4,1163	-2,2223	1,8214	8,526
64723	-5,0268	-2,2933	0,28619	8,7305
64724	-5,5701	-2,1154	0,18541	8,8183
64725	-5,5878	-2,6115	1,3053	8,7832
64726	-5,2814	-2,7167	0,71863	8,7669
64727	-6,0241	-2,5243	0,49426	8,9201
64728	-5,8414	-2,3726	1,3116	8,8301
64729	-5,1584	-2,5045	1,2271	8,7115
64730	6,4611	-1,8721	-3,6985	8,6936
64731	7,1109	-1,9297	-3,4849	8,8818
64732	6,754	-2,4178	-3,2367	8,8321
64733	2,3161	-1,923	-0,51096	8,4107
64734	2,0562	-2,4469	-0,31921	8,4
64735	2,1476	-2,2502	0,52055	8,3998
64736	-4,4047	-2,2563	0,31606	8,6329
64737	-4,0434	-2,609	0,78266	8,5803
64738	-3,6165	-2,3411	0,4845	8,5366
64739	-4,3016	-2,3228	1,345	8,5731
64740	3,0249	-1,9236	-1,3118	8,4323
64741	2,525	-1,9324	-1,3391	8,3811
64742	2,6918	-2,401	-1,1645	8,4115
64743	2,5279	-2,201	0,12213	8,4085
64744	-4,8933	-2,1764	-0,64069	8,7015
64745	-4,3377	-2,1926	-0,53115	8,6231
64746	-4,6575	-2,5879	-0,16262	8,6759
64747	3,8542	-1,9748	-2,0917	8,4636
64748	3,3272	-2,0291	-2,2184	8,3831
64749	3,5662	-2,4278	-1,1746	8,4973
64750	3,8047	-2,4532	-1,6892	8,4977
64751	2,8564	-2,2508	-0,28028	8,4178
64752	3,8623	-2,1289	-1,8423	8,4896
64753	-8,6032	-2,0455	1,5826	9,5056
64754	-7,9086	-1,9403	1,5981	9,3066
64755	-8,2799	-2,4438	1,9881	9,3811
64756	4,9164	-1,9996	-2,9017	8,519
64757	4,3339	-2,0187	-2,9893	8,4157
64758	4,573	-2,4696	-2,4484	8,5208
64759	4,3631	-2,1303	-2,2199	8,5099
64760	-10,288	-2,0017	1,3401	10,119
64761	-11,024	-1,8915	1,1587	10,417
64762	-10,887	-2,466	1,5742	10,336
64763	5,8339	-1,8978	-3,7756	8,5553
64764	5,2995	-2,0901	-3,8049	8,4491
64765	5,4541	-2,4483	-3,3748	8,5485
64766	-9,3936	-2,0436	0,71274	9,8109
64767	-9,9956	-1,968	0,61687	10,033
64768	-9,907	-2,5419	1,0675	9,9913
64769	-8,9147	-2,0364	0,72822	9,6478
64770	-8,3069	-2,0197	0,74644	9,4675
64771	-8,8001	-2,5017	1,1524	9,603
64772	-9,3348	-1,9989	-0,13812	9,7992
64773	-8,8116	-2,0363	-3,5504e-002	9,6313
64774	-9,3798	-2,4817	0,30915	9,8224
64775	-7,0613	-1,9184	0,80007	9,1329
64776	-7,6123	-1,9144	0,76195	9,2701
64777	-7,4066	-2,3013	1,1702	9,2023
64778	-10,732	-1,8579	0,43539	10,335
64779	-11,272	-1,8147	0,45824	10,566
64780	-11,243	-2,4011	0,78318	10,542
64781	-6,2423	-1,9468	3,9592e-002	8,9636
64782	-6,9784	-2,0191	-8,6949e-002	9,1252
64783	-6,963	-2,5413	0,38805	9,1288
64784	-6,6963	-2,3558	0,34844	9,0661
64785	-6,0667	-2,2192	-0,70768	8,8861
64786	6,67	-1,8295	-4,4012	8,6374
64787	6,0693	-1,8128	-4,6028	8,4689
64788	6,1466	-2,1652	-4,2445	8,5446
64789	-5,4367	-1,9985	-0,74147	8,7905
64790	-6,0868	-1,868	-0,9124	8,9007
64791	-5,7448	-2,5317	-0,21195	8,8603
64792	-6,1692	-2,2875	-2,744e-002	8,9485
64793	-5,5396	-2,151	-1,0836	8,7772
64794	-9,9368	-1,9233	-0,23399	10,024
64795	-10,515	-1,851	-0,24849	10,251
64796	-10,497	-2,4727	0,20986	10,247
64797	-9,9818	-2,4062	0,21328	10,046
64798	-10,214	-2,3361	9,1049e-002	10,135
64799	-9,9979	-1,9945	-1,0662	10,017
64800	-9,2192	-1,9445	-0,90492	9,756
64801	-9,368	-2,4516	-0,48184	9,8158
64802	8,0343	-1,9335	-4,009	9,0555
64803	7,3199	-1,887	-4,1877	8,824
64804	7,4543	-2,4385	-3,948	8,9016
64805	7,3717	-2,1489	-4,471	8,7721
64806	8,4352	-1,9369	-4,6617	9,0565
64807	9,0461	-2,0105	-4,4526	9,2864
64808	8,6819	-2,5519	-4,2094	9,2209
64809	7,9162	-2,1948	-4,69	8,9013
64810	7,7207	-1,8904	-4,8404	8,8242
64811	7,1511	-1,8504	-4,9651	8,645
64812	6,9585	-2,4343	-4,6756	8,6588
64813	7,2017	-2,1483	-4,8687	8,6728
64814	-5,4759	-2,1228	-1,7069	8,7405
64815	-4,8114	-2,1707	-1,7071	8,6232
64816	-5,2458	-2,6259	-1,0174	8,7513
64817	-5,2611	-2,2709	-1,4887	8,7234
64818	8,7504	-1,9797	-5,3017	9,0309
64819	8,1649	-1,9371	-5,408	8,8376
64820	8,2639	-2,4996	-5,0322	8,9391
64821	7,7725	-2,1523	-5,1238	8,7818
64822	-7,5294	-2,0151	-0,12507	9,2625
64823	-8,2037	-2,0196	-1,7287e-002	9,4508
64824	-8,1273	-2,5085	0,28733	9,4311
64825	-8,1177	-2,2845	9,1092e-002	9,4244
64826	-7,6693	-2,1856	-0,26856	9,2859
64827	-6,8228	-1,9403	-1,0389	9,0647
64828	-7,509	-2,0911	-0,95612	9,2369
64829	-6,9665	-2,5278	-0,69294	9,1127
64830	-7,4875	-2,5043	-0,57338	9,2481
64831	-6,9052	-2,3598	-0,15398	9,1102
64832	-6,2756	-2,2232	-1,2101	8,9396
64833	-7,3272	-2,1936	-0,73287	9,1999
64834	9,3612	-2,0533	-5,0927	9,2583
64835	9,9577	-2,0628	-4,8945	9,5035
64836	9,4331	-2,5796	-4,8016	9,3474
64837	9,9286	-2,3063	-5,1064	9,4466
64838	9,4796	-2,463	-4,9117	9,3446
64839	-6,1259	-1,9923	-1,8778	8,8549
64840	-6,6826	-2,0235	-1,8883	8,9726
64841	-6,2871	-2,427	-1,5409	8,9192
64842	-5,9111	-2,1404	-1,6597	8,8365
64843	9,7315	-2,0193	-5,7299	9,2627
64844	9,0089	-1,943	-5,8375	9,0039
64845	9,5781	-2,5577	-5,4083	9,2729
64846	9,0177	-2,5728	-5,5062	9,0656
64847	9,7766	-2,318	-5,5216	9,3206
64848	9,3276	-2,4747	-5,327	9,2135
64849	-6,1379	-2,116	-2,6727	8,7733
64850	-5,4124	-2,2039	-2,7329	8,6196
64851	-5,8314	-2,6131	-2,3368	8,7521
64852	-5,5788	-2,2753	-2,049	8,7335
64853	-5,7177	-2,3698	-2,6252	8,6916
64854	17,421	-1,9899	22,111	7,8866
64855	18,093	-1,9942	21,913	7,6286
64856	17,652	-2,4947	21,676	7,8393
64857	16,949	-1,9894	22,987	7,999
64858	17,621	-1,9936	22,789	7,734
64859	17,177	-2,4963	22,553	7,9393
64860	-18,751	-1,9902	12,289	9,8606
64861	-18,537	-1,9781	11,652	10,14
64862	-18,309	-2,5162	12,015	9,9686
64863	-19,638	-1,9914	12,741	9,642
64864	-19,414	-1,9918	12,086	9,9748
64865	-19,201	-2,5096	12,458	9,8036
64866	-20,529	-1,9884	13,198	9,3205
64867	-20,302	-1,9847	12,554	9,698
64868	-20,089	-2,495	12,939	9,525
64869	-21,422	-1,9826	13,657	8,8861
64870	-21,197	-1,9814	13,012	9,3156
64871	-20,982	-2,4913	13,396	9,1497
64872	16,478	-1,9891	23,863	8,1383
64873	17,149	-1,9932	23,666	7,8664
64874	16,704	-2,4953	23,428	8,066
64875	-22,317	-1,9651	14,126	8,3252
64876	-22,093	-1,9594	13,5	8,7978
64877	-21,877	-2,4922	13,839	8,6666
64878	-22,004	-1,982	17,815	6,7411
64879	-21,768	-2,4957	18,248	6,7102
64880	16,002	-1,9923	24,739	8,3045
64881	16,677	-1,9929	24,542	8,024
64882	16,232	-2,4944	24,303	8,219
64883	-22,477	-1,9755	16,949	6,8273
64884	-22,242	-2,4922	17,376	6,7752
64885	-8,6959	-1,9819	-0,80231	9,5848
64886	-8,1833	-2,0957	-0,84834	9,4228
64887	-8,1618	-2,5088	-0,46559	9,4353
64888	-8,8447	-2,489	-0,37923	9,646
64889	-8,4499	-2,297	-0,26543	9,5215
64890	-8,0015	-2,1981	-0,62509	9,386
64891	-23,209	-1,9551	14,582	7,6401
64892	-22,992	-1,948	13,947	8,1716
64893	-22,769	-2,4768	14,315	8,0402
64894	-22,949	-1,9689	16,086	6,9639
64895	-22,714	-2,4885	16,506	6,8885
64896	-11,537	-1,7409	-0,34924	10,685
64897	-11,055	-1,8078	-0,22563	10,48
64898	-11,587	-2,4669	0,18665	10,714
64899	-11,794	-1,8401	0,1522	10,814
64900	-23,419	-1,9623	15,228	7,1576
64901	-23,186	-2,4849	15,637	7,0565
64902	-11,502	-1,7217	-1,048	10,656
64903	-11,99	-1,7819	-1,0598	10,878
64904	-11,269	-2,3491	-0,92608	10,559
64905	-11,539	-2,1332	-1,4363	10,634
64906	-11,961	-1,7781	-0,3538	10,873
64907	-10,576	-1,9221	-1,0807	10,245
64908	-11,02	-1,7886	-0,92436	10,445
64909	-11,03	-2,5484	-0,50294	10,465
64910	-10,467	-2,3661	-0,50428	10,234
64911	-10,438	-2,2977	-0,26849	10,221
64912	-10,76	-1,9915	-1,8404	10,269
64913	-9,9274	-2,0142	-1,8346	9,9485
64914	-10,222	-2,5036	-1,3619	10,094
64915	-11,204	-1,858	-1,6841	10,464
64916	-11,671	-1,9346	-1,6017	10,688
64917	-11,068	-2,392	-1,1188	10,454
64918	-11,338	-2,1761	-1,6291	10,536
64919	-9,1487	-1,9642	-1,6734	9,6812
64920	-8,548	-1,9709	-1,6778	9,4907
64921	-8,6409	-2,3585	-1,1902	9,5579
64922	-7,3688	-2,1743	-1,8054	9,1438
64923	-8,0353	-2,0846	-1,7238	9,3296
64924	-7,645	-2,5782	-1,3769	9,2543
64925	-7,6489	-2,2616	-1,0996	9,2642
64926	-10,753	-1,9789	-2,436	10,204
64927	-11,406	-2,0111	-2,3482	10,489
64928	-10,93	-2,5282	-1,9035	10,333
64929	-11,241	-2,2695	-2,0725	10,458
64930	-9,9203	-2,0015	-2,4303	9,881
64931	-9,2035	-1,9736	-2,5229	9,6155
64932	-9,4898	-2,5104	-2,0188	9,771
64933	-9,4788	-2,1579	-2,5968	9,6927
64934	-7,1835	-2,2196	-2,7276	9,0026
64935	-6,6945	-2,1471	-2,6831	8,8926
64936	-6,9588	-2,6014	-2,2654	9,0035
64937	-7,8501	-2,1299	-2,6459	9,1873
64938	-8,6028	-1,9802	-2,5273	9,4234
64939	-8,1639	-2,4223	-2,1091	9,3387
64940	-10,223	-2,0483	-3,1893	9,889
64941	-10,843	-2,0028	-3,0577	10,157
64942	-10,375	-2,5837	-2,4986	10,042
64943	-10,38	-2,5864	-2,9687	9,9873
64944	-9,9576	-2,1627	-2,9111	9,8386
64945	-10,887	-2,2969	-2,381	10,274
64946	-7,9478	-2,1649	-3,5332	9,0952
64947	-7,2799	-2,2051	-3,5627	8,9091
64948	-7,6693	-2,643	-3,0499	9,0939
64949	-7,7259	-2,4053	-3,3428	9,0704
64950	-8,7005	-2,0153	-3,4145	9,3308
64951	-9,5061	-2,0203	-3,2819	9,6227
64952	-9,0774	-2,4842	-2,8631	9,5377
64953	-9,2409	-2,1347	-3,0037	9,5731
64954	-6,7909	-2,1327	-3,5183	8,7961
64955	-6,1712	-2,1422	-3,6246	8,6477
64956	-6,6804	-2,5605	-3,0224	8,8526
64957	-6,062	-2,3586	-3,0307	8,7149
64958	-8,771	-2,1461	-4,133	9,2408
64959	-8,1918	-2,0883	-4,295	9,0376
64960	-8,0912	-2,5292	-3,9035	9,0812
64961	-8,6739	-2,4903	-3,7654	9,2729
64962	-8,9758	-2,1996	-3,4885	9,4111
64963	-8,2136	-2,3205	-3,7089	9,1477
64964	-7,5239	-2,1285	-4,3245	8,8481
64965	-6,8231	-2,1727	-4,4179	8,6551
64966	-7,4233	-2,5694	-3,9331	8,8931
64967	-7,5457	-2,3607	-3,7384	8,9593
64968	-9,5765	-2,1512	-4,0004	9,5319
64969	-10,442	-2,0133	-3,8562	9,8753
64970	-10,065	-2,6548	-3,7722	9,7489
64971	-9,7814	-2,2047	-3,3559	9,7048
64972	-10,129	-2,3096	-4,1287	9,6926
64973	15,531	-1,9925	25,616	8,4931
64974	16,202	-1,9962	25,419	8,2069
64975	15,755	-2,4972	25,179	8,398
64976	-8,9657	-2,1543	-4,8366	9,1766
64977	-9,6997	-2,1581	-4,6267	9,4637
64978	-9,0094	-2,5563	-3,9992	9,3359
64979	-8,9028	-2,6429	-4,4419	9,231
64980	-9,3113	-2,2656	-3,7222	9,4716
64981	-8,5491	-2,3865	-3,9426	9,2083
64982	-9,6585	-2,3705	-4,4951	9,4708
64983	15,06	-1,9921	26,491	8,7049
64984	15,734	-1,9929	26,295	8,4094
64985	15,287	-2,4932	26,054	8,5973
64986	-8,3865	-2,0965	-4,9985	8,9752
64987	-7,671	-2,1054	-5,1487	8,7446
64988	-7,604	-2,5678	-4,7471	8,8018
64989	-7,9699	-2,3287	-4,1045	9,0057
64990	-23,887	-1,9566	14,374	7,4189
64991	-23,656	-2,4814	14,771	7,2885
64992	-9,2381	-2,1031	-5,52	9,1427
64993	-8,5298	-2,0877	-5,7297	8,8812
64994	-8,5805	-2,5554	-5,2918	8,982
64995	-12,158	-1,9947	-1,6135	10,912
64996	-12,692	-1,9485	-1,2435	11,212
64997	-11,958	-2,3636	-1,385	10,835
64998	-11,825	-2,2362	-1,6408	10,759
64999	18,293	-1,9978	22,591	7,4754
65000	18,969	-1,9972	22,39	7,1714
65001	18,528	-2,5006	22,155	7,4201
65002	-11,873	-2,0877	-2,2658	10,71
65003	-12,419	-2,0371	-2,1096	10,996
65004	-11,836	-2,5266	-2,0079	10,729
65005	-11,708	-2,3461	-1,99	10,681
65006	-19,2	-1,9796	11,449	10,26
65007	-18,997	-1,9742	10,798	10,587
65008	-18,743	-2,5041	11,173	10,373
65009	-11,496	-2,035	-2,9699	10,44
65010	-12,103	-2,0224	-2,8129	10,743
65011	-11,626	-2,5757	-2,6861	10,542
65012	-11,54	-2,3292	-2,2932	10,559
65013	-20,078	-1,9851	11,899	10,035
65014	-19,851	-1,9805	11,265	10,4
65015	-19,638	-2,4926	11,633	10,197
65016	-11,062	-1,9678	-3,7247	10,141
65017	-11,727	-2,0043	-3,5972	10,448
65018	-11,289	-2,5389	-3,4229	10,288
65019	-11,331	-2,2934	-2,6942	10,397
65020	-20,971	-1,9777	12,369	9,6959
65021	-20,725	-1,9632	11,77	10,093
65022	-20,531	-2,485	12,098	9,9163
65023	-10,565	-2,0202	-4,4825	9,8061
65024	-11,306	-1,9769	-4,3203	10,14
65025	-10,905	-2,5593	-4,1501	10,009
65026	-10,524	-2,2326	-4,3509	9,8134
65027	-21,868	-1,9582	12,855	9,2278
65028	-21,625	-1,956	12,239	9,6912
65029	-21,44	-2,4896	12,521	9,5455
65030	-9,9722	-2,1068	-5,3101	9,4273
65031	-10,752	-2,1366	-5,0853	9,7623
65032	-10,021	-2,6396	-4,9328	9,5227
65033	-10,252	-2,3165	-4,7551	9,6317
65034	-22,768	-1,9423	13,321	8,6442
65035	-22,534	-1,9369	12,707	9,16
65036	-22,334	-2,4704	13,014	9,015
65037	-9,4608	-2,1047	-6,17	9,0842
65038	-10,248	-2,1644	-5,9604	9,398
65039	-9,4871	-2,5786	-5,7102	9,1874
65040	-23,67	-1,9496	13,739	7,9498
65041	-23,453	-1,9585	13,083	8,5558
65042	-23,232	-2,4729	13,46	8,3783
65043	17,82	-1,9974	23,468	7,6012
65044	18,497	-1,9971	23,267	7,2932
65045	18,055	-2,4998	23,031	7,5327
65046	17,348	-1,9971	24,345	7,7523
65047	18,024	-1,997	24,145	7,4404
65048	17,582	-2,4992	23,908	7,6718
65049	14,589	-1,9918	27,367	8,9386
65050	15,26	-1,9933	27,171	8,6364
65051	14,81	-2,4956	26,93	8,8226
65052	-19,649	-1,9751	10,613	10,733
65053	-19,428	-1,9849	9,8792	11,147
65054	-19,199	-2,4923	10,316	10,861
65055	16,876	-1,9969	25,221	7,927
65056	17,551	-1,9965	25,022	7,6111
65057	17,11	-2,4986	24,785	7,8351
65058	-24,353	-1,9681	13,503	7,7772
65059	-24,126	-2,4784	13,906	7,5972
65060	16,404	-1,9967	26,098	8,1244
65061	17,08	-1,9974	25,9	7,8039
65062	16,637	-2,498	25,661	8,0217
65063	-20,498	-1,9587	11,136	10,459
65064	-20,262	-1,9435	10,399	10,927
65065	-20,063	-2,4876	10,765	10,692
65066	-21,379	-1,9415	11,64	10,088
65067	-21,139	-1,8805	10,955	10,587
65068	-20,953	-2,456	11,298	10,362
65069	15,934	-1,9941	26,975	8,3427
65070	16,608	-1,9973	26,777	8,0179
65071	16,165	-2,4975	26,538	8,2304
65072	-22,291	-1,9347	12,092	9,6233
65073	-22,058	-1,8866	11,451	10,144
65074	-21,877	-2,4632	11,726	9,9813
65075	14,791	-1,9922	28,048	8,8823
65076	14,123	-1,9886	28,243	9,192
65077	14,342	-2,4925	27,805	9,0659
65078	-23,219	-1,9531	12,469	9,0736
65079	-22,999	-1,9301	11,84	9,6537
65080	-22,775	-2,4524	12,212	9,4291
65081	15,462	-1,9937	27,852	8,5826
65082	16,136	-1,9934	27,654	8,2526
65083	15,694	-2,4947	27,415	8,4595
65084	-24,135	-1,977	12,847	8,383
65085	-23,916	-1,971	12,21	9,0445
65086	-23,699	-2,485	12,575	8,8273
65087	-2,2906	-2,3826	2,8376	8,2323
65088	-2,7105	-2,1952	2,5393	8,3072
65089	14,99	-1,9935	28,728	8,8422
65090	15,662	-1,9954	28,53	8,5077
65091	15,22	-2,4967	28,292	8,7105
65092	-13,55	-1,9889	-1,4487	11,644
65093	-12,953	-1,9909	-1,7397	11,283
65094	-13,074	-2,5097	-1,3812	11,39
65095	-14,473	-1,9665	-1,7897	12,127
65096	-13,871	-1,9668	-2,1073	11,732
65097	-13,987	-2,4823	-1,6814	11,862
65098	-24,814	-1,98	12,632	8,2407
65099	-24,594	-2,4914	13,023	8,0149
65100	-4,2558	-2,1869	-1,5976	8,5433
65101	-4,1203	-2,4092	-0,90487	8,5845
65102	-12,649	-1,9718	-2,6567	11,023
65103	-13,274	-1,9688	-2,3983	11,386
65104	-12,811	-2,4747	-2,2923	11,161
65105	-4,748	-2,2519	-2,7331	8,501
65106	-4,1705	-2,2765	-2,7618	8,4167
65107	-4,7129	-2,6786	-2,0729	8,577
65108	-4,9143	-2,3232	-2,0492	8,6148
65109	-12,334	-1,9917	-3,4402	10,746
65110	-12,985	-1,9811	-3,2097	11,107
65111	-12,525	-2,4876	-3,0755	10,905
65112	10,946	-1,9228	-5,3136	9,7933
65113	10,328	-2,0288	-5,5318	9,5056
65114	10,175	-2,5673	-5,2102	9,5174
65115	10,728	-2,6031	-5,0324	9,7609
65116	10,373	-2,3275	-5,3235	9,5652
65117	9,924	-2,4843	-5,1289	9,4572
65118	-5,4458	-2,2302	-3,6848	8,4928
65119	-4,7577	-2,3206	-3,6553	8,383
65120	-4,8413	-2,8627	-3,0331	8,4837
65121	-4,726	-2,7388	-3,2669	8,433
65122	-5,1976	-2,352	-2,5148	8,599
65123	-5,3366	-2,4466	-3,091	8,561
65124	12,067	-1,8165	-5,6493	10,191
65125	11,334	-1,8133	-5,8565	9,8337
65126	11,61	-2,3981	-5,3515	10,053
65127	11,402	-2,2186	-6,4269	9,706
65128	-6,2035	-2,1823	-4,5242	8,5069
65129	-5,5609	-2,1228	-4,4074	8,4004
65130	-5,6712	-2,7072	-3,8778	8,5102
65131	-6,193	-2,5934	-4,1655	8,5732
65132	-5,9993	-2,4454	-4,3326	8,5127
65133	-5,751	-2,3961	-3,5771	8,5635
65134	12,43	-1,8956	-6,1529	10,22
65135	13,152	-1,8871	-5,9072	10,591
65136	12,601	-2,5205	-5,9263	10,352
65137	11,98	-2,2737	-6,5606	9,9331
65138	10,717	-1,9194	-6,0747	9,5491
65139	10,124	-1,9784	-6,2849	9,2881
65140	10,467	-2,4269	-5,8524	9,4974
65141	10,299	-2,2723	-5,7436	9,457
65142	-6,9702	-2,1496	-5,2421	8,5502
65143	-6,3246	-2,1239	-5,3556	8,3775
65144	-6,3393	-2,5911	-4,9841	8,453
65145	-6,9033	-2,612	-4,8405	8,6077
65146	-6,3425	-2,448	-4,6859	8,5184
65147	-7,2692	-2,3729	-4,198	8,81
65148	-11,971	-2,0135	-4,1929	10,445
65149	-12,657	-2,0125	-3,9884	10,798
65150	-12,206	-2,5224	-3,8453	10,619
65151	11,698	-1,8924	-6,3602	9,8662
65152	11,075	-1,8899	-6,6066	9,5627
65153	11,234	-2,4891	-6,1159	9,7367
65154	11,247	-2,2704	-6,7678	9,5871
65155	-11,493	-2,0934	-4,9231	10,094
65156	-12,284	-2,0271	-4,7574	10,469
65157	-11,836	-2,5498	-4,5989	10,315
65158	-10,993	-2,2732	-4,5929	9,9621
65159	12,136	-1,9194	-6,9571	9,8932
65160	12,758	-1,9151	-6,6789	10,214
65161	12,139	-2,538	-6,7211	9,9579
65162	11,765	-2,2977	-6,9305	9,7631
65163	-14,81	-1,9211	-2,332	12,228
65164	-15,438	-1,9688	-2,0092	12,661
65165	-14,966	-2,4801	-1,9025	12,397
65166	-7,8143	-2,0966	-5,8798	8,6511
65167	-7,0739	-2,086	-6,0535	8,4258
65168	-7,1737	-2,6185	-5,7671	8,5103
65169	13,652	-1,9884	29,118	9,4688
65170	14,322	-1,9898	28,924	9,1488
65171	13,87	-2,4924	28,68	9,3325
65172	-11,028	-2,1942	-5,7356	9,7294
65173	-11,812	-2,1007	-5,5314	10,09
65174	-10,922	-2,7622	-5,3069	9,7864
65175	-11,418	-2,6868	-5,3801	9,9682
65176	-10,71	-2,3491	-4,9537	9,7639
65177	13,182	-1,9886	29,994	9,7677
65178	13,851	-1,9898	29,799	9,4369
65179	13,398	-2,4922	29,555	9,6208
65180	-8,7525	-2,0893	-6,3797	8,8252
65181	-8,0024	-2,1624	-6,7228	8,5361
65182	-8,1077	-2,5388	-6,1363	8,6836
65183	-9,8839	-2,1437	-6,8196	9,0977
65184	-9,1523	-2,0961	-7,1436	8,7916
65185	-9,1905	-2,6055	-6,5746	8,9227
65186	-10,671	-2,2034	-6,61	9,4102
65187	-11,444	-2,1349	-6,3941	9,7494
65188	-10,583	-2,7397	-6,0943	9,4915
65189	-11,091	-2,7336	-6,2569	9,648
65190	12,711	-1,9886	30,869	10,089
65191	13,38	-1,9901	30,675	9,7457
65192	12,926	-2,4919	30,43	9,9315
65193	-10,329	-2,2453	-7,4802	9,1095
65194	-11,088	-2,1422	-7,2367	9,4305
65195	-10,243	-2,7215	-6,9273	9,1978
65196	-10,738	-2,7415	-7,0732	9,3421
65197	-13,609	-1,9781	-2,9513	11,46
65198	-14,209	-1,9214	-2,6497	11,849
65199	-13,768	-2,4854	-2,552	11,621
65200	12,24	-1,9883	31,745	10,436
65201	12,905	-1,9918	31,55	10,078
65202	12,454	-2,4911	31,304	10,266
65203	-13,951	-1,9874	-3,4849	11,549
65204	-13,307	-2,002	-3,758	11,152
65205	-13,499	-2,5042	-3,3745	11,335
65206	-14,551	-1,9308	-3,1833	11,924
65207	-15,154	-1,8882	-2,8807	12,34
65208	-14,715	-2,4379	-2,7644	12,111
65209	14,521	-1,9912	29,605	9,1206
65210	15,192	-1,9931	29,407	8,7798
65211	14,75	-2,4945	29,168	8,9794
65212	-20,042	-1,9532	9,6655	11,351
65213	-19,814	-1,9818	8,9205	11,833
65214	-19,594	-2,4916	9,391	11,472
65215	-14,285	-2,	-4,0257	11,592
65216	-14,891	-1,9498	-3,7364	11,998
65217	-14,473	-2,4998	-3,6129	11,799
65218	-20,903	-1,8653	10,219	11,06
65219	-20,742	-1,8803	9,3922	11,69
65220	-20,467	-2,4467	9,8747	11,285
65221	11,769	-1,9882	32,621	10,81
65222	12,437	-1,9894	32,428	10,431
65223	11,982	-2,4896	32,178	10,626
65224	-21,817	-1,8256	10,766	10,647
65225	-21,627	-1,7534	10,143	11,185
65226	-21,432	-2,3485	10,383	10,98
65227	14,049	-1,9913	30,481	9,4193
65228	14,721	-1,9942	30,284	9,0707
65229	14,278	-2,4945	30,045	9,2688
65230	-22,765	-1,8819	11,2	10,179
65231	-22,46	-1,791	10,617	10,748
65232	-22,302	-2,3754	10,856	10,549
65233	-22,814	-2,107	10,54	10,771
65234	13,575	-1,9932	31,356	9,7396
65235	14,249	-1,9944	31,161	9,3803
65236	13,806	-2,4944	30,92	9,5776
65237	11,299	-1,9898	33,497	11,215
65238	11,966	-1,9895	33,304	10,812
65239	11,511	-2,4876	33,052	11,015
65240	-20,231	-1,951	7,9395	12,686
65241	-20,515	-1,9089	8,6471	12,189
65242	-19,965	-2,4803	8,4437	12,209
65243	13,102	-1,9929	32,233	10,079
65244	13,773	-1,995	32,037	9,7101
65245	13,331	-2,4958	31,795	9,9083
65246	10,829	-1,9963	34,374	11,659
65247	11,496	-1,9919	34,18	11,222
65248	11,04	-2,4861	33,926	11,438
65249	12,634	-1,9908	33,111	10,44
65250	13,304	-1,9937	32,915	10,055
65251	12,861	-2,4928	32,672	10,258
65252	10,349	-2,0099	35,263	12,156
65253	11,025	-2,001	35,057	11,668
65254	10,561	-2,4875	34,801	11,908
65255	9,8468	-2,029	36,169	12,732
65256	10,539	-2,0166	35,95	12,171
65257	10,074	-2,4937	35,684	12,435
65258	-20,559	-1,949	6,9569	13,665
65259	-20,826	-1,941	7,6007	13,201
65260	-20,359	-2,4586	7,4688	13,119
65261	-20,81	-1,9719	5,9869	14,798
65262	-21,068	-1,9662	6,6311	14,322
65263	-20,578	-2,5058	6,5246	14,088
65264	12,163	-1,9916	33,986	10,826
65265	12,833	-1,9935	33,791	10,421
65266	12,39	-2,4915	33,548	10,631
65267	-21,374	-1,9755	5,6797	15,756
65268	-20,924	-2,4862	5,5299	15,406
65269	11,692	-1,9966	34,862	11,24
65270	12,36	-1,9938	34,667	10,808
65271	11,918	-2,4906	34,423	11,031
65272	-21,632	-1,9698	6,324	15,218
65273	-22,212	-1,9731	6,0331	16,243
65274	-21,766	-2,4854	5,8776	15,995
65275	-4,1802	-2,3452	-3,6839	8,2974
65276	-3,5134	-2,2136	-3,7179	8,2036
65277	-4,2638	-2,8873	-3,0617	8,3986
65278	-3,5793	-2,5127	-3,1758	8,2937
65279	-3,4988	-2,4444	-2,8116	8,3319
65280	-4,1486	-2,7634	-3,2956	8,348
65281	-4,6202	-2,3766	-2,5434	8,5137
65282	11,215	-2,0077	35,744	11,694
65283	11,89	-2,0005	35,543	11,219
65284	11,44	-2,4924	35,295	11,464
65285	-4,2009	-2,4271	-4,5868	8,1467
65286	-4,8728	-2,2133	-4,3779	8,2872
65287	-4,3503	-2,7729	-4,0157	8,2727
65288	-4,4524	-2,7788	-3,7235	8,3265
65289	-4,924	-2,392	-2,9714	8,4871
65290	-21,335	-1,9582	7,2749	13,814
65291	-21,885	-1,9574	6,9525	14,511
65292	-21,419	-2,5067	6,8426	14,353
65293	10,024	-2,0359	36,861	12,756
65294	9,3126	-2,0512	37,079	13,414
65295	9,5807	-2,5187	36,59	13,041
65296	-3,5341	-2,2955	-4,6207	8,0515
65297	-2,7476	-2,0718	-4,7575	7,9461
65298	-2,9051	-2,4057	-4,166	8,0691
65299	10,716	-2,0236	36,642	12,207
65300	11,409	-2,0128	36,43	11,666
65301	10,963	-2,4985	36,179	11,938
65302	-4,3195	-2,3616	-5,3631	8,0144
65303	-3,6567	-2,3396	-5,6096	7,88
65304	-3,7664	-2,7283	-4,9296	8,0249
65305	-3,8773	-2,5971	-5,4959	7,9303
65306	-4,9914	-2,1478	-5,1542	8,1535
65307	-5,6821	-2,0644	-5,2389	8,2643
65308	-5,1581	-2,5731	-4,553	8,3002
65309	-5,7	-2,3886	-4,5691	8,4095
65310	-21,11	-1,8988	8,3083	12,67
65311	-21,545	-1,9088	7,8236	13,301
65312	-21,139	-2,4902	7,8279	13,135
65313	-5,0989	-2,1867	-6,1426	7,9856
65314	-4,3705	-2,1532	-6,2747	7,8413
65315	-4,6826	-2,7141	-5,4873	8,0406
65316	-4,4963	-2,6377	-5,9083	7,9354
65317	-5,4298	-2,4703	-5,0793	8,2621
65318	-4,279	-2,465	-5,7972	7,9298
65319	-5,7896	-2,1034	-6,2272	8,1037
65320	-6,4283	-2,0603	-6,167	8,253
65321	-5,9462	-2,5925	-5,8737	8,2056
65322	-6,1205	-2,387	-5,164	8,3765
65323	10,202	-2,0409	37,547	12,79
65324	10,909	-2,0274	37,328	12,164
65325	10,468	-2,5103	37,071	12,471
65326	-21,411	-1,8368	8,8021	12,294
65327	-21,466	-1,7683	9,3161	11,81
65328	-20,955	-2,3913	8,9411	12,081
65329	-5,8487	-2,0889	-6,9777	7,9748
65330	-5,1554	-2,097	-7,0952	7,8186
65331	-5,3554	-2,571	-6,659	7,9384
65332	-5,8074	-2,4276	-5,5575	8,2256
65333	-21,846	-1,8468	8,3174	12,887
65334	-22,031	-1,8015	8,9764	12,221
65335	-21,901	-2,3615	8,913	12,27
65336	-23,696	-1,948	11,581	9,6275
65337	-23,501	-1,881	10,987	10,251
65338	-23,265	-2,4539	11,32	9,995
65339	-23,294	-2,151	10,717	10,524
65340	-6,4874	-2,0458	-6,9175	8,1248
65341	-7,262	-2,1518	-6,8965	8,3121
65342	-6,7164	-2,5516	-6,4847	8,2597
65343	-24,595	-1,9739	11,995	8,9004
65344	-24,37	-1,9656	11,362	9,6417
65345	-24,157	-2,4726	11,748	9,3416
65346	-22,094	-1,908	7,5012	13,967
65347	-22,343	-1,8805	8,1137	13,225
65348	-22,005	-2,4376	7,9849	13,305
65349	-22,27	-1,7188	9,9927	11,289
65350	-22,085	-1,733	9,4904	11,758
65351	-21,71	-2,2886	10,015	11,28
65352	-6,5809	-1,9399	-7,6706	8,0136
65353	-5,9426	-2,039	-7,7798	7,8491
65354	-6,2002	-2,529	-7,3218	7,9876
65355	-23,196	-1,7901	10,403	10,822
65356	-22,866	-1,811	9,8599	11,41
65357	-22,477	-2,3285	10,451	10,887
65358	-22,989	-2,0601	10,134	11,118
65359	-22,465	-1,9607	6,6616	15,496
65360	-22,695	-1,9526	7,2877	14,51
65361	-22,28	-2,468	7,1436	14,531
65362	-24,175	-1,8987	10,768	10,267
65363	-23,903	-1,8843	10,223	10,911
65364	-23,8	-2,4411	10,502	10,645
65365	-23,549	-2,1061	10,327	10,845
65366	-25,262	-1,9668	11,807	8,7859
65367	-25,055	-2,4872	12,153	8,5417
65368	-25,037	-1,9585	11,174	9,5229
65369	-24,789	-1,956	10,555	10,303
65370	-24,618	-2,475	10,841	10,068
65371	-23,059	-1,9689	6,3926	16,425
65372	-22,621	-2,4816	6,2335	16,401
65373	-22,681	-1,8252	9,3576	11,88
65374	-22,528	-1,8352	8,7727	12,547
65375	-22,136	-2,3325	9,1429	12,076
65376	-23,574	-1,9052	9,679	11,497
65377	-23,309	-1,8916	9,1004	12,229
65378	-22,984	-2,4544	9,5909	11,658
65379	-23,22	-2,127	9,7829	11,432
65380	-25,698	-1,9664	10,988	9,4548
65381	-25,509	-2,4731	11,312	9,173
65382	-24,518	-1,9416	10,009	10,948
65383	-24,242	-1,9377	9,4603	11,741
65384	-24,18	-2,4226	9,611	11,548
65385	-23,696	-2,1543	9,9532	11,205
65386	-7,3555	-2,0459	-7,6497	8,2046
65387	-7,9708	-2,0833	-7,8664	8,3074
65388	-8,4022	-2,1692	-7,4867	8,5099
65389	-7,7092	-2,6439	-7,1394	8,3844
65390	-7,7331	-2,2481	-7,6567	8,3087
65391	-25,451	-1,9639	10,368	10,227
65392	-25,188	-1,9407	9,7515	11,162
65393	-24,996	-2,4674	9,9258	10,941
65394	-6,6767	-1,8202	-8,3857	7,9074
65395	-7,3452	-1,8013	-8,4424	8,0676
65396	-6,9416	-2,4374	-7,8505	8,0645
65397	-7,3185	-2,0481	-8,0136	8,1474
65398	-26,145	-1,9666	10,134	10,343
65399	-25,974	-2,4865	10,469	9,9417
65400	-7,9606	-1,8386	-8,6592	8,1834
65401	-8,5032	-1,9119	-8,4472	8,3623
65402	-8,1972	-2,5468	-8,4859	8,273
65403	-7,9338	-2,0855	-8,2304	8,2558
65404	-5,2493	-2,0471	-7,8973	7,6934
65405	-4,4271	-2,0634	-7,2273	7,6746
65406	-4,5826	-2,059	-7,9974	7,5615
65407	-4,7888	-2,544	-7,5756	7,6694
65408	-6,0384	-1,9193	-8,4949	7,7441
65409	-5,4097	-2,0382	-8,6493	7,6002
65410	-5,6549	-2,5369	-8,2078	7,7204
65411	-6,8372	-1,8373	-9,1636	7,8293
65412	-6,1023	-1,8765	-9,1658	7,6563
65413	-6,5149	-2,4104	-8,7065	7,8183
65414	-7,0543	-2,0224	-8,3927	8,0061
65415	-3,7077	-2,1313	-6,5213	7,7106
65416	-3,8621	-2,0831	-7,2886	7,5836
65417	-3,8572	-2,5724	-7,0088	7,6337
65418	-3,9283	-2,3888	-6,4075	7,7589
65419	-7,5057	-1,8184	-9,2203	7,9955
65420	-8,1147	-1,7558	-9,2102	8,1505
65421	-7,7829	-2,3922	-9,0714	8,0783
65422	-7,7228	-2,0034	-8,4494	8,1721
65423	-2,8702	-2,116	-5,7464	7,774
65424	-3,1827	-2,1559	-6,4449	7,6636
65425	-3,3316	-2,5305	-5,931	7,7864
65426	-3,1081	-2,5288	-6,2947	7,6874
65427	-3,6161	-2,4431	-6,0438	7,7975
65428	-22,944	-1,925	7,9003	13,759
65429	-23,156	-1,9016	8,5156	12,907
65430	-22,782	-2,4179	8,3335	13,09
65431	-0,24186	-2,1473	-4,4186	7,8845
65432	0,54771	-2,1101	-4,3844	7,8966
65433	-7,8952e-003	-2,4922	-3,8234	7,9902
65434	0,12537	-2,268	-2,8712	8,1129
65435	-7,6329	-1,9069	-9,8918	7,9434
65436	-6,889	-1,9638	-10,	7,7549
65437	-7,2949	-2,5481	-9,7496	7,8785
65438	-7,4789	-2,0652	-8,7915	8,0531
65439	-1,9818	-2,0787	-4,9547	7,8543
65440	-2,1425	-2,0863	-5,8642	7,6851
65441	-2,2657	-2,5235	-5,2198	7,8232
65442	-23,288	-1,9608	7,0188	15,423
65443	-23,531	-1,9213	7,6285	14,29
65444	-23,086	-2,4633	7,491	14,409
65445	-1,0882	-2,1228	-4,7605	7,8473
65446	-1,4255	-2,1241	-5,3815	7,7286
65447	-1,3597	-2,5794	-4,5286	7,9001
65448	-1,1455	-2,3934	-5,2389	7,75
65449	-1,4531	-2,4098	-4,0073	7,9892
65450	-23,874	-1,9442	6,7477	16,212
65451	-23,471	-2,479	6,5996	16,364
65452	-0,54819	-2,0965	-5,6195	7,6535
65453	0,10205	-2,1354	-5,3193	7,7192
65454	-0,82897	-2,5911	-4,715	7,8439
65455	-0,61482	-2,4051	-5,4253	7,6971
65456	-0,88554	-2,0978	-6,2405	7,5431
65457	-0,35004	-2,0298	-6,611	7,4542
65458	3,6346e-002	-2,1079	-6,5129	7,4755
65459	-0,63088	-2,5423	-6,3972	7,5078
65460	-0,60552	-2,3671	-6,0979	7,5636
65461	-1,5862	-2,1317	-6,2911	7,5659
65462	-1,0385	-2,0472	-6,7262	7,4471
65463	-1,1204	-2,6052	-5,8637	7,6281
65464	-1,2853	-2,591	-6,4738	7,512
65465	-0,95216	-2,4064	-6,0463	7,5844
65466	-0,50301	-1,9792	-7,0967	7,3619
65467	0,18883	-2,0303	-7,0743	7,3625
65468	-0,31285	-2,5412	-6,8649	7,4065
65469	-0,41666	-2,3384	-6,4168	7,4928
65470	-23,977	-1,9241	8,8816	12,473
65471	-23,743	-1,8978	8,2438	13,429
65472	-23,454	-2,4263	8,784	12,618
65473	-23,431	-2,1407	9,3745	11,911
65474	-2,455	-2,1263	-6,5627	7,5718
65475	-1,7571	-2,0581	-7,0861	7,4174
65476	-1,928	-2,5539	-6,1223	7,6163
65477	-2,121	-2,5692	-6,7837	7,5004
65478	-1,3062	-2,401	-6,1484	7,583
65479	-24,911	-1,9368	9,2024	11,955
65480	-24,647	-1,9355	8,6106	12,893
65481	-24,371	-2,4278	9,222	12,026
65482	-23,888	-2,1595	9,5641	11,674
65483	-3,337	-2,1078	-7,2122	7,5313
65484	-2,661	-2,035	-7,5392	7,3885
65485	-2,6358	-2,5692	-6,9531	7,5074
65486	-25,882	-1,9434	9,5169	11,269
65487	-25,643	-1,9444	8,9357	12,246
65488	-25,197	-2,4574	9,508	11,475
65489	-4,0176	-2,0787	-8,0586	7,4692
65490	-3,3775	-2,0093	-8,3097	7,3411
65491	-3,3878	-2,5351	-7,8164	7,4297
65492	-8,9346	-1,9978	-8,0675	8,5552
65493	-9,5973	-2,1977	-7,8043	8,8101
65494	-8,8781	-2,6495	-7,5034	8,6468
65495	-9,2156	-2,7314	-8,0001	8,6541
65496	-8,3652	-2,1714	-7,8507	8,4515
65497	-4,743	-2,0501	-8,7493	7,4678
65498	-3,9707	-2,0214	-8,9474	7,3197
65499	-4,2041	-2,627	-8,4942	7,422
65500	2,2032	-1,9653	-2,1969	8,2852
65501	2,8273	-2,0379	-2,2457	8,3311
65502	2,2499	-2,3679	-2,032	8,3058
65503	1,669	-2,0212	-3,2604	8,1173
65504	2,4961	-1,9611	-3,0353	8,2088
65505	2,0995	-2,3422	-2,4602	8,2497
65506	-26,643	-1,9198	9,2659	11,435
65507	-26,439	-2,4676	9,5644	11,036
65508	1,1534	-2,0814	-4,3871	7,9116
65509	1,8159	-2,0562	-4,3918	7,9474
65510	1,3798	-2,4928	-3,7361	8,0397
65511	1,5365	-2,3159	-4,4056	7,9239
65512	0,89163	-2,0982	-5,2851	7,7343
65513	1,5702	-1,9844	-5,3477	7,7512
65514	0,93647	-2,471	-4,7799	7,8352
65515	1,2393	-2,4751	-5,2011	7,7643
65516	1,4048	-2,2946	-4,897	7,8301
65517	-1,2094	-1,9736	-7,5212	7,3072
65518	-0,59385	-1,9417	-7,7208	7,2442
65519	-0,86951	-2,4965	-7,293	7,3329
65520	0,68659	-2,1468	-6,2127	7,5412
65521	1,2539	-1,9517	-6,1084	7,5872
65522	0,41187	-2,819	-5,6209	7,6604
65523	0,86701	-2,6165	-6,0607	7,5771
65524	4,4722e-002	-2,406	-5,7976	7,6252
65525	-1,9631	-1,9668	-8,0626	7,2481
65526	-1,3429	-1,9922	-8,2013	7,1888
65527	-1,7464	-2,6037	-7,9135	7,2632
65528	-8,6573	-1,8292	-8,9982	8,3251
65529	-9,3182	-1,9883	-8,7279	8,562
65530	-8,8043	-2,5392	-8,6552	8,4225
65531	-9,0603	-2,5937	-8,5797	8,5114
65532	-8,2655	-2,0767	-8,2374	8,3515
65533	-4,8936	-2,067	-9,564	7,3862
65534	-5,4736	-1,9953	-9,3202	7,5161
65535	-5,1599	-2,5614	-9,035	7,4999
65536	-5,2143	-2,3663	-9,4963	7,4527
65537	0,57522	-2,1084	-6,9762	7,3868
65538	1,0619	-2,1361	-7,1004	7,3763
65539	0,79201	-2,627	-6,5818	7,4693
65540	-3,0275e-002	-2,4165	-6,3187	7,5143
65541	-9,981	-2,1882	-8,4647	8,811
65542	-10,689	-2,2581	-8,1784	9,094
65543	-9,8898	-2,8435	-7,7413	8,9182
65544	-10,298	-2,8242	-7,7978	9,0418
65545	-10,177	-2,8287	-8,1744	8,9304
65546	-2,7015	-1,9365	-8,6368	7,2113
65547	-2,131	-1,9773	-8,7618	7,1414
65548	-2,4176	-2,541	-8,4328	7,2157
65549	-8,2419	-1,8444	-9,8816	8,0998
65550	-8,8944	-1,8976	-9,7199	8,2981
65551	-8,3821	-2,455	-9,6687	8,1638
65552	-9,5553	-2,0568	-9,4496	8,5264
65553	-10,206	-2,0488	-9,1843	8,7648
65554	-9,8261	-2,6353	-9,093	8,6644
65555	-3,3306	-1,952	-9,1984	7,2023
65556	-2,8869	-1,9416	-9,3039	7,1379
65557	-3,0171	-2,6179	-9,105	7,1793
65558	-8,399	-1,9702	-10,512	8,0739
65559	-7,7849	-1,9333	-10,625	7,9116
65560	-7,9505	-2,493	-10,308	7,9806
65561	-9,0515	-2,0235	-10,35	8,2677
65562	-9,7798	-2,042	-10,098	8,5042
65563	-9,4274	-2,5336	-9,8082	8,441
65564	-9,2106	-2,6085	-10,097	8,3417
65565	-4,1213	-2,0383	-9,762	7,2429
65566	-3,5138	-2,0038	-9,9152	7,1427
65567	-3,7864	-2,5619	-9,4082	7,2359
65568	-3,564	-2,5901	-9,568	7,1845
65569	-9,2756	-2,058	-11,026	8,2642
65570	-8,575	-2,0123	-11,216	8,0713
65571	-8,7582	-2,546	-10,867	8,1402
65572	-5,0333	-2,0657	-10,41	7,3336
65573	-4,4148	-2,0691	-10,515	7,2242
65574	-4,5992	-2,6139	-10,249	7,2728
65575	-4,7449	-2,6341	-9,924	7,3255
65576	-4,9527	-2,401	-9,9867	7,3574
65577	9,7995e-002	-1,9927	-7,6984	7,2432
65578	0,79701	-2,0105	-7,7116	7,2565
65579	0,58882	-2,509	-7,3159	7,3214
65580	-6,6653e-002	-2,3675	-6,5611	7,4625
65581	-12,969	-2,0262	-4,553	10,817
65582	-13,641	-2,0146	-4,2988	11,206
65583	-13,188	-2,5255	-4,1643	11,014
65584	-0,72739	-1,9602	-8,401	7,1289
65585	-5,7905e-002	-1,9044	-8,6526	7,0795
65586	-0,32373	-2,4856	-8,1341	7,1677
65587	-12,603	-2,0344	-5,3656	10,463
65588	-13,288	-2,0269	-5,1094	10,84
65589	-12,85	-2,544	-4,9716	10,673
65590	-1,5108	-2,0026	-8,9005	7,0831
65591	-0,8964	-1,9894	-9,0523	7,0339
65592	-1,1086	-2,5082	-8,65	7,101
65593	-12,229	-2,0414	-6,1898	10,107
65594	-12,918	-2,0302	-5,9333	10,465
65595	-12,485	-2,543	-5,7866	10,316
65596	-2,3164	-1,9824	-9,4289	7,0685
65597	-1,7121	-1,9449	-9,5763	7,0062
65598	-1,8909	-2,5214	-9,2084	7,0643
65599	-11,861	-2,0737	-7,0208	9,7668
65600	-12,545	-2,046	-6,7583	10,101
65601	-12,121	-2,5787	-6,5881	9,9736
65602	-24,117	-1,9047	7,3574	15,078
65603	-24,412	-1,9092	7,9727	13,849
65604	-23,897	-2,4636	7,8899	13,969
65605	-11,448	-2,1549	-7,9348	9,4092
65606	-12,162	-2,0899	-7,607	9,7465
65607	-11,758	-2,62	-7,4129	9,6423
65608	-3,0701	-1,9934	-10,021	7,0797
65609	-2,4851	-1,9727	-10,122	7,0102
65610	-2,6591	-2,5021	-9,7612	7,062
65611	-13,96	-2,0153	-4,8552	11,22
65612	-14,573	-1,9707	-4,5808	11,608
65613	-14,238	-2,5593	-4,4555	11,471
65614	-5,6134	-1,994	-10,166	7,4542
65615	-6,1542	-2,0029	-10,003	7,5789
65616	-5,9571	-2,5902	-9,4417	7,5964
65617	-5,7221	-2,5487	-9,8791	7,5025
65618	-5,5327	-2,3293	-9,743	7,483
65619	-6,7441	-2,1043	-8,7937	7,8706
65620	-13,603	-2,0226	-5,6771	10,834
65621	-14,215	-1,9781	-5,4149	11,198
65622	-13,912	-2,5627	-5,2745	11,094
65623	-3,8074	-2,0346	-10,668	7,1251
65624	-3,2222	-2,0137	-10,764	7,0449
65625	-3,3813	-2,5463	-10,409	7,0853
65626	-13,235	-2,0348	-6,5018	10,451
65627	-13,845	-1,9872	-6,2437	10,79
65628	-13,562	-2,5713	-6,0819	10,712
65629	-24,74	-1,9539	7,1376	15,569
65630	-24,274	-2,4742	6,9962	15,849
65631	-25,036	-1,9584	7,7529	14,355
65632	-25,378	-1,943	8,3439	13,177
65633	-24,772	-2,4661	8,3034	13,327
65634	-12,846	-2,0621	-7,3445	10,073
65635	-13,477	-2,0001	-7,0783	10,398
65636	-13,202	-2,5823	-6,89	10,339
65637	-25,639	-1,9387	7,5243	14,697
65638	-25,474	-1,9963	6,8821	16,376
65639	-25,177	-2,4914	7,4481	14,937
65640	-10,914	-2,1186	-8,898	9,0379
65641	-11,681	-2,2085	-8,6137	9,3479
65642	-11,164	-2,7551	-8,6269	9,1735
65643	-11,373	-2,7551	-8,2369	9,3242
65644	-12,395	-2,1434	-8,2859	9,6726
65645	-13,046	-2,0319	-7,9556	9,9943
65646	-12,818	-2,6094	-7,7053	9,9752
65647	-10,431	-2,034	-9,8326	8,7339
65648	-11,092	-2,0518	-9,6022	8,9709
65649	-10,685	-2,5816	-9,4122	8,8782
65650	-11,859	-2,1416	-9,3179	9,2701
65651	-12,571	-2,0763	-8,955	9,5872
65652	-12,325	-2,7276	-8,5892	9,5842
65653	-12,087	-2,7344	-8,9937	9,4136
65654	-10,665	-2,0442	-10,494	8,7121
65655	-10,004	-2,0765	-10,774	8,4918
65656	-10,304	-2,5841	-10,257	8,6425
65657	-11,326	-2,062	-10,264	8,9415
65658	-11,944	-2,0135	-10,07	9,1598
65659	-11,611	-2,5962	-9,8491	9,0979
65660	-5,2239	-2,03	-11,174	7,3297
65661	-5,834	-2,0278	-11,054	7,4483
65662	-5,3957	-2,5831	-10,877	7,3769
65663	-5,354	-2,365	-10,342	7,3977
65664	-10,801	-2,0748	-11,184	8,6726
65665	-11,409	-2,0103	-10,866	8,8757
65666	-11,139	-2,5768	-10,665	8,8315
65667	-11,165	-2,3632	-11,086	8,7796
65668	-26,404	-1,9208	8,6847	12,396
65669	-25,981	-1,9233	8,1152	13,534
65670	-25,728	-2,4693	8,7325	12,538
65671	-4,6054	-2,0333	-11,279	7,2215
65672	-4,0405	-1,9755	-11,356	7,1341
65673	-4,1781	-2,5469	-11,021	7,1642
65674	-27,119	-1,8911	8,4226	12,671
65675	-26,948	-2,4964	8,7456	12,153
65676	-5,4167	-2,0255	-11,875	7,3573
65677	-4,8094	-2,0158	-11,982	7,255
65678	-4,9398	-2,596	-11,668	7,2728
65679	-26,696	-1,8936	7,8531	13,78
65680	-26,318	-1,9492	7,2344	15,25
65681	-25,993	-2,4965	7,7997	14,079
65682	-15,782	-1,9359	-2,558	12,755
65683	-16,414	-1,9737	-2,2273	13,21
65684	-15,945	-2,485	-2,1011	12,95
65685	-15,494	-1,9073	-3,4339	12,397
65686	-16,15	-1,9439	-3,1129	12,87
65687	-15,697	-2,4518	-2,9902	12,632
65688	-10,14	-2,1071	-11,463	8,4647
65689	-9,5008	-2,0328	-11,659	8,287
65690	-9,6456	-2,6461	-11,394	8,3421
65691	-9,8969	-2,702	-11,052	8,4377
65692	-27,511	-1,9578	7,5627	14,195
65693	-27,374	-2,508	7,923	13,483
65694	-10,29	-2,0651	-12,161	8,4649
65695	-10,949	-2,0487	-11,933	8,643
65696	-10,695	-2,6229	-11,507	8,614
65697	-10,484	-2,604	-11,848	8,5311
65698	-10,887	-2,3934	-11,58	8,6569
65699	-15,179	-1,9205	-4,2915	11,999
65700	-15,861	-1,9501	-3,9852	12,473
65701	-15,478	-2,5058	-3,8561	12,294
65702	-26,154	-2,0068	6,5922	16,905
65703	-25,682	-2,5275	6,4592	17,44
65704	-26,096	-2,3166	6,2466	17,922
65705	-14,828	-1,9335	-5,1406	11,573
65706	-15,495	-1,9298	-4,8576	12,009
65707	-15,174	-2,5156	-4,7053	11,889
65708	-14,457	-1,9427	-5,9816	11,143
65709	-15,129	-1,9351	-5,7114	11,551
65710	-14,832	-2,523	-5,5434	11,462
65711	-27,132	-2,0134	6,9441	15,618
65712	-26,876	-2,014	6,3182	17,297
65713	-26,486	-2,5765	6,9201	15,886
65714	-26,749	-2,5114	6,5492	16,701
65715	-26,512	-2,3197	6,4307	17,236
65716	-16,783	-1,9817	-2,7822	13,303
65717	-17,397	-1,9795	-2,4522	13,755
65718	-16,927	-2,488	-2,3233	13,502
65719	-6,3748	-2,0367	-10,89	7,5686
65720	-7,041	-1,9902	-10,734	7,7262
65721	-6,529	-2,6061	-10,615	7,62
65722	-7,1062	-2,1489	-9,2294	7,8887
65723	-16,517	-1,9867	-3,6642	12,924
65724	-17,148	-1,9912	-3,3391	13,408
65725	-16,694	-2,498	-3,2083	13,169
65726	-27,891	-2,0348	6,669	15,87
65727	-27,747	-2,5056	7,0323	15,204
65728	-6,6812	-1,9811	-11,598	7,6095
65729	-6,0268	-2,0233	-11,755	7,4729
65730	-6,2136	-2,5382	-11,39	7,511
65731	-16,177	-1,9594	-4,5513	12,464
65732	-16,825	-1,9634	-4,2468	12,943
65733	-16,479	-2,5403	-4,0784	12,798
65734	-14,087	-1,9526	-6,8203	10,727
65735	-14,746	-1,9381	-6,5506	11,1
65736	-14,476	-2,5289	-6,3699	11,04
65737	-15,796	-1,9314	-5,4283	11,972
65738	-16,455	-1,9337	-5,1406	12,425
65739	-16,139	-2,5148	-4,959	12,322
65740	-27,635	-2,0354	6,0432	17,522
65741	-27,165	-2,5373	5,8268	18,513
65742	-26,818	-2,3239	5,9726	18,307
65743	-16,082	-1,9292	-6,0081	11,912
65744	-15,418	-1,9305	-6,2804	11,496
65745	-15,797	-2,5161	-5,8178	11,847
65746	-7,3475	-1,9346	-11,442	7,765
65747	-7,9609	-1,9754	-11,329	7,9122
65748	-7,5086	-2,4867	-11,105	7,8165
65749	-28,186	-2,5301	6,1636	16,754
65750	-7,5234	-1,9675	-12,149	7,7937
65751	-6,9101	-1,9322	-12,271	7,6624
65752	-7,0724	-2,4853	-11,915	7,6955
65753	-8,1367	-2,0083	-12,036	7,9372
65754	-8,8001	-1,9871	-11,848	8,0996
65755	-8,3267	-2,5308	-11,671	7,9912
65756	-8,3359	-2,0029	-12,711	7,9845
65757	-7,7201	-1,965	-12,842	7,8543
65758	-7,8902	-2,5129	-12,477	7,8822
65759	-6,2556	-1,9744	-12,428	7,5297
65760	-5,6443	-1,968	-12,552	7,4205
65761	-5,7524	-2,5797	-12,232	7,4281
65762	-9,6513	-1,9907	-12,357	8,2956
65763	-8,9993	-1,9817	-12,524	8,1398
65764	-9,1957	-2,5011	-12,151	8,1921
65765	-17,763	-1,989	-3,009	13,833
65766	-18,396	-1,9895	-2,6747	14,315
65767	-17,913	-2,4931	-2,5421	14,042
65768	-9,8297	-2,0176	-13,071	8,3345
65769	-10,496	-1,9983	-12,869	8,4853
65770	-10,034	-2,5316	-12,695	8,3858
65771	-9,1777	-2,0085	-13,238	8,1861
65772	-8,5525	-1,972	-13,38	8,0589
65773	-8,7314	-2,5184	-13,009	8,0844
65774	-17,456	-1,9679	-3,9217	13,399
65775	-18,097	-1,9833	-3,5838	13,929
65776	-17,668	-2,5032	-3,437	13,695
65777	-9,3954	-1,9765	-13,902	8,2633
65778	-10,027	-2,0094	-13,752	8,3828
65779	-9,5598	-2,5525	-13,555	8,2832
65780	-13,677	-1,9699	-7,6894	10,309
65781	-14,373	-1,944	-7,3918	10,677
65782	-14,117	-2,5384	-7,1942	10,635
65783	-7,1068	-1,9297	-12,965	7,7273
65784	-6,4852	-1,9227	-13,098	7,6134
65785	-6,6036	-2,5239	-12,761	7,6156
65786	-17,104	-1,9377	-4,8361	12,88
65787	-17,768	-1,9664	-4,502	13,416
65788	-17,345	-2,4755	-4,3538	13,212
65789	-7,9367	-1,9342	-13,511	7,9334
65790	-7,3081	-1,9266	-13,657	7,8209
65791	-7,4408	-2,5182	-13,303	7,82
65792	-16,741	-1,9314	-5,7204	12,347
65793	-17,417	-1,9573	-5,411	12,842
65794	-17,011	-2,471	-5,2501	12,686
65795	-8,7703	-1,94	-14,044	8,1415
65796	-8,1323	-1,9324	-14,202	8,0338
65797	-8,2823	-2,5149	-13,835	8,0313
65798	-16,361	-1,923	-6,5852	11,821
65799	-17,047	-1,9492	-6,2967	12,268
65800	-16,652	-2,4659	-6,1259	12,15
65801	-9,6123	-1,9452	-14,563	8,3419
65802	-8,9536	-1,9674	-14,738	8,2417
65803	-9,1298	-2,5134	-14,362	8,2408
65804	-15,032	-1,9295	-7,1222	11,039
65805	-15,697	-1,9243	-6,8574	11,419
65806	-15,434	-2,5166	-6,6593	11,378
65807	-14,01	-1,9887	-8,2433	10,282
65808	-13,222	-1,9648	-8,6247	9,8947
65809	-13,699	-2,5536	-8,0403	10,226
65810	-14,706	-1,9628	-7,9457	10,639
65811	-15,315	-1,9196	-7,6933	10,96
65812	-15,059	-2,5177	-7,4952	10,931
65813	-15,981	-1,9144	-7,4285	11,328
65814	-16,679	-1,9438	-7,1607	11,727
65815	-16,285	-2,4606	-6,9846	11,634
65816	-14,348	-1,9435	-8,7591	10,265
65817	-15,059	-1,9878	-8,4952	10,592
65818	-14,731	-2,5538	-8,3077	10,54
65819	3,8069	-2,0731	-3,1159	8,3344
65820	3,1202	-2,0337	-3,084	8,2566
65821	3,4745	-2,5172	-2,7229	8,3461
65822	-13,56	-1,9196	-9,1406	9,8896
65823	-14,127	-1,8806	-9,499	9,9881
65824	-14,677	-1,941	-9,3048	10,213
65825	-14,238	-2,4756	-9,1577	10,122
65826	-13,603	-2,2377	-9,7917	9,7456
65827	-13,283	-1,8868	-9,7266	9,6415
65828	-12,656	-1,9481	-9,7068	9,4589
65829	-12,963	-2,6316	-9,3307	9,6417
65830	-13,217	-2,573	-8,9379	9,8234
65831	-13,039	-2,2668	-9,7627	9,5591
65832	-13,849	-1,8478	-10,085	9,7567
65833	-14,498	-1,9264	-10,011	9,9633
65834	-14,155	-2,501	-9,8583	9,9092
65835	-13,606	-2,2278	-10,121	9,6737
65836	-13,418	-1,8625	-10,724	9,4882
65837	-14,019	-1,9092	-10,641	9,6635
65838	-13,524	-2,4672	-10,458	9,5684
65839	-13,325	-2,2049	-10,378	9,5282
65840	4,0774	-2,0248	-4,1049	8,2138
65841	4,717	-2,1092	-3,8925	8,3438
65842	4,2367	-2,3914	-3,5162	8,3371
65843	4,8903	-2,3177	-4,6543	8,2206
65844	3,3907	-1,9854	-4,073	8,133
65845	2,643	-1,9961	-4,1666	8,0386
65846	2,9422	-2,4804	-3,4979	8,1819
65847	-15,668	-1,9445	-8,2428	10,903
65848	-16,315	-1,9405	-8,0007	11,234
65849	-15,915	-2,4594	-7,8224	11,156
65850	4,2756	-2,0365	-5,1762	8,047
65851	3,6105	-1,9616	-5,1953	7,9569
65852	3,6794	-2,3243	-4,5528	8,0923
65853	3,998	-2,4106	-4,9578	8,0511
65854	4,6549	-2,2812	-5,2499	8,0988
65855	-12,791	-1,9238	-10,704	9,2996
65856	-12,027	-1,9619	-10,672	9,0865
65857	-12,422	-2,5761	-10,27	9,276
65858	-12,698	-2,2662	-10,358	9,3416
65859	-15,387	-1,9853	-9,0409	10,531
65860	-16,017	-1,976	-8,8144	10,814
65861	-15,606	-2,4969	-8,6379	10,744
65862	5,5348	-2,0051	-4,6321	8,3599
65863	4,9152	-2,1209	-4,9638	8,1756
65864	5,0092	-2,5271	-4,2582	8,3267
65865	5,2945	-2,3656	-5,0374	8,2299
65866	-15,048	-1,9868	-9,8173	10,183
65867	-15,676	-1,9836	-9,6224	10,425
65868	-15,309	-2,5436	-9,4356	10,382
65869	6,5503	-1,8337	-5,1668	8,4755
65870	5,5563	-1,8982	-5,6139	8,1826
65871	5,813	-2,3291	-4,9916	8,3523
65872	5,845	-2,1402	-6,038	8,14
65873	5,7081	-2,2136	-5,3939	8,2558
65874	-14,668	-1,9878	-10,567	9,8691
65875	-15,307	-1,9871	-10,4	10,076
65876	-14,895	-2,5403	-10,221	10,023
65877	4,9366	-2,014	-5,9457	8,0058
65878	4,5431	-1,9747	-6,1502	7,8964
65879	4,8795	-2,4077	-5,8224	8,0135
65880	5,0884	-2,3294	-5,7256	8,0759
65881	-13,631	-1,9158	-11,357	9,4165
65882	-13,036	-1,9521	-11,51	9,2435
65883	-13,176	-2,4879	-11,262	9,3206
65884	-13,175	-2,2425	-10,76	9,4075
65885	7,1095	-1,7847	-5,8448	8,4658
65886	7,5952	-1,8971	-5,5327	8,6566
65887	6,6256	-2,6273	-5,5426	8,4183
65888	7,3291	-2,3459	-5,602	8,572
65889	6,4468	-2,1209	-6,2162	8,2406
65890	7,8628	-2,0845	-5,9737	8,6393
65891	7,2029	-2,1123	-5,2485	8,6026
65892	-14,232	-1,9625	-11,274	9,5905
65893	-14,891	-1,9958	-11,167	9,7657
65894	-14,459	-2,5465	-10,993	9,7113
65895	6,1154	-1,8491	-6,292	8,174
65896	5,2392	-1,8459	-6,8098	7,889
65897	5,3797	-2,5487	-6,3997	7,999
65898	5,4528	-2,1853	-6,6634	7,9627
65899	5,3159	-2,2587	-6,0193	8,0649
65900	-14,432	-1,9264	-11,869	9,5005
65901	-13,766	-1,9457	-12,013	9,335
65902	-13,985	-2,515	-11,73	9,4365
65903	7,3946	-1,8063	-6,5182	8,4126
65904	6,9202	-1,8154	-6,6912	8,2649
65905	7,2864	-2,3162	-6,1019	8,4679
65906	6,4041	-2,0912	-6,716	8,147
65907	7,8201	-2,0549	-6,4736	8,545
65908	7,1602	-2,0826	-5,7484	8,4916
65909	8,7567	-2,0777	37,995	14,226
65910	9,4907	-2,0563	37,766	13,432
65911	9,077	-2,5279	37,47	13,73
65912	7,8803	-1,9186	-6,206	8,5972
65913	8,4235	-1,9003	-5,9437	8,8099
65914	7,7722	-2,4286	-5,7898	8,6571
65915	8,3059	-2,1672	-6,1614	8,7326
65916	7,6459	-2,195	-5,4362	8,6834
65917	8,2543	-2,0783	38,868	15,088
65918	8,9434	-2,0784	38,679	14,228
65919	8,551	-2,5657	38,4	14,568
65920	9,6774	-2,0569	38,45	13,454
65921	10,397	-2,0411	38,226	12,719
65922	9,9757	-2,5254	37,958	13,063
65923	6,7089	-2,1521	40,73	18,363
65924	6,4813	-2,1261	41,404	19,128
65925	5,8829	-2,6885	41,111	20,098
65926	6,0014	-2,7242	40,576	19,198
65927	6,2624	-2,7389	41,315	19,561
65928	5,1484	-2,5924	40,225	19,092
65929	6,3967	-2,4865	40,887	19,011
65930	8,0843	-1,944	-6,873	8,5318
65931	7,5767	-1,8394	-7,0692	8,3544
65932	7,9568	-2,4086	-6,5139	8,5642
65933	8,1479	-2,1061	-6,647	8,5971
65934	9,4016	-1,902	-6,3925	9,0267
65935	8,6274	-1,9257	-6,6106	8,7391
65936	8,4999	-2,3903	-6,2516	8,7745
65937	9,1018	-2,4534	-6,1893	8,9688
65938	8,691	-2,0878	-6,3847	8,8073
65939	9,1273	-2,3527	-5,6565	9,0833
65940	7,6471	-2,0819	39,815	16,305
65941	8,4602	-2,0594	39,542	15,047
65942	8,1009	-2,5615	39,267	15,426
65943	10,482	-1,9489	-6,8168	9,3049
65944	9,7907	-1,974	-7,024	9,0279
65945	10,028	-2,4917	-6,6249	9,1924
65946	7,3054	-2,0528	40,782	17,214
65947	7,8755	-2,0484	40,495	16,185
65948	7,522	-2,6044	40,255	16,67
65949	6,9499	-2,4341	40,506	17,735
65950	11,513	-1,917	-7,2035	9,5956
65951	10,872	-1,9559	-7,4097	9,3115
65952	10,965	-2,5169	-6,9444	9,4583
65953	11,143	-2,2953	-7,177	9,467
65954	7,0778	-2,0267	41,456	18,008
65955	7,7614	-2,01	41,351	16,608
65956	7,4291	-2,605	41,165	17,188
65957	6,9932	-2,3871	40,939	17,834
65958	11,822	-1,9177	-7,7764	9,5838
65959	12,486	-1,9213	-7,5223	9,8917
65960	12,134	-2,4833	-7,4448	9,7727
65961	11,685	-2,2975	-7,3647	9,631
65962	9,0165	-1,9977	-7,2422	8,7416
65963	8,356	-1,9758	-7,4318	8,506
65964	8,6323	-2,5081	-7,0098	8,6704
65965	8,5099	-2,1926	-6,8284	8,6691
65966	9,1493	-2,0595	39,353	14,212
65967	9,8812	-2,0493	39,119	13,334
65968	9,4826	-2,5427	38,847	13,726
65969	10,181	-1,981	-7,6169	9,0371
65970	9,3648	-1,9428	-7,8181	8,7368
65971	9,5819	-2,477	-7,4592	8,8773
65972	6,6503	-2,0613	42,191	19,27
65973	7,2967	-2,0383	42,015	17,617
65974	6,915	-2,5882	41,812	18,472
65975	6,7223	-2,408	41,18	18,505
65976	11,182	-1,9566	-7,9826	9,3037
65977	10,492	-1,9496	-8,1759	9,0269
65978	10,467	-2,5565	-7,8316	9,0871
65979	11,045	-2,3364	-7,5709	9,3471
65980	6,9066	-2,0586	42,924	18,64
65981	6,5324	-2,5848	42,742	19,727
65982	11,357	-1,9264	-8,5517	9,2465
65983	12,02	-1,9573	-8,3307	9,5316
65984	11,679	-2,5234	-8,0863	9,4665
65985	11,452	-2,296	-7,7498	9,4525
65986	8,6885	-2,0259	40,223	14,966
65987	9,3896	-2,0385	40,008	13,991
65988	9,0122	-2,5497	39,746	14,449
65989	8,7042	-1,9208	-8,0077	8,5022
65990	7,8484	-1,8711	-7,628	8,3308
65991	8,1286	-1,8635	-8,1774	8,3108
65992	8,2637	-2,4311	-7,8272	8,4098
65993	8,3315	-2,0056	41,064	15,608
65994	8,9775	-1,9924	40,856	14,584
65995	8,6042	-2,531	40,617	15,145
65996	9,6763	-1,9114	-8,3772	8,7279
65997	8,9664	-1,839	-8,552	8,4857
65998	9,0887	-2,4536	-8,2602	8,5708
65999	9,0777	-2,1194	-8,6347	8,5008
66000	7,9803	-2,0215	41,91	16,263
66001	8,61	-1,9867	41,691	15,111
66002	8,2349	-2,5474	41,499	15,798
66003	10,667	-1,9194	-8,7451	8,9744
66004	10,	-1,8853	-8,918	8,7374
66005	9,8385	-2,5241	-8,589	8,7388
66006	10,762	-2,289	-7,9431	9,1711
66007	9,6113	-2,1102	-8,8057	8,6368
66008	7,553	-2,0356	42,747	17,039
66009	8,1863	-1,9954	42,55	15,71
66010	7,8213	-2,5638	42,376	16,534
66011	10,905	-1,9183	-9,3212	8,9547
66012	11,566	-1,9704	-9,1303	9,2048
66013	11,162	-2,4967	-8,8632	9,1202
66014	11,219	-2,3062	-8,1401	9,272
66015	7,1024	-1,8485	-7,2422	8,2088
66016	7,1863	-1,802	-7,8248	8,1264
66017	7,5037	-2,4037	-7,3655	8,2872
66018	7,0812	-2,0522	43,58	17,911
66019	7,704	-2,0195	43,384	16,385
66020	7,3471	-2,5486	43,204	17,367
66021	6,6641	-1,8309	-7,3195	8,09
66022	6,044	-1,8121	-7,209	7,9764
66023	6,9008	-2,4244	-6,8424	8,233
66024	6,2575	-2,1515	-7,0625	8,0509
66025	7,0136	-2,143	-6,0948	8,3816
66026	-18,73	-1,9838	-3,2494	14,37
66027	-18,935	-2,5049	-2,7682	14,623
66028	6,748	-1,7845	-7,9022	8,0085
66029	6,241	-1,7396	-7,8172	7,9097
66030	6,354	-2,3568	-7,411	8,0013
66031	6,1481	-2,1068	-7,3444	7,9729
66032	7,4665	-1,7944	-8,3742	8,1076
66033	6,7491	-1,7467	-8,3951	7,929
66034	6,7581	-2,3487	-8,1403	7,9728
66035	6,3414	-2,1051	-7,6451	7,9594
66036	-18,409	-1,9818	-4,1641	13,908
66037	-19,046	-1,9881	-3,8328	14,53
66038	-18,66	-2,5174	-3,6464	14,272
66039	8,3907	-1,7817	-8,7217	8,2961
66040	7,7837	-1,8098	-8,8834	8,1086
66041	7,7839	-2,3918	-8,6379	8,1461
66042	-18,081	-1,986	-5,0769	13,346
66043	-18,714	-1,995	-4,7562	13,929
66044	-18,308	-2,5045	-4,5922	13,715
66045	-27,715	-1,5107	-5,2999	19,36
66046	-27,963	-1,6373	-5,0359	19,685
66047	-27,554	-1,9421	-4,6957	22,315
66048	-27,566	-1,5768	-4,7899	21,727
66049	-17,723	-1,9751	-5,9874	12,739
66050	-18,354	-1,9807	-5,6899	13,243
66051	-17,965	-2,4953	-5,5136	13,103
66052	9,2904	-1,8129	-9,0928	8,4956
66053	8,5987	-1,785	-9,2848	8,2709
66054	8,6162	-2,3254	-9,1001	8,3036
66055	8,9013	-2,0378	-8,9805	8,3986
66056	-17,365	-1,9701	-6,8722	12,156
66057	-17,959	-1,9507	-6,6161	12,56
66058	-17,613	-2,4881	-6,4133	12,496
66059	-27,953	-1,6682	-5,5852	18,301
66060	-27,573	-1,5742	-6,0695	17,416
66061	-27,411	-1,7679	-5,3435	19,832
66062	-28,201	-1,7947	-5,3212	18,631
66063	-28,418	-1,9238	-5,8026	17,399
66064	-27,781	-2,469	-5,558	18,564
66065	-28,505	-1,8372	-5,1453	18,601
66066	-27,772	-2,0509	-4,7271	21,848
66067	-17,014	-1,9699	-7,7329	11,619
66068	-17,599	-1,9453	-7,4936	11,961
66069	-17,262	-2,4855	-7,2893	11,925
66070	-16,664	-1,972	-8,5723	11,134
66071	-17,304	-1,9714	-8,335	11,449
66072	-16,91	-2,486	-8,1452	11,404
66073	-16,306	-1,9743	-9,3959	10,699
66074	-16,915	-1,9366	-9,178	10,957
66075	-16,546	-2,4865	-8,9834	10,932
66076	-15,935	-1,9839	-10,205	10,311
66077	-16,578	-1,9786	-10,004	10,538
66078	-16,158	-2,4956	-9,8111	10,507
66079	-15,53	-1,9951	-11,	9,9678
66080	-16,191	-1,9899	-10,815	10,162
66081	-15,76	-2,5082	-10,62	10,135
66082	-11,557	-1,9843	-11,615	8,8307
66083	-12,272	-1,9901	-11,477	9,0258
66084	-11,757	-2,5595	-11,383	8,9037
66085	-11,952	-2,5628	-11,051	9,0124
66086	-12,41	-2,2805	-10,728	9,1907
66087	-11,495	-2,329	-11,262	8,852
66088	-15,091	-1,9597	-11,763	9,6734
66089	-15,755	-1,9929	-11,617	9,8305
66090	-15,319	-2,5093	-11,416	9,8064
66091	-14,644	-1,9334	-12,536	9,4209
66092	-15,31	-1,9218	-12,365	9,5623
66093	-14,859	-2,5021	-12,211	9,5263
66094	-11,154	-1,9819	-12,641	8,6538
66095	-11,804	-1,9868	-12,463	8,8129
66096	-11,361	-2,53	-12,317	8,7267
66097	-11,313	-2,3371	-11,835	8,7454
66098	-12,519	-1,9926	-12,325	9,0028
66099	-13,171	-1,9821	-12,165	9,1685
66100	-12,754	-2,5361	-12,004	9,0993
66101	-12,943	-2,2945	-11,163	9,2641
66102	-10,693	-1,9901	-13,551	8,5251
66103	-11,358	-1,9706	-13,354	8,6631
66104	-10,905	-2,5012	-13,163	8,5752
66105	-12,008	-1,9754	-13,176	8,8147
66106	-12,663	-1,9747	-13,004	8,9574
66107	-12,215	-2,5093	-12,825	8,8823
66108	-13,315	-1,9641	-12,844	9,1169
66109	-13,978	-1,9527	-12,68	9,2602
66110	-13,522	-2,5274	-12,537	9,199
66111	-10,244	-1,9781	-14,414	8,4555
66112	-10,882	-2,0058	-14,259	8,5628
66113	-10,418	-2,5481	-14,061	8,4757
66114	-12,214	-1,9677	-13,867	8,8122
66115	-11,548	-1,9863	-14,062	8,6922
66116	-11,763	-2,4968	-13,67	8,742
66117	-12,869	-1,967	-13,695	8,9481
66118	-13,528	-1,9629	-13,521	9,0684
66119	-13,067	-2,528	-13,367	9,0119
66120	-10,459	-1,9492	-15,075	8,5235
66121	-9,7987	-1,9718	-15,252	8,4371
66122	-10,	-2,4866	-14,857	8,4377
66123	-13,079	-1,9638	-14,37	8,9251
66124	-12,419	-1,9629	-14,55	8,8292
66125	-12,612	-2,5216	-14,199	8,8722
66126	6,611	-2,049	44,415	18,85
66127	7,2267	-2,0432	44,253	16,997
66128	6,8732	-2,5561	44,04	18,22
66129	-14,19	-1,9514	-13,357	9,2058
66130	-14,857	-1,9441	-13,181	9,3237
66131	-14,398	-2,5128	-13,024	9,2898
66132	-11,098	-1,9769	-14,92	8,6247
66133	-11,752	-1,9816	-14,745	8,7169
66134	-11,282	-2,54	-14,561	8,6453
66135	-13,738	-1,9597	-14,196	9,0391
66136	-14,4	-1,9564	-14,015	9,1325
66137	-13,935	-2,516	-13,843	9,103
66138	-11,312	-1,9522	-15,579	8,6759
66139	-10,653	-1,9693	-15,76	8,6079
66140	-10,858	-2,4827	-15,362	8,6083
66141	-13,288	-1,9609	-15,044	8,922
66142	-13,95	-1,9617	-14,865	8,9907
66143	-13,482	-2,5139	-14,684	8,9649
66144	10,238	-1,8843	-9,4941	8,7204
66145	9,5566	-1,8982	-9,676	8,4922
66146	9,629	-2,5073	-8,9589	8,6112
66147	10,553	-2,2721	-8,313	9,0262
66148	9,4017	-2,0933	-9,1755	8,5145
66149	-11,967	-1,9569	-15,404	8,7616
66150	-12,628	-1,96	-15,224	8,8326
66151	-12,157	-2,5134	-15,037	8,7832
66152	10,456	-1,9114	-10,137	8,6963
66153	11,119	-1,9481	-9,9243	8,9267
66154	10,72	-2,4733	-9,6289	8,8577
66155	11,	-2,2879	-8,5192	9,1161
66156	-12,165	-1,9732	-16,088	8,7882
66157	-11,522	-1,9518	-16,249	8,7432
66158	-11,719	-2,4812	-15,859	8,7438
66159	-12,827	-1,9764	-15,908	8,8527
66160	-13,495	-1,9605	-15,712	8,898
66161	-13,03	-2,5085	-15,524	8,8759
66162	2,2327	-1,9591	-5,3524	7,7913
66163	2,8629	-1,9722	-5,289	7,8603
66164	2,2633	-2,5398	-4,6142	7,9365
66165	2,5997	-2,3834	-5,0839	7,8747
66166	2,0673	-2,2693	-4,9016	7,8682
66167	-12,377	-1,9736	-16,759	8,8323
66168	-13,034	-1,9762	-16,577	8,8523
66169	-12,562	-2,5214	-16,386	8,8335
66170	1,9325	-1,8379	-6,1711	7,6097
66171	2,5941	-1,869	-6,1345	7,67
66172	2,2049	-2,318	-6,0451	7,6535
66173	2,214	-2,0912	-6,4244	7,5741
66174	1,9533	-2,2189	-5,3662	7,7664
66175	2,2356	-1,7423	-6,9506	7,4761
66176	1,6292	-1,941	-6,9961	7,4237
66177	1,7612	-2,3587	-6,8959	7,4544
66178	2,0277	-2,0205	-6,7785	7,4955
66179	-28,722	-1,9662	-5,6266	17,363
66180	-28,096	-2,142	-4,8051	21,22
66181	6,6389	-1,9169	45,016	18,074
66182	6,2793	-2,5797	44,824	19,721
66183	6,111	-2,0359	44,608	20,698
66184	6,2503	-2,3643	45,655	18,441
66185	-26,46	-2,0423	-6,8153	16,183
66186	-27,035	-1,8936	-6,5434	16,504
66187	-26,855	-2,6753	-6,5917	16,506
66188	-26,458	-2,672	-6,6463	16,572
66189	-26,688	-2,6705	-6,431	17,027
66190	-26,39	-2,3515	-6,0616	18,599
66191	-26,671	-2,3475	-5,944	18,739
66192	-26,873	-2,0873	-5,8174	18,889
66193	-28,038	-1,8298	-6,2868	16,475
66194	-28,445	-2,4448	-6,1452	16,604
66195	3,2243	-1,8821	-6,071	7,7426
66196	3,878	-1,8997	-6,1693	7,8018
66197	3,5034	-2,4126	-5,809	7,8251
66198	-26,272	-1,9778	-7,6852	14,348
66199	-26,789	-1,8469	-7,4471	14,631
66200	-25,848	-1,9224	-6,9951	15,903
66201	-26,142	-2,541	-7,1877	15,412
66202	-26,563	-2,5943	-7,1562	15,34
66203	2,8973	-1,7734	-6,914	7,5406
66204	3,5549	-1,7971	-6,8688	7,6257
66205	3,063	-2,3437	-6,7142	7,5986
66206	2,6894	-2,0515	-6,7419	7,5572
66207	2,5232	-1,8192	-7,7427	7,3474
66208	3,1726	-1,7717	-7,6861	7,4245
66209	2,8908	-2,2878	-7,1762	7,4895
66210	2,5171	-1,9956	-7,2039	7,4494
66211	1,9168	-2,0179	-7,7882	7,2915
66212	1,2837	-2,0382	-7,8358	7,2516
66213	1,6442	-2,5325	-7,3669	7,3545
66214	1,9107	-2,1943	-7,2494	7,3933
66215	-26,58	-1,9902	-8,4278	12,757
66216	-25,909	-1,9968	-8,6561	12,604
66217	-25,627	-1,9965	-8,0466	13,651
66218	-26,104	-2,5581	-8,1584	13,367
66219	2,0318	-1,9293	-8,5548	7,1714
66220	2,6948	-1,939	-8,4512	7,2417
66221	2,3962	-2,433	-8,089	7,2757
66222	2,3153	-2,0974	-7,5706	7,3602
66223	0,64111	-1,9222	-8,6658	7,0897
66224	1,3987	-1,9496	-8,6023	7,1293
66225	1,1369	-2,4392	-8,2764	7,1731
66226	0,89939	-2,2714	-9,4661	6,9723
66227	-0,22691	-1,9336	-9,3039	6,9884
66228	0,2516	-1,8738	-9,6726	6,9459
66229	0,798	-1,8547	-9,5964	6,9649
66230	0,32875	-2,4571	-9,0141	7,0257
66231	0,48531	-2,232	-9,9274	6,9114
66232	-0,50282	-1,9766	-9,8829	6,9254
66233	-1,0977	-1,9317	-9,728	6,9583
66234	-0,61201	-2,5433	-9,4515	6,976
66235	-2,4311e-002	-1,9167	-10,252	6,8905
66236	-0,69533	-1,9844	-10,525	6,8765
66237	-0,19221	-1,9148	-10,643	6,864
66238	-0,26729	-2,5076	-10,123	6,8998
66239	-1,2902	-1,9395	-10,37	6,9076
66240	-1,8809	-1,9352	-10,27	6,95
66241	-1,4115	-2,4951	-10,004	6,9444
66242	0,2854	-1,8509	-10,487	6,8751
66243	0,73888	-1,8517	-10,48	6,884
66244	0,38283	-2,4883	-10,01	6,9188
66245	0,50987	-2,223	-10,473	6,8704
66246	-1,4404	-2,0019	-11,067	6,8791
66247	-0,91924	-1,9129	-11,182	6,8546
66248	-0,99954	-2,5236	-10,768	6,8708
66249	0,5493	-1,7871	-11,029	6,8489
66250	0,1175	-1,849	-10,879	6,8528
66251	0,41141	-2,5069	-10,582	6,8717
66252	0,51911	-2,2092	-10,742	6,8535
66253	1,5556	-1,8821	-9,533	7,0059
66254	2,1887	-1,9551	-9,3241	7,0755
66255	1,8239	-2,4374	-9,0387	7,0873
66256	1,2429	-2,2594	-9,8639	6,9433
66257	-2,6372	-1,993	-10,865	6,977
66258	-2,031	-1,9975	-10,967	6,9203
66259	-2,1496	-2,5579	-10,605	6,9468
66260	1,2853	-1,8327	-10,403	6,9091
66261	1,8118	-1,9001	-10,281	6,9472
66262	1,4629	-2,4682	-10,14	6,9403
66263	1,0563	-2,2039	-10,397	6,8913
66264	-3,4553	-1,9546	-11,452	7,0537
66265	-2,81	-1,9991	-11,575	6,98
66266	-2,9265	-2,5672	-11,218	6,996
66267	1,0028	-1,7879	-11,021	6,8622
66268	1,5449	-1,8971	-11,012	6,8888
66269	1,2884	-2,46	-10,858	6,8783
66270	0,97259	-2,21	-10,734	6,8665
66271	-4,2444	-1,958	-12,059	7,1681
66272	-3,6793	-1,9021	-12,149	7,0933
66273	-3,8013	-2,4784	-11,789	7,1003
66274	-2,2038	-2,0036	-11,676	6,9244
66275	-1,5583	-1,9761	-11,776	6,8832
66276	-1,7621	-2,5256	-11,378	6,8922
66277	0,5492	-1,7568	-11,599	6,8395
66278	1,0945	-1,7826	-11,638	6,8562
66279	0,91462	-2,4154	-11,418	6,8474
66280	0,77378	-2,1592	-11,014	6,8462
66281	4,8457	-1,8066	-7,0144	7,7825
66282	4,2087	-1,8147	-6,9671	7,6934
66283	4,5597	-2,1756	-6,6767	7,8034
66284	0,1174	-1,8187	-11,449	6,8378
66285	-0,41612	-1,8432	-11,3	6,843
66286	3,8378e-002	-2,4845	-10,848	6,854
66287	0,34198	-2,2211	-10,864	6,8462
66288	-2,4013	-1,9972	-12,39	6,9657
66289	-3,0341	-1,9466	-12,272	7,0208
66290	-2,5424	-2,5119	-11,997	6,9608
66291	9,4181e-002	-1,7641	-12,198	6,8502
66292	0,59209	-1,8084	-12,3	6,862
66293	0,4164	-2,4509	-12,037	6,8488
66294	0,51901	-2,1788	-11,312	6,8334
66295	-0,43935	-1,7887	-12,05	6,848
66296	-1,0372	-1,8871	-11,891	6,862
66297	-0,63891	-2,493	-11,421	6,8428
66298	-1,4519e-002	-2,2034	-11,163	6,8313
66299	5,6209	-1,7208	-7,7066	7,7974
66300	5,0493	-1,7096	-7,6417	7,7025
66301	5,5516	-2,488	-7,3236	7,8536
66302	5,5279	-2,088	-7,2338	7,866
66303	-0,61864	-1,8108	-12,805	6,8974
66304	0,15054	-1,7352	-12,993	6,9103
66305	2,9494e-002	-2,4598	-12,643	6,8782
66306	0,31875	-2,1665	-11,614	6,8286
66307	-1,2165	-1,9093	-12,646	6,907
66308	-1,7558	-1,9697	-12,49	6,9249
66309	-1,2239	-2,6101	-12,067	6,8759
66310	-0,27913	-2,265	-11,455	6,8292
66311	-4,4012	-1,995	-12,78	7,2297
66312	-5,037	-1,9583	-12,659	7,3199
66313	-4,5199	-2,5709	-12,435	7,2259
66314	5,7201	-1,7342	-8,3274	7,7151
66315	6,2422	-1,7019	-8,3102	7,8269
66316	5,8581	-2,4602	-7,65	7,8567
66317	5,8345	-2,0602	-7,5602	7,8671
66318	-1,4972	-1,9242	-13,345	6,9911
66319	-1,0923	-1,8754	-13,504	6,9948
66320	-0,99647	-2,6103	-13,162	6,9468
66321	-2,0364	-1,9847	-13,189	7,0072
66322	-2,6077	-1,9883	-13,086	7,0411
66323	-2,1747	-2,5173	-12,807	6,9777
66324	4,4123	-1,7177	-7,5945	7,6075
66325	3,8302	-1,7954	-7,6409	7,5134
66326	4,1415	-2,2889	-7,5584	7,5727
66327	4,3224	-2,0098	-7,8724	7,541
66328	-2,2389	-1,9846	-13,87	7,1164
66329	-1,7012	-1,9001	-13,933	7,0916
66330	-1,8259	-2,5085	-13,591	7,0463
66331	5,1485	-1,723	-8,2625	7,6151
66332	4,4825	-1,7685	-8,371	7,4836
66333	4,9069	-2,4408	-8,1702	7,5885
66334	4,6944	-1,9626	-8,1811	7,5506
66335	3,9004	-1,8462	-8,4174	7,3889
66336	3,3441	-1,8915	-8,3946	7,3209
66337	3,9313	-2,3194	-7,9136	7,4802
66338	4,1123	-2,0404	-8,2275	7,4526
66339	5,3676	-1,8023	-8,9889	7,5467
66340	5,8925	-1,8517	-8,9105	7,6613
66341	5,2711	-2,4932	-8,5296	7,5963
66342	5,0586	-2,015	-8,5404	7,5562
66343	4,7016	-1,8479	-9,0973	7,4139
66344	4,0247	-1,9121	-9,157	7,2998
66345	4,3427	-2,3538	-8,8312	7,3918
66346	4,3926	-2,0606	-8,6489	7,4271
66347	-3,2405	-1,9377	-12,968	7,0946
66348	-3,836	-1,9391	-12,87	7,1574
66349	-3,3974	-2,4579	-12,588	7,0815
66350	-2,8102	-1,9882	-13,767	7,1491
66351	-3,3941	-1,9892	-13,675	7,1948
66352	-2,9646	-2,5064	-13,383	7,1108
66353	6,4146	-1,8194	-8,8933	7,7758
66354	7,0664	-1,7621	-8,9043	7,9247
66355	6,5658	-2,3127	-8,3326	7,8944
66356	6,1492	-2,069	-7,8374	7,8779
66357	-3,0021	-1,988	-14,459	7,2864
66358	-2,4257	-1,9885	-14,545	7,2552
66359	-2,5809	-2,5133	-14,166	7,1948
66360	5,5159	-1,861	-9,6958	7,4889
66361	4,9264	-1,8887	-9,746	7,3749
66362	5,1402	-2,4435	-9,3085	7,4649
66363	4,9136	-2,042	-8,9074	7,4751
66364	-3,9897	-1,9906	-13,578	7,2548
66365	-4,6239	-1,9444	-13,471	7,328
66366	-4,1553	-2,5085	-13,195	7,2319
66367	6,0408	-1,9104	-9,6174	7,6027
66368	6,6912	-1,9277	-9,4977	7,7591
66369	6,2675	-2,4374	-9,1518	7,7089
66370	3,4684	-1,9574	-9,1342	7,2279
66371	2,8516	-1,9648	-9,2206	7,1463
66372	3,1428	-2,4602	-8,7942	7,2362
66373	-19,962	-2,011	-4,0795	15,331
66374	-19,351	-2,0013	-4,4248	14,496
66375	-19,609	-2,5315	-3,8886	14,972
66376	5,6083	-1,9261	-10,4	7,4427
66377	6,2324	-1,8901	-10,336	7,5743
66378	5,8236	-2,4307	-9,9809	7,5214
66379	-20,218	-2,0101	-4,7004	15,218
66380	-20,406	-2,5162	-4,1951	15,825
66381	4,2495	-1,9529	-9,8056	7,2577
66382	3,6454	-1,9677	-9,8791	7,1643
66383	3,8797	-2,4633	-9,4891	7,2389
66384	-3,5861	-1,989	-14,368	7,3307
66385	-4,2137	-1,9402	-14,269	7,3865
66386	-3,7449	-2,5123	-13,985	7,2831
66387	-5,2597	-1,9077	-13,349	7,4154
66388	-5,8738	-1,9164	-13,222	7,5073
66389	-5,3659	-2,5227	-13,	7,4009
66390	-3,8085	-1,932	-15,061	7,4946
66391	-3,1819	-1,9942	-15,152	7,4542
66392	-3,3593	-2,5007	-14,767	7,3852
66393	-4,8479	-1,894	-14,162	7,4577
66394	-5,4301	-1,9401	-14,054	7,5281
66395	-4,9871	-2,4626	-13,782	7,4232
66396	2,4449	-1,9731	-10,072	7,0129
66397	3,0286	-1,9752	-9,9655	7,0822
66398	2,6748	-2,5188	-9,6504	7,0788
66399	-5,0156	-1,9329	-14,855	7,6016
66400	-4,4361	-1,8832	-14,961	7,5489
66401	-4,5855	-2,4469	-14,572	7,4911
66402	5,0188	-1,9538	-10,45	7,3289
66403	4,3864	-1,932	-10,528	7,2182
66404	4,6406	-2,4591	-10,148	7,2879
66405	2,6369	-1,9766	-10,793	6,9802
66406	2,0714	-1,9645	-10,889	6,9268
66407	2,2927	-2,4908	-10,517	6,9643
66408	5,1775	-1,9341	-11,159	7,3223
66409	5,8219	-1,9611	-11,057	7,4469
66410	5,4204	-2,4721	-10,759	7,3843
66411	-6,6865	-1,9196	-13,791	7,712
66412	-6,0442	-1,9487	-13,927	7,615
66413	-6,183	-2,5171	-13,562	7,5977
66414	3,2206	-1,9787	-10,687	7,0487
66415	3,7823	-1,9468	-10,602	7,1251
66416	3,434	-2,4915	-10,297	7,1005
66417	-6,856	-1,9543	-14,493	7,8331
66418	-7,5037	-1,9248	-14,348	7,9273
66419	-7,0105	-2,5117	-14,117	7,8118
66420	3,4022	-1,978	-11,403	7,0474
66421	2,816	-1,9759	-11,484	6,9808
66422	3,0455	-2,4924	-11,103	7,0118
66423	-6,2137	-1,9834	-14,629	7,742
66424	-5,5978	-1,9789	-14,747	7,6679
66425	-5,7778	-2,4947	-14,359	7,6311
66426	7,9917	-1,8131	-9,4465	8,0859
66427	7,343	-1,8704	-9,5087	7,9137
66428	7,5761	-2,3955	-8,9757	8,0415
66429	-6,4021	-1,9899	-15,316	7,8963
66430	-7,0294	-1,9903	-15,186	7,9672
66431	-6,5879	-2,5023	-14,924	7,8546
66432	4,5451	-1,9124	-11,238	7,2122
66433	3,9639	-1,9462	-11,318	7,1231
66434	4,1859	-2,4592	-10,936	7,1668
66435	-5,7862	-1,9854	-15,434	7,8267
66436	-5,1726	-1,9806	-15,549	7,7717
66437	-5,356	-2,4925	-15,158	7,7114
66438	8,8649	-1,8703	-9,868	8,271
66439	8,1932	-1,8436	-10,052	8,0695
66440	8,4249	-2,353	-9,4871	8,1984
66441	8,71	-2,0654	-9,3676	8,2896
66442	-5,9688	-1,9936	-16,124	8,0094
66443	-6,5984	-1,9888	-15,999	8,0607
66444	-6,1597	-2,5001	-15,73	7,9451
66445	9,0838	-1,9453	-10,457	8,2676
66446	9,7741	-1,9254	-10,319	8,472
66447	9,3014	-2,4605	-9,9436	8,3876
66448	9,1675	-2,1231	-9,5637	8,3878
66449	4,7362	-1,907	-11,946	7,2424
66450	5,3562	-1,9082	-11,855	7,3468
66451	4,9968	-2,461	-11,554	7,2836
66452	3,5833	-1,9782	-12,11	7,0793
66453	4,155	-1,9408	-12,026	7,1539
66454	3,8142	-2,4924	-11,725	7,101
66455	-18,986	-1,9896	-5,3691	13,784
66456	-19,607	-2,0004	-5,0457	14,471
66457	-19,209	-2,506	-4,8725	14,235
66458	-4,5931	-1,9309	-15,656	7,723
66459	-3,983	-1,9357	-15,76	7,6839
66460	-4,168	-2,4458	-15,367	7,6069
66461	-19,258	-1,9918	-5,9954	13,626
66462	-18,591	-1,9562	-6,3186	13,034
66463	-18,854	-2,4928	-5,8155	13,479
66464	-19,879	-2,0026	-5,672	14,259
66465	-20,482	-2,0089	-5,3563	15,099
66466	-20,079	-2,511	-5,1712	14,805
66467	-5,3553	-1,9888	-16,239	7,9587
66468	-4,7384	-1,9908	-16,351	7,9218
66469	-4,9257	-2,5004	-15,957	7,839
66470	-19,485	-1,9725	-6,6461	13,33
66471	-20,146	-2,0062	-6,3074	14,
66472	-19,745	-2,5064	-6,122	13,866
66473	-5,5305	-1,9985	-16,933	8,1684
66474	-6,1546	-2,	-16,81	8,1992
66475	-5,7231	-2,5068	-16,535	8,0816
66476	-18,193	-1,9259	-7,2375	12,345
66477	-18,817	-1,9369	-6,9693	12,777
66478	-18,461	-2,4605	-6,7534	12,738
66479	-4,9136	-2,0006	-17,044	8,1352
66480	-5,7195	-1,9926	-17,621	8,3829
66481	-5,0957	-1,9978	-17,738	8,3703
66482	-5,2784	-2,5178	-17,342	8,2626
66483	-18,461	-1,9317	-7,8566	12,109
66484	-17,889	-1,9467	-8,0957	11,777
66485	-18,128	-2,4622	-7,6408	12,109
66486	-19,085	-1,9428	-7,5885	12,52
66487	-19,761	-1,9789	-7,2639	13,036
66488	-19,342	-2,4714	-7,0762	12,971
66489	-4,1282	-1,9957	-16,455	7,8864
66490	-4,3075	-1,9923	-17,149	8,1161
66491	-4,487	-2,5125	-16,758	8,0123
66492	-18,758	-1,9383	-8,4708	11,871
66493	-19,412	-1,9695	-8,1589	12,271
66494	-19,029	-2,4758	-7,9845	12,254
66495	2,2505	-1,9638	-11,58	6,9282
66496	1,6366	-1,8918	-11,629	6,8843
66497	1,9315	-2,4751	-11,316	6,9054
66498	-3,3564	-1,9979	-15,851	7,6456
66499	-3,5289	-1,9938	-16,548	7,8632
66500	-3,7072	-2,5122	-16,162	7,7657
66501	2,9971	-1,976	-12,191	7,0133
66502	2,3586	-1,9233	-12,257	6,9549
66503	2,6504	-2,4877	-11,897	6,9683
66504	1,7447	-1,8513	-12,305	6,911
66505	1,1374	-1,8342	-12,339	6,8804
66506	1,4777	-2,4111	-12,025	6,883
66507	3,7743	-1,9817	-12,814	7,1446
66508	3,1724	-1,9788	-12,895	7,0803
66509	3,414	-2,4978	-12,517	7,0787
66510	-8,3156	-1,9598	-14,896	8,141
66511	-7,6771	-1,9608	-15,042	8,0551
66512	-7,8388	-2,5077	-14,66	8,0305
66513	2,5338	-1,926	-12,961	7,0217
66514	1,9338	-1,927	-13,028	6,9817
66515	2,1918	-2,4384	-12,663	6,967
66516	-9,14	-1,994	-15,427	8,3443
66517	-8,4946	-1,9961	-15,582	8,269
66518	-8,668	-2,5339	-15,198	8,2439
66519	-27,364	-1,6981	-7,1753	14,986
66520	-27,588	-2,3461	-6,6783	15,906
66521	4,346	-1,9443	-12,73	7,218
66522	4,9294	-1,9061	-12,637	7,3012
66523	4,6124	-2,5109	-12,352	7,2361
66524	-9,992	-1,9918	-15,937	8,5287
66525	-9,3407	-1,996	-16,103	8,4677
66526	-9,542	-2,5053	-15,701	8,4442
66527	-2,6056	-1,9947	-15,237	7,4242
66528	-2,7656	-2,0035	-15,933	7,6219
66529	-2,9389	-2,5283	-15,554	7,5325
66530	3,9577	-1,9832	-13,517	7,2428
66531	4,5691	-1,9867	-13,426	7,315
66532	4,2006	-2,504	-13,134	7,2321
66533	1,3265	-1,91	-13,062	6,9487
66534	0,64845	-1,7795	-13,095	6,9282
66535	1,0069	-2,4332	-12,744	6,9038
66536	-1,8881	-1,904	-14,607	7,2301
66537	-2,0351	-1,9886	-15,31	7,4048
66538	-2,2046	-2,5171	-14,942	7,3257
66539	3,3558	-1,9803	-13,598	7,1797
66540	2,7526	-1,9793	-13,677	7,1305
66541	3,0009	-2,4945	-13,3	7,1045
66542	-1,2963	-1,8513	-14,091	7,0985
66543	-1,3523	-1,9132	-14,679	7,2194
66544	-1,516	-2,4413	-14,332	7,1531
66545	3,5335	-1,9816	-14,302	7,3127
66546	4,1458	-1,9839	-14,213	7,3685
66547	3,7831	-2,5018	-13,92	7,2776
66548	-0,32312	-1,7998	-13,692	7,0008
66549	-0,83504	-1,8853	-14,219	7,1095
66550	-0,96192	-2,601	-13,91	7,0577
66551	2,1525	-1,9804	-13,744	7,0896
66552	1,5562	-1,9727	-13,811	7,0637
66553	1,8095	-2,4926	-13,438	7,0228
66554	0,87818	-1,8421	-13,844	7,0389
66555	0,31274	-1,7603	-13,977	7,0512
66556	0,5656	-2,3769	-13,502	6,9781
66557	2,3312	-1,9828	-14,46	7,2307
66558	2,9303	-1,9806	-14,381	7,2648
66559	2,5784	-2,496	-14,082	7,18
66560	-27,096	-1,8593	-8,1897	13,061
66561	-27,344	-2,3941	-7,7714	13,762
66562	1,7349	-1,9751	-14,527	7,2047
66563	1,1421	-1,9121	-14,576	7,1881
66564	1,3899	-2,4858	-14,215	7,1262
66565	-10,862	-1,9689	-16,43	8,6818
66566	-10,197	-1,9894	-16,612	8,6386
66567	-10,405	-2,4943	-16,204	8,6157
66568	2,4966	-1,9835	-15,165	7,3981
66569	1,8885	-1,9871	-15,25	7,381
66570	2,1502	-2,498	-14,868	7,3049
66571	-11,067	-1,9685	-17,105	8,7714
66572	-11,734	-1,9522	-16,92	8,7927
66573	-11,277	-2,4749	-16,696	8,7501
66574	3,0957	-1,9813	-15,087	7,4309
66575	3,7116	-1,9778	-15,003	7,4714
66576	3,3497	-2,493	-14,707	7,3716
66577	7,5445	-1,9009	-10,114	7,8961
66578	6,8828	-1,9073	-10,217	7,7291
66579	7,1014	-2,4687	-9,7044	7,8325
66580	-26,719	-1,9715	-8,9875	11,829
66581	-26,948	-2,476	-8,5755	12,411
66582	2,639	-2,0025	-15,888	7,6
66583	3,2417	-1,9449	-15,789	7,619
66584	2,8985	-2,4924	-15,492	7,5136
66585	8,4121	-1,9186	-10,641	8,0696
66586	7,7434	-1,8842	-10,808	7,8899
66587	7,9774	-2,4204	-10,343	7,9864
66588	9,2902	-1,9449	-11,115	8,2629
66589	8,6144	-1,97	-11,249	8,0804
66590	8,8299	-2,5075	-10,788	8,1684
66591	0,57662	-1,8302	-14,709	7,201
66592	-0,19919	-1,8457	-14,504	7,1554
66593	3,4474e-002	-1,9099	-14,823	7,227
66594	0,26901	-2,4929	-14,37	7,1263
66595	-26,048	-1,9781	-9,2158	11,661
66596	-26,287	-1,9644	-9,8346	10,714
66597	-26,495	-2,4848	-9,4296	11,211
66598	-17,554	-1,936	-8,9407	11,261
66599	-18,187	-1,9533	-8,7099	11,554
66600	-17,906	-2,5138	-8,4843	11,591
66601	1,2956	-1,9241	-15,299	7,364
66602	0,68403	-1,9194	-15,364	7,3634
66603	1,0007	-2,494	-14,993	7,2779
66604	-17,841	-1,9406	-9,5623	11,035
66605	-17,187	-1,9409	-9,786	10,787
66606	-17,421	-2,4465	-9,3634	11,031
66607	2,0308	-2,0061	-15,973	7,5846
66608	1,391	-1,9866	-16,053	7,58
66609	1,6605	-2,5207	-15,672	7,4816
66610	-25,377	-1,9635	-9,4236	11,591
66611	-25,126	-1,9869	-8,8394	12,447
66612	-25,562	-2,5002	-9,0509	12,065
66613	-18,474	-1,9579	-9,3315	11,317
66614	-19,113	-1,9564	-9,0994	11,586
66615	-18,692	-2,4646	-8,875	11,623
66616	-25,615	-1,9498	-10,042	10,633
66617	-24,929	-1,9672	-10,28	10,614
66618	-24,733	-1,9161	-9,5951	11,463
66619	-25,14	-2,4711	-9,8805	11,024
66620	-18,801	-1,9873	-9,9607	11,038
66621	-18,142	-1,9849	-10,187	10,821
66622	-18,378	-2,4908	-9,7544	11,078
66623	-25,824	-1,9805	-10,718	9,7346
66624	-26,041	-2,4935	-10,313	10,137
66625	-19,7	-1,993	-10,36	10,935
66626	-19,052	-1,9902	-10,603	10,751
66627	-19,441	-1,9858	-9,7286	11,295
66628	-19,29	-2,498	-10,175	11,013
66629	-24,471	-1,9835	-11,139	9,8145
66630	-25,138	-1,9978	-10,955	9,7098
66631	-24,244	-1,9987	-10,532	10,48
66632	-24,669	-2,5265	-10,79	10,1
66633	9,9806	-1,925	-10,978	8,4637
66634	10,67	-1,9374	-10,787	8,6752
66635	10,159	-2,4913	-10,512	8,561
66636	-24,017	-1,973	-11,967	9,2007
66637	-24,694	-1,9713	-11,762	9,0608
66638	-23,797	-1,9875	-11,349	9,8056
66639	-24,227	-2,5136	-11,609	9,4338
66640	-25,361	-1,9857	-11,578	8,9617
66641	-25,575	-2,517	-11,201	9,258
66642	-20,606	-1,9826	-10,77	10,724
66643	-19,944	-1,9748	-10,99	10,6
66644	-20,355	-2,	-10,145	11,152
66645	-20,196	-2,5051	-10,644	10,809
66646	-21,536	-1,9769	-11,22	10,375
66647	-20,862	-1,9721	-11,42	10,325
66648	-21,347	-1,9775	-10,543	10,898
66649	-21,104	-2,5062	-11,069	10,538
66650	9,4915	-1,9286	-11,785	8,2792
66651	10,173	-1,9394	-11,61	8,4635
66652	9,6963	-2,4932	-11,327	8,3607
66653	-22,452	-1,9792	-11,689	9,883
66654	-21,775	-1,9795	-11,881	9,909
66655	-22,241	-1,985	-11,075	10,42
66656	-21,99	-2,5005	-11,534	10,108
66657	-17,488	-1,9853	-10,41	10,582
66658	-16,834	-1,9847	-10,614	10,381
66659	-17,06	-2,4943	-10,209	10,585
66660	-7,8562	-1,997	-15,728	8,1893
66661	-7,2256	-1,9893	-15,869	8,1266
66662	-7,4156	-2,5019	-15,471	8,0814
66663	-18,393	-1,9878	-10,829	10,543
66664	-17,733	-1,99	-11,037	10,377
66665	-17,961	-2,4973	-10,626	10,587
66666	-23,342	-1,9777	-12,162	9,2588
66667	-22,669	-1,9797	-12,358	9,3586
66668	-23,123	-1,9921	-11,543	9,8642
66669	-22,884	-2,4987	-11,991	9,5641
66670	-8,0502	-2,0015	-16,407	8,3455
66671	-8,6954	-1,9981	-16,258	8,3985
66672	-8,2502	-2,5055	-16,008	8,2999
66673	-19,296	-1,972	-11,233	10,425
66674	-18,628	-1,9877	-11,464	10,289
66675	-18,857	-2,494	-11,055	10,498
66676	-24,227	-1,9781	-12,628	8,495
66677	-23,551	-1,9794	-12,83	8,6797
66678	-23,772	-2,497	-12,441	8,8865
66679	-24,904	-1,9764	-12,423	8,3581
66680	-25,123	-2,5085	-12,039	8,5976
66681	-7,4196	-1,9939	-16,549	8,2884
66682	-6,7841	-1,9953	-16,685	8,2458
66683	-6,9811	-2,5005	-16,286	8,1786
66684	-24,438	-1,98	-13,292	7,8599
66685	-24,663	-2,4931	-12,886	8,0623
66686	-7,6071	-2,002	-17,231	8,4683
66687	-8,2536	-1,9946	-17,087	8,4994
66688	-7,8067	-2,5092	-16,828	8,3998
66689	-9,5457	-1,9936	-16,777	8,5837
66690	-8,8988	-1,9911	-16,938	8,5467
66691	-9,0993	-2,5028	-16,53	8,4998
66692	7,0816	-1,8906	-10,91	7,7243
66693	6,4459	-1,9251	-10,994	7,5795
66694	6,6701	-2,4282	-10,573	7,6537
66695	-10,401	-1,9891	-17,287	8,7345
66696	-9,7525	-1,9862	-17,452	8,7157
66697	-9,9546	-2,4968	-17,044	8,6703
66698	7,9458	-1,9356	-11,416	7,9049
66699	7,2933	-1,9315	-11,548	7,7486
66700	7,5208	-2,4398	-11,122	7,8177
66701	-6,9716	-2,0034	-17,367	8,4307
66702	-6,3435	-1,9941	-17,499	8,4097
66703	-6,5005	-2,545	-17,111	8,3199
66704	8,8157	-1,9537	-11,918	8,1008
66705	8,1554	-1,9792	-12,049	7,9415
66706	8,3815	-2,5189	-11,607	8,0068
66707	-7,8076	-1,9966	-17,91	8,643
66708	-7,1639	-1,9988	-18,053	8,6344
66709	-7,3332	-2,5363	-17,661	8,5454
66710	9,0127	-1,9584	-12,58	8,1425
66711	9,6819	-1,9396	-12,43	8,301
66712	9,2334	-2,4962	-12,148	8,2014
66713	-8,454	-1,9892	-17,766	8,6692
66714	-9,1056	-1,9838	-17,613	8,6842
66715	-8,6549	-2,4969	-17,361	8,6014
66716	-10,606	-1,9847	-17,964	8,845
66717	-11,258	-1,9882	-17,792	8,8418
66718	-10,814	-2,4928	-17,552	8,8017
66719	-8,6734	-1,9635	-18,44	8,8257
66720	-8,0075	-1,9886	-18,591	8,8328
66721	-8,2071	-2,4992	-18,186	8,745
66722	-9,3249	-1,9582	-18,287	8,8362
66723	-9,9574	-1,9819	-18,13	8,8316
66724	-9,5042	-2,4952	-17,885	8,77
66725	-0,38304	-1,9537	-14,859	7,2411
66726	-0,89095	-1,9472	-14,807	7,2354
66727	-0,59256	-2,5769	-14,392	7,1398
66728	-9,5416	-1,9386	-18,96	8,9683
66729	-8,8884	-1,9344	-19,112	8,9942
66730	-9,0747	-2,4678	-18,713	8,9107
66731	-20,2	-1,9643	-11,64	10,207
66732	-19,524	-1,9746	-11,878	10,118
66733	-19,748	-2,4833	-11,475	10,325
66734	-10,174	-1,9623	-18,803	8,9593
66735	-10,808	-1,9849	-18,643	8,9338
66736	-10,364	-2,4893	-18,396	8,8968
66737	-21,1	-1,9747	-12,08	9,8635
66738	-20,42	-1,985	-12,315	9,8353
66739	-20,638	-2,492	-11,919	10,033
66740	0,14189	-1,9991	-15,477	7,3922
66741	-0,43149	-2,0069	-15,48	7,395
66742	-0,18721	-2,6184	-14,976	7,2675
66743	-21,992	-1,9799	-12,55	9,3862
66744	-21,311	-1,9923	-12,772	9,4324
66745	-21,533	-2,4999	-12,378	9,6223
66746	-11,925	-1,9718	-17,607	8,8571
66747	-12,592	-1,9562	-17,41	8,8527
66748	-12,137	-2,4796	-17,198	8,8379
66749	-22,878	-1,9814	-13,027	8,7794
66750	-22,204	-1,9814	-13,224	8,9134
66751	-22,424	-2,4992	-12,84	9,0877
66752	-10,39	-1,9447	-19,474	9,0621
66753	-9,7213	-1,962	-19,64	9,1122
66754	-9,9297	-2,4669	-19,229	9,0307
66755	0,7794	-1,9819	-16,117	7,5805
66756	0,11649	-1,9749	-16,136	7,5781
66757	0,49621	-2,5544	-15,793	7,4798
66758	2,3285	-2,0728	-16,85	7,8776
66759	2,811	-2,0145	-16,603	7,8232
66760	2,2991	-2,5193	-16,195	7,6668
66761	1,6886	-2,0534	-16,929	7,8706
66762	0,84527	-1,8693	-16,841	7,8184
66763	1,0485	-2,6052	-16,472	7,6999
66764	-11,46	-1,9884	-18,471	8,9257
66765	-12,115	-1,9913	-18,292	8,8974
66766	-11,669	-2,4961	-18,057	8,8853
66767	2,5182	-2,0691	-17,559	8,1311
66768	1,8644	-2,0487	-17,676	8,1466
66769	1,8856	-2,7932	-17,391	8,0437
66770	-11,024	-1,9673	-19,314	9,0327
66771	-11,657	-1,9926	-19,149	8,9833
66772	-11,214	-2,495	-18,908	8,9748
66773	-23,762	-1,9813	-13,494	8,0425
66774	-23,086	-1,9817	-13,697	8,2582
66775	-23,312	-2,4968	-13,295	8,4293
66776	-10,569	-1,967	-20,156	9,178
66777	-11,222	-1,9706	-19,988	9,1044
66778	-10,778	-2,4728	-19,744	9,1009
66779	-23,972	-1,9816	-14,159	7,4692
66780	-24,199	-2,4937	-13,748	7,6293
66781	-6,5359	-1,9894	-18,185	8,6176
66782	-5,9115	-1,9837	-18,311	8,6157
66783	-6,0682	-2,533	-17,921	8,5071
66784	6,6576	-1,966	-11,632	7,6045
66785	6,0006	-1,9352	-11,753	7,4694
66786	6,2522	-2,4754	-11,336	7,5264
66787	-7,3638	-1,9908	-18,734	8,8284
66788	-6,726	-1,9904	-18,871	8,8407
66789	-6,917	-2,5069	-18,47	8,7324
66790	7,503	-1,9751	-12,181	7,7885
66791	6,8605	-1,9752	-12,311	7,6525
66792	7,091	-2,4811	-11,895	7,6986
66793	-7,5629	-1,9857	-19,416	9,0359
66794	-8,2225	-1,9595	-19,263	9,0052
66795	-7,7619	-2,4947	-19,011	8,9295
66796	8,3524	-1,9839	-12,711	7,9877
66797	7,685	-1,9502	-12,861	7,8471
66798	7,9424	-2,5262	-12,424	7,8929
66799	6,2035	-1,9444	-12,432	7,5205
66800	5,5494	-1,9073	-12,546	7,404
66801	5,8121	-2,4585	-12,143	7,4377
66802	8,5351	-1,9591	-13,387	8,0553
66803	9,2045	-1,9878	-13,23	8,1914
66804	8,783	-2,5276	-12,957	8,0943
66805	7,0426	-1,9503	-12,991	7,7158
66806	6,4252	-1,981	-13,109	7,603
66807	6,6608	-2,494	-12,702	7,6251
66808	7,8678	-1,9255	-13,537	7,9208
66809	7,2144	-1,9196	-13,673	7,8038
66810	7,4764	-2,4655	-13,258	7,8241
66811	-1,4993	-1,9979	-15,382	7,3951
66812	-0,93941	-2,0003	-15,428	7,3877
66813	-1,1439	-2,5263	-15,084	7,3065
66814	-17,079	-1,9894	-11,24	10,183
66815	-16,415	-1,9877	-11,432	10,019
66816	-16,642	-2,4991	-11,038	10,191
66817	8,0583	-1,9309	-14,209	8,0203
66818	8,7149	-1,9375	-14,063	8,1317
66819	8,3166	-2,4698	-13,793	8,0348
66820	-17,967	-1,9899	-11,672	10,13
66821	-17,301	-1,9901	-11,869	10,001
66822	-17,536	-2,5205	-11,486	10,169
66823	-2,1952	-1,9975	-16,005	7,6034
66824	-1,6117	-1,9902	-16,068	7,5934
66825	-1,8039	-2,5154	-15,701	7,4965
66826	5,7712	-1,9439	-13,224	7,4893
66827	5,1525	-1,9485	-13,333	7,3965
66828	5,4177	-2,5054	-12,944	7,4061
66829	-18,855	-1,9902	-12,109	9,9899
66830	-18,194	-1,9622	-12,283	9,9157
66831	-18,412	-2,5161	-11,928	10,069
66832	6,5971	-1,9503	-13,791	7,6958
66833	5,9936	-1,9847	-13,911	7,6044
66834	6,2566	-2,5374	-13,512	7,6063
66835	-19,743	-1,9952	-12,554	9,7527
66836	-19,079	-1,9708	-12,725	9,7319
66837	-19,289	-2,5185	-12,384	9,8744
66838	7,4049	-1,925	-14,345	7,9088
66839	6,7651	-1,9195	-14,475	7,8148
66840	7,0506	-2,5025	-14,074	7,8143
66841	-20,631	-2,0026	-13,007	9,409
66842	-19,959	-1,9998	-13,206	9,4343
66843	-20,172	-2,5268	-12,839	9,583
66844	7,5993	-1,9297	-15,025	8,0395
66845	8,2511	-1,9357	-14,883	8,1279
66846	7,8809	-2,504	-14,618	8,0328
66847	-21,523	-1,9938	-13,447	8,9622
66848	-20,85	-1,9903	-13,634	9,0559
66849	-21,064	-2,5315	-13,291	9,185
66850	-2,9381	-1,9994	-16,629	7,841
66851	-2,3455	-1,9945	-16,704	7,8296
66852	-2,5283	-2,5169	-16,328	7,7217
66853	5,375	-1,9892	-14,02	7,5146
66854	4,7571	-1,9874	-14,122	7,4384
66855	4,9995	-2,503	-13,73	7,4185
66856	-3,7082	-1,9905	-17,242	8,095
66857	-3,1463	-1,9345	-17,329	8,088
66858	-3,2845	-2,5129	-16,944	7,9687
66859	6,1617	-1,9539	-14,594	7,7284
66860	5,5646	-1,9901	-14,713	7,657
66861	5,8071	-2,503	-14,315	7,6294
66862	-22,412	-1,9816	-13,894	8,3922
66863	-21,739	-1,9807	-14,089	8,5542
66864	-21,958	-2,5178	-13,718	8,6864
66865	6,9595	-1,9242	-15,154	7,9507
66866	6,351	-1,9497	-15,28	7,8818
66867	6,595	-2,4639	-14,878	7,8481
66868	7,1793	-1,9546	-15,838	8,1139
66869	7,7988	-1,9337	-15,702	8,1765
66870	7,4208	-2,4655	-15,432	8,0755
66871	-23,295	-1,982	-14,363	7,6834
66872	-22,619	-1,9819	-14,564	7,9223
66873	-22,845	-2,5157	-14,172	8,0515
66874	-4,4897	-1,9895	-17,844	8,3539
66875	-3,9217	-1,935	-17,945	8,3534
66876	-4,0245	-2,5483	-17,557	8,2264
66877	-23,505	-1,9819	-15,026	7,1659
66878	-23,73	-2,5111	-14,619	7,2868
66879	-5,2877	-1,9889	-18,428	8,6062
66880	-4,7031	-1,9428	-18,542	8,614
66881	-4,8189	-2,5444	-18,15	8,4851
66882	-6,1016	-1,9847	-18,997	8,8422
66883	-5,5063	-1,9437	-19,119	8,86
66884	-5,6274	-2,534	-18,73	8,7333
66885	-15,973	-1,9549	-12,218	9,7156
66886	-16,637	-1,9884	-12,061	9,842
66887	-16,198	-2,502	-11,857	9,8506
66888	-6,925	-1,9854	-19,553	9,0516
66889	-6,318	-1,9488	-19,683	9,0832
66890	-6,4831	-2,4933	-19,286	8,9583
66891	-15,523	-1,9326	-13,01	9,4597
66892	-16,186	-1,9542	-12,851	9,5624
66893	-15,73	-2,4952	-12,665	9,5653
66894	-7,7573	-1,9855	-20,1	9,2259
66895	-7,1198	-1,9837	-20,241	9,2759
66896	-7,3162	-2,4936	-19,836	9,152
66897	-15,728	-1,9677	-13,679	9,3243
66898	-15,067	-1,9492	-13,839	9,2447
66899	-15,273	-2,5045	-13,491	9,3289
66900	4,9467	-1,9882	-14,815	7,5842
66901	4,3238	-1,9801	-14,913	7,5248
66902	4,5735	-2,4998	-14,524	7,4808
66903	-16,85	-1,9877	-12,694	9,6847
66904	-17,528	-1,9623	-12,48	9,7917
66905	-17,077	-2,4966	-12,3	9,8278
66906	-16,391	-1,9894	-13,521	9,4225
66907	-17,069	-1,9648	-13,31	9,5019
66908	-16,607	-2,5206	-13,145	9,534
66909	-16,609	-1,9727	-14,143	9,2651
66910	-15,931	-1,994	-14,359	9,2107
66911	-16,143	-2,5225	-13,981	9,2981
66912	5,754	-1,9858	-15,399	7,8149
66913	5,1263	-1,9815	-15,51	7,757
66914	5,3768	-2,5023	-15,117	7,7062
66915	4,5034	-1,9734	-15,608	7,7008
66916	3,8576	-1,9415	-15,705	7,6569
66917	4,1345	-2,4894	-15,317	7,5914
66918	-17,747	-1,9394	-13,097	9,6033
66919	-18,418	-1,9428	-12,898	9,6612
66920	-17,966	-2,47	-12,724	9,7367
66921	6,5708	-1,9801	-15,964	8,0495
66922	5,9388	-1,9785	-16,086	7,9967
66923	6,1863	-2,4963	-15,69	7,9405
66924	5,3111	-1,9742	-16,197	7,9428
66925	4,6596	-1,9423	-16,304	7,9009
66926	4,9313	-2,4854	-15,912	7,8284
66927	-17,287	-1,9481	-13,932	9,3393
66928	-17,952	-1,9674	-13,769	9,3596
66929	-17,505	-2,4712	-13,559	9,4481
66930	6,7628	-1,9797	-16,651	8,2351
66931	7,4041	-1,9853	-16,519	8,2798
66932	7,0077	-2,4918	-16,249	8,1743
66933	6,1308	-1,9781	-16,772	8,1868
66934	5,4738	-1,9481	-16,892	8,1512
66935	5,7461	-2,4896	-16,493	8,0734
66936	-17,497	-1,9574	-14,583	9,1338
66937	-16,82	-1,9736	-14,799	9,1212
66938	-17,043	-2,4791	-14,398	9,2123
66939	6,2949	-1,9524	-17,465	8,396
66940	6,957	-1,9831	-17,338	8,4219
66941	6,5655	-2,4895	-17,061	8,3139
66942	4,0138	-1,9103	-16,401	7,8602
66943	3,4137	-1,9569	-16,504	7,8402
66944	3,6683	-2,4583	-16,112	7,7482
66945	4,8223	-1,9162	-16,999	8,1132
66946	4,2267	-1,9524	-17,107	8,0962
66947	4,4689	-2,457	-16,709	7,9963
66948	3,6267	-1,999	-17,21	8,0778
66949	3,0008	-2,0107	-17,312	8,0712
66950	3,2406	-2,5068	-16,92	7,9572
66951	5,638	-1,9223	-17,584	8,3649
66952	5,0435	-1,9579	-17,697	8,3533
66953	5,2799	-2,4589	-17,298	8,2494
66954	-19,294	-1,9754	-13,377	9,4162
66955	-18,623	-1,9707	-13,571	9,4128
66956	-18,846	-2,4775	-13,172	9,5518
66957	5,8592	-1,959	-18,277	8,6014
66958	6,4605	-1,9289	-18,159	8,6044
66959	6,0981	-2,4622	-17,873	8,4954
66960	-20,178	-1,9874	-13,833	9,0838
66961	-19,5	-2,0006	-14,06	9,1217
66962	-19,718	-2,5243	-13,687	9,2446
66963	-20,395	-1,9744	-14,464	8,7649
66964	-21,066	-1,9772	-14,277	8,649
66965	-20,614	-2,4953	-14,087	8,8824
66966	-18,829	-1,996	-14,254	9,1217
66967	-18,163	-1,9767	-14,421	9,151
66968	-18,375	-2,5174	-14,072	9,247
66969	-19,717	-1,9876	-14,691	8,806
66970	-19,039	-1,999	-14,911	8,8707
66971	-19,26	-2,522	-14,535	8,9685
66972	-20,603	-1,9774	-15,14	8,3835
66973	-19,934	-1,9757	-15,328	8,5181
66974	-20,154	-2,4908	-14,939	8,6143
66975	-15,27	-1,9755	-14,518	9,1359
66976	-14,613	-1,9584	-14,684	9,0782
66977	-14,811	-2,5083	-14,321	9,1423
66978	-21,274	-1,9802	-14,953	8,2664
66979	-21,947	-1,981	-14,758	8,0845
66980	-21,499	-2,4952	-14,552	8,3832
66981	-16,142	-1,995	-15,015	9,0723
66982	-15,483	-1,9792	-15,182	9,0519
66983	-15,685	-2,5219	-14,822	9,114
66984	-20,81	-1,9802	-15,817	8,0392
66985	-21,482	-1,9808	-15,623	7,8415
66986	-21,036	-2,4941	-15,41	8,1316
66987	-22,154	-1,9816	-15,429	7,6592
66988	-22,829	-1,9818	-15,228	7,4039
66989	-22,379	-2,5121	-15,029	7,7625
66990	-18,373	-1,9797	-15,077	8,9024
66991	-17,707	-1,9652	-15,248	8,9498
66992	-17,925	-2,4854	-14,869	9,0323
66993	-19,256	-1,9871	-15,548	8,5856
66994	-18,578	-1,9972	-15,764	8,6733
66995	-18,796	-2,5181	-15,382	8,7503
66996	4,4479	-1,9942	-17,806	8,3383
66997	3,8231	-1,9877	-17,908	8,3339
66998	4,064	-2,5035	-17,517	8,2164
66999	-20,14	-1,9785	-16,004	8,1751
67000	-19,472	-1,9774	-16,192	8,3256
67001	-19,692	-2,4908	-15,798	8,4004
67002	5,2646	-1,9946	-18,39	8,5922
67003	4,6416	-1,9964	-18,499	8,5951
67004	4,8804	-2,5011	-18,102	8,4733
67005	-21,016	-1,9808	-16,488	7,6548
67006	-20,345	-1,9801	-16,681	7,8655
67007	-20,571	-2,4915	-16,27	7,9358
67008	5,4507	-1,9911	-19,086	8,8457
67009	6,0782	-1,9891	-18,965	8,8305
67010	5,6931	-2,5011	-18,683	8,7212
67011	-21,688	-1,9814	-16,294	7,4566
67012	-22,36	-1,9905	-16,101	7,1871
67013	-21,917	-2,495	-15,878	7,5394
67014	-21,894	-1,9896	-16,966	7,0291
67015	-21,222	-1,9812	-17,159	7,3062
67016	-21,451	-2,492	-16,74	7,3667
67017	-23,036	-1,9906	-15,901	6,9322
67018	-23,264	-2,5085	-15,482	7,0271
67019	-9,0681	-1,9578	-19,792	9,1422
67020	-8,417	-1,9593	-19,947	9,1917
67021	-8,6238	-2,4648	-19,537	9,088
67022	-22,566	-1,9987	-16,774	6,7597
67023	-22,797	-2,5032	-16,349	6,8292
67024	-9,2472	-1,9858	-20,481	9,3038
67025	-9,9	-1,9843	-20,322	9,2319
67026	-9,4531	-2,4901	-20,073	9,2048
67027	-8,5961	-1,9873	-20,636	9,3567
67028	-7,9491	-1,9895	-20,787	9,4281
67029	-8,153	-2,4934	-20,378	9,3071
67030	-9,4413	-1,9904	-21,163	9,4361
67031	-8,7909	-1,9916	-21,32	9,5305
67032	-8,9941	-2,4968	-20,911	9,4149
67033	-22,099	-1,9986	-17,64	6,6412
67034	-22,33	-2,5009	-17,213	6,6882
67035	-17,03	-1,9814	-15,464	8,9419
67036	-16,362	-1,9807	-15,657	8,9573
67037	-16,575	-2,5003	-15,272	9,0218
67038	3,1972	-1,9994	-18,01	8,3283
67039	2,611	-1,9975	-18,133	8,3485
67040	2,8117	-2,5888	-17,816	8,2414
67041	-17,912	-1,9827	-15,935	8,7234
67042	-17,248	-1,97	-16,108	8,7887
67043	-17,464	-2,4859	-15,719	8,8515
67044	-18,794	-1,9875	-16,408	8,4158
67045	-18,123	-1,9861	-16,603	8,5263
67046	-18,333	-2,516	-16,234	8,5804
67047	4,0168	-1,9899	-18,601	8,5923
67048	3,3731	-1,9471	-18,692	8,5985
67049	3,6706	-2,5472	-18,324	8,4746
67050	-19,676	-1,979	-16,869	8,0174
67051	-19,009	-1,9777	-17,057	8,1822
67052	-19,228	-2,4926	-16,66	8,2367
67053	4,8277	-1,9929	-19,195	8,8508
67054	4,1787	-1,9552	-19,301	8,8689
67055	4,4515	-2,5073	-18,904	8,7303
67056	4,9847	-1,9556	-19,897	9,1238
67057	5,637	-1,9884	-19,781	9,0918
67058	5,2563	-2,4987	-19,493	8,9816
67059	-20,55	-1,9805	-17,353	7,5176
67060	-19,879	-1,9794	-17,546	7,7392
67061	-20,105	-2,491	-17,132	7,7887
67062	-21,427	-1,9902	-17,832	6,9184
67063	-20,756	-1,9809	-18,024	7,2014
67064	-20,984	-2,4912	-17,604	7,2417
67065	-10,094	-1,989	-21,003	9,3614
67066	-10,744	-1,9918	-20,841	9,2658
67067	-10,305	-2,4915	-20,59	9,2667
67068	-21,632	-1,9995	-18,506	6,5658
67069	-21,863	-2,5007	-18,079	6,5931
67070	-9,6374	-1,9911	-21,847	9,5778
67071	-10,291	-1,991	-21,683	9,4586
67072	-9,8447	-2,4957	-21,434	9,4671
67073	-0,4569	-1,9826	-16,139	7,5816
67074	-1,0518	-1,9927	-16,114	7,5859
67075	-0,69598	-2,5216	-15,781	7,4785
67076	2,7869	-1,9452	-18,816	8,6203
67077	1,9572	-1,9771	-18,25	8,3658
67078	2,3747	-1,9296	-18,881	8,6349
67079	2,4431	-2,5191	-18,586	8,5196
67080	0,18235	-1,8623	-16,86	7,8152
67081	-0,55899	-1,9718	-16,845	7,8119
67082	-0,17467	-2,488	-16,498	7,6932
67083	2,968	-1,8607	-19,468	8,8943
67084	3,5349	-1,9124	-19,392	8,8765
67085	3,1687	-2,6939	-19,118	8,7585
67086	1,402	-1,9181	-18,307	8,3802
67087	1,021	-1,8646	-17,588	8,0881
67088	1,6922	-2,5749	-18,128	8,3101
67089	1,1094	-2,4633	-17,913	8,2152
67090	1,0596	-2,068	-17,962	8,225
67091	1,8195	-1,8706	-18,937	8,6426
67092	2,5557	-1,8451	-19,533	8,9089
67093	1,9793	-1,9199	-19,629	8,9381
67094	2,3357	-2,2337	-19,14	8,7361
67095	0,9587	-1,7947	-18,597	8,4842
67096	1,1418	-1,8962	-19,069	8,6895
67097	1,5073	-2,3907	-18,61	8,5095
67098	0,98445	-2,012	-18,318	8,3681
67099	-14,826	-1,962	-15,347	8,999
67100	-14,157	-1,9613	-15,534	8,9609
67101	-14,356	-2,5078	-15,164	9,0044
67102	0,57771	-1,7412	-17,879	8,191
67103	7,4704e-003	-1,7887	-17,593	8,079
67104	0,4545	-2,2986	-17,341	7,9882
67105	0,60346	-1,9585	-17,6	8,0815
67106	-15,702	-1,9648	-15,824	8,9408
67107	-15,038	-1,9639	-16,008	8,9388
67108	-15,233	-2,503	-15,643	8,9815
67109	0,49732	-1,7369	-18,817	8,5827
67110	0,15046	-1,7563	-18,6	8,4747
67111	0,66611	-2,3399	-18,204	8,3204
67112	0,61628	-1,9446	-18,253	8,3312
67113	-16,58	-1,9693	-16,302	8,8078
67114	-15,91	-1,9679	-16,492	8,8453
67115	-16,113	-2,5017	-16,126	8,8864
67116	0,6804	-1,8385	-19,289	8,7883
67117	0,20361	-1,7522	-19,314	8,797
67118	0,41297	-2,3986	-18,967	8,6499
67119	0,52307	-1,9542	-18,538	8,4632
67120	2,6004	-1,8752	-20,248	9,2202
67121	3,1479	-1,8614	-20,178	9,1946
67122	2,8718	-2,3374	-19,798	9,03
67123	1,3015	-1,9455	-19,761	8,9847
67124	0,71935	-1,8279	-19,784	8,9906
67125	1,0572	-2,4564	-19,523	8,8813
67126	2,0239	-1,95	-20,345	9,2518
67127	1,4137	-1,9209	-20,392	9,2711
67128	1,7147	-2,4688	-20,045	9,1164
67129	-1,1539	-1,9819	-16,821	7,8172
67130	-1,762	-1,9872	-16,766	7,8198
67131	-1,3601	-2,5103	-16,453	7,703
67132	-0,73388	-1,8983	-17,578	8,0802
67133	-1,3038	-1,9759	-17,527	8,0711
67134	-0,87871	-2,4903	-17,205	7,9452
67135	-14,369	-1,9632	-16,195	8,9059
67136	-13,702	-1,9604	-16,382	8,8916
67137	-13,897	-2,5046	-16,011	8,9144
67138	2,7724	-1,9517	-20,962	9,5341
67139	2,1511	-1,9642	-21,031	9,5703
67140	2,4401	-2,4878	-20,672	9,405
67141	-1,9119	-1,9812	-17,473	8,0743
67142	-2,5537	-1,9296	-17,404	8,0765
67143	-2,0911	-2,5103	-17,097	7,9486
67144	4,3357	-1,9179	-20,002	9,1439
67145	3,7149	-1,913	-20,102	9,1767
67146	4,0087	-2,5486	-19,735	9,0341
67147	-0,41978	-1,8038	-18,314	8,3654
67148	-0,90829	-1,8938	-18,299	8,3616
67149	-0,3832	-2,3903	-17,931	8,2112
67150	4,6042e-002	-1,9922	-17,967	8,2143
67151	4,5508	-1,951	-20,706	9,4346
67152	5,1451	-1,925	-20,597	9,3877
67153	4,7946	-2,4611	-20,305	9,2761
67154	-0,14325	-1,7715	-19,096	8,6901
67155	-0,50504	-1,8434	-19,058	8,6772
67156	6,6114e-002	-2,4179	-18,75	8,5421
67157	0,17621	-1,9735	-18,321	8,3567
67158	-0,31688	-1,9461	-19,35	8,8013
67159	-1,4782	-1,9714	-18,248	8,3542
67160	-2,1276	-1,9291	-18,179	8,3453
67161	-1,5963	-2,5402	-17,869	8,211
67162	-0,29299	-1,8128	-19,911	9,0455
67163	0,24256	-1,7416	-19,809	8,9994
67164	-5,6647e-002	-2,4058	-19,611	8,9137
67165	0,32257	-1,9599	-18,75	8,5346
67166	-0,17053	-1,9325	-19,779	8,9892
67167	-0,99354	-1,9333	-19,043	8,6738
67168	-1,7181	-1,9273	-18,963	8,6473
67169	-1,1153	-2,5142	-18,672	8,5182
67170	3,9299	-1,9461	-20,805	9,4672
67171	3,3199	-1,9379	-20,892	9,5089
67172	3,5623	-2,3427	-20,451	9,3198
67173	-0,65477	-1,8846	-19,872	9,0337
67174	-1,2396	-1,8944	-19,769	8,9888
67175	-0,41843	-2,4777	-19,573	8,8989
67176	-3,9214e-002	-2,0317	-18,712	8,5153
67177	-0,53231	-2,0043	-19,741	8,9758
67178	4,1506	-1,9885	-21,513	9,773
67179	4,7701	-1,9873	-21,407	9,711
67180	4,3958	-2,4882	-21,111	9,5999
67181	-17,459	-1,9734	-16,777	8,5942
67182	-16,788	-1,9721	-16,969	8,6751
67183	-16,993	-2,5026	-16,601	8,7142
67184	-18,338	-1,9764	-17,252	8,2948
67185	-17,667	-1,9751	-17,446	8,4224
67186	-17,875	-2,5037	-17,072	8,4592
67187	-0,43858	-1,8378	-20,658	9,3906
67188	-0,99623	-1,9204	-20,492	9,3108
67189	-0,36277	-2,4468	-20,508	9,321
67190	-0,17626	-2,2554	-20,703	9,4055
67191	-0,46662	-1,9874	-20,165	9,1629
67192	-19,212	-1,9782	-17,734	7,9053
67193	-18,546	-1,9767	-17,921	8,0831
67194	-18,756	-2,5039	-17,539	8,1168
67195	0,83158	-1,8033	-20,416	9,2751
67196	9,697e-002	-1,7666	-20,557	9,3398
67197	0,51795	-2,493	-20,154	9,1533
67198	0,35929	-2,1842	-20,602	9,3601
67199	6,8932e-002	-1,9162	-20,063	9,1127
67200	-15,245	-1,9669	-16,676	8,8477
67201	-14,581	-1,9648	-16,864	8,8677
67202	-14,778	-2,5022	-16,49	8,8912
67203	-20,084	-1,9798	-18,218	7,4239
67204	-19,413	-1,9785	-18,411	7,6551
67205	-19,633	-2,5032	-18,008	7,6847
67206	1,5409	-1,9351	-21,078	9,5884
67207	0,83062	-1,9349	-21,215	9,6538
67208	1,2591	-2,5297	-20,765	9,4432
67209	0,70886	-2,2621	-20,925	9,5097
67210	-16,117	-1,9706	-17,159	8,7162
67211	-15,451	-1,9693	-17,35	8,774
67212	-15,652	-2,5015	-16,973	8,7976
67213	-20,96	-1,9902	-18,698	6,8492
67214	-20,289	-1,9806	-18,89	7,137
67215	-20,513	-2,5022	-18,474	7,1593
67216	-16,996	-1,9737	-17,638	8,5061
67217	-16,328	-1,9727	-17,828	8,6053
67218	-16,531	-2,5023	-17,45	8,6281
67219	-21,165	-1,9988	-19,372	6,5281
67220	-21,392	-2,5099	-18,95	6,5384
67221	-17,875	-1,9754	-18,115	8,2128
67222	-17,208	-1,9748	-18,305	8,356
67223	-17,409	-2,5024	-17,93	8,377
67224	-3,3598	-1,8791	-18,031	8,3471
67225	-2,7694	-1,8775	-18,11	8,3487
67226	-2,8949	-2,4468	-17,725	8,2125
67227	-18,747	-1,9771	-18,598	7,8343
67228	-18,083	-1,9759	-18,786	8,0241
67229	-18,29	-2,5019	-18,4	8,0423
67230	3,5405	-1,9802	-21,6	9,8135
67231	2,876	-1,9442	-21,679	9,8631
67232	3,1851	-2,4736	-21,29	9,6848
67233	2,2547	-1,9567	-21,747	9,8995
67234	1,5409	-2,0811	-21,737	9,9003
67235	1,9975	-2,5138	-21,436	9,7619
67236	1,0686	-2,316	-21,264	9,6627
67237	3,6784	-1,9635	-22,31	10,134
67238	4,338	-1,9957	-22,218	10,063
67239	3,9722	-2,5045	-21,923	9,9529
67240	-19,618	-1,9792	-19,083	7,3691
67241	-18,947	-1,9778	-19,276	7,6092
67242	-19,166	-2,5014	-18,871	7,6225
67243	9,6009e-002	-1,8982	-21,356	9,7212
67244	-0,54629	-1,9055	-21,262	9,6776
67245	-0,19868	-2,4729	-21,102	9,6033
67246	-2,5755e-002	-2,2254	-21,066	9,5799
67247	-0,31612	-1,9574	-20,527	9,3315
67248	-20,494	-1,9892	-19,564	6,8164
67249	-19,823	-1,9804	-19,754	7,1083
67250	-20,046	-2,501	-19,34	7,1144
67251	-4,1352	-1,8883	-18,644	8,6148
67252	-3,4992	-1,9287	-18,739	8,6229
67253	-3,6294	-2,4936	-18,348	8,4814
67254	-20,701	-1,9903	-20,232	6,5238
67255	-20,925	-2,5086	-19,816	6,5187
67256	-4,3159	-1,8938	-19,346	8,8923
67257	-4,9217	-1,8977	-19,233	8,8695
67258	-4,4182	-2,4924	-18,951	8,7465
67259	0,83061	-2,081	-21,874	9,968
67260	0,20539	-2,0174	-21,991	10,025
67261	0,42585	-2,6303	-21,489	9,7917
67262	0,35833	-2,3158	-21,401	9,7422
67263	-2,9088	-1,9271	-18,817	8,6259
67264	-2,3675	-1,8851	-18,894	8,641
67265	-2,4665	-2,4469	-18,508	8,489
67266	3,0139	-1,9275	-22,389	10,183
67267	2,3783	-1,934	-22,469	10,246
67268	2,7069	-2,4786	-22,1	10,059
67269	-3,6799	-1,9342	-19,441	8,9015
67270	-3,0405	-1,9761	-19,532	8,9233
67271	-3,1622	-2,5323	-19,138	8,7661
67272	3,231	-1,9599	-23,111	10,521
67273	3,8261	-1,9323	-23,013	10,438
67274	3,494	-2,4692	-22,718	10,326
67275	-3,8939	-1,8972	-20,152	9,201
67276	-4,4973	-1,8994	-20,044	9,1639
67277	-3,9929	-2,4915	-19,751	9,0397
67278	1,6645	-2,0585	-22,459	10,245
67279	1,0235	-2,2239	-22,429	10,241
67280	1,5119	-2,6656	-22,018	10,038
67281	1,1093	-2,7538	-21,855	9,9544
67282	0,70885	-2,4082	-21,583	9,8207
67283	-1,9641	-1,8884	-19,689	8,966
67284	-2,4993	-1,9341	-19,609	8,9393
67285	-2,0373	-2,4527	-19,302	8,8005
67286	-13,249	-1,9588	-17,228	8,8676
67287	-13,914	-1,9619	-17,051	8,8584
67288	-13,444	-2,5012	-16,857	8,8709
67289	-1,581	-1,9302	-20,388	9,2713
67290	-2,0761	-1,9438	-20,407	9,2813
67291	-1,6383	-2,4588	-20,109	9,1472
67292	-13,455	-1,9611	-17,896	8,8547
67293	-12,782	-1,9757	-18,095	8,8875
67294	-12,997	-2,4828	-17,686	8,8707
67295	-14,119	-1,9642	-17,718	8,841
67296	-14,787	-1,9671	-17,538	8,7982
67297	-14,315	-2,5007	-17,348	8,8454
67298	2,5955	-1,9664	-23,191	10,581
67299	1,9666	-1,9907	-23,268	10,647
67300	2,2472	-2,4932	-22,876	10,448
67301	-13,66	-1,9631	-18,57	8,8558
67302	-14,323	-1,9671	-18,389	8,7921
67303	-13,867	-2,4843	-18,175	8,8421
67304	-1,1039	-1,9882	-21,096	9,5978
67305	-1,6908	-1,9866	-21,1	9,5964
67306	-1,2578	-2,5054	-20,839	9,4755
67307	2,8397	-1,9991	-23,934	10,938
67308	3,4515	-1,9897	-23,829	10,839
67309	3,0837	-2,4975	-23,533	10,728
67310	-0,43691	-2,0248	-21,897	9,9776
67311	-1,1416	-1,9889	-21,936	9,9995
67312	-0,78591	-2,5367	-21,584	9,8361
67313	-0,28397	-2,3232	-21,307	9,6919
67314	-3,2545	-1,9391	-20,243	9,2223
67315	-2,6112	-1,9895	-20,327	9,2539
67316	-2,7356	-2,5318	-19,927	9,0831
67317	0,3983	-2,1604	-22,546	10,294
67318	-0,42549	-1,8605	-22,775	10,415
67319	9,7304e-003	-2,6568	-21,943	10,
67320	-0,23217	-2,6579	-22,382	10,211
67321	8,363e-002	-2,3447	-21,7	9,8802
67322	-0,21342	-2,0011	-23,373	10,731
67323	-4,0673	-1,9033	-20,854	9,4888
67324	-3,4233	-1,9526	-20,951	9,5345
67325	-3,6031	-2,4601	-20,548	9,3614
67326	1,3256	-2,1561	-23,238	10,637
67327	0,64918	-2,1365	-23,34	10,708
67328	0,76323	-2,6892	-22,572	10,312
67329	1,0489	-2,7198	-22,954	10,503
67330	0,25419	-2,1152	-23,629	10,858
67331	-12,987	-1,9777	-18,77	8,8932
67332	-12,312	-1,9955	-18,97	8,9505
67333	-12,514	-2,5152	-18,568	8,9148
67334	2,2108	-2,0233	-24,011	11,
67335	1,5554	-2,0212	-24,1	11,079
67336	1,8287	-2,5399	-23,69	10,859
67337	-15,662	-1,9713	-18,019	8,6665
67338	-14,99	-1,97	-18,209	8,7455
67339	-15,19	-2,5013	-17,832	8,7507
67340	-13,189	-1,979	-19,445	8,9117
67341	-13,868	-1,966	-19,245	8,824
67342	-13,396	-2,4976	-19,042	8,8795
67343	2,4101	-1,997	-24,732	11,365
67344	3,0379	-2,0085	-24,655	11,27
67345	2,6541	-2,5102	-24,358	11,159
67346	-5,7227	-1,9078	-19,805	9,103
67347	-5,1031	-1,9033	-19,931	9,1395
67348	-5,2205	-2,4924	-19,538	8,9971
67349	-16,541	-1,9738	-18,495	8,4579
67350	-15,872	-1,9736	-18,686	8,5754
67351	-16,067	-2,5014	-18,31	8,5819
67352	-6,5127	-1,947	-20,371	9,3099
67353	-5,8855	-1,9442	-20,501	9,3607
67354	-6,0711	-2,4579	-20,099	9,2186
67355	-17,416	-1,9753	-18,975	8,1693
67356	-16,75	-1,9753	-19,164	8,3281
67357	-16,95	-2,5012	-18,78	8,3342
67358	-12,515	-1,9968	-19,645	8,9731
67359	-11,856	-1,996	-19,823	9,0514
67360	-12,051	-2,516	-19,42	8,9985
67361	-18,283	-1,9766	-19,463	7,8004
67362	-17,619	-1,976	-19,65	8,0018
67363	-17,824	-2,5004	-19,262	8,0056
67364	-13,396	-1,9817	-20,117	8,8957
67365	-12,72	-1,9949	-20,316	9,0057
67366	-12,919	-2,5127	-19,917	8,9575
67367	-7,3116	-1,9877	-20,928	9,4805
67368	-6,6794	-1,9824	-21,067	9,5509
67369	-6,8402	-2,5237	-20,672	9,4145
67370	-19,152	-1,9789	-19,947	7,3493
67371	-18,481	-1,9774	-20,141	7,5977
67372	-18,699	-2,4999	-19,735	7,5962
67373	-8,1439	-1,9939	-21,471	9,6041
67374	-7,505	-1,9891	-21,618	9,6965
67375	-7,6996	-2,5019	-21,21	9,5602
67376	-5,2659	-1,9396	-20,627	9,3995
67377	-4,6707	-1,9055	-20,746	9,4509
67378	-4,7881	-2,4941	-20,348	9,2931
67379	-8,987	-1,9923	-22,004	9,6742
67380	-8,3431	-1,9899	-22,158	9,7901
67381	-8,5437	-2,4981	-21,747	9,6582
67382	-5,4542	-1,9454	-21,324	9,6721
67383	-6,0521	-1,9796	-21,198	9,6038
67384	-5,613	-2,4901	-20,92	9,5145
67385	-9,8525	-1,9729	-22,52	9,6806
67386	-9,1856	-1,9885	-22,691	9,8267
67387	-9,3888	-2,4963	-22,277	9,7007
67388	-20,03	-1,9816	-20,422	6,8163
67389	-19,357	-1,9804	-20,62	7,1116
67390	-19,58	-2,5002	-20,204	7,1033
67391	-4,859	-1,9113	-21,443	9,7243
67392	-4,2095	-1,9512	-21,553	9,7889
67393	-4,3962	-2,4589	-21,148	9,6153
67394	-20,236	-1,9829	-21,092	6,5485
67395	-20,464	-2,4926	-20,67	6,5297
67396	-5,0187	-1,9509	-22,139	10,01
67397	-5,6671	-1,9195	-22,02	9,9255
67398	-5,2009	-2,466	-21,735	9,8388
67399	-2,7799	-2,003	-21,035	9,5656
67400	-2,1858	-2,0003	-21,118	9,6075
67401	-2,3074	-2,557	-20,712	9,4226
67402	-6,265	-1,9537	-21,893	9,8568
67403	-6,8728	-1,9839	-21,758	9,7684
67404	-6,3971	-2,5272	-21,498	9,7078
67405	-3,5655	-2,0004	-21,65	9,835
67406	-2,9528	-2,001	-21,747	9,8939
67407	-3,1362	-2,5174	-21,34	9,7073
67408	-2,3587	-1,9983	-21,83	9,9346
67409	-1,7285	-1,9873	-21,94	9,9978
67410	-1,9579	-2,5137	-21,513	9,7928
67411	-4,3692	-1,9907	-22,249	10,075
67412	-3,75	-1,9948	-22,355	10,152
67413	-3,9393	-2,5027	-21,95	9,9651
67414	-3,1374	-1,9954	-22,453	10,21
67415	-2,5036	-2,0051	-22,554	10,281
67416	-2,7147	-2,5096	-22,141	10,08
67417	-5,1762	-1,9879	-22,836	10,278
67418	-4,5909	-1,9515	-22,957	10,377
67419	-4,7066	-2,5363	-22,55	10,194
67420	-5,8246	-1,9565	-22,717	10,193
67421	-6,4818	-1,9273	-22,585	10,083
67422	-5,9813	-2,4991	-22,317	10,028
67423	-14,531	-1,97	-19,064	8,7567
67424	-15,201	-1,9723	-18,876	8,6575
67425	-14,725	-2,5011	-18,682	8,7458
67426	-5,3942	-1,9544	-23,541	10,557
67427	-5,9869	-1,9896	-23,412	10,435
67428	-5,5138	-2,5332	-23,133	10,38
67429	-14,742	-1,9726	-19,738	8,6856
67430	-14,074	-1,9688	-19,917	8,8047
67431	-14,267	-2,4999	-19,538	8,7781
67432	1,7548	-1,9949	-24,822	11,44
67433	1,8716	-2,0143	-25,513	11,807
67434	2,5798	-2,0005	-25,457	11,715
67435	2,162	-2,5157	-25,17	11,607
67436	-16,081	-1,9751	-19,355	8,4481
67437	-15,412	-1,9748	-19,549	8,5835
67438	-15,608	-2,5015	-19,161	8,5747
67439	1,0629	-1,9849	-24,963	11,552
67440	0,879	-2,0017	-24,203	11,146
67441	1,3295	-2,5131	-24,548	11,324
67442	-16,953	-1,976	-19,839	8,1624
67443	-16,288	-1,9765	-20,028	8,3359
67444	-16,484	-2,5005	-19,641	8,3281
67445	-17,156	-1,9765	-20,516	8,0131
67446	-17,818	-1,9768	-20,328	7,8004
67447	-17,357	-2,4993	-20,124	8,0037
67448	-15,618	-1,9763	-20,223	8,4736
67449	-14,944	-1,9746	-20,415	8,6286
67450	-15,14	-2,501	-20,027	8,6042
67451	-16,491	-1,977	-20,705	8,1882
67452	-15,821	-1,9768	-20,896	8,3781
67453	-16,02	-2,5004	-20,503	8,3556
67454	-14,276	-1,9708	-20,594	8,7502
67455	-13,616	-1,9674	-20,776	8,8876
67456	-13,817	-2,4855	-20,375	8,8443
67457	-16,68	-1,9858	-21,393	8,0586
67458	-17,353	-1,977	-21,194	7,8313
67459	-16,891	-2,4984	-20,988	8,0338
67460	-15,147	-1,9751	-21,088	8,5351
67461	-14,469	-1,9833	-21,285	8,7089
67462	-14,673	-2,4995	-20,882	8,6684
67463	-18,015	-1,9773	-21,006	7,6174
67464	-18,685	-1,9789	-20,814	7,3609
67465	-18,232	-2,4986	-20,6	7,6024
67466	-16,01	-1,9856	-21,584	8,25
67467	-15,355	-1,9755	-21,763	8,4516
67468	-15,549	-2,4992	-21,367	8,4172
67469	-3,9718	-1,9555	-23,062	10,452
67470	-3,355	-1,9602	-23,162	10,54
67471	-3,5064	-2,5072	-22,752	10,34
67472	-16,872	-1,9955	-22,079	7,8949
67473	-16,216	-1,9846	-22,258	8,1301
67474	-16,412	-2,5069	-21,863	8,0969
67475	-4,8089	-1,918	-23,662	10,654
67476	-4,1978	-1,9168	-23,771	10,765
67477	-4,3086	-2,5018	-23,36	10,571
67478	-17,545	-1,9867	-21,879	7,6667
67479	-18,219	-1,9788	-21,68	7,4011
67480	-17,765	-2,4973	-21,464	7,6385
67481	1,1797	-2,0044	-25,654	11,916
67482	1,2491	-2,0223	-26,536	12,409
67483	2,0431	-2,0533	-26,32	12,216
67484	1,6121	-2,6943	-25,978	12,08
67485	1,0864	-2,329	-26,009	12,111
67486	-5,6127	-1,9219	-24,241	10,805
67487	-4,9617	-1,9539	-24,357	10,946
67488	-5,143	-2,4683	-23,95	10,751
67489	0,44028	-1,9026	-25,001	11,584
67490	0,5652	-1,9516	-25,745	11,993
67491	0,50152	-2,5321	-25,491	11,851
67492	0,22132	-1,9605	-24,927	11,545
67493	0,70693	-2,2896	-25,754	11,993
67494	-17,746	-1,9955	-22,558	7,4688
67495	-17,079	-1,9855	-22,745	7,7416
67496	-17,293	-2,506	-22,337	7,7028
67497	-18,889	-1,9804	-21,487	7,1439
67498	-19,563	-1,9818	-21,29	6,8444
67499	-19,113	-2,4991	-21,071	7,1224
67500	-18,42	-1,9877	-22,358	7,2027
67501	-19,096	-1,9819	-22,156	6,8986
67502	-18,646	-2,4981	-21,937	7,1689
67503	-0,17461	-1,8367	-23,57	10,823
67504	0,25641	-1,9194	-24,241	11,182
67505	0,48759	-2,4832	-23,883	10,992
67506	0,30036	-2,5715	-23,542	10,817
67507	3,7458e-002	-1,9772	-24,167	11,146
67508	-1,1302	-1,8246	-22,815	10,437
67509	-1,8734	-1,9941	-22,664	10,344
67510	-1,4809	-2,5171	-22,338	10,195
67511	-18,624	-1,9955	-23,033	6,9768
67512	-17,953	-1,9868	-23,226	7,2851
67513	-18,176	-2,5048	-22,808	7,2408
67514	-0,67756	-1,6755	-23,834	10,968
67515	-1,3085	-1,8234	-23,538	10,793
67516	-0,7359	-2,4193	-23,163	10,617
67517	-0,5696	-1,8154	-23,858	10,988
67518	-11,397	-1,9954	-20,673	9,189
67519	-12,061	-1,9941	-20,494	9,0872
67520	-11,612	-2,4996	-20,258	9,1161
67521	-0,24653	-1,7583	-24,505	11,32
67522	-6,8556e-002	-1,8376	-24,99	11,582
67523	-0,11439	-2,3685	-24,743	11,446
67524	-0,20422	-2,47	-24,396	11,264
67525	-0,13857	-1,8981	-24,529	11,342
67526	-10,941	-1,9939	-21,52	9,3606
67527	-11,599	-1,9949	-21,348	9,2373
67528	-11,149	-2,5003	-21,108	9,2722
67529	-7,7042	-1,9851	-22,306	9,8838
67530	-7,0896	-1,9575	-22,449	9,9942
67531	-7,2577	-2,495	-22,043	9,8457
67532	-10,506	-1,9729	-22,357	9,5599
67533	-11,145	-1,9915	-22,196	9,4189
67534	-10,696	-2,4972	-21,952	9,4603
67535	-7,9196	-1,9627	-22,994	10,078
67536	-8,5417	-1,9861	-22,845	9,9437
67537	-8,0986	-2,4933	-22,584	9,9339
67538	-0,55818	-1,6936	-24,723	11,44
67539	-1,089	-1,758	-24,493	11,294
67540	-0,53114	-2,388	-24,299	11,212
67541	-0,46549	-1,8161	-24,431	11,289
67542	-10,724	-1,9576	-23,027	9,6224
67543	-10,071	-1,9543	-23,198	9,7904
67544	-10,255	-2,4796	-22,791	9,6772
67545	-2,0516	-1,9929	-23,386	10,703
67546	-2,7212	-1,97	-23,263	10,609
67547	-2,2504	-2,5201	-22,95	10,481
67548	-7,305	-1,935	-23,137	10,188
67549	-6,6441	-1,9604	-23,28	10,325
67550	-6,8357	-2,4713	-22,871	10,159
67551	-0,3802	-1,7729	-25,208	11,7
67552	-0,84267	-1,8253	-25,237	11,707
67553	-0,42603	-2,3038	-24,961	11,564
67554	-0,45021	-1,8334	-24,747	11,461
67555	-19,769	-1,9833	-21,959	6,5987
67556	-19,997	-2,4923	-21,537	6,5679
67557	5,6365e-002	-1,8866	-25,735	11,989
67558	-0,49711	-1,8975	-25,772	12,003
67559	-7,3133e-003	-2,4671	-25,48	11,849
67560	-0,28751	-1,8954	-24,916	11,549
67561	0,1981	-2,2246	-25,743	11,986
67562	-7,4704	-1,9635	-23,832	10,401
67563	-8,1374	-1,9424	-23,679	10,236
67564	-7,6664	-2,4729	-23,419	10,239
67565	0,63465	-1,9696	-26,627	12,484
67566	-8,6021e-002	-1,9427	-26,423	12,372
67567	0,53249	-2,4947	-26,276	12,294
67568	-1,3652e-002	-1,9471	-25,274	11,746
67569	0,47196	-2,2763	-26,1	12,191
67570	-12,941	-1,9806	-20,975	9,0002
67571	-12,263	-1,9936	-21,169	9,1329
67572	-12,476	-2,4987	-20,754	9,0657
67573	-6,8094	-1,9888	-23,975	10,537
67574	-6,2054	-1,9571	-24,112	10,685
67575	-6,333	-2,5281	-23,705	10,514
67576	-13,809	-1,9798	-21,467	8,8485
67577	-13,16	-1,9669	-21,64	9,0034
67578	-13,359	-2,4846	-21,234	8,9453
67579	0,93383	-1,9239	-27,549	13,012
67580	0,3924	-2,0044	-27,522	13,004
67581	1,3843	-2,0116	-27,343	12,85
67582	1,1718	-2,563	-27,002	12,673
67583	1,0804	-2,5512	-27,251	12,827
67584	0,77638	-2,3076	-26,636	12,486
67585	1,0933	-2,2519	-27,411	12,919
67586	-7,0309	-1,9602	-24,67	10,752
67587	-7,6432	-1,9867	-24,525	10,576
67588	-7,163	-2,5226	-24,264	10,589
67589	-6,4269	-1,9285	-24,806	10,898
67590	-5,8007	-1,9228	-24,94	11,069
67591	-5,9518	-2,4707	-24,526	10,879
67592	0,87511	-1,8555	-28,483	13,591
67593	0,61791	-1,8588	-28,277	13,468
67594	1,2689	-2,0325	-28,025	13,263
67595	1,3114	-2,5408	-28,289	13,422
67596	1,1026	-2,4925	-27,966	13,248
67597	0,84893	-2,0857	-28,284	13,462
67598	1,0881	-2,1748	-27,797	13,149
67599	-6,5899	-1,959	-25,501	11,132
67600	-7,2532	-1,9366	-25,358	10,924
67601	-6,7739	-2,4738	-25,09	10,944
67602	-19,3	-1,9897	-22,831	6,6725
67603	-19,53	-2,4923	-22,403	6,6308
67604	-1,7199	-1,9058	-24,197	11,127
67605	-2,3002	-1,9454	-24,089	11,035
67606	-1,8002	-2,5437	-23,758	10,898
67607	-18,833	-1,9894	-23,699	6,7674
67608	-19,061	-2,4983	-23,276	6,7159
67609	0,55117	-1,8401	-29,262	14,1
67610	1,0379	-1,9225	-29,186	14,014
67611	0,75569	-2,4589	-28,902	13,858
67612	0,79544	-2,0944	-28,832	13,812
67613	0,59535	-2,2601	-29,008	13,932
67614	-14,677	-1,9836	-21,961	8,627
67615	-13,998	-1,9923	-22,157	8,8201
67616	-14,201	-2,508	-21,751	8,7658
67617	-12,483	-1,98	-21,833	9,1382
67618	-11,804	-1,9925	-22,023	9,2937
67619	-12,013	-2,4999	-21,61	9,2115
67620	-15,561	-1,9745	-22,437	8,3327
67621	-14,88	-1,9844	-22,638	8,5573
67622	-15,098	-2,4889	-22,219	8,5032
67623	-16,424	-1,9746	-22,925	7,9774
67624	-15,75	-1,9833	-23,122	8,2301
67625	-15,971	-2,4884	-22,702	8,1777
67626	-13,349	-1,9794	-22,329	8,9767
67627	-12,702	-1,9664	-22,502	9,1512
67628	-12,896	-2,4856	-22,095	9,0796
67629	-14,2	-1,993	-22,834	8,7516
67630	-13,551	-1,9803	-23,011	8,9545
67631	-13,733	-2,5073	-22,611	8,8929
67632	-15,069	-1,9932	-23,323	8,4555
67633	-14,417	-1,9826	-23,501	8,6866
67634	-14,604	-2,5068	-23,101	8,6294
67635	-17,286	-1,9768	-23,413	7,5582
67636	-16,614	-1,9843	-23,61	7,8413
67637	-16,831	-2,4947	-23,194	7,7908
67638	-15,94	-1,9929	-23,807	8,0943
67639	-15,287	-1,9821	-23,987	8,3532
67640	-15,477	-2,5041	-23,588	8,2997
67641	-1,3735	-1,8897	-25,007	11,566
67642	-1,9954	-1,8537	-24,881	11,461
67643	-1,4558	-2,4603	-24,538	11,312
67644	-18,161	-1,9808	-23,891	7,0756
67645	-17,486	-1,987	-24,092	7,3894
67646	-17,711	-2,4962	-23,671	7,3346
67647	-0,95958	-1,9498	-25,801	12,012
67648	-1,5694	-1,8948	-25,713	11,927
67649	-1,0714	-2,4566	-25,4	11,787
67650	-18,366	-1,9895	-24,565	6,8813
67651	-18,596	-2,4923	-24,137	6,8207
67652	-16,814	-1,9945	-24,289	7,6724
67653	-16,148	-1,9831	-24,475	7,963
67654	-16,36	-2,5032	-24,065	7,9041
67655	-2,9697	-1,9225	-23,966	10,946
67656	-3,581	-1,9215	-23,87	10,85
67657	-3,1074	-2,4777	-23,557	10,739
67658	-8,7594	-1,9658	-23,53	10,102
67659	-9,4043	-1,9699	-23,368	9,9372
67660	-8,909	-2,5155	-23,131	9,9731
67661	-3,1283	-1,9513	-24,667	11,269
67662	-2,5757	-1,8933	-24,773	11,374
67663	-2,6502	-2,5046	-24,346	11,151
67664	-8,9767	-1,9489	-24,214	10,22
67665	-8,3102	-1,9656	-24,372	10,412
67666	-8,5054	-2,4765	-23,959	10,258
67667	-3,7396	-1,9503	-24,571	11,175
67668	-4,3506	-1,9527	-24,466	11,055
67669	-3,875	-2,5011	-24,161	10,969
67670	-17,691	-1,9957	-24,766	7,1947
67671	-17,021	-1,9857	-24,956	7,5129
67672	-17,243	-2,5041	-24,54	7,45
67673	-3,8923	-1,9822	-25,273	11,481
67674	-3,3278	-1,9401	-25,381	11,612
67675	-3,4091	-2,5311	-24,958	11,393
67676	-12,023	-1,979	-22,692	9,3082
67677	-11,363	-1,9762	-22,866	9,4804
67678	-11,534	-2,5116	-22,475	9,3941
67679	-17,899	-1,9885	-25,432	7,0123
67680	-18,128	-2,5058	-25,012	6,9435
67681	-12,904	-1,9673	-23,184	9,1301
67682	-12,246	-1,9653	-23,359	9,328
67683	-12,418	-2,4964	-22,965	9,2495
67684	-13,768	-1,9699	-23,678	8,89
67685	-13,106	-1,9682	-23,86	9,1153
67686	-13,282	-2,4959	-23,465	9,044
67687	-11,586	-1,9625	-23,533	9,5009
67688	-10,929	-1,9602	-23,708	9,6951
67689	-11,094	-2,4959	-23,313	9,597
67690	-14,635	-1,9715	-24,165	8,5845
67691	-13,968	-1,9705	-24,353	8,8375
67692	-14,154	-2,4951	-23,953	8,7695
67693	-0,6395	-1,9535	-26,46	12,39
67694	-1,2062	-1,9094	-26,479	12,369
67695	-0,62118	-2,5061	-26,141	12,21
67696	-14,839	-1,9715	-24,841	8,4946
67697	-15,495	-1,9722	-24,655	8,2218
67698	-15,042	-2,4859	-24,429	8,4266
67699	-12,448	-1,9662	-24,036	9,3137
67700	-11,79	-1,9646	-24,213	9,533
67701	-11,957	-2,496	-23,818	9,4438
67702	-10,276	-1,9569	-23,879	9,8637
67703	-9,6217	-1,9529	-24,051	10,056
67704	-9,7803	-2,4958	-23,649	9,9351
67705	-13,306	-1,9688	-24,536	9,063
67706	-12,649	-1,9677	-24,716	9,3063
67707	-12,821	-2,4958	-24,319	9,2244
67708	-10,476	-1,9592	-24,562	9,9445
67709	-11,132	-1,9623	-24,388	9,7275
67710	-10,636	-2,4959	-24,165	9,8348
67711	-14,172	-1,9704	-25,029	8,7474
67712	-13,507	-1,9697	-25,215	9,0164
67713	-13,687	-2,4945	-24,813	8,9404
67714	-15,037	-1,9713	-25,519	8,3744
67715	-14,377	-1,9706	-25,705	8,6631
67716	-14,56	-2,4927	-25,304	8,5926
67717	-9,8219	-1,9553	-24,734	10,136
67718	-9,1495	-1,97	-24,905	10,358
67719	-9,3205	-2,4957	-24,499	10,22
67720	-15,692	-1,9721	-25,333	8,102
67721	-16,355	-1,9743	-25,143	7,8031
67722	-15,897	-2,492	-24,923	8,0366
67723	-10,024	-1,9578	-25,416	10,223
67724	-10,675	-1,9615	-25,245	9,9839
67725	-10,177	-2,4959	-25,017	10,103
67726	-4,5033	-1,9846	-25,168	11,363
67727	-5,1497	-1,9548	-25,057	11,207
67728	-4,643	-2,5323	-24,758	11,159
67729	-15,894	-1,9731	-26,01	7,9526
67730	-15,233	-1,9711	-26,198	8,2615
67731	-15,436	-2,491	-25,787	8,1882
67732	-16,557	-1,9753	-25,819	7,6544
67733	-17,229	-1,9785	-25,622	7,3297
67734	-16,779	-2,4938	-25,401	7,583
67735	-4,7291	-1,9501	-25,877	11,635
67736	-4,1231	-1,9465	-25,993	11,804
67737	-4,2138	-2,5262	-25,569	11,588
67738	-16,761	-1,9772	-26,491	7,4822
67739	-16,091	-1,9741	-26,686	7,8133
67740	-16,311	-2,4924	-26,269	7,7348
67741	-5,3754	-1,9203	-25,766	11,483
67742	-5,9637	-1,9533	-25,635	11,301
67743	-5,483	-2,4946	-25,354	11,288
67744	-0,32827	-1,9775	-27,318	12,9
67745	-0,86483	-1,9089	-27,145	12,771
67746	-0,34971	-2,5002	-26,84	12,613
67747	-0,43603	-2,3433	-27,03	12,725
67748	-5,5326	-1,9523	-26,462	11,728
67749	-4,9516	-1,9196	-26,592	11,926
67750	-5,0564	-2,493	-26,17	11,715
67751	-6,1209	-1,9853	-26,331	11,55
67752	-6,7528	-1,9873	-26,194	11,328
67753	-6,2736	-2,5234	-25,923	11,355
67754	-7,8655	-1,9631	-25,214	10,751
67755	-8,483	-1,9867	-25,064	10,549
67756	-7,9996	-2,5172	-24,812	10,599
67757	-6,3367	-1,9608	-27,03	11,744
67758	-5,6823	-1,9838	-27,163	11,995
67759	-5,8313	-2,5232	-26,747	11,783
67760	7,6477e-002	-1,9394	-28,251	13,469
67761	-0,53798	-1,973	-28,236	13,434
67762	3,582e-002	-2,5831	-27,87	13,231
67763	-0,48142	-2,547	-27,768	13,158
67764	0,1074	-2,332	-28,434	13,582
67765	-0,26203	-2,3737	-27,594	13,065
67766	0,29397	-1,8434	-29,056	13,981
67767	-0,18795	-1,9189	-28,942	13,889
67768	0,49848	-2,4622	-28,696	13,736
67769	3,2554e-004	-2,5128	-28,578	13,663
67770	0,53824	-2,0977	-28,626	13,689
67771	0,33815	-2,2634	-28,802	13,812
67772	1,9e-002	-1,8976	-29,774	14,453
67773	0,544	-1,8992	-29,793	14,45
67774	0,14802	-2,4361	-29,412	14,209
67775	0,52499	-2,0703	-29,063	13,971
67776	0,32489	-2,236	-29,239	14,094
67777	-17,434	-1,9803	-26,294	7,1585
67778	-17,663	-2,4976	-25,873	7,0826
67779	7,2547	-1,9112	44,854	16,23
67780	7,0319	-2,4354	45,32	16,236
67781	6,5104	-2,2454	45,838	17,198
67782	-16,967	-1,9793	-27,16	7,3187
67783	-17,196	-2,4966	-26,74	7,2363
67784	-8,0864	-1,9447	-25,898	10,881
67785	-7,416	-1,9649	-26,051	11,122
67786	-7,6068	-2,4762	-25,638	10,94
67787	-2,7752	-1,8821	-25,487	11,714
67788	-2,1913	-1,8588	-25,586	11,826
67789	-2,2393	-2,4698	-25,156	11,594
67790	-8,7038	-1,9684	-25,748	10,681
67791	-9,3514	-1,9726	-25,587	10,443
67792	-8,8476	-2,5147	-25,346	10,539
67793	-3,5585	-1,9044	-26,101	11,93
67794	-2,9642	-1,8935	-26,203	12,072
67795	-3,077	-2,4461	-25,782	11,84
67796	-8,9248	-1,9525	-26,432	10,766
67797	-8,2513	-1,9684	-26,592	11,038
67798	-8,4465	-2,4782	-26,176	10,863
67799	7,8495	-2,0106	44,057	15,484
67800	7,6485	-2,5379	44,54	15,514
67801	-11,99	-1,9661	-24,893	9,5256
67802	-11,331	-1,9645	-25,07	9,7674
67803	-11,5	-2,4963	-24,673	9,6655
67804	-1,8159	-1,8544	-26,391	12,291
67805	-2,3803	-1,8703	-26,302	12,18
67806	-1,8299	-2,4487	-25,967	12,055
67807	-9,5723	-1,9567	-26,271	10,531
67808	-10,222	-1,9602	-26,102	10,268
67809	-9,7228	-2,4958	-25,866	10,398
67810	-1,4315	-1,8648	-27,163	12,757
67811	-2,0127	-1,876	-27,116	12,666
67812	-1,441	-2,4528	-26,789	12,54
67813	-9,1184	-1,9557	-27,121	10,869
67814	-9,7707	-1,9595	-26,959	10,579
67815	-9,261	-2,4962	-26,716	10,726
67816	-1,0745	-1,9044	-28,064	13,311
67817	-1,6034	-1,8652	-27,923	13,177
67818	-1,018	-2,4784	-27,595	13,033
67819	-1,5999	-2,0434	-28,346	13,426
67820	-0,79858	-2,3051	-27,421	12,934
67821	-6,9686	-1,9628	-26,892	11,526
67822	-7,5809	-1,9886	-26,745	11,277
67823	-7,0996	-2,5214	-26,481	11,345
67824	-0,80241	-1,9525	-28,928	13,865
67825	-1,2278	-1,9202	-28,927	13,822
67826	-1,2323	-2,4434	-28,477	13,541
67827	-1,4471	-2,077	-28,874	13,746
67828	-0,64574	-2,3388	-27,948	13,26
67829	-7,1882	-1,9415	-27,584	11,671
67830	-6,5503	-1,9367	-27,733	11,956
67831	-6,7111	-2,473	-27,312	11,748
67832	-7,8005	-1,9673	-27,437	11,427
67833	-8,4449	-1,9717	-27,281	11,138
67834	-7,9368	-2,5171	-27,029	11,259
67835	-0,46292	-1,9731	-29,661	14,37
67836	-0,99875	-1,955	-29,592	14,282
67837	-0,77312	-2,5359	-29,242	14,075
67838	-8,0163	-1,9503	-28,125	11,524
67839	-7,3758	-1,9467	-28,28	11,84
67840	-7,5113	-2,4964	-27,865	11,656
67841	-0,52041	-1,9802	-30,407	14,878
67842	1,6463e-002	-1,9836	-30,427	14,909
67843	-0,30917	-2,4668	-30,049	14,639
67844	-12,85	-1,9686	-25,395	9,2595
67845	-12,192	-1,9677	-25,575	9,5233
67846	-12,358	-2,4961	-25,179	9,4329
67847	-8,6607	-1,9546	-27,97	11,24
67848	-9,3148	-1,9581	-27,81	10,921
67849	-8,803	-2,4965	-27,564	11,084
67850	-13,713	-1,9699	-25,891	8,9315
67851	-13,052	-1,9693	-26,075	9,2172
67852	-13,226	-2,4945	-25,675	9,1332
67853	-8,2028	-1,9543	-28,82	11,644
67854	-8,8484	-1,9568	-28,657	11,298
67855	-8,3433	-2,4962	-28,41	11,475
67856	-14,573	-1,9704	-26,384	8,5494
67857	-13,915	-1,9698	-26,57	8,8527
67858	-14,095	-2,4922	-26,167	8,7748
67859	-4,3455	-1,916	-26,708	12,09
67860	-3,7461	-1,9118	-26,824	12,273
67861	-3,8315	-2,4858	-26,389	12,039
67862	-15,43	-1,9721	-26,874	8,1212
67863	-14,769	-1,9703	-27,063	8,4416
67864	-14,97	-2,4901	-26,653	8,3611
67865	-5,1012	-1,9511	-27,293	12,189
67866	-4,527	-1,9207	-27,427	12,406
67867	-4,6226	-2,4894	-26,992	12,176
67868	-16,296	-1,9762	-27,355	7,6484
67869	-15,629	-1,9733	-27,549	7,9855
67870	-15,846	-2,4914	-27,133	7,9019
67871	-5,8958	-1,9597	-27,867	12,201
67872	-5,2409	-1,9845	-28,001	12,478
67873	-5,3893	-2,52	-27,576	12,246
67874	-16,5	-1,9787	-28,027	7,4911
67875	-16,729	-2,4959	-27,607	7,4031
67876	-10,873	-1,9638	-25,93	10,03
67877	-11,532	-1,9661	-25,753	9,7645
67878	-11,036	-2,4966	-25,528	9,9175
67879	-10,42	-1,963	-26,79	10,318
67880	-11,077	-1,9652	-26,614	10,029
67881	-10,574	-2,496	-26,384	10,197
67882	-6,7379	-1,9419	-28,429	12,119
67883	-6,1051	-1,9385	-28,579	12,431
67884	-6,2648	-2,4706	-28,151	12,204
67885	-2,577	-1,8919	-27,028	12,56
67886	-3,1517	-1,901	-26,926	12,411
67887	-2,6673	-2,4348	-26,607	12,319
67888	-9,9671	-1,9619	-27,647	10,634
67889	-10,626	-1,9646	-27,473	10,319
67890	-10,115	-2,4959	-27,239	10,504
67891	-2,1846	-1,8764	-27,876	13,091
67892	-2,7647	-1,9024	-27,762	12,923
67893	-2,2545	-2,4317	-27,445	12,83
67894	-9,5026	-1,9603	-28,497	10,984
67895	-10,162	-1,9632	-28,332	10,641
67896	-9,6555	-2,4958	-28,094	10,84
67897	-7,5623	-1,9508	-28,974	11,955
67898	-6,9251	-1,9487	-29,128	12,301
67899	-7,054	-2,4961	-28,706	12,101
67900	-1,7567	-1,8811	-28,787	13,693
67901	-2,2676	-1,8854	-28,623	13,503
67902	-1,7612	-2,4043	-28,337	13,412
67903	-1,976	-2,0379	-28,733	13,623
67904	-1,1746	-2,2996	-27,807	13,113
67905	-8,3947	-1,957	-29,51	11,704
67906	-7,7512	-1,9566	-29,673	12,082
67907	-7,8859	-2,4963	-29,255	11,899
67908	-1,4241	-1,9228	-29,592	14,245
67909	-2,0271	-1,9299	-29,545	14,096
67910	-1,843	-2,4445	-29,156	13,895
67911	-1,7532	-2,0592	-29,21	13,942
67912	8,3374	-1,9793	43,186	15,071
67913	8,1291	-2,5133	43,652	15,204
67914	-1,0562	-1,9622	-30,339	14,793
67915	-1,6652	-1,9621	-30,17	14,586
67916	-1,5195	-2,4688	-30,019	14,509
67917	-1,6434	-2,0796	-29,538	14,172
67918	-3,9276	-1,9165	-27,543	12,583
67919	-3,3394	-1,9116	-27,659	12,78
67920	-3,4091	-2,4728	-27,206	12,524
67921	-9,0403	-1,9595	-29,348	11,364
67922	-9,6894	-1,9614	-29,183	10,996
67923	-9,1906	-2,4954	-28,938	11,208
67924	-4,6667	-1,9541	-28,135	12,69
67925	-4,1021	-1,9228	-28,273	12,926
67926	-4,1962	-2,4817	-27,826	12,674
67927	-9,2335	-1,9612	-30,035	11,373
67928	-8,5565	-1,9768	-30,206	11,791
67929	-8,7316	-2,4954	-29,791	11,606
67930	-1,0978	-1,9834	-31,101	15,321
67931	-0,53275	-1,98	-31,134	15,413
67932	-0,83183	-2,4972	-30,746	15,103
67933	-11,737	-1,9675	-26,437	9,7654
67934	-12,394	-1,9685	-26,255	9,4802
67935	-11,897	-2,4962	-26,035	9,6661
67936	-5,4502	-1,9633	-28,714	12,701
67937	-4,7965	-1,9888	-28,85	13,006
67938	-4,9408	-2,5165	-28,412	12,751
67939	-11,282	-1,9668	-27,297	10,033
67940	-11,936	-1,9676	-27,12	9,7262
67941	-11,439	-2,4956	-26,892	9,9243
67942	-12,593	-1,9686	-26,938	9,4425
67943	-13,254	-1,9693	-26,753	9,1374
67944	-12,762	-2,4942	-26,533	9,3509
67945	-10,821	-1,9659	-28,158	10,329
67946	-11,48	-1,9672	-27,976	9,9951
67947	-10,977	-2,4951	-27,749	10,21
67948	-12,134	-1,968	-27,799	9,6909
67949	-12,792	-1,9683	-27,619	9,3664
67950	-12,3	-2,4933	-27,397	9,5912
67951	-13,453	-1,969	-27,434	9,0629
67952	-14,111	-1,9697	-27,249	8,7437
67953	-13,634	-2,4915	-27,028	8,9757
67954	-10,349	-1,9643	-29,018	10,657
67955	-11,013	-1,9665	-28,843	10,294
67956	-10,512	-2,495	-28,608	10,523
67957	-11,672	-1,9679	-28,661	9,9633
67958	-12,333	-1,9682	-28,478	9,6153
67959	-11,835	-2,4929	-28,252	9,8554
67960	-12,991	-1,9684	-28,298	9,2928
67961	-13,647	-1,9689	-28,114	8,9568
67962	-13,169	-2,4905	-27,891	9,1988
67963	-10,538	-1,9648	-29,698	10,623
67964	-9,8826	-1,9631	-29,87	11,009
67965	-10,039	-2,4944	-29,462	10,868
67966	-11,202	-1,9671	-29,523	10,264
67967	-11,864	-1,9684	-29,344	9,8904
67968	-11,371	-2,493	-29,117	10,144
67969	-12,525	-1,9687	-29,16	9,545
67970	-13,184	-1,9688	-28,977	9,1879
67971	-12,704	-2,49	-28,754	9,4421
67972	-11,395	-1,9676	-30,202	10,187
67973	-10,733	-1,9662	-30,378	10,587
67974	-10,898	-2,4925	-29,971	10,459
67975	-12,058	-1,969	-30,023	9,817
67976	-12,716	-1,9693	-29,84	9,4393
67977	-12,236	-2,4901	-29,613	9,707
67978	-14,969	-1,9715	-27,738	8,3046
67979	-14,305	-1,9696	-27,928	8,6392
67980	-14,504	-2,4896	-27,517	8,5518
67981	-11,595	-1,9685	-30,884	10,106
67982	-12,254	-1,9692	-30,705	9,7045
67983	-11,768	-2,4899	-30,476	9,9911
67984	-15,833	-1,9759	-28,221	7,8265
67985	-15,163	-1,9728	-28,415	8,1741
67986	-15,383	-2,4909	-27,998	8,0825
67987	-6,2924	-1,9453	-29,279	12,607
67988	-5,629	-1,9662	-29,43	12,963
67989	-5,8174	-2,4726	-28,996	12,702
67990	-16,033	-1,9785	-28,894	7,6744
67991	-16,263	-2,4957	-28,474	7,5813
67992	-7,1141	-1,9546	-29,828	12,422
67993	-6,4717	-1,954	-29,985	12,808
67994	-6,6045	-2,4965	-29,551	12,584
67995	-7,2967	-1,9627	-30,533	12,564
67996	-7,9131	-1,9764	-30,369	12,163
67997	-7,4325	-2,4975	-30,104	12,36
67998	-13,841	-1,9692	-28,793	8,8539
67999	-14,5	-1,9709	-28,605	8,507
68000	-14,038	-2,4887	-28,382	8,7599
68001	-10,078	-1,9645	-30,55	10,969
68002	-9,4264	-1,9639	-30,727	11,386
68003	-9,5815	-2,4943	-30,311	11,234
68004	-13,376	-1,9693	-29,657	9,0847
68005	-14,038	-1,9708	-29,469	8,7205
68006	-13,572	-2,4881	-29,246	8,9847
68007	-14,698	-1,9724	-29,28	8,3757
68008	-15,363	-1,9754	-29,087	8,02
68009	-14,913	-2,4903	-28,864	8,2803
68010	-10,932	-1,967	-31,06	10,502
68011	-10,278	-1,9664	-31,235	10,926
68012	-10,434	-2,4924	-30,828	10,795
68013	-12,913	-1,9695	-30,522	9,3297
68014	-13,57	-1,9708	-30,335	8,9514
68015	-13,105	-2,4879	-30,109	9,2252
68016	-14,232	-1,9723	-30,146	8,5896
68017	-14,901	-1,9752	-29,953	8,2205
68018	-14,45	-2,4898	-29,73	8,4871
68019	-11,787	-1,9685	-31,566	9,9892
68020	-11,134	-1,968	-31,745	10,412
68021	-11,302	-2,4893	-31,336	10,294
68022	-12,447	-1,9693	-31,387	9,5912
68023	-13,11	-1,9707	-31,2	9,1899
68024	-12,641	-2,4873	-30,973	9,4799
68025	-13,767	-1,972	-31,012	8,8143
68026	-14,431	-1,975	-30,82	8,4344
68027	-13,98	-2,4893	-30,596	8,7095
68028	-15,566	-1,9782	-29,76	7,8671
68029	-15,796	-2,4955	-29,341	7,7696
68030	-12,639	-1,97	-32,065	9,4466
68031	-11,985	-1,9688	-32,251	9,8635
68032	-12,171	-2,4868	-31,836	9,7517
68033	-13,302	-1,9714	-31,878	9,0484
68034	-13,968	-1,9744	-31,686	8,6523
68035	-13,518	-2,4888	-31,461	8,9382
68036	-13,5	-1,9733	-32,553	8,8807
68037	-12,838	-1,9707	-32,744	9,2905
68038	-13,049	-2,4882	-32,327	9,1799
68039	-15,1	-1,9779	-30,627	8,0678
68040	-15,33	-2,4951	-30,208	7,9665
68041	8,8159	-1,9605	42,331	14,573
68042	8,6095	-2,4937	42,797	14,751
68043	-2,8477	-1,9114	-28,509	13,339
68044	-3,5139	-1,9178	-28,39	13,116
68045	-2,9514	-2,459	-28,091	13,082
68046	-14,633	-1,9773	-31,494	8,2751
68047	-14,863	-2,4946	-31,074	8,1707
68048	-3,0129	-1,9175	-29,253	13,709
68049	-2,5381	-1,9343	-29,382	13,916
68050	-2,3539	-2,4489	-28,993	13,709
68051	-2,2641	-2,0636	-29,047	13,753
68052	-3,6791	-1,9238	-29,134	13,494
68053	-4,2318	-1,9575	-28,988	13,236
68054	-3,7876	-2,459	-28,69	13,22
68055	-14,166	-1,9764	-32,36	8,4875
68056	-14,392	-2,4938	-31,941	8,3839
68057	-3,8098	-1,9564	-29,86	13,833
68058	-3,2528	-1,9218	-30,	14,109
68059	-3,3352	-2,4894	-29,548	13,819
68060	-4,3626	-1,9901	-29,714	13,582
68061	-4,9753	-1,9918	-29,567	13,26
68062	-4,5038	-2,5142	-29,263	13,299
68063	-4,5386	-1,9919	-30,44	13,862
68064	-3,9546	-1,9651	-30,598	14,21
68065	-4,084	-2,5242	-30,139	13,902
68066	-5,1513	-1,9936	-30,293	13,55
68067	-5,8083	-1,975	-30,136	13,157
68068	-5,3068	-2,5167	-29,844	13,271
68069	-2,2682	-1,9692	-30,123	14,448
68070	-2,778	-1,9386	-30,129	14,308
68071	-2,4738	-2,4799	-29,972	14,296
68072	-2,2464	-2,0867	-29,491	14,03
68073	-5,35	-1,9807	-31,014	13,758
68074	-4,7163	-1,9776	-31,18	14,186
68075	-4,8644	-2,5243	-30,717	13,876
68076	-2,2969	-1,9814	-30,842	14,902
68077	-1,7068	-1,9833	-30,932	15,118
68078	-2,0716	-2,5042	-30,519	14,756
68079	-1,9943	-2,0985	-29,788	14,289
68080	-2,8067	-1,9509	-30,848	14,766
68081	-3,3976	-1,9305	-30,738	14,476
68082	-2,9972	-2,4594	-30,434	14,439
68083	-6,6544	-1,9622	-30,691	12,942
68084	-6,0071	-1,9622	-30,858	13,375
68085	-6,149	-2,4983	-30,409	13,119
68086	-2,9109	-1,9847	-31,572	15,184
68087	-2,3115	-1,9788	-31,674	15,484
68088	-2,5724	-2,4911	-31,271	15,114
68089	-7,4523	-1,9811	-31,23	12,652
68090	-6,8293	-1,972	-31,401	13,1
68091	-6,9734	-2,4998	-30,959	12,869
68092	-8,0687	-1,9949	-31,066	12,258
68093	-8,7493	-1,9795	-30,898	11,799
68094	-8,2449	-2,5122	-30,642	12,055
68095	-6,1821	-1,972	-31,568	13,524
68096	-5,5276	-1,9727	-31,742	14,012
68097	-5,6864	-2,5048	-31,285	13,716
68098	-8,2976	-1,9831	-31,755	12,241
68099	-7,6013	-1,9965	-31,927	12,757
68100	-7,7806	-2,5107	-31,494	12,531
68101	-8,9783	-1,9678	-31,587	11,789
68102	-9,6264	-1,9658	-31,412	11,338
68103	-9,118	-2,4947	-31,168	11,634
68104	-3,5018	-1,9643	-31,462	14,903
68105	-4,1323	-1,9508	-31,338	14,522
68106	-3,7149	-2,4735	-31,028	14,545
68107	-9,1809	-1,9702	-32,276	11,73
68108	-8,5201	-1,9742	-32,447	12,229
68109	-8,6691	-2,4954	-32,02	12,055
68110	-2,9813	-1,9916	-32,296	15,677
68111	-3,6047	-1,9993	-32,182	15,277
68112	-3,2325	-2,4962	-31,875	15,273
68113	-9,829	-1,9682	-32,101	11,285
68114	-10,479	-1,9673	-31,921	10,832
68115	-9,9771	-2,4923	-31,682	11,151
68116	-1,7214	-1,9806	-31,765	15,695
68117	-1,1294	-1,9874	-31,818	15,873
68118	-1,4132	-2,4958	-31,439	15,531
68119	-10,025	-1,9691	-32,789	11,182
68120	-9,3705	-1,9712	-32,966	11,675
68121	-9,5191	-2,4919	-32,547	11,532
68122	-10,676	-1,9683	-32,609	10,734
68123	-11,331	-1,9682	-32,43	10,283
68124	-10,839	-2,489	-32,195	10,613
68125	-4,2352	-1,9858	-32,058	14,907
68126	-4,8938	-1,9695	-31,908	14,427
68127	-4,459	-2,4904	-31,613	14,532
68128	-10,869	-1,9686	-33,295	10,593
68129	-10,216	-1,9692	-33,473	11,073
68130	-10,376	-2,488	-33,056	10,949
68131	-11,525	-1,9686	-33,116	10,146
68132	-12,183	-1,9696	-32,929	9,7041
68133	-11,71	-2,486	-32,699	10,031
68134	-13,705	-1,9756	-33,226	8,7
68135	-13,925	-2,4931	-32,808	8,5986
68136	-11,718	-1,9698	-33,794	9,9749
68137	-11,06	-1,9691	-33,981	10,441
68138	-11,244	-2,4853	-33,563	10,325
68139	-12,377	-1,9707	-33,607	9,5368
68140	-13,042	-1,973	-33,417	9,1069
68141	-12,586	-2,4877	-33,191	9,4251
68142	-12,578	-1,9731	-34,282	9,3404
68143	-11,911	-1,9712	-34,472	9,7896
68144	-12,121	-2,4873	-34,054	9,6774
68145	-2,3819	-1,9857	-32,398	15,967
68146	-1,7689	-1,9835	-32,474	16,256
68147	-2,0484	-2,4937	-32,073	15,854
68148	-13,243	-1,9754	-34,092	8,9136
68149	-13,463	-2,4926	-33,673	8,8126
68150	9,256	-1,9735	41,483	14,105
68151	9,0622	-2,4868	41,923	14,304
68152	-12,777	-1,9758	-34,958	9,1293
68153	-12,997	-2,4923	-34,539	9,0297
68154	-6,9783	-1,9874	-32,098	13,197
68155	-6,3175	-1,9913	-32,272	13,721
68156	-6,5045	-2,5034	-31,829	13,436
68157	-7,8237	-1,9876	-32,62	12,737
68158	-7,1243	-1,9985	-32,794	13,312
68159	-7,3051	-2,5084	-32,356	13,06
68160	-3,0743	-2,0005	-33,021	16,112
68161	-2,4376	-1,9968	-33,114	16,529
68162	-2,7129	-2,5045	-32,703	16,081
68163	-8,7096	-1,9752	-33,138	12,167
68164	-8,0442	-1,981	-33,311	12,718
68165	-8,1907	-2,4943	-32,88	12,532
68166	-3,6977	-2,0081	-32,907	15,726
68167	-4,3625	-2,0034	-32,786	15,208
68168	-3,9512	-2,5119	-32,47	15,295
68169	-9,5606	-1,9712	-33,65	11,56
68170	-8,9031	-1,9745	-33,826	12,095
68171	-9,0526	-2,4891	-33,399	11,943
68172	-5,663	-1,9919	-32,446	14,198
68173	-5,0211	-1,9871	-32,636	14,743
68174	-5,2072	-2,5151	-32,166	14,387
68175	-10,406	-1,9696	-34,159	10,916
68176	-9,7499	-1,9704	-34,336	11,431
68177	-9,9123	-2,4857	-33,915	11,303
68178	9,6786	-2,005	40,641	13,628
68179	9,4901	-2,5025	41,072	13,838
68180	-11,252	-1,9705	-34,659	10,252
68181	-10,594	-1,9699	-34,845	10,743
68182	-10,778	-2,4837	-34,424	10,627
68183	-12,111	-1,9738	-35,149	9,5754
68184	-11,444	-1,972	-35,338	10,044
68185	-11,654	-2,4865	-34,92	9,9329
68186	10,122	-2,0282	39,774	13,129
68187	9,9345	-2,529	40,192	13,337
68188	-12,31	-1,9766	-35,824	9,3415
68189	-12,53	-2,4918	-35,405	9,2447
68190	-3,8107	-2,0083	-33,634	16,087
68191	-3,1424	-2,0042	-33,745	16,652
68192	-3,4212	-2,5131	-33,321	16,157
68193	-6,4635	-2,0023	-32,968	13,826
68194	-5,8113	-2,0075	-33,158	14,414
68195	-5,9855	-2,5168	-32,699	14,099
68196	-7,3448	-1,9919	-33,485	13,282
68197	-6,6647	-2,0003	-33,665	13,907
68198	-6,8193	-2,5056	-33,228	13,654
68199	-1,3238	-2,1034	-38,762	24,323
68200	-0,65209	-2,0898	-38,769	24,816
68201	-0,9474	-2,617	-39,097	25,045
68202	-0,61235	-2,0631	-39,411	24,725
68203	-1,5835	-2,4356	-39,389	24,27
68204	-8,2377	-1,9803	-33,999	12,637
68205	-7,5682	-1,9861	-34,173	13,248
68206	-7,7083	-2,4917	-33,743	13,053
68207	-4,4755	-2,0036	-33,513	15,587
68208	-5,1694	-2,0027	-33,349	14,944
68209	-4,7068	-2,5255	-33,055	15,157
68210	10,601	-2,0334	38,895	12,612
68211	10,391	-2,5264	39,315	12,835
68212	-9,0925	-1,9737	-34,512	11,959
68213	-8,4373	-1,9765	-34,688	12,539
68214	-8,5788	-2,4841	-34,261	12,387
68215	11,104	-2,0276	38,006	12,104
68216	10,871	-2,5181	38,434	12,333
68217	-9,9376	-1,9707	-35,023	11,252
68218	-9,2815	-1,9713	-35,201	11,803
68219	-9,4458	-2,4805	-34,776	11,672
68220	-4,6157	-2,006	-34,207	15,814
68221	-3,8944	-2,0073	-34,366	16,569
68222	-4,165	-2,5329	-33,911	16,039
68223	-10,785	-1,9713	-35,524	10,531
68224	-10,125	-1,9706	-35,71	11,049
68225	-10,311	-2,4805	-35,287	10,934
68226	-11,644	-1,9748	-36,013	9,8066
68227	-10,976	-1,9729	-36,203	10,294
68228	-11,188	-2,4845	-35,783	10,186
68229	11,602	-2,0166	37,116	11,633
68230	11,36	-2,5089	37,552	11,856
68231	-5,3095	-2,0051	-34,043	15,191
68232	-6,0125	-2,0055	-33,855	14,48
68233	-5,5365	-2,5104	-33,592	14,795
68234	-11,838	-1,9778	-36,69	9,5501
68235	-12,063	-2,4906	-36,27	9,454
68236	-1,9904	-2,0223	-38,162	22,719
68237	-1,3034	-1,9857	-38,194	23,485
68238	-1,7737	-2,5557	-38,401	23,412
68239	-1,9072	-2,3574	-39,131	23,737
68240	-5,4783	-1,9927	-34,736	15,29
68241	-4,7638	-1,95	-34,996	16,165
68242	-4,9756	-2,5104	-34,46	15,666
68243	-6,1813	-1,993	-34,548	14,598
68244	-6,8882	-1,9945	-34,352	13,86
68245	-6,3874	-2,5	-34,103	14,261
68246	-2,6528	-1,9934	-37,468	20,808
68247	-2,6613	-2,0979	-38,159	21,602
68248	-1,9911	-2,0026	-37,471	21,574
68249	-2,3538	-2,5253	-37,766	21,607
68250	-5,7677	-1,9732	-35,461	15,298
68251	-6,3998	-1,9827	-35,236	14,536
68252	-5,8726	-2,4856	-34,993	15,029
68253	-3,313	-1,9552	-36,707	19,059
68254	-3,3603	-1,9741	-37,412	19,568
68255	-2,6259	-1,965	-36,775	19,876
68256	-3,0224	-2,5009	-37,017	19,723
68257	-4,0707	-1,9213	-35,907	17,468
68258	-3,9923	-1,8996	-36,679	18,047
68259	-3,3058	-1,9606	-35,982	18,3
68260	-3,691	-2,4692	-36,239	18,14
68261	-4,1624	-2,1233	-36,333	17,588
68262	-5,0531	-1,9306	-35,721	16,145
68263	-4,6005	-1,908	-35,997	16,832
68264	-4,0426	-1,9514	-35,155	16,891
68265	-4,4488	-2,4498	-35,409	16,695
68266	-4,5794	-2,1017	-35,941	16,844
68267	-7,7679	-1,9822	-34,862	13,14
68268	-7,1067	-1,9842	-35,04	13,814
68269	-7,2201	-2,4864	-34,612	13,627
68270	-6,0426	-1,955	-36,146	15,149
68271	-5,4664	-1,9473	-36,371	15,951
68272	-5,4744	-2,4709	-35,898	15,764
68273	-5,1448	-2,1326	-36,147	16,291
68274	-8,6264	-1,974	-35,376	12,375
68275	-7,9744	-1,9738	-35,555	13,006
68276	-8,099	-2,4763	-35,129	12,865
68277	-4,5221	-1,8863	-36,769	17,432
68278	-5,0138	-1,9248	-36,647	16,62
68279	-4,6922	-2,1101	-36,423	16,971
68280	-4,9942	-2,0432	-37,051	16,78
68281	-9,4687	-1,9711	-35,887	11,594
68282	-8,813	-1,9699	-36,069	12,184
68283	-8,9635	-2,4739	-35,643	12,067
68284	12,084	-2,0056	36,229	11,2
68285	11,844	-2,5013	36,669	11,41
68286	-10,315	-1,9721	-36,389	10,808
68287	-9,6518	-1,9699	-36,575	11,355
68288	-9,8343	-2,4761	-36,15	11,249
68289	-6,6748	-1,9645	-35,921	14,403
68290	-7,3132	-1,9757	-35,733	13,669
68291	-6,7378	-2,4741	-35,49	14,255
68292	-11,17	-1,9759	-36,879	10,035
68293	-10,501	-1,9736	-37,068	10,539
68294	-10,709	-2,481	-36,647	10,442
68295	-11,366	-1,9788	-37,555	9,7469
68296	-11,586	-2,4881	-37,137	9,6614
68297	-6,8729	-1,9521	-36,62	14,227
68298	-6,2595	-1,9583	-36,845	15,043
68299	-6,2614	-2,4459	-36,378	14,953
68300	-7,5114	-1,9633	-36,432	13,504
68301	-8,1611	-1,9697	-36,248	12,808
68302	-7,6134	-2,4647	-36,004	13,383
68303	-4,0396	-1,9185	-37,384	18,596
68304	-4,6953	-1,8802	-37,408	17,441
68305	-4,5634	-2,2824	-36,956	17,48
68306	-4,501	-2,08	-36,713	17,443
68307	-4,803	-2,0131	-37,342	17,25
68308	-7,6915	-1,9584	-37,125	13,265
68309	-7,05	-1,9477	-37,319	14,038
68310	-7,1216	-2,447	-36,89	13,951
68311	-3,3688	-2,0786	-38,103	20,408
68312	-4,2148	-2,0019	-38,044	18,599
68313	-3,7863	-2,4837	-37,658	19,187
68314	-3,3247	-2,1845	-38,943	21,101
68315	-3,045	-2,6125	-38,415	21,28
68316	-8,3412	-1,9648	-36,941	12,576
68317	-8,9962	-1,9688	-36,756	11,94
68318	-8,483	-2,4659	-36,514	12,472
68319	-8,5181	-1,964	-37,624	12,29
68320	-7,8621	-1,9594	-37,815	12,985
68321	-7,9907	-2,4549	-37,39	12,901
68322	-9,8378	-1,9714	-37,253	11,082
68323	-9,1731	-1,968	-37,44	11,658
68324	-9,3492	-2,4699	-37,017	11,567
68325	12,558	-1,9977	35,348	10,795
68326	12,32	-2,4968	35,788	10,994
68327	-10,697	-1,9766	-37,744	10,249
68328	-10,027	-1,9739	-37,93	10,768
68329	-10,226	-2,477	-37,512	10,688
68330	-10,899	-1,9793	-38,419	9,9231
68331	-11,112	-2,4849	-38,001	9,8527
68332	-9,3621	-1,9704	-38,116	11,341
68333	-8,6933	-1,9668	-38,305	11,953
68334	-8,865	-2,4637	-37,887	11,874
68335	-10,229	-1,9767	-38,605	10,44
68336	-9,5537	-1,9739	-38,791	10,974
68337	-9,7504	-2,4725	-38,378	10,909
68338	-5,6833	-1,9506	-37,07	15,829
68339	-5,187	-1,9187	-37,286	16,651
68340	-5,055	-2,3209	-36,834	16,674
68341	-4,9927	-2,1184	-36,591	16,628
68342	-5,2946	-2,0515	-37,219	16,462
68343	-10,434	-1,979	-39,281	10,078
68344	-10,639	-2,4811	-38,869	10,023
68345	-6,4366	-1,9539	-37,544	14,843
68346	-5,8798	-1,9651	-37,771	15,681
68347	-5,7294	-2,423	-37,354	15,859
68348	-5,6637	-2,069	-37,475	16,006
68349	13,03	-1,9957	34,472	10,411
68350	12,792	-2,4954	34,911	10,6
68351	-4,8705	-1,9636	-38,068	17,488
68352	-5,3835	-1,9332	-37,987	16,489
68353	-5,2331	-2,391	-37,569	16,676
68354	-5,1674	-2,0371	-37,69	16,823
68355	-6,5592	-1,9111	-38,17	14,666
68356	-7,2206	-1,9486	-38,008	13,75
68357	-6,619	-2,4297	-37,781	14,602
68358	-4,1707	-2,1078	-38,885	19,345
68359	-4,7213	-2,0366	-38,765	17,999
68360	-4,7582	-2,4816	-38,349	17,815
68361	-4,9782	-2,0965	-38,002	17,3
68362	-6,0024	-1,9224	-38,397	15,496
68363	-5,2343	-2,0062	-38,683	17,011
68364	-5,2711	-2,4512	-38,267	16,818
68365	-5,4911	-2,0661	-37,921	16,302
68366	-5,517	-2,2728	-38,893	16,433
68367	-6,6784	-1,9256	-38,868	14,385
68368	-6,0669	-1,9205	-39,094	15,397
68369	-6,1148	-2,4261	-38,748	15,337
68370	-5,8122	-2,233	-39,072	15,958
68371	-3,9415	-2,1295	-39,516	20,125
68372	-3,6876	-2,6291	-39,118	20,481
68373	-3,7408	-2,7578	-39,631	20,645
68374	-3,6623	-2,5629	-39,454	20,797
68375	-7,3399	-1,9631	-38,707	13,477
68376	-8,0374	-1,9622	-38,495	12,644
68377	-7,5015	-2,4474	-38,273	13,345
68378	-7,5192	-1,9688	-39,383	13,064
68379	-6,8451	-1,9701	-39,59	13,979
68380	-6,9719	-2,4583	-39,176	13,887
68381	-8,2168	-1,9679	-39,171	12,234
68382	-8,8849	-1,9703	-38,98	11,584
68383	-8,3773	-2,4591	-38,762	12,176
68384	-4,492	-2,0583	-39,396	18,79
68385	-5,2988	-2,0043	-39,38	16,895
68386	-4,7332	-2,5508	-39,136	18,104
68387	-5,0181	-2,1101	-38,386	17,334
68388	-5,044	-2,3168	-39,358	17,46
68389	13,503	-1,9965	33,595	10,043
68390	13,265	-2,497	34,034	10,224
68391	-8,3921	-1,9719	-39,858	11,822
68392	-7,7046	-1,9727	-40,062	12,555
68393	-7,8948	-2,4587	-39,643	12,465
68394	-4,7329	-2,0456	-40,071	18,268
68395	-4,1665	-2,6267	-39,432	19,518
68396	-4,2976	-2,6438	-39,893	19,345
68397	-3,9437	-2,4998	-39,581	20,193
68398	-4,7748	-2,3249	-39,605	18,201
68399	-9,0602	-1,9743	-39,666	11,174
68400	-9,7585	-1,9762	-39,467	10,611
68401	-9,2623	-2,4685	-39,25	11,115
68402	13,975	-1,9958	32,718	9,6921
68403	13,736	-2,4979	33,158	9,8651
68404	-9,2686	-1,9765	-40,332	10,776
68405	-8,5893	-1,9762	-40,517	11,337
68406	-8,7591	-2,4659	-40,138	11,31
68407	-9,9669	-1,9784	-40,133	10,214
68408	-10,162	-2,4766	-39,736	10,176
68409	-6,2336	-1,965	-39,815	14,986
68410	-5,5397	-1,9916	-40,055	16,421
68411	-5,7686	-2,5356	-39,648	15,906
68412	-5,5816	-2,2709	-39,589	16,338
68413	14,447	-1,9962	31,841	9,3568
68414	14,207	-2,4974	32,281	9,5227
68415	-9,5025	-1,9783	-40,976	10,331
68416	-9,6797	-2,4728	-40,596	10,309
68417	-7,0304	-1,9741	-40,269	13,469
68418	-6,3501	-1,9842	-40,493	14,56
68419	-6,565	-2,4783	-40,05	14,31
68420	-7,9017	-1,977	-40,721	12,07
68421	-7,2117	-1,9804	-40,929	12,885
68422	-7,3702	-2,4672	-40,554	12,814
68423	-5,6562	-2,0108	-40,733	15,987
68424	-5,2292	-2,5471	-40,519	17,079
68425	-5,2849	-2,3042	-40,033	16,978
68426	-8,8232	-1,978	-41,161	10,891
68427	-8,1397	-1,9786	-41,346	11,476
68428	-8,3228	-2,4741	-40,972	11,436
68429	-6,5314	-1,9906	-41,153	13,975
68430	-5,8119	-1,9892	-41,399	15,401
68431	-6,0128	-2,5021	-41,001	15,038
68432	-9,0444	-1,9785	-41,816	10,425
68433	-9,2075	-2,4699	-41,46	10,416
68434	-7,4497	-1,9821	-41,554	12,292
68435	-6,7222	-1,9793	-41,82	13,274
68436	-6,9078	-2,4709	-41,426	13,138
68437	14,921	-1,9973	30,964	9,0369
68438	14,68	-2,4989	31,404	9,1951
68439	-8,3609	-1,9791	-42,001	11,011
68440	-7,6328	-1,9738	-42,246	11,658
68441	-7,8077	-2,4633	-41,869	11,625
68442	-6,0027	-1,9779	-42,066	14,706
68443	-5,4993	-2,4911	-41,899	16,016
68444	-8,5465	-1,9775	-42,702	10,515
68445	-8,732	-2,4674	-42,322	10,506
68446	15,393	-1,996	30,087	8,7345
68447	15,153	-2,4989	30,527	8,8837
68448	-6,9053	-1,971	-42,512	12,647
68449	-6,2452	-1,9557	-42,768	13,698
68450	-6,3623	-2,4567	-42,374	13,68
68451	15,864	-1,9949	29,21	8,4493
68452	15,627	-2,4964	29,649	8,5886
68453	-7,8184	-1,9721	-42,947	11,165
68454	-7,1167	-1,9655	-43,13	11,89
68455	-7,2774	-2,4516	-42,803	11,84
68456	-8,0435	-1,9749	-43,582	10,584
68457	-8,2194	-2,4664	-43,234	10,585
68458	-6,4565	-1,9503	-43,386	12,966
68459	16,337	-1,9951	28,332	8,181
68460	16,102	-2,4982	28,774	8,3103
68461	-7,3418	-1,9683	-43,764	11,318
68462	-6,6959	-1,9236	-43,736	12,259
68463	-6,8294	-2,4548	-43,585	12,07
68464	-7,6147	-1,9521	-44,384	10,575
68465	-7,7515	-2,4707	-44,086	10,621
68466	-6,9689	-1,9073	-44,355	11,524
68467	-5,9025	-1,9245	-44,138	14,064
68468	16,811	-1,9966	27,455	7,9305
68469	16,574	-2,4984	27,896	8,0509
68470	17,284	-1,9981	26,578	7,6995
68471	17,048	-2,5001	27,019	7,8098
68472	17,755	-1,9971	25,7	7,4894
68473	17,519	-2,5002	26,141	7,5892
68474	18,227	-1,9964	24,822	7,3001
68475	17,99	-2,4977	25,262	7,3897
68476	18,7	-1,9967	23,944	7,1328
68477	18,462	-2,4981	24,384	7,2113
68478	19,173	-1,9966	23,066	6,9892
68479	18,935	-2,4982	23,507	7,0555
68480	19,645	-1,9981	22,19	6,8709
68481	19,409	-2,4983	22,629	6,9238
68482	20,118	-2,0003	21,314	6,7798
68483	19,881	-2,5019	21,753	6,8184
68484	20,59	-2,0009	20,437	6,7182
68485	20,354	-2,5028	20,876	6,7416
68486	21,063	-2,0006	19,56	6,689
68487	20,826	-2,5033	19,999	6,6957
68488	21,535	-2,0002	18,683	6,6954
68489	21,298	-2,5034	19,122	6,6837
68490	22,008	-1,9992	17,807	6,7418
68491	21,771	-2,5037	18,245	6,7094
68492	22,481	-1,9973	16,93	6,8336
68493	22,245	-2,4992	17,369	6,7764
68494	22,953	-1,9959	16,054	6,9779
68495	22,717	-2,4984	16,492	6,8928
68496	23,425	-1,9948	15,177	7,1839
68497	23,189	-2,4969	15,616	7,0657
68498	23,897	-1,9923	14,302	7,4619
68499	23,66	-2,5009	14,738	7,3074
68500	24,368	-1,9873	13,43	7,8259
68501	24,131	-2,4972	13,863	7,6253
68502	24,837	-1,9707	12,566	8,2881
68503	24,602	-2,4911	12,988	8,0393
68504	25,306	-1,9517	11,712	8,8651
68505	25,071	-2,4741	12,116	8,5689
68506	25,776	-1,9411	10,862	9,5877
68507	25,538	-2,4657	11,24	9,2445
68508	26,251	-1,9307	10,022	10,467
68509	25,999	-2,4598	10,367	10,09
68510	6,4914	-2,0167	-45,287	11,486
68511	6,2585	-2,044	-44,585	12,444
68512	6,1893	-2,4887	-44,787	12,416
68513	6,0412	-2,3605	-44,53	13,023
68514	26,733	-1,9213	9,1883	11,525
68515	26,47	-2,4563	9,5039	11,11
68516	7,1248	-2,0433	-45,139	10,569
68517	27,209	-1,9129	8,3523	12,779
68518	26,937	-2,454	8,6416	12,34
68519	27,687	-1,9068	7,5246	14,172
68520	27,405	-2,457	7,7981	13,724
68521	28,167	-1,9083	6,7125	15,601
68522	27,885	-2,468	6,9791	15,178
68523	28,618	-1,9646	5,9056	16,93
68524	28,381	-2,4559	6,2291	16,497
68525	28,343	-2,2223	5,0155	19,62
68526	14,985	-1,8403	-2,3227	12,327
68527	15,605	-1,8747	-2,0188	12,756
68528	15,12	-2,4309	-2,0195	12,471
68529	14,695	-1,8834	-3,168	12,007
68530	15,329	-1,8729	-2,8425	12,444
68531	14,844	-2,4923	-2,8128	12,163
68532	16,549	-1,9106	-2,1917	13,294
68533	15,949	-1,9073	-2,5387	12,855
68534	16,028	-2,4567	-2,1805	12,979
68535	17,512	-1,9091	-2,3706	13,838
68536	16,88	-1,9437	-2,7465	13,366
68537	16,981	-2,4583	-2,3486	13,527
68538	18,5	-1,9215	-2,5587	14,388
68539	17,856	-1,9429	-2,944	13,899
68540	17,932	-2,515	-2,5641	14,049
68541	14,383	-1,965	-4,0539	11,643
68542	15,03	-1,9558	-3,7458	12,083
68543	14,56	-2,5471	-3,7208	11,835
68544	14,702	-2,0031	-4,6051	11,666
68545	14,059	-2,0014	-4,8914	11,254
68546	14,146	-2,5858	-4,5653	11,396
68547	18,875	-1,9293	-3,1117	14,489
68548	18,965	-2,4664	-2,7217	14,648
68549	15,665	-1,9453	-3,4203	12,499
68550	16,28	-1,9404	-3,0935	12,952
68551	15,778	-2,4606	-3,0355	12,67
68552	15,35	-1,9939	-4,297	12,089
68553	15,976	-1,9911	-3,9863	12,539
68554	15,466	-2,5097	-3,9105	12,279
68555	15,679	-1,9893	-4,8342	12,111
68556	15,089	-1,9492	-5,1007	11,714
68557	15,154	-2,5167	-4,7525	11,858
68558	16,591	-1,9862	-3,6594	12,97
68559	17,224	-1,9776	-3,3199	13,46
68560	16,706	-2,4942	-3,2549	13,165
68561	16,305	-1,9865	-4,5235	12,543
68562	16,93	-1,9873	-4,2079	13,017
68563	16,41	-2,5069	-4,1295	12,742
68564	16,638	-1,9756	-5,072	12,548
68565	16,056	-1,9411	-5,3431	12,133
68566	16,075	-2,5479	-5,0087	12,27
68567	17,562	-1,9787	-3,8683	13,479
68568	18,23	-1,9508	-3,497	14,042
68569	17,651	-2,5371	-3,4795	13,674
68570	17,263	-1,9764	-4,7564	12,999
68571	17,934	-1,9455	-4,4087	13,555
68572	17,374	-2,4941	-4,3472	13,229
68573	18,602	-1,9176	-4,0374	14,077
68574	19,207	-1,9253	-3,6928	14,703
68575	18,653	-2,4861	-3,645	14,27
68576	17,629	-1,9373	-5,3022	13,008
68577	17,001	-1,9375	-5,6027	12,528
68578	17,015	-2,5279	-5,2565	12,685
68579	18,299	-1,9064	-4,9546	13,531
68580	18,902	-1,9044	-4,6353	14,122
68581	18,371	-2,4475	-4,5549	13,769
68582	18,592	-1,8987	-5,552	13,46
68583	17,978	-1,9027	-5,8516	12,938
68584	18,045	-2,4438	-5,4691	13,169
68585	19,507	-1,9121	-4,2908	14,686
68586	20,042	-1,9457	-3,9869	15,456
68587	19,572	-2,4633	-3,8843	14,94
68588	19,196	-1,8968	-5,2327	14,006
68589	19,729	-1,9321	-4,9514	14,629
68590	19,272	-2,4355	-4,8255	14,304
68591	19,42	-1,928	-5,8886	13,799
68592	18,883	-1,8941	-6,1458	13,295
68593	18,943	-2,4335	-5,7625	13,566
68594	20,264	-1,9657	-4,6476	15,309
68595	20,392	-2,4778	-4,2184	15,793
68596	19,953	-1,9633	-5,6073	14,368
68597	20,522	-1,9581	-5,2921	15,196
68598	20,075	-2,4727	-5,1672	14,812
68599	20,206	-1,9726	-6,2477	14,097
68600	19,643	-1,9533	-6,5513	13,489
68601	19,752	-2,4738	-6,1249	13,873
68602	20,776	-1,9674	-5,9326	14,859
68603	21,356	-2,063	-5,6131	15,859
68604	20,901	-2,4923	-5,5328	15,411
68605	21,036	-2,115	-6,5471	14,441
68606	20,497	-1,9547	-6,9017	13,725
68607	20,572	-2,4873	-6,4806	14,168
68608	27,147	-1,7365	-6,2657	17,255
68609	27,848	-1,7457	-6,1617	17,047
68610	27,517	-2,216	-5,4359	19,248
68611	27,413	-1,9721	-6,7032	16,105
68612	22,189	-2,0621	-5,8734	16,577
68613	21,616	-2,2105	-6,2276	15,376
68614	21,783	-2,4483	-5,8389	16,115
68615	22,395	-1,9453	-6,4298	15,899
68616	23,055	-1,7986	-6,1153	17,129
68617	22,602	-2,4663	-6,1239	16,673
68618	21,822	-2,0937	-6,784	14,753
68619	21,386	-2,1202	-7,1198	14,052
68620	21,4	-2,4503	-6,7342	14,511
68621	22,015	-1,8887	-7,1263	14,46
68622	22,48	-1,8634	-6,8659	15,146
68623	22,169	-2,51	-7,0637	14,625
68624	21,978	-2,2361	-7,5545	13,872
68625	22,067	-1,7681	-7,4584	14,015
68626	21,579	-1,9152	-7,4622	13,782
68627	21,778	-2,516	-7,652	13,655
68628	21,809	-2,1838	-7,7937	13,479
68629	23,14	-1,7167	-6,5514	16,36
68630	23,895	-1,6861	-6,4154	17,139
68631	23,569	-2,3205	-6,5685	16,608
68632	23,586	-2,0434	-6,6518	16,391
68633	25,876	-1,8973	-6,0901	18,625
68634	25,219	-1,8112	-6,3247	18,094
68635	25,574	-2,3688	-6,1696	18,548
68636	25,641	-1,9355	-6,0769	18,835
68637	25,614	-1,8529	-5,6746	20,642
68638	26,623	-1,8567	-6,4206	17,155
68639	26,01	-1,9329	-6,5678	17,038
68640	26,016	-1,9751	-6,2181	18,062
68641	27,515	-1,8459	-6,88	15,612
68642	26,758	-1,8028	-6,8414	15,986
68643	26,994	-2,4166	-6,3753	17,127
68644	27,261	-2,0121	-7,0475	15,302
68645	22,533	-1,7428	-7,1979	14,686
68646	23,467	-1,8067	-6,9716	15,496
68647	22,904	-2,4629	-7,1627	14,913
68648	23,222	-2,1124	-6,9449	15,447
68649	22,274	-2,1585	-7,5332	14,135
68650	24,222	-1,776	-6,8356	16,318
68651	24,611	-1,7446	-6,6365	16,884
68652	23,976	-2,0818	-6,8089	16,255
68653	22,727	-1,7828	-7,9877	13,505
68654	22,105	-1,8017	-7,8413	13,564
68655	22,66	-2,4199	-7,5161	14,222
68656	22,978	-2,0695	-7,2983	14,749
68657	22,031	-2,1156	-7,8866	13,465
68658	23,661	-1,8466	-7,7613	14,335
68659	24,414	-1,8451	-7,2369	15,366
68660	23,896	-2,4104	-6,9887	15,78
68661	24,649	-2,1011	-7,6492	14,578
68662	23,913	-2,1333	-7,0719	15,577
68663	28,216	-1,8551	-6,776	15,454
68664	28,312	-2,4379	-6,3737	16,205
68665	27,962	-2,0213	-6,9435	15,115
68666	23,542	-1,8749	-8,5377	12,933
68667	22,784	-1,9341	-8,5808	12,829
68668	23,198	-2,5369	-8,1863	13,416
68669	24,152	-2,1202	-8,312	13,331
68670	23,416	-2,1524	-7,7347	14,259
68671	25,353	-1,8468	-6,8024	16,474
68672	24,804	-1,8137	-7,0379	15,938
68673	25,359	-1,889	-6,4527	17,512
68674	27,845	-1,9499	-7,5334	14,095
68675	27,95	-2,5047	-7,1562	14,815
68676	27,781	-2,0815	-7,3175	14,493
68677	26,145	-1,879	-6,9886	15,852
68678	25,625	-1,8985	-7,3403	15,23
68679	25,708	-2,4044	-6,6474	16,942
68680	25,775	-1,9711	-6,5547	17,226
68681	25,076	-1,8654	-7,5757	14,671
68682	24,296	-1,8734	-8,0133	13,934
68683	24,691	-2,4988	-7,4212	15,033
68684	24,905	-2,1187	-7,7876	14,338
68685	27,088	-1,9067	-7,4948	14,404
68686	26,328	-1,8159	-7,3738	14,919
68687	26,531	-2,4147	-6,9477	15,838
68688	27,024	-2,0384	-7,2788	14,828
68689	25,808	-1,8354	-7,7255	14,292
68690	25,116	-1,8711	-8,2739	13,41
68691	25,622	-2,5037	-7,7338	14,321
68692	25,311	-2,1214	-7,988	13,937
68693	27,486	-1,955	-8,1999	12,936
68694	27,452	-2,4992	-8,0107	13,283
68695	27,591	-2,1161	-7,7009	13,766
68696	24,335	-1,8791	-8,7115	12,682
68697	23,636	-1,9585	-8,928	12,462
68698	23,837	-2,5767	-8,3699	13,226
68699	24,53	-2,1295	-8,4256	13,204
68700	26,726	-1,8641	-8,0789	13,372
68701	25,842	-1,8148	-8,383	13,138
68702	26,257	-2,4659	-7,6183	14,418
68703	26,83	-2,0253	-7,5799	14,233
68704	25,637	-2,0888	-7,9374	13,964
68705	25,15	-1,8505	-8,9314	12,269
68706	24,514	-1,9335	-9,1297	12,132
68707	24,718	-2,5684	-8,5435	12,936
68708	24,945	-2,1244	-8,4858	13,086
68709	26,908	-1,9333	-8,9639	11,833
68710	27,151	-2,4455	-8,5106	12,514
68711	27,422	-2,0866	-7,984	13,329
68712	26,229	-2,1501	-8,3414	13,006
68713	26,025	-1,8839	-9,268	11,562
68714	25,383	-1,8735	-9,5122	11,457
68715	25,516	-2,5072	-9,0183	12,098
68716	25,345	-2,1008	-8,6455	12,779
68717	26,292	-1,9358	-9,8935	10,615
68718	26,47	-2,4743	-9,4096	11,228
68719	25,819	-2,1579	-8,8223	12,33
68720	25,842	-1,953	-10,758	9,6719
68721	25,65	-1,9254	-10,138	10,501
68722	26,056	-2,4524	-10,305	10,137
68723	25,367	-1,9621	-11,606	8,9299
68724	25,168	-1,9537	-10,97	9,6833
68725	25,59	-2,4923	-11,14	9,3228
68726	24,901	-1,9667	-12,463	8,3209
68727	24,698	-1,9447	-11,822	9,0021
68728	25,132	-2,482	-12,009	8,6225
68729	24,434	-1,9897	-13,317	7,8409
68730	24,227	-1,9835	-12,662	8,4667
68731	24,671	-2,5006	-12,87	8,0718
68732	23,967	-1,9928	-14,178	7,4583
68733	23,761	-1,995	-13,516	8,0271
68734	24,205	-2,5059	-13,733	7,6374
68735	23,496	-1,9814	-15,041	7,1621
68736	23,293	-1,9892	-14,378	7,6743
68737	23,735	-2,4953	-14,604	7,2942
68738	23,026	-1,9737	-15,906	6,9352
68739	22,82	-1,9659	-15,242	7,4013
68740	23,267	-2,4949	-15,463	7,0368
68741	22,563	-1,9852	-16,771	6,7634
68742	22,353	-1,9701	-16,104	7,1901
68743	22,8	-2,4967	-16,33	6,8377
68744	22,097	-1,9879	-17,639	6,6432
68745	21,893	-1,9939	-16,967	7,0291
68746	22,335	-2,4982	-17,199	6,6923
68747	21,627	-1,9814	-18,509	6,5675
68748	21,422	-1,9777	-17,837	6,9197
68749	21,867	-2,4992	-18,064	6,5968
68750	21,161	-1,9824	-19,377	6,5291
68751	20,956	-1,9803	-18,704	6,8498
68752	21,401	-2,4997	-18,931	6,5403
68753	20,697	-1,9902	-20,24	6,5238
68754	20,49	-1,9822	-19,571	6,8165
68755	20,934	-2,5	-19,798	6,5194
68756	20,232	-1,998	-21,103	6,5479
68757	20,025	-1,9904	-20,434	6,8157
68758	20,469	-2,5073	-20,661	6,5293
68759	19,765	-1,9978	-21,971	6,5984
68760	19,559	-1,9908	-21,3	6,844
68761	20,001	-2,5008	-21,532	6,5668
68762	19,295	-1,9903	-22,842	6,6728
68763	19,091	-1,9903	-22,168	6,8986
68764	19,533	-2,4991	-22,401	6,6297
68765	18,827	-1,9834	-23,713	6,7682
68766	18,623	-1,9836	-23,038	6,9769
68767	19,064	-2,4923	-23,272	6,715
68768	18,36	-1,9834	-24,58	6,8824
68769	18,156	-1,9837	-23,905	7,0762
68770	18,597	-2,4927	-24,139	6,8199
68771	17,895	-1,9913	-25,443	7,013
68772	17,689	-1,9838	-24,772	7,1949
68773	18,131	-2,4932	-25,006	6,9429
68774	17,431	-2,0002	-26,304	7,159
68775	17,225	-1,9992	-25,632	7,3306
68776	17,666	-2,5084	-25,864	7,0817
68777	16,963	-1,9992	-27,173	7,3196
68778	16,759	-2,0003	-26,498	7,4827
68779	17,199	-2,5033	-26,734	7,2351
68780	16,496	-1,9987	-28,04	7,4923
68781	16,29	-1,9907	-27,369	7,6503
68782	16,732	-2,5085	-27,599	7,4025
68783	16,029	-1,9993	-28,907	7,6757
68784	15,824	-1,9923	-28,234	7,8301
68785	16,265	-2,5025	-28,469	7,5802
68786	15,561	-1,9989	-29,775	7,8688
68787	15,357	-1,9917	-29,102	8,0226
68788	15,798	-2,5096	-29,333	7,7691
68789	15,092	-1,9924	-30,647	8,0706
68790	14,89	-1,9929	-29,968	8,2258
68791	15,331	-2,5025	-30,204	7,9661
68792	14,626	-1,9933	-31,513	8,2778
68793	14,419	-1,987	-30,84	8,4398
68794	14,862	-2,5039	-31,072	8,1717
68795	14,162	-2,0014	-32,373	8,4891
68796	13,958	-2,0028	-31,698	8,6579
68797	14,398	-2,5034	-31,936	8,3804
68798	13,695	-2,0021	-33,239	8,7049
68799	13,491	-2,0046	-32,563	8,8853
68800	13,932	-2,5046	-32,802	8,5943
68801	13,229	-2,0022	-34,104	8,922
68802	13,025	-2,0048	-33,428	9,1172
68803	13,464	-2,5137	-33,664	8,8125
68804	12,762	-1,9999	-34,969	9,1386
68805	12,559	-2,0031	-34,291	9,352
68806	12,999	-2,504	-34,533	9,0288
68807	12,294	-1,9972	-35,835	9,3513
68808	12,093	-1,9982	-35,156	9,5875
68809	12,532	-2,5002	-35,399	9,244
68810	11,829	-1,9959	-36,698	9,5554
68811	11,627	-1,9971	-36,019	9,8185
68812	12,065	-2,4996	-36,264	9,4537
68813	11,361	-1,9825	-37,56	9,7495
68814	11,163	-1,9947	-36,878	10,041
68815	11,599	-2,5066	-37,125	9,6535
68816	7,5884	-2,0343	-44,318	10,658
68817	6,8919	-2,0706	-44,437	11,575
68818	7,3559	-2,5449	-44,802	10,6
68819	10,897	-1,9803	-38,42	9,9243
68820	10,689	-1,9656	-37,739	10,256
68821	11,129	-2,4922	-37,991	9,8414
68822	8,0575	-2,0077	-43,511	10,615
68823	7,4678	-2,002	-43,717	11,145
68824	7,8096	-2,501	-44,024	10,617
68825	10,438	-1,9917	-39,277	10,076
68826	10,236	-1,9915	-38,595	10,437
68827	10,668	-2,5014	-38,851	10,005
68828	8,5391	-1,9965	-42,63	10,548
68829	7,8745	-2,0021	-42,765	11,175
68830	8,2783	-2,4913	-43,124	10,586
68831	9,9797	-1,9816	-40,124	10,208
68832	9,7739	-1,9914	-39,45	10,603
68833	10,201	-2,5004	-39,713	10,15
68834	9,0323	-1,9846	-41,794	10,442
68835	8,3621	-1,9842	-41,924	11,043
68836	8,7686	-2,4894	-42,272	10,487
68837	9,5152	-1,9747	-40,959	10,327
68838	8,8493	-1,9728	-41,09	10,894
68839	9,2579	-2,4882	-41,418	10,39
68840	9,3124	-1,9807	-40,291	10,749
68841	9,7365	-2,4873	-40,568	10,272
68842	6,7713	-2,0383	-43,836	12,039
68843	6,3621	-2,5302	-44,413	12,413
68844	6,214	-2,402	-44,157	13,033
68845	7,2848	-1,9964	-42,971	11,695
68846	6,5888	-1,9846	-43,1	12,933
68847	7,0354	-2,5367	-43,598	11,694
68848	6,554	-2,3547	-43,782	12,578
68849	7,6975	-1,9898	-42,059	11,668
68850	7,0124	-1,9964	-42,206	12,634
68851	7,4065	-2,5125	-42,614	11,721
68852	6,7275	-2,3601	-43,292	12,58
68853	8,1791	-1,9723	-41,219	11,495
68854	7,4895	-1,9733	-41,417	12,3
68855	7,8922	-2,4805	-41,758	11,594
68856	8,6465	-1,9788	-40,422	11,317
68857	7,9959	-1,9583	-40,522	12,034
68858	8,3857	-2,4837	-40,903	11,397
68859	9,1066	-1,9906	-39,617	11,145
68860	8,4446	-1,9875	-39,777	11,796
68861	8,8535	-2,4988	-40,08	11,237
68862	9,5721	-1,9912	-38,768	10,965
68863	8,9122	-1,9879	-38,934	11,57
68864	9,3304	-2,4995	-39,221	11,061
68865	10,028	-1,9768	-37,914	10,771
68866	9,371	-1,9898	-38,088	11,34
68867	9,7978	-2,5017	-38,357	10,872
68868	10,491	-1,9778	-37,057	10,55
68869	9,8219	-1,9572	-37,225	11,102
68870	10,26	-2,4879	-37,494	10,663
68871	10,96	-1,9958	-36,2	10,306
68872	10,295	-1,9913	-36,375	10,827
68873	10,732	-2,506	-36,633	10,426
68874	11,425	-1,998	-35,34	10,058
68875	10,757	-1,9945	-35,519	10,553
68876	11,196	-2,5003	-35,77	10,181
68877	11,89	-2,0014	-34,478	9,8041
68878	11,224	-1,9988	-34,658	10,273
68879	11,661	-2,5015	-34,908	9,9289
68880	12,356	-2,0057	-33,616	9,5503
68881	11,69	-2,0042	-33,797	9,9947
68882	12,13	-2,5066	-34,043	9,6723
68883	12,821	-2,0073	-32,752	9,3007
68884	12,153	-2,0073	-32,938	9,7234
68885	12,598	-2,52	-33,179	9,4181
68886	13,287	-2,006	-31,887	9,057
68887	12,619	-2,0083	-32,074	9,459
68888	13,061	-2,5109	-32,315	9,1726
68889	13,751	-1,9965	-31,025	8,8226
68890	13,086	-2,0063	-31,209	9,2038
68891	13,527	-2,5085	-31,451	8,933
68892	14,217	-1,9875	-30,162	8,5974
68893	13,551	-1,9988	-30,347	8,9614
68894	13,989	-2,5094	-30,588	8,7051
68895	14,685	-1,9857	-29,296	8,3818
68896	14,019	-1,997	-29,482	8,7307
68897	14,456	-2,5076	-29,721	8,4843
68898	15,152	-1,9847	-28,429	8,179
68899	14,486	-1,9957	-28,616	8,514
68900	14,923	-2,5063	-28,855	8,2755
68901	15,619	-1,9843	-27,563	7,9898
68902	14,946	-1,9856	-27,756	8,3149
68903	15,391	-2,4954	-27,99	8,0788
68904	16,086	-1,9918	-26,694	7,8148
68905	15,413	-1,9853	-26,891	8,1285
68906	15,856	-2,5048	-27,122	7,8976
68907	16,554	-1,9993	-25,826	7,6554
68908	15,88	-1,9929	-26,022	7,9584
68909	16,323	-2,5021	-26,256	7,7299
68910	17,019	-1,9917	-24,961	7,5132
68911	16,346	-1,9928	-25,156	7,8063
68912	16,789	-2,511	-25,387	7,5794
68913	17,485	-1,9842	-24,097	7,3891
68914	16,812	-1,9852	-24,292	7,673
68915	17,255	-2,5029	-24,522	7,446
68916	17,952	-1,9839	-23,23	7,2849
68917	17,278	-1,9848	-23,426	7,5599
68918	17,722	-2,5026	-23,656	7,3316
68919	18,419	-1,9836	-22,364	7,2025
68920	17,745	-1,9843	-22,56	7,469
68921	18,188	-2,5022	-22,789	7,238
68922	18,885	-1,9833	-21,498	7,1438
68923	18,211	-1,9837	-21,694	7,4021
68924	18,655	-2,5019	-21,923	7,1671
68925	19,352	-1,9832	-20,631	7,1113
68926	18,678	-1,9834	-20,829	7,3612
68927	19,122	-2,5016	-21,057	7,1211
68928	19,818	-1,9823	-19,765	7,1078
68929	19,144	-1,9831	-19,963	7,349
68930	19,589	-2,5013	-20,191	7,1026
68931	20,285	-1,98	-18,898	7,1366
68932	19,611	-1,9805	-19,096	7,3686
68933	20,055	-2,4918	-19,326	7,1145
68934	20,751	-1,9766	-18,031	7,2015
68935	20,077	-1,9761	-18,23	7,4232
68936	20,522	-2,4987	-18,458	7,1607
68937	21,219	-1,9837	-17,165	7,3053
68938	20,542	-1,971	-17,364	7,5168
68939	20,988	-2,4967	-17,592	7,2447
68940	21,684	-1,9788	-16,3	7,4558
68941	21,016	-1,9919	-16,497	7,651
68942	21,455	-2,4962	-16,728	7,3697
68943	22,148	-1,9624	-15,439	7,6566
68944	21,479	-1,9766	-15,637	7,8361
68945	21,919	-2,4923	-15,861	7,5469
68946	22,618	-1,9737	-14,579	7,9143
68947	21,946	-1,9729	-14,781	8,0731
68948	22,386	-2,4898	-15,	7,7753
68949	23,087	-1,9914	-13,716	8,2445
68950	22,414	-1,9855	-13,92	8,3757
68951	22,854	-2,4947	-14,139	8,0672
68952	23,554	-1,9888	-12,86	8,655
68953	22,88	-1,994	-13,06	8,7553
68954	23,32	-2,5068	-13,27	8,4433
68955	24,024	-1,9615	-12,02	9,1511
68956	23,345	-1,9848	-12,212	9,2173
68957	23,784	-2,5016	-12,411	8,9061
68958	24,498	-1,9362	-11,186	9,7593
68959	23,814	-1,96	-11,378	9,7726
68960	24,254	-2,4679	-11,579	9,453
68961	24,976	-1,926	-10,35	10,519
68962	24,286	-1,9509	-10,546	10,456
68963	24,719	-2,4592	-10,733	10,144
68964	24,748	-1,9565	-9,7104	11,315
68965	25,171	-2,4505	-9,8832	11,02
68966	14,445	-1,9475	-5,387	11,314
68967	13,782	-1,9489	-5,6621	10,921
68968	13,866	-2,5156	-5,3339	11,049
68969	15,466	-1,901	-5,6095	11,749
68970	14,812	-1,9028	-5,8896	11,338
68971	14,882	-2,463	-5,5455	11,483
68972	16,419	-1,903	-5,8738	12,13
68973	15,708	-1,9424	-6,1963	11,66
68974	15,834	-2,4591	-5,8056	11,867
68975	17,351	-1,9029	-6,1521	12,482
68976	16,643	-1,9426	-6,4809	11,992
68977	16,776	-2,4514	-6,0777	12,23
68978	20,847	-1,9599	-7,4744	13,379
68979	21,617	-1,9488	-7,8452	13,323
68980	21,051	-2,4813	-7,8097	13,173
68981	21,543	-2,2626	-7,8904	13,224
68982	18,269	-1,8981	-6,4454	12,805
68983	17,646	-1,9038	-6,7279	12,352
68984	17,694	-2,4431	-6,3687	12,558
68985	19,933	-1,9353	-7,2053	13,158
68986	20,308	-1,8534	-7,719	12,933
68987	20,18	-2,5229	-7,6638	12,934
68988	19,106	-1,9194	-6,8086	13,019
68989	19,407	-1,9334	-7,4296	12,761
68990	19,325	-2,5255	-7,174	12,909
68991	18,508	-1,8968	-7,0613	12,585
68992	18,604	-2,4319	-6,68	12,854
68993	14,149	-1,9043	-6,1647	10,954
68994	13,48	-1,9066	-6,4332	10,579
68995	13,535	-2,5216	-6,1146	10,697
68996	23,815	-2,0129	-9,3461	11,909
68997	24,057	-1,9814	-9,9064	11,256
68998	24,267	-2,5037	-9,4575	11,741
68999	15,054	-1,9442	-6,4764	11,264
69000	14,456	-1,9125	-6,7124	10,921
69001	14,54	-2,4607	-6,3592	11,074
69002	22,877	-2,0177	-8,9711	12,348
69003	23,15	-1,9829	-9,5743	11,729
69004	23,342	-2,6687	-9,0272	12,332
69005	15,933	-1,982	-6,8034	11,542
69006	15,347	-1,9545	-7,0379	11,202
69007	15,358	-2,5428	-6,7174	11,324
69008	22,162	-1,953	-8,4345	12,856
69009	22,201	-1,9446	-9,0066	12,279
69010	22,543	-2,5798	-8,6549	12,697
69011	22,088	-2,2669	-8,4797	12,764
69012	16,938	-1,9435	-7,0568	11,884
69013	16,204	-1,9857	-7,3892	11,434
69014	16,275	-2,5261	-7,0298	11,612
69015	21,078	-1,8422	-8,0898	12,891
69016	21,673	-1,8522	-8,6953	12,515
69017	22,202	-2,5912	-8,184	13,16
69018	21,571	-2,3327	-8,3937	12,78
69019	21,846	-2,2174	-8,1766	13,052
69020	17,885	-1,9025	-7,3438	12,156
69021	17,22	-1,9444	-7,6222	11,756
69022	17,335	-2,4449	-7,2571	11,97
69023	19,782	-1,8515	-7,9433	12,553
69024	20,122	-1,7757	-8,4563	12,305
69025	20,102	-2,3043	-8,272	12,43
69026	18,808	-1,9108	-7,6823	12,349
69027	19,181	-1,9142	-8,2214	12,159
69028	19,195	-2,4022	-7,9848	12,318
69029	18,868	-2,1247	-8,1413	12,106
69030	18,154	-1,8818	-7,9426	11,96
69031	18,147	-2,4188	-7,6193	12,131
69032	18,349	-2,1134	-7,9851	11,984
69033	13,786	-1,9148	-6,9809	10,555
69034	13,109	-1,9169	-7,2441	10,204
69035	13,223	-2,4629	-6,8777	10,351
69036	14,749	-1,9229	-7,2739	10,87
69037	14,026	-1,9531	-7,572	10,483
69038	14,173	-2,462	-7,18	10,662
69039	15,619	-1,9583	-7,6237	11,106
69040	14,963	-1,9619	-7,8926	10,757
69041	15,093	-2,4702	-7,5025	10,942
69042	16,487	-1,9866	-7,9546	11,323
69043	15,806	-1,9902	-8,2798	10,941
69044	15,879	-2,5255	-7,9078	11,111
69045	17,489	-1,9237	-8,221	11,577
69046	16,728	-1,9427	-8,5284	11,18
69047	16,857	-2,4961	-8,1792	11,379
69048	16,929	-2,2462	-8,8701	11,07
69049	18,526	-1,8852	-8,4816	11,785
69050	17,902	-1,8254	-8,7594	11,453
69051	17,851	-2,4051	-8,5429	11,555
69052	18,213	-2,0957	-8,4016	11,73
69053	17,457	-2,1867	-9,0082	11,205
69054	19,521	-1,8384	-8,7343	11,929
69055	18,86	-1,8937	-8,9492	11,624
69056	19,049	-2,3943	-8,3677	12,018
69057	18,722	-2,1168	-8,5242	11,814
69058	20,717	-1,7857	-9,0618	11,952
69059	19,829	-1,8391	-9,2142	11,707
69060	19,987	-2,299	-8,6801	12,104
69061	21,713	-1,8437	-9,2674	11,953
69062	21,1	-1,8587	-9,6401	11,59
69063	21,324	-2,2814	-8,9576	12,166
69064	21,599	-2,166	-8,7405	12,425
69065	22,474	-1,9097	-9,6098	11,65
69066	21,779	-1,9071	-9,7782	11,523
69067	22,031	-2,2997	-9,147	12,108
69068	21,885	-2,2089	-8,7488	12,445
69069	23,393	-1,9513	-10,135	11,079
69070	22,71	-1,9567	-10,333	11,004
69071	22,85	-2,3533	-9,8384	11,456
69072	23,601	-1,9746	-10,739	10,471
69073	23,832	-2,4794	-10,3	10,853
69074	13,349	-1,9552	-7,8353	10,141
69075	12,685	-1,9608	-8,0766	9,8317
69076	12,87	-2,4647	-7,6885	9,9965
69077	14,241	-1,9921	-8,1907	10,383
69078	13,566	-1,9942	-8,4446	10,065
69079	13,712	-2,5078	-8,0438	10,229
69080	15,15	-1,9938	-8,5487	10,605
69081	14,475	-2,003	-8,811	10,291
69082	14,628	-2,5041	-8,4031	10,471
69083	16,047	-1,9462	-8,8536	10,814
69084	15,383	-1,9944	-9,191	10,481
69085	15,46	-2,5187	-8,8105	10,634
69086	17,141	-1,8444	-9,0668	11,07
69087	16,368	-1,9788	-9,5506	10,65
69088	16,381	-2,5021	-9,0814	10,843
69089	16,696	-2,2056	-9,3156	10,829
69090	18,236	-1,834	-9,227	11,305
69091	17,643	-1,7808	-9,5297	11,011
69092	17,735	-2,3664	-8,9432	11,314
69093	18,097	-2,057	-8,8019	11,484
69094	17,342	-2,148	-9,4085	10,983
69095	19,168	-1,8944	-9,4292	11,412
69096	18,512	-1,8917	-9,6906	11,139
69097	18,596	-2,3982	-9,1457	11,448
69098	18,547	-2,1042	-8,8692	11,563
69099	20,212	-1,9122	-9,7926	11,345
69100	19,458	-1,913	-9,9873	11,148
69101	19,606	-2,4181	-9,5321	11,448
69102	21,167	-1,9222	-10,151	11,176
69103	20,482	-1,9289	-10,394	10,996
69104	20,662	-2,4308	-9,933	11,316
69105	22,919	-1,9799	-10,937	10,397
69106	23,135	-1,9833	-11,57	9,8396
69107	23,364	-2,4872	-11,131	10,151
69108	22,015	-1,9541	-10,502	10,878
69109	21,335	-1,9453	-10,716	10,777
69110	21,544	-2,4303	-10,243	11,121
69111	22,241	-1,9811	-11,139	10,376
69112	22,462	-2,4734	-10,68	10,71
69113	22,457	-1,9844	-11,772	9,8202
69114	22,67	-1,9899	-12,412	9,3175
69115	22,9	-2,5041	-11,953	9,5874
69116	21,561	-1,9723	-11,353	10,28
69117	21,784	-1,9828	-11,977	9,8415
69118	22,003	-2,4996	-11,504	10,128
69119	20,651	-1,952	-10,959	10,604
69120	20,89	-1,9653	-11,566	10,23
69121	21,097	-2,4872	-11,08	10,528
69122	19,729	-1,9297	-10,589	10,804
69123	19,983	-1,9457	-11,172	10,497
69124	20,151	-2,4711	-10,702	10,776
69125	18,803	-1,9102	-10,249	10,887
69126	19,09	-1,9178	-10,777	10,662
69127	19,22	-2,4251	-10,397	10,877
69128	17,919	-1,8385	-9,9934	10,857
69129	18,201	-1,8425	-10,453	10,706
69130	18,276	-2,4131	-10,074	10,897
69131	17,459	-1,7642	-10,185	10,682
69132	16,87	-1,9152	-10,014	10,61
69133	17,318	-2,3791	-9,7895	10,816
69134	17,198	-2,142	-9,7785	10,781
69135	17,74	-1,7683	-10,645	10,537
69136	17,089	-1,8253	-10,606	10,439
69137	17,258	-2,3422	-10,547	10,492
69138	17,157	-2,1314	-10,064	10,646
69139	18,488	-1,8501	-10,982	10,487
69140	17,957	-1,788	-11,109	10,378
69141	17,938	-2,3177	-10,979	10,432
69142	21,997	-1,9883	-12,617	9,341
69143	22,207	-1,9881	-13,265	8,8862
69144	22,437	-2,5075	-12,81	9,1037
69145	19,345	-1,9338	-11,361	10,36
69146	18,699	-1,915	-11,571	10,245
69147	18,853	-2,4351	-11,245	10,403
69148	21,112	-1,9758	-12,189	9,7951
69149	21,327	-1,9813	-12,825	9,3962
69150	21,554	-2,5067	-12,357	9,6304
69151	20,222	-1,959	-11,779	10,128
69152	19,569	-1,9132	-11,995	10,058
69153	19,759	-2,4547	-11,563	10,275
69154	20,446	-1,966	-12,401	9,7839
69155	20,665	-2,5019	-11,933	10,021
69156	21,537	-1,9811	-13,473	8,9434
69157	21,742	-1,9847	-14,122	8,534
69158	21,975	-2,4927	-13,682	8,7016
69159	20,661	-1,9714	-13,036	9,3885
69160	20,866	-1,9801	-13,676	9,0307
69161	21,097	-2,4868	-13,235	9,2074
69162	19,794	-1,9201	-12,617	9,7186
69163	19,992	-1,9692	-13,238	9,4137
69164	20,22	-2,4751	-12,802	9,5949
69165	18,924	-1,8945	-12,206	9,9481
69166	19,131	-1,8911	-12,822	9,687
69167	19,346	-2,4244	-12,386	9,8706
69168	18,168	-1,853	-11,698	10,138
69169	18,264	-1,9306	-12,355	9,8901
69170	18,518	-2,3992	-11,925	10,075
69171	17,306	-1,845	-11,069	10,276
69172	17,522	-1,8722	-11,799	10,052
69173	17,833	-2,3228	-11,268	10,292
69174	12,902	-1,9998	-8,6859	9,7639
69175	12,229	-2,0013	-8,9092	9,4832
69176	12,438	-2,5041	-8,502	9,6474
69177	16,501	-1,9762	-10,434	10,36
69178	16,584	-1,9329	-11,179	10,133
69179	16,929	-2,4138	-10,683	10,375
69180	16,829	-2,2031	-10,199	10,524
69181	13,8	-2,005	-9,0649	9,9823
69182	13,123	-2,0027	-9,303	9,6988
69183	13,302	-2,506	-8,8889	9,8602
69184	15,703	-2,0269	-9,8881	10,336
69185	15,898	-2,0211	-10,604	10,171
69186	16,153	-2,5294	-10,109	10,395
69187	16,569	-2,2824	-9,8923	10,577
69188	14,707	-2,0035	-9,4533	10,178
69189	14,023	-2,009	-9,7003	9,8979
69190	14,191	-2,5145	-9,2815	10,063
69191	14,93	-2,0044	-10,115	10,064
69192	15,1	-2,5017	-9,6825	10,242
69193	12,451	-2,0041	-9,5263	9,4251
69194	11,779	-2,0002	-9,7334	9,1704
69195	11,98	-2,5072	-9,308	9,319
69196	13,346	-2,0066	-9,9384	9,6231
69197	12,703	-1,9935	-10,152	9,3839
69198	12,844	-2,5105	-9,745	9,5119
69199	14,245	-2,0099	-10,362	9,794
69200	13,551	-2,0134	-10,587	9,5508
69201	13,741	-2,5124	-10,164	9,7003
69202	15,124	-1,9986	-10,832	9,9084
69203	14,486	-2,0229	-11,01	9,7116
69204	14,641	-2,51	-10,602	9,8531
69205	15,981	-1,9778	-11,349	9,9506
69206	15,334	-2,0065	-11,514	9,7856
69207	15,506	-2,4896	-11,086	9,9384
69208	16,799	-1,96	-11,909	9,9107
69209	16,141	-1,9801	-12,057	9,785
69210	16,369	-2,4708	-11,607	9,9534
69211	17,617	-1,9499	-12,457	9,805
69212	16,947	-1,969	-12,614	9,7182
69213	17,143	-2,4686	-12,142	9,8864
69214	18,471	-1,9273	-12,971	9,6313
69215	17,808	-1,9411	-13,142	9,589
69216	17,993	-2,4827	-12,683	9,7534
69217	19,33	-1,9402	-13,443	9,3859
69218	18,666	-1,919	-13,642	9,3827
69219	18,881	-2,4728	-13,19	9,5425
69220	21,072	-1,9837	-14,325	8,623
69221	21,277	-1,9871	-14,979	8,2522
69222	21,51	-2,4912	-14,542	8,3843
69223	20,197	-1,9779	-13,878	9,0586
69224	19,528	-1,9773	-14,074	9,1111
69225	19,756	-2,5079	-13,622	9,2668
69226	20,401	-1,9838	-14,525	8,7353
69227	20,633	-2,4899	-14,088	8,8771
69228	20,606	-1,9872	-15,178	8,366
69229	20,811	-1,9897	-15,835	8,0308
69230	21,044	-2,4916	-15,4	8,1328
69231	19,732	-1,9832	-14,721	8,7902
69232	19,936	-1,9857	-15,376	8,4983
69233	20,168	-2,4919	-14,938	8,611
69234	18,863	-1,9561	-14,273	9,1113
69235	19,062	-1,9844	-14,915	8,8652
69236	19,293	-2,4894	-14,479	8,9842
69237	18,003	-1,9328	-13,813	9,3438
69238	18,194	-1,9593	-14,461	9,1349
69239	18,422	-2,4644	-14,024	9,2595
69240	17,138	-1,9603	-13,3	9,506
69241	17,331	-1,9599	-13,981	9,3248
69242	17,543	-2,4786	-13,533	9,4564
69243	16,288	-1,989	-12,762	9,5968
69244	16,463	-1,9919	-13,457	9,4433
69245	16,664	-2,4972	-13,013	9,5752
69246	15,493	-2,0087	-12,222	9,6258
69247	15,642	-1,9917	-12,941	9,489
69248	15,813	-2,498	-12,497	9,6173
69249	14,696	-2,0308	-11,692	9,5952
69250	14,843	-2,0189	-12,41	9,4813
69251	15,037	-2,5171	-11,97	9,6124
69252	12,032	-1,9896	-10,359	9,1357
69253	11,333	-1,9741	-10,574	8,899
69254	11,52	-2,5035	-10,138	9,0193
69255	13,792	-2,0264	-11,234	9,4765
69256	13,977	-2,0258	-11,911	9,4013
69257	14,188	-2,525	-11,479	9,5344
69258	12,909	-2,0002	-10,8	9,3195
69259	12,225	-1,994	-11,011	9,0965
69260	12,428	-2,4993	-10,586	9,2233
69261	13,089	-2,0099	-11,461	9,2613
69262	13,211	-2,5311	-11,063	9,3629
69263	11,525	-1,9786	-11,226	8,8676
69264	10,862	-1,9519	-11,419	8,6686
69265	11,027	-2,5066	-10,986	8,7617
69266	12,405	-2,0037	-11,672	9,0465
69267	11,711	-1,989	-11,879	8,8496
69268	11,868	-2,5306	-11,463	8,9375
69269	13,274	-2,0093	-12,138	9,195
69270	12,609	-1,996	-12,336	9,0226
69271	12,808	-2,5119	-11,911	9,1236
69272	14,125	-2,0139	-12,629	9,2963
69273	13,44	-2,0075	-12,826	9,1437
69274	13,612	-2,5263	-12,405	9,2376
69275	14,993	-2,0019	-13,13	9,3516
69276	14,316	-2,0046	-13,32	9,2306
69277	14,5	-2,5194	-12,887	9,3298
69278	15,817	-1,9946	-13,637	9,3412
69279	15,16	-1,9912	-13,828	9,2555
69280	15,357	-2,5069	-13,386	9,3584
69281	16,656	-1,9916	-14,139	9,2659
69282	15,987	-1,9985	-14,32	9,2205
69283	16,202	-2,5093	-13,877	9,3245
69284	20,14	-1,9883	-16,033	8,1645
69285	20,339	-1,9793	-16,696	7,8618
69286	20,578	-2,4954	-16,257	7,9379
69287	17,523	-1,9865	-14,63	9,1191
69288	16,853	-1,992	-14,815	9,1162
69289	17,076	-2,5067	-14,369	9,2193
69290	19,266	-1,9869	-15,57	8,5755
69291	19,469	-1,9734	-16,236	8,3111
69292	19,703	-2,4922	-15,793	8,3992
69293	18,393	-1,9876	-15,103	8,8917
69294	17,723	-1,9888	-15,295	8,9349
69295	17,951	-2,5085	-14,841	9,0375
69296	18,598	-1,974	-15,773	8,6664
69297	18,828	-2,494	-15,325	8,7628
69298	19,669	-1,9644	-16,9	8,01
69299	19,868	-1,9706	-17,563	7,7377
69300	20,108	-2,4942	-17,119	7,7924
69301	18,801	-1,9605	-16,44	8,4045
69302	19,	-1,9655	-17,1	8,1723
69303	19,24	-2,4926	-16,644	8,2384
69304	17,928	-1,9753	-15,966	8,7127
69305	18,127	-1,9635	-16,634	8,5175
69306	18,365	-2,4931	-16,178	8,5897
69307	17,053	-1,9944	-15,481	8,9358
69308	17,254	-1,9925	-16,149	8,7786
69309	17,487	-2,5092	-15,697	8,8543
69310	16,184	-1,9989	-14,996	9,0753
69311	16,382	-1,9852	-15,687	8,9506
69312	16,615	-2,4993	-15,232	9,0285
69313	15,33	-1,995	-14,511	9,1407
69314	15,515	-1,9894	-15,197	9,0499
69315	15,746	-2,5016	-14,746	9,1287
69316	14,483	-1,9939	-14,018	9,1412
69317	14,663	-1,9868	-14,702	9,0796
69318	14,878	-2,5108	-14,257	9,1573
69319	13,632	-1,9981	-13,516	9,0853
69320	13,807	-1,9921	-14,202	9,0474
69321	14,016	-2,517	-13,764	9,1237
69322	11,048	-1,9623	-12,072	8,6579
69323	10,363	-1,9504	-12,255	8,479
69324	10,577	-2,4804	-11,825	8,5588
69325	12,775	-1,9941	-13,024	8,9793
69326	12,952	-1,9921	-13,703	8,9616
69327	13,149	-2,5212	-13,277	9,0351
69328	11,916	-1,9812	-12,543	8,8337
69329	11,229	-1,9692	-12,732	8,6667
69330	11,448	-2,4913	-12,305	8,7464
69331	12,091	-1,9839	-13,214	8,8307
69332	12,307	-2,5045	-12,786	8,9087
69333	10,544	-1,9573	-12,915	8,495
69334	9,8738	-1,969	-13,079	8,3442
69335	10,1	-2,4803	-12,658	8,4013
69336	11,404	-1,9718	-13,403	8,6714
69337	10,725	-1,9625	-13,58	8,5321
69338	10,96	-2,4878	-13,153	8,5885
69339	12,267	-1,9818	-13,893	8,8207
69340	11,591	-1,991	-14,069	8,7001
69341	11,808	-2,5165	-13,644	8,7515
69342	13,127	-1,986	-14,388	8,9307
69343	12,453	-1,981	-14,567	8,834
69344	12,672	-2,517	-14,135	8,8853
69345	13,987	-1,9851	-14,886	8,992
69346	13,311	-1,9829	-15,067	8,9232
69347	13,539	-2,5145	-14,625	8,9757
69348	14,849	-1,9812	-15,388	8,9946
69349	14,172	-1,9805	-15,565	8,9592
69350	14,407	-2,5102	-15,114	9,0125
69351	15,713	-1,9757	-15,889	8,9304
69352	15,032	-1,9771	-16,068	8,9322
69353	15,273	-2,5058	-15,612	8,9856
69354	19,199	-1,9716	-17,762	7,9015
69355	19,403	-1,9766	-18,428	7,6543
69356	19,643	-2,4971	-17,984	7,6881
69357	16,583	-1,9833	-16,355	8,7977
69358	15,904	-1,9731	-16,555	8,8363
69359	16,147	-2,4885	-16,107	8,8871
69360	18,325	-1,9684	-17,294	8,2874
69361	18,524	-1,9729	-17,957	8,0806
69362	18,772	-2,4958	-17,506	8,1209
69363	17,453	-1,9807	-16,817	8,5862
69364	16,778	-1,9833	-17,015	8,668
69365	17,021	-2,5103	-16,554	8,7195
69366	17,649	-1,9705	-17,491	8,4165
69367	17,895	-2,4958	-17,034	8,4638
69368	18,727	-1,978	-18,623	7,8349
69369	18,937	-1,9813	-19,294	7,6089
69370	19,175	-2,4903	-18,853	7,6236
69371	17,847	-1,975	-18,154	8,2118
69372	18,05	-1,9786	-18,825	8,0261
69373	18,295	-2,4896	-18,376	8,0461
69374	16,973	-1,9731	-17,688	8,5013
69375	17,173	-1,9753	-18,355	8,3553
69376	17,424	-2,4992	-17,898	8,3797
69377	16,099	-1,9731	-17,215	8,7105
69378	16,298	-1,9737	-17,88	8,6027
69379	16,548	-2,5002	-17,424	8,6295
69380	15,223	-1,9745	-16,735	8,8423
69381	15,422	-1,9736	-17,4	8,7713
69382	15,673	-2,5023	-16,946	8,7991
69383	14,356	-1,9765	-16,244	8,902
69384	14,56	-1,9859	-16,909	8,8649
69385	14,799	-2,5049	-16,461	8,8933
69386	10,055	-1,9743	-13,744	8,3881
69387	9,3843	-1,9662	-13,905	8,2611
69388	9,6277	-2,5275	-13,48	8,2954
69389	13,496	-1,9783	-15,745	8,8964
69390	13,686	-1,9756	-16,42	8,8896
69391	13,933	-2,4941	-15,979	8,9173
69392	10,911	-1,9817	-14,246	8,5681
69393	10,237	-1,9571	-14,419	8,4547
69394	10,48	-2,5107	-13,991	8,4859
69395	12,636	-1,9779	-15,246	8,8331
69396	12,821	-1,9763	-15,924	8,8523
69397	13,068	-2,4919	-15,486	8,8804
69398	11,776	-1,9902	-14,744	8,7205
69399	11,112	-2,002	-14,914	8,627
69400	11,339	-2,5303	-14,487	8,6544
69401	11,961	-1,9734	-15,424	8,7613
69402	12,207	-2,4939	-14,989	8,7901
69403	9,567	-1,9491	-14,581	8,3347
69404	8,9077	-1,9423	-14,736	8,2332
69405	9,1604	-2,4766	-14,317	8,2428
69406	10,438	-1,9775	-15,087	8,5206
69407	9,7802	-1,9732	-15,252	8,434
69408	10,017	-2,4842	-14,831	8,4386
69409	11,298	-1,9852	-15,594	8,6746
69410	10,649	-1,9984	-15,759	8,6071
69411	10,886	-2,5076	-15,334	8,6108
69412	12,147	-1,9717	-16,102	8,787
69413	11,476	-1,967	-16,277	8,7403
69414	11,734	-2,4886	-15,842	8,7446
69415	13,012	-1,9736	-16,598	8,8512
69416	12,355	-1,9811	-16,772	8,8317
69417	12,594	-2,4874	-16,341	8,8349
69418	13,89	-1,9851	-17,084	8,8573
69419	13,209	-1,9723	-17,271	8,8675
69420	13,464	-2,4916	-16,832	8,8715
69421	14,759	-1,985	-17,574	8,7978
69422	14,104	-1,9968	-17,751	8,8405
69423	14,35	-2,5157	-17,307	8,8459
69424	15,622	-1,9742	-18,065	8,6669
69425	14,952	-1,9737	-18,251	8,7468
69426	15,203	-2,4909	-17,808	8,7513
69427	16,498	-1,976	-18,546	8,4594
69428	15,827	-1,9753	-18,735	8,5782
69429	16,08	-2,5024	-18,281	8,5831
69430	18,259	-1,9819	-19,496	7,8016
69431	18,47	-1,9833	-20,16	7,5981
69432	18,71	-2,5029	-19,715	7,5962
69433	17,375	-1,979	-19,026	8,1717
69434	16,703	-1,9779	-19,216	8,3323
69435	16,957	-2,5024	-18,762	8,3355
69436	17,581	-1,9813	-19,697	8,0061
69437	17,827	-2,4925	-19,249	8,007
69438	17,792	-1,9828	-20,361	7,8039
69439	18,004	-1,9838	-21,025	7,6188
69440	18,244	-2,5042	-20,58	7,6013
69441	16,908	-1,9803	-19,888	8,1685
69442	17,113	-1,9821	-20,56	8,021
69443	17,361	-2,494	-20,113	8,0042
69444	16,032	-1,9773	-19,405	8,4536
69445	16,246	-1,9887	-20,072	8,3419
69446	16,496	-2,505	-19,625	8,327
69447	15,157	-1,9749	-18,921	8,6612
69448	15,375	-1,9886	-19,587	8,5877
69449	15,624	-2,5042	-19,142	8,5732
69450	14,297	-1,9855	-18,428	8,7933
69451	14,505	-1,9886	-19,101	8,7585
69452	14,754	-2,5036	-18,661	8,7432
69453	13,423	-1,984	-17,938	8,8555
69454	13,648	-1,9997	-18,607	8,8567
69455	13,898	-2,5162	-18,167	8,8402
69456	9,1209	-1,9665	-15,407	8,3388
69457	8,4506	-1,9397	-15,56	8,2592
69458	8,7237	-2,5058	-15,149	8,2471
69459	12,552	-1,9799	-17,445	8,8532
69460	12,744	-1,9699	-18,123	8,8895
69461	13,002	-2,4879	-17,687	8,8708
69462	9,9913	-1,9941	-15,924	8,527
69463	9,34	-1,9944	-16,085	8,4652
69464	9,5943	-2,5275	-15,666	8,4478
69465	11,684	-1,9764	-16,947	8,791
69466	11,905	-1,9913	-17,617	8,8571
69467	12,146	-2,4953	-17,188	8,8377
69468	10,828	-1,9801	-16,442	8,6794
69469	10,192	-1,9965	-16,602	8,6366
69470	10,449	-2,5267	-16,176	8,6181
69471	11,005	-1,9617	-17,123	8,7687
69472	11,269	-2,4863	-16,693	8,7491
69473	8,6697	-1,9677	-16,238	8,3915
69474	8,0237	-1,9643	-16,383	8,3376
69475	8,2668	-2,4744	-15,973	8,2964
69476	9,5406	-1,9968	-16,763	8,581
69477	8,8927	-1,9974	-16,918	8,5424
69478	9,1388	-2,5072	-16,502	8,5003
69479	10,369	-1,9781	-17,283	8,7318
69480	9,7106	-1,9733	-17,443	8,7107
69481	10,009	-2,5266	-17,024	8,6724
69482	11,226	-1,9766	-17,792	8,8402
69483	10,546	-1,9582	-17,966	8,8429
69484	10,813	-2,4818	-17,537	8,8
69485	12,097	-1,9813	-18,296	8,8982
69486	11,451	-1,9945	-18,466	8,9253
69487	11,699	-2,5014	-18,04	8,8844
69488	12,969	-1,9855	-18,792	8,8949
69489	12,303	-1,984	-18,972	8,9513
69490	12,55	-2,4892	-18,543	8,9125
69491	13,856	-2,0028	-19,28	8,8253
69492	13,193	-2,0039	-19,463	8,9118
69493	13,455	-2,5188	-19,033	8,8742
69494	17,325	-1,9832	-21,224	7,837
69495	17,538	-1,9844	-21,89	7,6681
69496	17,777	-2,5052	-21,446	7,6364
69497	14,723	-2,0023	-19,768	8,6877
69498	14,056	-2,0017	-19,956	8,807
69499	14,304	-2,5077	-19,521	8,7725
69500	16,451	-1,9906	-20,744	8,196
69501	16,646	-1,9828	-21,422	8,0668
69502	16,895	-2,4939	-20,978	8,0338
69503	15,589	-2,0001	-20,254	8,4781
69504	14,923	-2,0014	-20,442	8,6315
69505	15,168	-2,5061	-20,007	8,5992
69506	15,79	-1,9988	-20,928	8,3839
69507	16,033	-2,5027	-20,49	8,3531
69508	16,858	-1,984	-22,088	7,8988
69509	17,071	-1,9851	-22,756	7,7438
69510	17,311	-2,5061	-22,311	7,699
69511	15,985	-1,991	-21,607	8,2561
69512	16,179	-1,9836	-22,285	8,1414
69513	16,429	-2,4957	-21,841	8,0931
69514	15,125	-2,0001	-21,116	8,5392
69515	15,314	-1,9899	-21,796	8,462
69516	15,581	-2,5177	-21,35	8,4088
69517	14,257	-2,0007	-20,629	8,7534
69518	14,445	-1,99	-21,308	8,7141
69519	14,705	-2,5058	-20,869	8,6614
69520	13,393	-2,0028	-20,139	8,8966
69521	13,589	-1,9996	-20,814	8,8931
69522	13,84	-2,5063	-20,382	8,8401
69523	12,527	-2,0023	-19,643	8,9718
69524	12,732	-2,0059	-20,316	9,0042
69525	13,	-2,5218	-19,892	8,9469
69526	11,657	-1,9973	-19,143	8,9826
69527	11,861	-2,0009	-19,818	9,0508
69528	12,133	-2,5197	-19,397	8,9916
69529	10,77	-1,9761	-18,64	8,9327
69530	10,996	-1,9978	-19,311	9,0333
69531	11,244	-2,5027	-18,888	8,9724
69532	8,2466	-1,9941	-17,063	8,4936
69533	7,5984	-1,9887	-17,206	8,4618
69534	7,8464	-2,4994	-16,797	8,3982
69535	9,887	-1,9533	-18,125	8,8273
69536	10,112	-1,9753	-18,804	8,9586
69537	10,362	-2,4834	-18,382	8,8948
69538	9,0628	-1,9738	-17,597	8,6781
69539	8,4404	-1,9946	-17,747	8,6636
69540	8,7166	-2,5329	-17,343	8,6037
69541	9,2325	-1,9493	-18,28	8,8299
69542	9,5315	-2,5047	-17,867	8,7684
69543	7,7922	-1,9892	-17,891	8,6368
69544	7,1226	-1,9597	-18,031	8,6256
69545	7,3973	-2,4981	-17,62	8,5411
69546	8,6102	-1,9701	-18,43	8,8206
69547	7,9628	-1,9658	-18,577	8,8269
69548	8,2538	-2,5325	-18,169	8,7442
69549	9,4571	-1,9713	-18,958	8,9655
69550	8,7822	-1,9483	-19,117	8,9925
69551	9,0733	-2,5066	-18,699	8,9076
69552	10,337	-1,997	-19,475	9,0631
69553	9,6533	-1,9742	-19,64	9,1134
69554	9,9471	-2,5249	-19,218	9,0288
69555	11,2	-2,0014	-19,987	9,1052
69556	10,536	-1,9985	-20,154	9,1794
69557	10,806	-2,5247	-19,732	9,0979
69558	12,066	-2,0045	-20,492	9,0863
69559	11,4	-2,0039	-20,664	9,1876
69560	11,663	-2,5235	-20,242	9,1099
69561	12,927	-2,0028	-20,992	9,0033
69562	12,265	-2,0054	-21,167	9,1324
69563	12,527	-2,5237	-20,741	9,0575
69564	16,391	-1,9848	-22,953	7,987
69565	16,605	-1,9858	-23,621	7,8438
69566	16,845	-2,5066	-23,176	7,7868
69567	13,776	-1,9888	-21,492	8,856
69568	13,125	-2,002	-21,666	9,0115
69569	13,371	-2,5048	-21,238	8,9429
69570	15,508	-1,9825	-22,474	8,3484
69571	15,711	-1,9843	-23,149	8,2427
69572	15,962	-2,4962	-22,705	8,1806
69573	14,634	-1,9797	-21,987	8,6385
69574	13,979	-1,9908	-22,165	8,8248
69575	14,223	-2,4933	-21,733	8,7603
69576	14,848	-1,9908	-22,656	8,5663
69577	15,104	-2,5086	-22,219	8,5012
69578	15,925	-1,9854	-23,817	8,0998
69579	16,138	-1,9863	-24,487	7,9664
69580	16,379	-2,5068	-24,042	7,8979
69581	15,052	-1,9926	-23,331	8,4612
69582	15,244	-1,9848	-24,012	8,3689
69583	15,496	-2,4963	-23,568	8,2938
69584	14,193	-2,0019	-22,834	8,7536
69585	14,391	-1,9987	-23,512	8,6953
69586	14,648	-2,5171	-23,07	8,6161
69587	13,328	-2,004	-22,34	8,9819
69588	13,525	-2,0009	-23,018	8,9621
69589	13,773	-2,5073	-22,583	8,8817
69590	12,463	-2,0047	-21,842	9,1427
69591	12,659	-2,0022	-22,52	9,1621
69592	12,905	-2,5063	-22,089	9,0774
69593	11,599	-2,0049	-21,339	9,2362
69594	11,793	-2,0005	-22,019	9,2949
69595	12,046	-2,5105	-21,588	9,2036
69596	10,736	-2,001	-20,831	9,2649
69597	10,937	-2,0039	-21,509	9,3594
69598	11,188	-2,512	-21,082	9,2642
69599	9,8516	-1,9757	-20,319	9,2334
69600	10,074	-1,9974	-20,995	9,3616
69601	10,325	-2,5061	-20,571	9,2622
69602	7,2933	-1,9362	-18,718	8,8204
69603	6,6795	-1,9589	-18,847	8,8309
69604	6,9225	-2,4673	-18,439	8,724
69605	8,9784	-1,9512	-19,799	9,1444
69606	9,1971	-1,9735	-20,476	9,3047
69607	9,4438	-2,4822	-20,057	9,2018
69608	8,1348	-1,944	-19,264	9,0033
69609	7,5138	-1,9634	-19,4	9,0301
69610	7,7604	-2,4782	-18,99	8,9239
69611	8,3516	-1,9692	-19,946	9,1915
69612	8,5993	-2,4786	-19,53	9,0859
69613	6,9	-1,9861	-19,529	9,0433
69614	6,2644	-1,9863	-19,66	9,0741
69615	6,5093	-2,4964	-19,251	8,9479
69616	7,7305	-1,9887	-20,082	9,2212
69617	7,0956	-1,9923	-20,22	9,2694
69618	7,3356	-2,4969	-19,808	9,144
69619	8,5702	-1,9916	-20,623	9,3544
69620	7,9217	-1,9898	-20,772	9,4249
69621	8,1675	-2,4975	-20,354	9,3006
69622	9,42	-1,9952	-21,152	9,4353
69623	8,7457	-1,9728	-21,314	9,5322
69624	9,0119	-2,4986	-20,887	9,408
69625	10,276	-2,0003	-21,674	9,4584
69626	9,6159	-1,9967	-21,838	9,5783
69627	9,8786	-2,5247	-21,408	9,4586
69628	11,13	-1,9995	-22,189	9,4201
69629	10,452	-1,9841	-22,364	9,57
69630	10,733	-2,524	-21,923	9,4502
69631	11,99	-1,998	-22,697	9,3158
69632	11,31	-1,984	-22,878	9,4934
69633	11,584	-2,5185	-22,433	9,3792
69634	15,458	-1,9858	-24,682	8,2355
69635	15,672	-1,9865	-25,353	8,11
69636	15,913	-2,5068	-24,908	8,0307
69637	12,856	-1,9991	-23,198	9,1434
69638	12,176	-1,9877	-23,383	9,348
69639	12,449	-2,5179	-22,938	9,2397
69640	14,583	-1,9909	-24,194	8,6034
69641	14,777	-1,985	-24,876	8,5189
69642	15,029	-2,4963	-24,432	8,4313
69643	13,722	-1,9977	-23,696	8,9045
69644	13,043	-1,9884	-23,883	9,136
69645	13,313	-2,5156	-23,437	9,0336
69646	13,913	-1,989	-24,38	8,8572
69647	14,179	-2,5135	-23,931	8,7607
69648	14,991	-1,9858	-25,547	8,3929
69649	15,206	-1,9864	-26,219	8,2732
69650	15,446	-2,4965	-25,778	8,184
69651	14,107	-1,9832	-25,062	8,7727
69652	14,324	-1,993	-25,732	8,6851
69653	14,564	-2,4962	-25,295	8,5912
69654	13,234	-1,9798	-24,567	9,0889
69655	13,45	-1,9899	-25,24	9,0387
69656	13,695	-2,495	-24,803	8,9373
69657	12,363	-1,977	-24,067	9,3412
69658	12,579	-1,9884	-24,741	9,3308
69659	12,825	-2,4937	-24,306	9,2224
69660	11,497	-1,9737	-23,564	9,5265
69661	11,714	-1,9864	-24,239	9,5573
69662	11,96	-2,4922	-23,804	9,4417
69663	10,631	-1,9686	-23,054	9,6447
69664	10,832	-1,9707	-23,739	9,7228
69665	11,095	-2,4889	-23,299	9,5944
69666	6,46	-1,9925	-20,351	9,3027
69667	5,7974	-1,9578	-20,481	9,3536
69668	6,0665	-2,497	-20,072	9,2091
69669	9,7921	-1,9805	-22,529	9,6917
69670	9,972	-1,9646	-23,219	9,8129
69671	10,237	-2,4885	-22,785	9,679
69672	7,2869	-1,9934	-20,91	9,4756
69673	6,6506	-1,9914	-21,045	9,5444
69674	6,8928	-2,502	-20,633	9,4014
69675	8,9417	-1,9743	-21,999	9,6773
69676	9,1568	-1,9928	-22,682	9,8287
69677	9,4202	-2,5238	-22,254	9,6917
69678	8,0972	-1,971	-21,463	9,6052
69679	7,4734	-1,9875	-21,603	9,6935
69680	7,719	-2,4961	-21,185	9,5514
69681	8,2708	-1,9527	-22,158	9,7973
69682	8,5386	-2,4816	-21,73	9,6543
69683	5,988	-1,9568	-21,175	9,597
69684	5,3645	-1,9613	-21,298	9,6641
69685	5,6054	-2,4641	-20,889	9,5032
69686	6,8371	-1,9855	-21,739	9,764
69687	6,207	-1,99	-21,872	9,8519
69688	6,4497	-2,494	-21,457	9,6914
69689	7,647	-1,9691	-22,299	9,8872
69690	7,0303	-1,99	-22,435	9,9944
69691	7,2736	-2,4945	-22,016	9,8358
69692	8,486	-1,9712	-22,841	9,9496
69693	7,8199	-1,9511	-22,995	10,091
69694	8,0872	-2,4791	-22,569	9,9313
69695	9,3368	-1,9769	-23,373	9,9508
69696	8,682	-1,9732	-23,532	10,116
69697	8,9678	-2,5225	-23,1	9,9561
69698	10,173	-1,9668	-23,904	9,8915
69699	9,5124	-1,9627	-24,065	10,083
69700	9,7803	-2,4854	-23,633	9,9315
69701	11,049	-1,9835	-24,414	9,7537
69702	10,369	-1,969	-24,587	9,9777
69703	10,633	-2,4865	-24,154	9,8338
69704	14,538	-1,9937	-26,404	8,5646
69705	14,74	-1,9867	-27,084	8,455
69706	14,986	-2,5076	-26,64	8,3536
69707	11,93	-1,9978	-24,913	9,5467
69708	11,268	-1,9972	-25,087	9,7894
69709	11,531	-2,5166	-24,649	9,6539
69710	13,667	-1,9998	-25,911	8,9505
69711	13,862	-1,9938	-26,594	8,8764
69712	14,124	-2,5152	-26,146	8,7621
69713	12,796	-1,9986	-25,415	9,2801
69714	12,115	-1,9883	-25,6	9,5532
69715	12,39	-2,5154	-25,157	9,4202
69716	12,983	-1,9903	-26,1	9,2465
69717	13,254	-2,5141	-25,656	9,1215
69718	14,063	-1,9867	-27,274	8,7656
69719	14,279	-1,9967	-27,943	8,6516
69720	14,517	-2,498	-27,508	8,5455
69721	13,178	-1,9843	-26,784	9,1712
69722	13,399	-1,9956	-27,456	9,0883
69723	13,64	-2,4984	-27,02	8,9729
69724	12,301	-1,9801	-26,285	9,5186
69725	12,504	-1,9824	-26,968	9,4826
69726	12,764	-2,4946	-26,526	9,3496
69727	11,453	-1,9877	-25,774	9,7952
69728	11,638	-1,9783	-26,466	9,8069
69729	11,901	-2,4941	-26,024	9,6635
69730	10,588	-1,9828	-25,261	10,013
69731	10,807	-1,9973	-25,942	10,054
69732	11,071	-2,5174	-25,506	9,9029
69733	9,7084	-1,965	-24,748	10,169
69734	9,9085	-1,9677	-25,433	10,261
69735	10,174	-2,4852	-25,	10,101
69736	8,8576	-1,959	-24,225	10,248
69737	9,054	-1,9609	-24,911	10,383
69738	9,3216	-2,4847	-24,48	10,215
69739	8,0159	-1,9531	-23,686	10,257
69740	8,2067	-1,9553	-24,382	10,435
69741	8,5013	-2,5071	-23,949	10,256
69742	5,5836	-1,9946	-21,995	9,9192
69743	4,9575	-1,9945	-22,112	10,001
69744	5,2073	-2,5057	-21,707	9,8275
69745	7,2032	-1,9719	-23,132	10,199
69746	7,3691	-1,9492	-23,83	10,415
69747	7,6421	-2,4811	-23,406	10,239
69748	6,4003	-1,9945	-22,568	10,083
69749	5,7695	-1,9942	-22,695	10,188
69750	6,0171	-2,5051	-22,285	10,014
69751	6,5895	-1,9954	-23,266	10,326
69752	6,8345	-2,503	-22,85	10,152
69753	5,1435	-1,9941	-22,812	10,27
69754	4,4857	-1,9644	-22,921	10,368
69755	4,8044	-2,5465	-22,529	10,181
69756	5,9587	-1,9951	-23,393	10,431
69757	5,298	-1,9645	-23,515	10,556
69758	5,6062	-2,5403	-23,112	10,363
69759	6,7553	-1,9727	-23,964	10,542
69760	6,116	-1,9688	-24,095	10,691
69761	6,4208	-2,5378	-23,682	10,495
69762	7,5599	-1,9513	-24,525	10,593
69763	6,9144	-1,9472	-24,666	10,772
69764	7,2157	-2,5092	-24,244	10,573
69765	8,4031	-1,9571	-25,068	10,569
69766	7,752	-1,9532	-25,219	10,78
69767	8,0503	-2,5079	-24,793	10,583
69768	13,615	-2,0055	-28,125	8,9726
69769	13,819	-2,007	-28,803	8,865
69770	14,063	-2,5189	-28,365	8,7477
69771	9,2541	-1,9635	-25,595	10,474
69772	8,5947	-1,9588	-25,755	10,714
69773	8,8702	-2,4841	-25,326	10,527
69774	12,725	-1,9937	-27,64	9,398
69775	12,945	-2,0052	-28,313	9,316
69776	13,199	-2,5182	-27,873	9,1842
69777	10,128	-1,9822	-26,113	10,301
69778	9,4465	-1,9657	-26,283	10,576
69779	9,7178	-2,4861	-25,851	10,397
69780	11,84	-1,9807	-27,148	9,7693
69781	12,059	-1,994	-27,823	9,7267
69782	12,304	-2,4967	-27,388	9,5891
69783	10,992	-1,9879	-26,633	10,065
69784	10,346	-1,9971	-26,797	10,347
69785	10,614	-2,5181	-26,362	10,179
69786	11,196	-1,992	-27,317	10,071
69787	11,441	-2,4947	-26,884	9,9222
69788	13,149	-2,0067	-28,99	9,2063
69789	13,353	-2,0083	-29,667	9,0971
69790	13,597	-2,5203	-29,23	8,9711
69791	12,279	-2,0055	-28,495	9,6425
69792	12,478	-2,0054	-29,176	9,5702
69793	12,736	-2,5197	-28,738	9,4256
69794	11,415	-2,0053	-27,992	10,026
69795	11,592	-1,9936	-28,682	10,005
69796	11,875	-2,5191	-28,239	9,8352
69797	10,55	-2,0012	-27,481	10,352
69798	10,751	-2,0042	-28,167	10,362
69799	11,013	-2,5207	-27,73	10,192
69800	9,6647	-1,9806	-26,966	10,62
69801	9,8874	-1,9973	-27,65	10,668
69802	10,154	-2,5194	-27,219	10,485
69803	8,7871	-1,9609	-26,443	10,814
69804	8,985	-1,9623	-27,131	10,921
69805	9,2575	-2,4835	-26,701	10,725
69806	4,6402	-1,9347	-23,624	10,653
69807	4,0466	-1,9621	-23,732	10,759
69808	4,3034	-2,476	-23,332	10,559
69809	7,9436	-1,9548	-25,906	10,922
69810	8,1366	-1,9558	-26,598	11,076
69811	8,4129	-2,4841	-26,172	10,872
69812	5,4553	-1,9381	-24,217	10,816
69813	4,8634	-1,9674	-24,335	10,948
69814	5,1133	-2,4771	-23,927	10,744
69815	7,1065	-1,9491	-25,36	10,957
69816	7,3269	-1,972	-26,049	11,145
69817	7,6041	-2,5091	-25,631	10,938
69818	6,2751	-1,9433	-24,797	10,921
69819	5,6728	-1,966	-24,919	11,08
69820	5,9278	-2,4802	-24,508	10,876
69821	6,4611	-1,9453	-25,495	11,158
69822	6,7728	-2,5099	-25,081	10,942
69823	4,2698	-1,9947	-24,442	11,052
69824	3,6498	-1,9991	-24,551	11,175
69825	3,898	-2,5012	-24,15	10,962
69826	5,0809	-1,9954	-25,037	11,21
69827	4,4608	-2,0023	-25,155	11,363
69828	4,7095	-2,5053	-24,749	11,146
69829	5,8588	-1,9681	-25,617	11,315
69830	5,2253	-1,9671	-25,738	11,498
69831	5,5541	-2,5357	-25,336	11,268
69832	6,6816	-1,9682	-26,184	11,342
69833	6,0095	-1,9445	-26,32	11,573
69834	6,3375	-2,5109	-25,907	11,334
69835	7,52	-1,9729	-26,741	11,296
69836	6,8759	-1,9696	-26,88	11,55
69837	7,1894	-2,5317	-26,466	11,315
69838	8,3345	-1,9571	-27,287	11,18
69839	7,6875	-1,9524	-27,436	11,467
69840	7,9649	-2,4817	-27,015	11,245
69841	9,2078	-1,9789	-27,816	10,966
69842	8,5576	-1,9751	-27,973	11,282
69843	8,8021	-2,4797	-27,549	11,081
69844	10,089	-2,0002	-28,336	10,675
69845	9,4365	-1,9984	-28,5	11,014
69846	9,682	-2,5027	-28,072	10,825
69847	10,928	-1,9925	-28,857	10,338
69848	10,289	-2,0014	-29,023	10,687
69849	10,555	-2,5208	-28,59	10,5
69850	12,682	-2,007	-29,853	9,4584
69851	12,886	-2,0086	-30,531	9,3455
69852	13,133	-2,5219	-30,094	9,2099
69853	11,79	-1,9936	-29,363	9,93
69854	11,102	-1,9801	-29,548	10,319
69855	11,378	-2,4987	-29,108	10,139
69856	12,01	-2,0046	-30,038	9,8444
69857	12,271	-2,5204	-29,601	9,6877
69858	12,214	-2,0062	-30,716	9,7284
69859	12,417	-2,0086	-31,396	9,609
69860	12,667	-2,5226	-30,959	9,4648
69861	11,321	-1,9912	-30,222	10,23
69862	11,543	-2,0033	-30,899	10,137
69863	11,807	-2,5213	-30,463	9,9684
69864	10,463	-1,9891	-29,713	10,665
69865	10,636	-1,9755	-30,404	10,645
69866	10,907	-2,494	-29,969	10,454
69867	9,6368	-1,9996	-29,187	11,022
69868	9,8297	-1,9978	-29,877	11,039
69869	10,1	-2,5205	-29,451	10,835
69870	8,7863	-1,9946	-28,657	11,326
69871	8,9875	-1,998	-29,348	11,39
69872	9,2347	-2,5032	-28,923	11,184
69873	7,9106	-1,9704	-28,122	11,565
69874	8,1389	-1,9918	-28,811	11,67
69875	8,3821	-2,4951	-28,39	11,453
69876	3,8408	-2,0067	-25,263	11,483
69877	3,2075	-2,012	-25,38	11,624
69878	3,4684	-2,5143	-24,972	11,394
69879	7,0434	-1,9492	-27,574	11,717
69880	7,2721	-1,9721	-28,268	11,877
69881	7,5212	-2,4796	-27,85	11,648
69882	4,6052	-1,974	-25,856	11,649
69883	4,0117	-2,0056	-25,978	11,813
69884	4,2714	-2,5098	-25,569	11,579
69885	6,2037	-1,9459	-27,015	11,777
69886	6,4361	-1,9706	-27,71	11,984
69887	6,7232	-2,5125	-27,302	11,74
69888	5,3759	-1,9434	-26,44	11,753
69889	4,7456	-1,9456	-26,554	11,953
69890	5,0448	-2,4806	-26,152	11,709
69891	5,6036	-1,97	-27,143	12,008
69892	5,8579	-2,4789	-26,732	11,77
69893	3,3785	-2,0109	-26,095	11,95
69894	2,7513	-2,0395	-26,264	12,129
69895	2,9976	-2,5236	-25,808	11,864
69896	4,1521	-1,9772	-26,677	12,114
69897	3,5653	-2,0049	-26,786	12,282
69898	3,8174	-2,5072	-26,401	12,047
69899	4,9733	-1,9722	-27,257	12,202
69900	4,3076	-1,9528	-27,377	12,434
69901	4,6083	-2,485	-26,97	12,171
69902	5,836	-1,9946	-27,837	12,209
69903	5,2101	-1,9972	-27,964	12,472
69904	5,4629	-2,5044	-27,552	12,216
69905	6,6649	-1,9935	-28,403	12,137
69906	6,0337	-1,9952	-28,537	12,44
69907	6,3262	-2,5406	-28,13	12,175
69908	11,747	-2,0057	-31,579	10,014
69909	11,951	-2,0082	-32,259	9,8851
69910	12,201	-2,5237	-31,823	9,7332
69911	7,5004	-1,9935	-28,957	11,977
69912	6,8652	-1,9958	-29,1	12,317
69913	7,1115	-2,501	-28,683	12,07
69914	10,858	-1,9876	-31,08	10,548
69915	11,079	-2,0013	-31,759	10,448
69916	11,344	-2,5215	-31,325	10,268
69917	8,34	-1,9952	-29,501	11,729
69918	7,6958	-1,9921	-29,652	12,104
69919	7,9416	-2,4978	-29,232	11,867
69920	10,003	-1,9842	-30,567	11,015
69921	10,175	-1,9696	-31,258	10,992
69922	10,448	-2,4908	-30,826	10,786
69923	9,1803	-1,9962	-30,038	11,402
69924	8,5329	-1,995	-30,199	11,802
69925	8,7824	-2,5023	-29,777	11,577
69926	9,3422	-1,9761	-30,732	11,437
69927	9,6464	-2,5193	-30,312	11,197
69928	11,282	-2,0039	-32,44	10,315
69929	11,487	-2,0058	-33,119	10,171
69930	11,736	-2,5229	-32,687	10,014
69931	10,395	-1,9833	-31,936	10,887
69932	10,618	-1,9989	-32,616	10,773
69933	10,865	-2,506	-32,186	10,595
69934	9,5141	-1,9615	-31,422	11,41
69935	9,7359	-1,9776	-32,107	11,349
69936	9,9838	-2,4837	-31,679	11,146
69937	8,6947	-1,9749	-30,893	11,832
69938	8,8629	-1,9537	-31,584	11,862
69939	9,134	-2,4796	-31,162	11,622
69940	7,8886	-1,9919	-30,349	12,17
69941	8,0792	-1,9901	-31,045	12,247
69942	8,3247	-2,4966	-30,625	12,005
69943	7,0606	-1,9944	-29,795	12,438
69944	7,2525	-1,9909	-30,493	12,576
69945	7,4955	-2,4971	-30,074	12,319
69946	6,234	-1,9975	-29,234	12,613
69947	6,4298	-1,995	-29,933	12,809
69948	6,6767	-2,505	-29,516	12,539
69949	5,4077	-1,9978	-28,664	12,696
69950	5,6094	-1,9994	-29,361	12,941
69951	5,8568	-2,5082	-28,951	12,668
69952	2,9381	-2,0335	-26,955	12,455
69953	2,1783	-2,0426	-27,127	12,661
69954	2,4391	-2,628	-26,786	12,442
69955	2,4185	-2,4753	-27,026	12,577
69956	4,5443	-1,9778	-28,085	12,696
69957	4,7897	-1,9967	-28,799	12,985
69958	5,0416	-2,5094	-28,376	12,703
69959	3,7208	-1,9805	-27,486	12,597
69960	3,155	-2,0057	-27,634	12,8
69961	3,4193	-2,3334	-27,175	12,505
69962	2,8296	-2,4459	-27,251	12,629
69963	3,9358	-1,9875	-28,218	12,939
69964	4,192	-2,4803	-27,793	12,66
69965	2,3952	-2,0148	-27,806	12,998
69966	1,7194	-2,1202	-27,819	13,109
69967	2,2503	-2,6136	-27,57	12,893
69968	1,8612	-2,5964	-27,4	12,853
69969	1,5385	-2,2625	-27,592	12,99
69970	2,0697	-2,455	-27,423	12,839
69971	3,37	-2,0127	-28,366	13,136
69972	2,7093	-2,0518	-28,517	13,373
69973	3,1321	-2,4609	-28,057	13,034
69974	2,6354	-2,4475	-27,705	12,916
69975	4,1812	-2,0064	-28,932	13,219
69976	3,5516	-1,9648	-29,162	13,542
69977	3,8375	-2,5318	-28,627	13,171
69978	4,9915	-1,9984	-29,496	13,221
69979	4,3991	-1,9976	-29,64	13,532
69980	4,6201	-2,5105	-29,209	13,234
69981	5,8052	-1,997	-30,06	13,128
69982	5,201	-2,0039	-30,184	13,477
69983	5,4306	-2,5119	-29,77	13,187
69984	6,6216	-1,9916	-30,631	12,939
69985	6,0014	-1,9978	-30,762	13,339
69986	6,2353	-2,5043	-30,352	13,054
69987	7,443	-1,9891	-31,189	12,645
69988	6,812	-1,9918	-31,332	13,088
69989	7,0519	-2,5007	-30,914	12,81
69990	10,823	-2,0008	-33,295	10,626
69991	11,023	-2,0016	-33,977	10,468
69992	11,265	-2,5068	-33,546	10,31
69993	8,2474	-1,9688	-31,737	12,272
69994	7,6282	-1,9854	-31,889	12,73
69995	7,8699	-2,4926	-31,468	12,469
69996	9,9589	-1,9932	-32,786	11,229
69997	10,16	-1,9966	-33,471	11,114
69998	10,403	-2,5017	-33,042	10,93
69999	9,0846	-1,9697	-32,269	11,795
70000	8,4355	-1,9666	-32,432	12,286
70001	8,6775	-2,4721	-32,006	12,047
70002	9,3005	-1,9887	-32,957	11,725
70003	9,5468	-2,4954	-32,534	11,511
70004	10,36	-1,9975	-34,154	10,951
70005	10,556	-1,9953	-34,838	10,773
70006	10,798	-2,5009	-34,406	10,613
70007	9,5013	-1,9921	-33,642	11,604
70008	9,6967	-1,9921	-34,328	11,473
70009	9,9403	-2,4994	-33,901	11,281
70010	8,6514	-1,9855	-33,119	12,209
70011	8,8294	-1,9679	-33,811	12,153
70012	9,0855	-2,4933	-33,386	11,917
70013	7,8163	-1,9832	-32,584	12,736
70014	7,9917	-1,96	-33,286	12,755
70015	8,2409	-2,4885	-32,857	12,491
70016	6,9972	-1,9881	-32,032	13,164
70017	7,1742	-1,957	-32,748	13,264
70018	7,412	-2,4901	-32,315	12,976
70019	6,1918	-1,998	-31,464	13,479
70020	6,3658	-1,9571	-32,194	13,662
70021	6,5982	-2,5004	-31,746	13,35
70022	5,3972	-2,0047	-30,886	13,678
70023	5,5764	-2,0012	-31,587	13,912
70024	5,7996	-2,5131	-31,167	13,605
70025	4,6086	-2,0031	-30,328	13,778
70026	4,8013	-1,9961	-31,002	14,057
70027	5,0157	-2,5231	-30,586	13,743
70028	2,0335	-2,1572	-28,53	13,472
70029	1,4317	-2,0995	-28,728	13,689
70030	2,0097	-2,7111	-28,095	13,233
70031	1,6517	-2,7265	-28,379	13,451
70032	1,1892	-2,2713	-28,374	13,482
70033	1,4283	-2,3605	-27,887	13,173
70034	1,9596	-2,5529	-27,718	13,02
70035	3,7696	-1,956	-29,869	13,846
70036	4,0455	-1,9976	-30,459	14,095
70037	4,2364	-2,5178	-30,033	13,792
70038	2,8909	-2,0039	-29,313	13,771
70039	2,1717	-2,0495	-29,441	14,024
70040	2,6499	-2,6036	-28,847	13,56
70041	2,406	-2,7033	-29,172	13,817
70042	2,6476	-2,4147	-29,585	14,015
70043	3,2997	-1,8909	-30,13	14,16
70044	2,8625	-1,8527	-30,048	14,246
70045	3,3669	-2,4988	-29,535	13,795
70046	3,0807	-2,3222	-29,952	14,13
70047	3,5757	-1,9325	-30,721	14,402
70048	3,1224	-1,8363	-30,805	14,62
70049	3,2441	-2,517	-30,404	14,343
70050	3,0564	-2,3017	-30,403	14,399
70051	4,2382	-1,9906	-31,134	14,363
70052	3,7212	-1,9273	-31,252	14,671
70053	3,8492	-2,5747	-30,788	14,349
70054	4,9806	-1,9926	-31,703	14,279
70055	4,4164	-1,9224	-31,793	14,666
70056	4,5782	-2,5554	-31,369	14,35
70057	9,8926	-1,9899	-35,012	11,29
70058	10,092	-1,99	-35,695	11,078
70059	10,33	-2,4962	-35,268	10,921
70060	5,7504	-1,9603	-32,317	14,084
70061	5,1273	-1,9782	-32,406	14,555
70062	5,3375	-2,5455	-31,969	14,213
70063	9,0248	-1,9679	-34,497	12,015
70064	9,2319	-1,9856	-35,182	11,846
70065	9,4695	-2,4915	-34,758	11,653
70066	6,5428	-1,9261	-32,91	13,751
70067	5,9347	-1,9188	-33,072	14,292
70068	6,1267	-2,4915	-32,591	13,963
70069	8,1698	-1,9424	-33,977	12,691
70070	8,3652	-1,9616	-34,663	12,601
70071	8,6084	-2,4783	-34,241	12,361
70072	7,3496	-1,9338	-33,451	13,273
70073	6,7309	-1,9278	-33,617	13,838
70074	6,9413	-2,4816	-33,161	13,542
70075	7,5277	-1,9548	-34,136	13,277
70076	7,7651	-2,4756	-33,71	13,
70077	9,431	-1,9857	-35,865	11,629
70078	9,6262	-1,9708	-36,543	11,383
70079	9,8736	-2,5013	-36,131	11,217
70080	8,5723	-1,9793	-35,349	12,425
70081	8,7658	-1,9638	-36,03	12,232
70082	9,0042	-2,4924	-35,617	12,031
70083	7,7231	-1,974	-34,822	13,177
70084	7,9114	-1,9733	-35,52	13,067
70085	8,1349	-2,4808	-35,092	12,831
70086	6,909	-1,9487	-34,302	13,831
70087	7,0849	-1,9525	-34,998	13,827
70088	7,2698	-2,4779	-34,541	13,571
70089	6,1228	-1,9205	-33,779	14,366
70090	6,2591	-1,9341	-34,443	14,483
70091	6,4492	-2,4699	-33,988	14,172
70092	5,3116	-1,9368	-33,161	14,748
70093	5,5133	-1,9178	-33,949	14,976
70094	5,6456	-2,4851	-33,407	14,634
70095	4,5631	-1,9081	-32,496	14,929
70096	4,7125	-1,9104	-33,308	15,308
70097	4,8519	-2,4976	-32,767	14,903
70098	4,0692	-2,2233	-32,474	15,164
70099	3,8994	-1,8591	-31,911	14,962
70100	4,0055	-1,8146	-32,722	15,432
70101	4,1588	-2,5026	-32,1	14,968
70102	3,7384	-2,1735	-32,156	15,223
70103	3,268	-1,8311	-31,336	14,883
70104	3,3607	-1,8601	-32,185	15,436
70105	3,4949	-2,501	-31,546	14,935
70106	3,4055	-2,1743	-31,889	15,229
70107	2,6851	-1,7981	-30,722	14,708
70108	2,7666	-1,9119	-31,568	15,254
70109	2,9167	-2,4425	-30,975	14,8
70110	3,1069	-2,1455	-31,581	15,151
70111	2,9033	-2,2676	-30,626	14,59
70112	1,5698	-1,9918	-29,639	14,235
70113	1,0307	-1,9816	-29,717	14,364
70114	1,2833	-2,5082	-29,325	14,078
70115	1,0117	-2,1527	-28,987	13,884
70116	2,1432	-1,8984	-30,176	14,498
70117	2,1297	-1,8919	-30,91	15,009
70118	2,6325	-2,4384	-30,669	14,698
70119	2,8227	-2,1414	-31,275	15,042
70120	2,6191	-2,2635	-30,32	14,49
70121	1,6356	-1,9998	-30,336	14,704
70122	1,9007	-2,5504	-29,993	14,426
70123	2,3614	-2,3679	-30,08	14,372
70124	1,0965	-1,9896	-30,414	14,828
70125	0,54146	-1,9851	-30,446	14,905
70126	0,80363	-2,5017	-30,099	14,647
70127	1,6221	-1,9933	-31,069	15,213
70128	1,1225	-1,992	-31,122	15,342
70129	1,4061	-2,5897	-30,792	15,063
70130	2,2111	-2,0057	-31,755	15,546
70131	1,6594	-2,0058	-31,793	15,752
70132	1,9531	-2,5282	-31,456	15,426
70133	2,5515	-2,2392	-31,768	15,428
70134	2,8593	-1,941	-32,417	15,798
70135	2,3234	-2,0151	-32,476	16,071
70136	2,6196	-2,5889	-32,177	15,732
70137	2,9041	-2,2552	-32,121	15,592
70138	3,4668	-1,8156	-32,996	15,894
70139	2,9482	-1,9231	-33,107	16,289
70140	3,2409	-2,4914	-32,792	15,909
70141	3,1996	-2,1745	-32,43	15,702
70142	4,1549	-1,817	-33,534	15,795
70143	3,5674	-1,8163	-33,643	16,311
70144	3,9306	-2,4154	-33,396	15,879
70145	3,5116	-2,1298	-32,7	15,685
70146	4,2353	-2,083	-33,871	15,907
70147	4,9141	-1,8914	-34,095	15,519
70148	4,3124	-1,8786	-34,284	16,185
70149	4,3067	-2,4614	-33,664	15,79
70150	3,8878	-2,1758	-32,968	15,571
70151	4,6114	-2,129	-34,139	15,839
70152	5,6495	-1,9313	-34,613	15,078
70153	5,0732	-1,9177	-34,832	15,77
70154	5,1265	-2,4909	-34,227	15,413
70155	4,9945	-2,1575	-34,432	15,648
70156	6,4349	-1,9379	-35,139	14,465
70157	5,7899	-1,9209	-35,286	15,222
70158	5,9531	-2,4736	-34,795	14,872
70159	5,3467	-2,1689	-34,656	15,379
70160	7,2731	-1,9518	-35,697	13,706
70161	6,5946	-1,9531	-35,867	14,484
70162	6,8243	-2,4549	-35,413	14,149
70163	8,961	-1,9488	-36,707	11,98
70164	9,1649	-1,9702	-37,399	11,674
70165	9,3948	-2,4731	-36,977	11,531
70166	8,1049	-1,9578	-36,201	12,866
70167	7,4469	-1,9776	-36,385	13,577
70168	7,6631	-2,4667	-35,961	13,33
70169	8,3052	-1,9641	-36,886	12,62
70170	8,5315	-2,4665	-36,464	12,428
70171	8,5091	-1,9855	-37,578	12,309
70172	8,711	-1,9865	-38,254	11,948
70173	8,9358	-2,4908	-37,846	11,813
70174	7,6471	-1,984	-37,07	13,322
70175	7,8492	-1,9851	-37,743	13,014
70176	8,0739	-2,4878	-37,334	12,816
70177	6,7683	-1,9789	-36,555	14,341
70178	6,983	-1,9964	-37,244	14,127
70179	7,2119	-2,4904	-36,828	13,844
70180	5,9495	-1,9361	-36,013	15,225
70181	6,0799	-2,0261	-36,758	15,269
70182	6,2383	-2,536	-36,317	14,966
70183	5,2136	-1,9073	-35,505	15,897
70184	5,2907	-1,9267	-36,225	16,156
70185	5,3786	-2,4502	-35,612	15,788
70186	5,1349	-2,147	-35,106	15,764
70187	4,4715	-1,9049	-35,021	16,418
70188	4,5891	-1,9415	-35,701	16,753
70189	5,0142	-2,4585	-35,382	16,085
70190	4,7705	-2,1553	-34,875	16,081
70191	3,7249	-1,878	-34,394	16,679
70192	3,8359	-1,9002	-35,131	17,154
70193	4,1706	-2,4914	-34,813	16,611
70194	4,3928	-2,1447	-34,621	16,305
70195	3,0488	-1,9239	-33,755	16,693
70196	3,1112	-1,8752	-34,456	17,251
70197	3,502	-2,4542	-34,12	16,692
70198	4,0239	-2,1284	-34,248	16,321
70199	0,5675	-1,9875	-31,153	15,417
70200	4,1283e-003	-1,9835	-31,155	15,443
70201	0,27917	-2,5038	-30,803	15,179
70202	2,4123	-1,9972	-33,166	16,549
70203	2,4634	-1,931	-33,876	17,148
70204	2,7727	-2,4983	-33,506	16,671
70205	1,1599	-2,0045	-31,845	15,877
70206	0,58415	-1,9973	-31,867	15,977
70207	0,87268	-2,5761	-31,534	15,688
70208	1,7717	-2,0152	-32,514	16,265
70209	1,8161	-2,0061	-33,222	16,864
70210	2,1282	-2,5723	-32,871	16,453
70211	1,1883	-2,0077	-32,558	16,467
70212	1,4897	-2,5885	-32,211	16,117
70213	-3,226	-2,0032	-34,477	17,113
70214	-3,2777	-1,9907	-35,23	17,753
70215	-3,594	-2,5094	-34,775	17,089
70216	-2,5057	-2,0005	-33,838	17,053
70217	-2,55	-2,0038	-34,558	17,708
70218	-2,8526	-2,5101	-34,147	17,14
70219	-0,5644	-1,9841	-31,851	15,961
70220	2,0774e-002	-1,9932	-31,868	16,002
70221	-0,26686	-2,4972	-31,51	15,718
70222	-1,8245	-1,9946	-33,19	16,807
70223	-1,8577	-2,0027	-33,904	17,463
70224	-2,1539	-2,5087	-33,506	16,971
70225	-1,1769	-1,9903	-32,527	16,427
70226	-0,57047	-1,9959	-32,562	16,56
70227	-0,85741	-2,5017	-32,196	16,219
70228	-1,1979	-1,9997	-33,242	17,063
70229	-1,4896	-2,5053	-32,857	16,648
70230	1,4708e-002	-2,005	-32,579	16,599
70231	0,61261	-2,0005	-32,579	16,563
70232	0,31256	-2,5256	-32,227	16,297
70233	-2,6016	-1,9913	-35,31	18,323
70234	-2,6188	-1,9704	-36,05	19,149
70235	-2,968	-2,4914	-35,612	18,349
70236	-0,5914	-2,0052	-33,276	17,191
70237	2,5913e-002	-1,9981	-33,293	17,248
70238	-0,27772	-2,5198	-32,929	16,911
70239	-1,902	-2,006	-34,623	18,1
70240	-1,9216	-1,9723	-35,358	18,924
70241	-2,2474	-2,5145	-34,942	18,257
70242	-1,231	-2,0078	-33,956	17,708
70243	-0,59484	-2,0055	-33,989	17,901
70244	-0,90156	-2,5213	-33,617	17,48
70245	-1,2465	-2,0041	-34,668	18,472
70246	-1,5582	-2,5169	-34,287	17,951
70247	0,62381	-1,9936	-33,294	17,214
70248	1,2327	-1,9986	-33,266	17,057
70249	0,92386	-2,5257	-32,932	16,841
70250	2,2469e-002	-1,9984	-34,006	17,956
70251	0,64965	-2,	-33,996	17,886
70252	0,33656	-2,5642	-33,66	17,602
70253	-0,61035	-2,0018	-34,701	18,656
70254	3,3319e-002	-2,0076	-34,705	18,724
70255	-0,2841	-2,5623	-34,361	18,338
70256	-1,9388	-1,9514	-36,098	19,725
70257	-1,9642	-1,9742	-36,779	20,681
70258	-2,3104	-2,5113	-36,358	19,778
70259	-1,2662	-1,9704	-35,403	19,279
70260	-0,61121	-1,9985	-35,403	19,527
70261	-0,93496	-2,5524	-35,035	18,991
70262	-1,2709	-1,9394	-36,128	20,267
70263	-1,6093	-2,5113	-35,714	19,523
70264	-1,2963	-1,9622	-36,808	21,197
70265	-1,3041	-1,9661	-37,503	22,372
70266	-1,6555	-2,5017	-37,091	21,416
70267	-0,61595	-1,9675	-36,128	20,503
70268	-0,60895	-1,9385	-36,848	21,653
70269	-0,95347	-2,4756	-36,457	20,906
70270	3,2464e-002	-2,0043	-35,407	19,592
70271	4,4622e-002	-1,9955	-36,112	20,574
70272	-0,29053	-2,5088	-35,751	20,057
70273	0,6605	-2,0091	-34,695	18,657
70274	0,68411	-2,0036	-35,394	19,477
70275	0,35353	-2,5241	-35,048	19,128
70276	1,2585	-2,005	-33,968	17,737
70277	1,8671	-1,9398	-33,931	17,45
70278	1,5661	-2,5664	-33,611	17,296
70279	1,2974	-1,9469	-34,689	18,445
70280	0,97321	-2,5637	-34,345	18,204
70281	-0,6167	-1,9424	-37,543	22,807
70282	-0,63169	-1,9721	-38,201	23,996
70283	-0,97049	-2,4742	-37,831	23,217
70284	5,162e-002	-1,9665	-36,832	21,721
70285	7,1581e-002	-1,9413	-37,554	22,978
70286	-0,28537	-2,4725	-37,162	22,301
70287	1,906	-1,8817	-34,652	18,171
70288	2,5258	-1,8823	-34,577	17,69
70289	2,2258	-2,4928	-34,266	17,615
70290	0,69627	-1,9948	-36,099	20,466
70291	0,71626	-1,99	-36,8	21,509
70292	0,37382	-2,5019	-36,449	21,085
70293	1,321	-1,9414	-35,387	19,276
70294	1,9677	-1,8943	-35,359	18,837
70295	1,6384	-2,4965	-35,019	18,69
70296	1,3563	-1,9905	-36,065	20,086
70297	1,0155	-2,5061	-35,73	19,841
70298	2,5875	-1,8949	-35,284	18,377
70299	3,2222	-1,8974	-35,193	17,701
70300	2,9151	-2,4888	-34,893	17,739
70301	5,6591e-002	-1,9709	-38,212	24,157
70302	-0,30306	-2,5044	-38,509	24,719
70303	2,003	-1,9434	-36,037	19,668
70304	2,6622	-1,9428	-35,974	18,946
70305	2,3217	-2,4959	-35,656	18,952
70306	0,73623	-1,9649	-37,521	22,779
70307	0,76646	-1,949	-38,247	23,977
70308	0,40183	-2,5029	-37,873	23,574
70309	1,3763	-1,9857	-36,766	21,148
70310	2,0467	-1,9878	-36,714	20,427
70311	1,6956	-2,4995	-36,388	20,352
70312	1,415	-1,9614	-37,479	22,169
70313	1,0501	-2,4954	-37,126	21,939
70314	1,4452	-1,9456	-38,205	23,399
70315	1,062	-2,4844	-38,561	24,397
70316	2,0854	-1,9636	-37,427	21,485
70317	2,1112	-1,9594	-38,109	22,358
70318	1,7502	-2,471	-37,793	22,433
70319	2,706	-1,9873	-36,651	19,737
70320	2,7503	-1,9889	-37,332	20,388
70321	2,39	-2,5006	-37,023	20,535
70322	3,297	-1,9453	-35,883	18,299
70323	3,9535	-1,9368	-35,811	17,465
70324	3,636	-2,4879	-35,504	17,607
70325	3,3746	-1,9849	-36,57	18,749
70326	3,0204	-2,4958	-36,267	18,935
70327	8,0512	-1,9861	-38,419	12,649
70328	8,2501	-1,9848	-39,094	12,223
70329	8,4699	-2,4985	-38,717	12,086
70330	7,185	-1,9975	-37,917	13,811
70331	7,4014	-1,9613	-38,532	13,429
70332	7,6108	-2,5033	-38,212	13,22
70333	6,2945	-2,0436	-37,448	15,039
70334	6,5152	-1,9719	-38,035	14,75
70335	6,7558	-2,5067	-37,697	14,408
70336	4,6662	-1,9609	-36,421	16,99
70337	4,0311	-1,9764	-36,498	17,947
70338	4,3609	-2,4983	-36,158	17,279
70339	5,421	-2,0166	-36,97	16,181
70340	5,5901	-2,103	-37,618	16,158
70341	5,841	-2,6249	-37,26	15,669
70342	5,6211	-2,6202	-37,211	16,012
70343	4,7306	-1,9788	-37,081	17,295
70344	5,0259	-2,5383	-36,753	16,68
70345	6,3164	-1,9846	-42,335	13,854
70346	6,0403	-2,5218	-42,511	14,35
70347	6,0315	-2,3483	-43,421	13,865
70348	7,794	-1,967	-39,877	12,514
70349	7,6004	-1,96	-39,207	12,999
70350	7,9937	-2,5004	-39,58	12,367
70351	6,8044	-1,9799	-41,565	13,264
70352	6,2124	-1,8578	-41,659	14,41
70353	6,2905	-2,5282	-42,106	14,003
70354	6,2816	-2,3548	-43,016	13,459
70355	7,3063	-1,9593	-40,72	12,838
70356	6,6483	-1,9392	-40,923	13,828
70357	7,0223	-2,4707	-41,262	13,004
70358	7,1475	-1,9315	-39,957	13,405
70359	7,5278	-2,4816	-40,391	12,664
70360	6,7316	-1,9357	-38,65	14,359
70361	6,9539	-1,9245	-39,287	13,893
70362	7,1706	-2,4649	-38,991	13,64
70363	5,8108	-2,0314	-38,205	15,851
70364	6,0602	-1,9022	-38,773	15,447
70365	6,2986	-2,4791	-38,506	15,049
70366	4,8997	-2,0653	-37,728	17,243
70367	5,065	-2,0695	-38,465	17,286
70368	5,4605	-2,6426	-38,166	16,449
70369	5,1362	-2,6635	-37,939	16,941
70370	4,0955	-1,9943	-37,158	18,223
70371	4,1776	-1,9565	-37,853	18,67
70372	4,4231	-2,5179	-37,438	17,934
70373	3,4189	-1,9865	-37,251	19,437
70374	3,7257	-2,4983	-36,871	18,602
70375	6,4895	-1,9114	-40,159	14,395
70376	6,2826	-1,8911	-39,41	14,97
70377	6,6922	-2,4759	-39,877	14,134
70378	5,8751	-1,8595	-40,345	15,538
70379	6,0562	-1,8171	-41,017	14,973
70380	6,2062	-2,4216	-40,782	14,719
70381	5,6682	-1,8392	-39,595	16,122
70382	5,3144	-1,9403	-39,033	16,861
70383	5,8589	-2,4312	-39,321	15,768
70384	3,501	-1,9488	-37,946	19,84
70385	2,7761	-1,9847	-38,014	21,303
70386	3,0902	-2,5	-37,625	20,298
70387	5,1143	-1,8181	-39,814	17,3
70388	5,2571	-1,7595	-40,403	16,963
70389	5,3933	-2,3575	-40,228	16,67
70390	4,3429	-1,9607	-38,59	18,668
70391	3,5282	-1,9475	-38,62	20,519
70392	3,8344	-2,4715	-38,227	19,536
70393	4,7606	-1,9192	-39,252	18,058
70394	4,5205	-1,8117	-39,803	18,776
70395	4,7443	-2,3523	-39,787	18,224
70396	4,5831	-2,1531	-39,51	18,554
70397	4,3019	-2,018	-39,28	19,206
70398	4,9756	-2,562	-39,017	17,547
70399	4,5875	-2,5762	-38,8	18,299
70400	4,611	-2,2456	-39,178	18,436
70401	5,4382	-1,717	-41,075	16,383
70402	4,6633	-1,7531	-40,393	18,409
70403	5,1544	-2,3074	-40,588	17,19
70404	4,0619	-1,9106	-39,832	19,919
70405	4,5321	-2,3373	-40,007	18,819
70406	4,3709	-2,1382	-39,73	19,152
70407	2,8034	-1,9835	-38,689	21,931
70408	2,4356	-2,4914	-38,39	22,342
70409	3,4872	-2,0048	-39,31	21,015
70410	3,8071	-2,4878	-39,5	20,447
70411	4,1245	-2,252	-39,538	19,704
70412	3,1471	-2,4992	-38,967	21,609
70413	-20,095	-1,9928	-9,5138	11,52
70414	-19,767	-1,9876	-8,7875	11,965
70415	-19,7	-2,5229	-9,2465	11,639
70416	-21,096	-1,9948	-9,9183	11,332
70417	-20,854	-2,0241	-9,2051	11,908
70418	-20,699	-2,5478	-9,695	11,501
70419	-22,051	-1,9856	-10,398	10,943
70420	-21,811	-1,9602	-9,6973	11,587
70421	-21,579	-2,5317	-10,311	11,046
70422	-21,76	-2,5914	-9,9095	11,398
70423	-22,146	-2,2838	-9,7032	11,593
70424	-22,912	-1,9978	-10,929	10,4
70425	-22,751	-1,9527	-10,295	11,034
70426	-22,425	-2,5067	-10,791	10,61
70427	-22,575	-2,2875	-10,001	11,304
70428	-23,571	-2,0026	-10,743	10,472
70429	-23,313	-2,5442	-11,233	10,073
70430	-23,41	-1,9575	-10,109	11,107
70431	-24,048	-1,9476	-9,8478	11,328
70432	-23,751	-2,5402	-10,403	10,756
70433	-22,511	-1,9273	-9,5943	11,674
70434	-23,212	-1,899	-9,4388	11,873
70435	-22,983	-2,5282	-9,9865	11,309
70436	-22,846	-2,2509	-9,6002	11,681
70437	-23,849	-1,8891	-9,1777	12,101
70438	-24,482	-1,9395	-9,011	12,327
70439	-24,252	-2,4516	-9,4725	11,727
70440	-22,259	-1,8874	-8,9686	12,338
70441	-21,569	-1,9895	-8,9841	12,174
70442	-22,087	-2,5305	-9,1858	12,08
70443	-22,335	-2,2621	-9,3	11,975
70444	-22,96	-1,8591	-8,8131	12,537
70445	-23,633	-1,8704	-8,5723	12,97
70446	-23,306	-2,5009	-9,158	12,16
70447	-23,036	-2,2338	-9,1445	12,174
70448	-22,784	-1,8529	-8,3011	13,204
70449	-22,226	-1,9159	-8,2886	13,028
70450	-22,612	-2,4313	-8,4261	12,994
70451	-22,545	-2,1435	-8,1652	13,305
70452	-22,594	-2,211	-8,9745	12,338
70453	-20,525	-2,0188	-8,4788	12,374
70454	-20,088	-2,0057	-7,8344	12,762
70455	-19,924	-2,4949	-8,1984	12,432
70456	-21,166	-2,063	-8,144	12,889
70457	-21,536	-2,0179	-8,3041	12,875
70458	-21,019	-2,5833	-8,5442	12,475
70459	-21,236	-2,5898	-8,6866	12,401
70460	-21,248	-2,3406	-8,3926	12,68
70461	-24,266	-1,9208	-8,4057	13,191
70462	-24,844	-1,9866	-8,2299	13,516
70463	-24,625	-2,4981	-8,6885	12,762
70464	-20,729	-2,0499	-7,4996	13,309
70465	-20,422	-2,0127	-6,9252	13,664
70466	-20,284	-2,5173	-7,3453	13,233
70467	-23,457	-1,8642	-8,0603	13,642
70468	-23,985	-1,92	-7,8365	14,162
70469	-23,762	-2,4478	-8,3028	13,365
70470	-23,267	-2,2223	-8,7337	12,769
70471	-21,565	-2,0405	-7,7741	13,398
70472	-21,316	-2,0482	-7,178	13,965
70473	-21,103	-2,5546	-7,5838	13,42
70474	-21,277	-2,3632	-7,8626	13,2
70475	-22,492	-1,9325	-7,9466	13,538
70476	-23,147	-1,9086	-7,6201	14,302
70477	-22,879	-2,4479	-8,0841	13,494
70478	-22,811	-2,1601	-7,8232	13,82
70479	-22,86	-2,2276	-8,6325	12,811
70480	-22,113	-2,0273	-7,4489	14,094
70481	-21,978	-2,5138	-7,9313	13,392
70482	-21,647	-2,3181	-8,0226	13,176
70483	-22,253	-2,2231	-7,8107	13,655
70484	-24,563	-1,9858	-7,6607	14,475
70485	-25,203	-1,9411	-7,3564	15,224
70486	-24,965	-2,507	-7,8447	14,165
70487	-21,009	-2,011	-6,6036	14,357
70488	-20,749	-2,0126	-5,9917	14,778
70489	-20,623	-2,5256	-6,4307	14,251
70490	-23,675	-1,9644	-7,3963	14,821
70491	-24,28	-1,9927	-7,0934	15,753
70492	-24,064	-2,5012	-7,5522	14,662
70493	-21,865	-2,035	-6,8528	14,697
70494	-21,601	-2,0023	-6,2872	15,283
70495	-21,455	-2,5227	-6,7218	14,576
70496	-22,768	-2,0034	-7,1224	14,876
70497	-23,391	-1,9751	-6,8425	15,931
70498	-23,135	-2,5294	-7,2823	14,848
70499	-22,908	-2,1991	-7,4842	14,424
70500	-22,46	-2,0253	-6,5485	15,738
70501	-22,284	-2,5729	-6,9914	14,819
70502	-22,432	-2,2549	-7,3255	14,382
70503	-21,34	-2,0039	-5,6752	15,765
70504	-20,938	-2,517	-5,495	15,498
70505	-22,196	-1,9927	-5,9828	16,364
70506	-21,785	-2,5105	-5,8164	16,152
70507	-24,919	-1,9481	-6,7891	16,485
70508	-25,297	-2,472	-6,9804	16,055
70509	-23,084	-1,997	-6,2686	16,804
70510	-22,643	-2,5177	-6,134	16,673
70511	-23,996	-2,0035	-6,5396	16,858
70512	-24,407	-2,5215	-6,7203	16,657
70513	-23,521	-2,5141	-6,4237	16,911
70514	-1,8902	-3,1852	38,216	16,363
70515	-1,0984	-3,1052	38,297	15,991
70516	-0,7873	-2,9083	39,032	15,757
70517	-2,0363	-2,9602	38,827	16,948
70518	-1,4502	-3,6241	38,599	16,318
70519	-3,3622	-3,1643	38,737	17,907
70520	-4,2483	-2,9597	39,348	18,829
70521	-3,9521	-3,0183	38,588	17,9
70522	-3,223	-2,8972	38,986	17,983
70523	-3,7392	-3,5353	39,085	18,574
70524	-2,7251	-3,2147	38,16	17,005
70525	-3,2977	-3,2133	38,129	17,203
70526	-2,8712	-2,9896	38,77	17,584
70527	-3,	-3,6558	38,542	17,555
70528	-2,6628	-3,17	37,472	16,373
70529	-2,0799	-3,0764	37,484	16,165
70530	-2,5858	-2,9476	38,41	17,103
70531	-2,3685	-3,6054	37,844	16,544
70532	-4,9581	-2,7092	39,363	18,758
70533	-5,0945	-2,7907	40,078	19,538
70534	-4,6648	-2,507	39,567	19,14
70535	-3,7573	-2,7851	39,381	18,393
70536	-4,798	-3,3885	39,732	19,398
70537	-4,6618	-2,7677	38,604	17,761
70538	-4,4609	-2,9654	37,816	17,01
70539	-3,8876	-3,0673	37,98	17,189
70540	-4,2708	-3,4868	38,28	17,566
70541	-5,3623	-2,6822	38,472	17,435
70542	-5,5971	-2,7229	39,188	17,957
70543	-4,8402	-2,3686	39,188	18,488
70544	-5,1338	-3,2576	38,929	18,085
70545	-4,4456	-3,0801	37,173	16,39
70546	-5,1613	-2,8799	37,684	16,645
70547	-4,9882	-2,9729	36,996	16,138
70548	-4,8091	-3,4782	37,436	16,593
70549	-3,8723	-3,182	37,337	16,575
70550	-3,2354	-3,1687	37,441	16,574
70551	-3,6069	-3,608	37,74	16,952
70552	-4,4473	-3,1861	36,544	15,876
70553	-3,811	-3,316	36,651	16,007
70554	-4,174	-3,6198	36,926	16,241
70555	-5,8234	-2,8096	37,506	16,255
70556	-6,0605	-2,8506	38,215	16,645
70557	-5,6195	-3,3719	37,965	16,786
70558	-3,174	-3,3027	36,754	16,01
70559	-2,5155	-3,0514	36,846	15,941
70560	-2,9242	-3,5959	37,13	16,256
70561	-4,9899	-3,0789	36,367	15,619
70562	-4,9824	-3,1569	35,818	15,243
70563	-4,4222	-3,1818	35,877	15,38
70564	-4,7471	-3,6222	36,117	15,519
70565	-5,6502	-2,9026	36,818	15,724
70566	-5,516	-2,9965	36,106	15,29
70567	-5,3079	-3,495	36,596	15,73
70568	-5,5085	-3,0745	35,557	14,91
70569	-5,1763	-3,0539	35,204	14,796
70570	-5,1853	-3,5833	35,494	14,989
70571	-6,1863	-2,881	36,697	15,424
70572	-6,5234	-2,8895	37,292	15,61
70573	-6,1176	-3,4156	37,042	15,733
70574	-6,052	-2,9749	35,985	14,975
70575	-5,774	-2,9488	35,036	14,519
70576	-5,7523	-3,5204	35,668	14,911
70577	-5,7335	-2,8044	39,903	18,798
70578	-5,6588	-2,7854	40,632	19,679
70579	-5,3837	-3,3564	40,386	19,789
70580	-6,8567	-2,9417	36,467	14,856
70581	-6,5789	-2,8063	35,741	14,621
70582	-6,3743	-3,5069	36,345	15,097
70583	-3,7858	-3,3117	35,984	15,515
70584	-2,9296	-3,3729	36,202	15,62
70585	-3,5077	-3,7424	36,341	15,787
70586	-6,2954	-2,8912	38,931	17,222
70587	-6,3964	-2,9196	39,641	17,673
70588	-5,989	-3,4164	39,398	17,991
70589	-4,6161	-3,0789	35,263	14,929
70590	-3,8124	-3,1285	35,247	15,056
70591	-4,1182	-3,6239	35,556	15,223
70592	-6,7606	-2,9305	38,001	16,039
70593	-6,8976	-2,9403	38,707	16,378
70594	-6,4945	-3,4495	38,477	16,642
70595	-5,4419	-2,9283	34,683	14,401
70596	-4,6632	-3,0287	34,541	14,497
70597	-5,0287	-3,5247	34,839	14,617
70598	-7,1938	-2,9503	37,062	15,072
70599	-7,385	-2,9642	37,765	15,302
70600	-6,9781	-3,4717	37,524	15,528
70601	-6,301	-2,7802	34,792	14,148
70602	-6,1837	-2,9129	34,04	13,834
70603	-5,3739	-2,9508	34,059	14,071
70604	-5,8087	-3,4609	34,273	14,086
70605	-7,6332	-2,9608	36,115	14,247
70606	-7,8368	-2,9597	36,833	14,428
70607	-7,4024	-3,4607	36,593	14,652
70608	-7,18	-2,8131	34,678	13,763
70609	-7,3554	-2,8254	35,389	13,988
70610	-6,9332	-3,3253	35,115	14,099
70611	-7,0628	-2,9457	33,926	13,434
70612	-7,9311	-2,9717	34,464	13,276
70613	-7,7823	-2,9636	33,772	13,087
70614	-7,4993	-3,4653	34,198	13,395
70615	-8,1065	-2,9841	35,175	13,517
70616	-8,3116	-2,9816	35,878	13,659
70617	-7,8935	-3,4761	35,641	13,85
70618	-6,91	-2,9574	33,21	13,203
70619	-6,1418	-2,9707	33,301	13,475
70620	-6,595	-3,4622	33,607	13,497
70621	-8,6267	-2,9916	34,282	12,874
70622	-8,7861	-2,9969	34,964	13,007
70623	-8,3669	-3,4918	34,723	13,181
70624	-7,6296	-2,9753	33,056	12,846
70625	-8,478	-2,9835	33,589	12,674
70626	-8,2674	-2,9891	32,875	12,539
70627	-8,04	-3,4804	33,333	12,803
70628	-7,4618	-2,9872	32,348	12,656
70629	-6,735	-2,9845	32,469	12,926
70630	-7,1916	-3,4824	32,77	12,919
70631	-9,1583	-2,9975	33,407	12,309
70632	-9,3124	-2,9982	34,088	12,42
70633	-8,905	-3,4903	33,852	12,578
70634	-8,0997	-3,0009	32,167	12,342
70635	-8,9477	-3,0031	32,693	12,164
70636	-8,731	-3,0037	31,985	12,055
70637	-8,5154	-3,4998	32,433	12,286
70638	-7,9564	-3,009	31,481	12,176
70639	-7,2906	-3,0087	31,629	12,43
70640	-7,7082	-3,4989	31,918	12,414
70641	-9,648	-3,0107	32,524	11,82
70642	-9,8275	-3,0083	33,214	11,902
70643	-9,3995	-3,5032	32,963	12,059
70644	-8,5877	-3,0117	31,299	11,884
70645	-9,2404	-3,0135	31,123	11,607
70646	-9,4313	-3,0113	31,817	11,704
70647	-9,0011	-3,5062	31,558	11,822
70648	-8,4341	-3,0208	30,612	11,743
70649	-7,784	-3,0225	30,773	11,982
70650	-8,202	-3,5115	31,053	11,956
70651	-9,0868	-3,0227	30,437	11,462
70652	-9,7126	-3,0139	30,253	11,209
70653	-9,9324	-3,0206	30,953	11,283
70654	-9,5076	-3,515	30,699	11,397
70655	-8,8946	-3,0255	29,742	11,349
70656	-8,2107	-3,0147	29,895	11,581
70657	-8,666	-3,5179	30,177	11,543
70658	-9,5204	-3,0168	29,559	11,093
70659	-10,175	-3,0143	29,381	10,847
70660	-10,367	-3,0143	30,072	10,917
70661	-9,943	-3,5088	29,815	11,026
70662	-9,3529	-3,0258	28,873	10,986
70663	-8,6681	-3,0143	29,031	11,206
70664	-9,1246	-3,5194	29,31	11,166
70665	-10,007	-3,0233	28,695	10,738
70666	-9,8092	-3,0236	27,999	10,651
70667	-9,1269	-3,0132	28,165	10,858
70668	-9,58	-3,5174	28,433	10,817
70669	-10,123	-3,0184	31,646	11,385
70670	-10,312	-3,0176	32,335	11,449
70671	-9,8823	-3,5113	32,083	11,599
70672	-10,661	-3,0196	28,514	10,508
70673	-10,856	-3,0205	29,204	10,565
70674	-10,433	-3,5156	28,953	10,672
70675	-10,463	-3,0199	27,819	10,418
70676	-10,267	-3,0197	27,122	10,34
70677	-9,6129	-3,0251	27,304	10,531
70678	-10,038	-3,5159	27,562	10,495
70679	-11,118	-3,016	27,635	10,202
70680	-11,317	-3,0171	28,324	10,248
70681	-10,89	-3,5131	28,075	10,354
70682	-10,922	-3,0158	26,938	10,123
70683	-10,727	-3,0154	26,241	10,054
70684	-10,046	-3,0088	26,421	10,235
70685	-10,499	-3,5126	26,681	10,196
70686	-11,577	-3,0118	26,751	9,9205
70687	-11,777	-3,0129	27,44	9,9561
70688	-11,348	-3,5101	27,194	10,061
70689	-10,587	-3,0211	30,771	10,995
70690	-10,779	-3,0215	31,456	11,044
70691	-10,356	-3,5153	31,208	11,186
70692	-11,382	-3,0114	26,054	9,851
70693	-11,188	-3,0115	25,354	9,7912
70694	-10,505	-3,0058	25,544	9,9591
70695	-10,955	-3,5091	25,798	9,9227
70696	-11,049	-3,0206	29,895	10,638
70697	-11,242	-3,0218	30,582	10,676
70698	-10,817	-3,5159	30,335	10,815
70699	-12,04	-3,008	25,859	9,6618
70700	-12,238	-3,0084	26,551	9,6882
70701	-11,808	-3,5068	26,306	9,7907
70702	-11,846	-3,0081	25,16	9,6017
70703	-11,651	-3,0111	24,463	9,5526
70704	-10,993	-3,0125	24,655	9,701
70705	-11,421	-3,5079	24,908	9,6712
70706	-12,507	-3,0076	24,963	9,4264
70707	-12,702	-3,0054	25,657	9,4435
70708	-12,272	-3,5046	25,412	9,5439
70709	-11,513	-3,0179	29,014	10,307
70710	-11,707	-3,0199	29,703	10,336
70711	-11,281	-3,5145	29,454	10,47
70712	-12,312	-3,0105	24,266	9,3777
70713	-12,117	-3,0158	23,576	9,3403
70714	-11,456	-3,0147	23,766	9,4731
70715	-11,882	-3,5088	24,019	9,4465
70716	-11,976	-3,014	28,129	10,004
70717	-12,172	-3,016	28,821	10,022
70718	-11,745	-3,5118	28,572	10,154
70719	-12,978	-3,0121	24,073	9,2169
70720	-13,173	-3,0078	24,761	9,2221
70721	-12,743	-3,5061	24,516	9,3209
70722	-12,588	-3,0228	22,704	9,1563
70723	-12,784	-3,0173	23,383	9,1805
70724	-11,921	-3,0213	22,885	9,2727
70725	-12,353	-3,5136	23,136	9,2475
70726	-12,439	-3,0095	27,241	9,7252
70727	-12,636	-3,0113	27,935	9,733
70728	-12,208	-3,5084	27,685	9,8631
70729	-13,037	-3,0162	21,861	9,006
70730	-13,259	-3,0247	22,519	9,0118
70731	-12,371	-3,0159	22,041	9,1063
70732	-12,823	-3,5192	22,277	9,0792
70733	-13,454	-3,0191	23,198	9,0345
70734	-13,647	-3,0144	23,876	9,0268
70735	-13,214	-3,5109	23,634	9,1258
70736	-13,485	-3,0068	21,017	8,8841
70737	-13,708	-3,0166	21,681	8,8767
70738	-12,814	-3,0037	21,2	8,9686
70739	-13,267	-3,5072	21,437	8,9441
70740	-13,96	-3,0194	20,149	8,7882
70741	-14,174	-3,0178	20,826	8,767
70742	-13,28	-3,0047	20,342	8,8568
70743	-13,737	-3,5114	20,581	8,834
70744	-14,433	-3,0307	19,28	8,7271
70745	-14,641	-3,0288	19,954	8,6893
70746	-13,757	-3,019	19,473	8,7769
70747	-14,204	-3,521	19,711	8,7564
70748	-13,929	-3,0251	22,339	8,8807
70749	-14,128	-3,0219	23,011	8,8577
70750	-13,694	-3,5165	22,765	8,9568
70751	-14,888	-3,0178	18,428	8,7038
70752	-15,092	-3,0174	19,101	8,6476
70753	-14,226	-3,0329	18,605	8,7345
70754	-14,664	-3,5222	18,851	8,7151
70755	-15,346	-3,0175	17,568	8,7194
70756	-15,549	-3,0033	18,248	8,6408
70757	-14,677	-3,0059	17,763	8,7307
70758	-15,117	-3,5092	17,999	8,7113
70759	-12,901	-3,0058	26,349	9,4707
70760	-13,099	-3,0067	27,042	9,4677
70761	-12,67	-3,5051	26,796	9,5972
70762	-14,396	-3,0276	21,49	8,7573
70763	-14,582	-3,0186	22,169	8,7231
70764	-14,164	-3,5201	21,915	8,8188
70765	-15,809	-3,0167	16,711	8,776
70766	-16,02	-3,0272	17,37	8,6747
70767	-15,143	-3,0327	16,893	8,7684
70768	-15,581	-3,5211	17,132	8,7481
70769	-14,854	-3,0272	20,631	8,6652
70770	-15,046	-3,0178	21,315	8,6133
70771	-14,629	-3,5207	21,065	8,7104
70772	-16,279	-3,0193	15,855	8,8771
70773	-16,477	-3,0024	16,529	8,7481
70774	-15,601	-3,0035	16,053	8,8471
70775	-16,042	-3,5094	16,283	8,8265
70776	-15,3	-3,0155	19,775	8,6067
70777	-15,503	-3,016	20,45	8,5351
70778	-15,08	-3,5196	20,197	8,6356
70779	-13,368	-3,0057	25,455	9,2393
70780	-13,565	-3,0048	26,141	9,2249
70781	-13,133	-3,5032	25,901	9,3547
70782	-15,753	-3,0029	18,921	8,5812
70783	-15,955	-3,0029	19,595	8,4899
70784	-15,528	-3,5075	19,345	8,5938
70785	-13,842	-3,0101	24,564	9,0315
70786	-14,037	-3,0075	25,25	9,0054
70787	-13,603	-3,5049	25,009	9,1353
70788	-16,223	-3,0131	18,05	8,5921
70789	-16,421	-3,0001	18,731	8,478
70790	-15,992	-3,5063	18,481	8,5861
70791	-14,321	-3,0171	23,689	8,8491
70792	-14,514	-3,0134	24,369	8,8097
70793	-14,08	-3,5095	24,122	8,9401
70794	-16,755	-3,0364	14,992	9,0277
70795	-16,951	-3,0194	15,664	8,8694
70796	-16,081	-3,0394	15,18	8,9774
70797	-16,519	-3,5255	15,421	8,9528
70798	-16,688	-3,0128	17,189	8,6431
70799	-16,893	-3,0126	17,856	8,505
70800	-16,462	-3,5183	17,611	8,6179
70801	-14,78	-3,0154	22,841	8,6988
70802	-14,996	-3,0207	23,503	8,6384
70803	-14,561	-3,5151	23,26	8,7711
70804	-17,427	-3,0339	14,797	9,0413
70805	-17,222	-3,04	14,134	9,2295
70806	-16,542	-3,0255	14,34	9,1518
70807	-16,988	-3,5268	14,565	9,128
70808	-17,149	-3,0025	16,338	8,7362
70809	-17,352	-2,9987	17,005	8,5716
70810	-16,917	-3,5069	16,757	8,691
70811	-15,231	-3,0089	21,994	8,5773
70812	-15,451	-3,0178	22,66	8,5012
70813	-15,013	-3,5099	22,415	8,6363
70814	-17,624	-3,017	15,47	8,8786
70815	-17,821	-3,0019	16,143	8,6829
70816	-17,388	-3,509	15,903	8,8072
70817	-15,695	-3,0066	21,133	8,4809
70818	-15,898	-3,008	21,809	8,3926
70819	-15,476	-3,5085	21,557	8,526
70820	-18,087	-3,0169	14,612	9,07
70821	-18,303	-3,0277	15,262	8,8465
70822	-17,863	-3,5215	15,03	8,9766
70823	-17,881	-3,023	13,948	9,2624
70824	-17,663	-3,0247	13,289	9,4813
70825	-17,013	-3,0499	13,471	9,3869
70826	-17,456	-3,5304	13,705	9,3584
70827	-16,158	-3,0033	20,27	8,4157
70828	-16,363	-3,0064	20,944	8,3083
70829	-15,937	-3,5061	20,696	8,4461
70830	-18,534	-3,0042	13,759	9,3154
70831	-18,755	-3,0139	14,408	9,0591
70832	-18,316	-3,5092	14,177	9,1953
70833	-16,623	-3,0001	19,405	8,3838
70834	-16,824	-3,0003	20,08	8,2564
70835	-16,4	-3,5059	19,829	8,3983
70836	-18,316	-3,0059	13,1	9,5386
70837	-18,091	-3,0256	12,421	9,7992
70838	-17,432	-3,0065	12,653	9,6597
70839	-17,88	-3,513	12,858	9,6401
70840	-17,09	-2,9997	18,537	8,3877
70841	-17,295	-3,0013	19,209	8,2367
70842	-16,862	-3,5016	18,965	8,385
70843	-18,984	-3,0158	12,864	9,6379
70844	-19,207	-3,0127	13,531	9,3372
70845	-18,77	-3,5089	13,305	9,478
70846	-18,759	-3,0355	12,184	9,9055
70847	-19,425	-3,0104	12,005	10,014
70848	-19,653	-3,0132	12,657	9,6798
70849	-19,213	-3,5193	12,402	9,84
70850	-18,515	-3,0421	11,535	10,189
70851	-17,867	-3,0226	11,774	10,014
70852	-18,314	-3,5316	11,968	9,9997
70853	-19,18	-3,0171	11,356	10,303
70854	-18,944	-3,0222	10,691	10,633
70855	-18,288	-3,0222	10,912	10,427
70856	-18,726	-3,5285	11,105	10,416
70857	-19,849	-2,9997	11,133	10,474
70858	-20,09	-2,9926	11,831	10,071
70859	-19,641	-3,499	11,58	10,236
70860	-17,557	-2,9985	17,672	8,4304
70861	-17,761	-2,9992	18,342	8,2546
70862	-17,33	-3,5042	18,095	8,4092
70863	-19,613	-3,0048	10,469	10,812
70864	-20,268	-2,9908	10,241	11,032
70865	-20,518	-2,9849	10,927	10,584
70866	-20,065	-3,5017	10,656	10,769
70867	-18,024	-2,9982	16,81	8,5149
70868	-18,227	-2,9961	17,477	8,3118
70869	-17,795	-3,5013	17,234	8,4734
70870	-19,365	-2,9991	9,8282	11,165
70871	-18,711	-3,0098	10,063	10,902
70872	-19,153	-3,5053	10,263	10,896
70873	-20,68	-2,9577	9,4236	11,652
70874	-20,02	-2,9851	9,6002	11,395
70875	-20,996	-2,9298	10,039	11,192
70876	-20,482	-3,4824	9,7979	11,358
70877	-20,404	-2,9627	8,7377	12,086
70878	-20,983	-2,9826	8,4607	12,498
70879	-21,444	-2,916	9,052	12,058
70880	-20,855	-3,4649	8,9411	12,069
70881	-19,744	-2,9901	8,9142	11,821
70882	-19,063	-3,0247	9,1656	11,471
70883	-19,545	-3,4977	9,3711	11,488
70884	-18,5	-3,0126	15,936	8,647
70885	-18,697	-2,9993	16,609	8,4123
70886	-18,263	-3,5027	16,37	8,5812
70887	-20,093	-2,9878	7,9729	12,604
70888	-19,476	-2,9961	8,2508	12,168
70889	-19,9	-3,4945	8,4489	12,198
70890	-18,971	-3,0247	15,059	8,8318
70891	-19,177	-3,0236	15,723	8,5642
70892	-18,743	-3,5188	15,495	8,7386
70893	-20,672	-3,0078	7,696	13,043
70894	-20,378	-3,0154	7,0365	13,493
70895	-19,815	-2,9954	7,3091	12,972
70896	-20,229	-3,4981	7,5041	13,041
70897	-19,428	-3,0225	14,18	9,076
70898	-19,639	-3,0215	14,848	8,7694
70899	-19,2	-3,5172	14,621	8,9529
70900	-21,223	-3,0386	7,3956	13,62
70901	-21,599	-3,0189	7,9892	13,135
70902	-21,082	-3,5161	7,9043	13,048
70903	-20,929	-3,0463	6,7361	14,107
70904	-20,692	-3,02	6,0676	14,612
70905	-20,103	-3,0194	6,3792	13,864
70906	-20,496	-3,5299	6,579	13,985
70907	-19,875	-3,0101	13,324	9,3745
70908	-20,094	-3,0181	13,964	9,0394
70909	-19,657	-3,5152	13,737	9,2299
70910	-21,553	-3,0222	6,3963	15,05
70911	-21,814	-3,0172	7,0337	14,357
70912	-21,357	-3,5365	6,8976	14,244
70913	-21,316	-2,996	5,7278	15,623
70914	-20,459	-2,9985	5,3899	15,007
70915	-20,862	-3,5081	5,5763	15,28
70916	-20,318	-2,9953	12,483	9,7328
70917	-20,542	-2,9979	13,138	9,3482
70918	-20,104	-3,5027	12,885	9,5612
70919	-22,174	-2,9938	6,078	16,116
70920	-21,723	-3,509	5,9178	15,867
70921	-20,758	-2,9778	11,626	10,175
70922	-21,	-2,9969	12,25	9,7594
70923	-20,546	-3,4953	12,027	9,9653
70924	-21,246	-2,9239	10,726	10,739
70925	-21,45	-2,9777	11,384	10,248
70926	-20,986	-3,4758	11,158	10,461
70927	-21,76	-2,8881	9,6676	11,578
70928	-21,917	-2,8983	10,473	10,873
70929	-21,479	-3,4333	10,228	11,107
70930	-22,06	-2,9523	8,5804	12,656
70931	-22,191	-2,9976	7,6273	13,834
70932	-22,443	-2,975	8,2046	13,157
70933	-22,038	-3,5111	8,1012	13,183
70934	-22,389	-2,9152	8,7036	12,599
70935	-22,438	-2,9617	9,3763	11,841
70936	-21,956	-3,441	9,1323	12,077
70937	-22,435	-2,9889	6,7155	15,378
70938	-22,671	-2,9787	7,3469	14,408
70939	-22,251	-3,4981	7,1949	14,434
70940	-22,924	-2,9562	7,9242	13,711
70941	-23,08	-2,9426	8,6019	12,784
70942	-22,725	-3,4749	8,4009	12,991
70943	-23,033	-2,9916	6,4404	16,295
70944	-22,587	-3,5121	6,265	16,27
70945	-23,269	-2,9815	7,0719	15,309
70946	-23,452	-3,0056	7,7524	14,063
70947	-23,063	-3,5003	7,5428	14,3
70948	-23,872	-3,009	6,8481	15,955
70949	-23,448	-3,5062	6,6351	16,233
70950	-6,3217	-2,9006	40,371	18,59
70951	-6,4799	-2,8834	41,056	18,748
70952	-6,042	-3,3965	40,839	19,491
70953	-6,9986	-2,9687	39,417	16,864
70954	-7,1588	-2,9583	40,106	17,033
70955	-6,7333	-3,4715	39,896	17,568
70956	-24,054	-3,0332	7,5286	14,715
70957	-24,711	-3,0116	7,3066	15,176
70958	-24,289	-3,5175	7,0716	15,636
70959	-7,5219	-2,974	38,472	15,67
70960	-7,6933	-2,9688	39,164	15,813
70961	-7,2668	-3,4788	38,947	16,241
70962	-23,609	-2,992	8,4302	13,135
70963	-24,257	-3,0205	8,2206	13,424
70964	-23,836	-3,5249	7,9876	13,78
70965	-8,028	-2,9736	37,536	14,683
70966	-8,2043	-2,9729	38,225	14,803
70967	-7,7819	-3,481	37,997	15,145
70968	-23,129	-2,989	9,2746	12,03
70969	-23,848	-2,93	9,1244	12,153
70970	-23,365	-2,6617	9,4666	11,796
70971	-23,379	-3,476	8,9038	12,454
70972	-8,5152	-2,9805	36,595	13,86
70973	-8,7132	-2,9771	37,288	13,948
70974	-8,2795	-3,4801	37,066	14,248
70975	-22,595	-2,9718	10,182	11,12
70976	-23,357	-3,0384	10,04	11,14
70977	-23,107	-2,7034	9,8651	11,356
70978	-22,883	-3,5058	9,73	11,534
70979	-8,9912	-2,9945	35,666	13,164
70980	-9,1886	-2,9911	36,359	13,238
70981	-8,7623	-3,4895	36,129	13,49
70982	-22,122	-2,952	11,131	10,374
70983	-22,802	-2,9474	10,976	10,354
70984	-22,831	-2,6445	10,374	10,909
70985	-22,353	-3,4502	10,69	10,696
70986	-9,4717	-3,0035	34,77	12,564
70987	-9,6645	-3,0012	35,458	12,628
70988	-9,2445	-3,4979	35,225	12,847
70989	-21,692	-2,9968	12,009	9,827
70990	-22,36	-2,9808	11,847	9,7789
70991	-21,924	-3,4923	11,569	10,092
70992	-9,9815	-3,0089	33,895	12,022
70993	-10,15	-3,0067	34,573	12,084
70994	-9,7311	-3,5036	34,334	12,281
70995	-21,224	-2,9995	12,905	9,3698
70996	-21,906	-3,0017	12,681	9,3252
70997	-21,461	-3,501	12,443	9,5996
70998	-10,492	-3,0152	33,024	11,538
70999	-10,659	-3,0106	33,703	11,59
71000	-10,246	-3,5075	33,463	11,769
71001	-20,761	-3,0059	13,778	9,0106
71002	-21,437	-3,001	13,578	8,9248
71003	-20,993	-3,5001	13,345	9,1854
71004	-10,968	-3,0207	32,145	11,114
71005	-11,154	-3,02	32,828	11,146
71006	-10,733	-3,5138	32,585	11,319
71007	-20,305	-3,0172	14,632	8,7293
71008	-20,975	-3,0122	14,429	8,624
71009	-20,535	-3,5107	14,191	8,875
71010	-11,435	-3,0222	31,268	10,73
71011	-11,626	-3,0224	31,952	10,752
71012	-11,201	-3,5164	31,706	10,919
71013	-19,845	-3,0204	15,512	8,4988
71014	-20,513	-3,0161	15,307	8,3749
71015	-20,08	-3,5138	15,073	8,6113
71016	-11,9	-3,0212	30,39	10,379
71017	-12,093	-3,0224	31,075	10,39
71018	-11,668	-3,5165	30,829	10,552
71019	-19,374	-3,0102	16,396	8,3264
71020	-20,047	-3,0184	16,184	8,187
71021	-19,611	-3,5144	15,953	8,4115
71022	-12,365	-3,018	29,51	10,054
71023	-12,559	-3,0201	30,197	10,056
71024	-12,133	-3,5148	29,951	10,215
71025	-18,9	-2,9972	17,276	8,2064
71026	-19,574	-2,9986	17,074	8,0488
71027	-19,138	-3,5016	16,835	8,2657
71028	-12,831	-3,0133	28,627	9,7538
71029	-13,026	-3,0158	29,314	9,7456
71030	-12,599	-3,5115	29,068	9,902
71031	-18,431	-2,9968	18,147	8,1335
71032	-19,103	-2,9966	17,947	7,963
71033	-18,669	-3,4992	17,705	8,17
71034	-13,296	-3,0085	27,736	9,4774
71035	-13,492	-3,0108	28,426	9,4585
71036	-13,065	-3,5077	28,184	9,6144
71037	-17,965	-3,0007	19,014	8,1012
71038	-18,634	-2,9996	18,817	7,9193
71039	-18,203	-3,5023	18,573	8,117
71040	-13,762	-3,0057	26,834	9,2231
71041	-13,958	-3,0065	27,525	9,193
71042	-13,528	-3,5045	27,287	9,3497
71043	-17,496	-3,0015	19,884	8,107
71044	-18,172	-3,0113	19,684	7,9122
71045	-17,737	-3,5036	19,444	8,1027
71046	-14,233	-3,0066	25,936	8,9916
71047	-14,428	-3,0063	26,624	8,9497
71048	-13,996	-3,5037	26,38	9,1068
71049	-17,029	-3,0034	20,754	8,147
71050	-17,695	-3,0011	20,561	7,9439
71051	-17,27	-3,5041	20,315	8,1249
71052	-14,708	-3,0108	25,054	8,7837
71053	-14,902	-3,0093	25,739	8,7287
71054	-14,469	-3,5057	25,492	8,8876
71055	-16,566	-3,0078	21,62	8,2183
71056	-17,232	-3,0055	21,43	8,005
71057	-16,809	-3,5079	21,181	8,1796
71058	-15,189	-3,017	24,182	8,5986
71059	-15,38	-3,0145	24,861	8,53
71060	-14,946	-3,5097	24,618	8,6917
71061	-16,118	-3,0169	22,474	8,3153
71062	-16,77	-3,0092	22,296	8,0959
71063	-16,344	-3,5078	22,047	8,266
71064	-15,667	-3,0231	23,321	8,44
71065	-15,864	-3,0212	23,997	8,3532
71066	-15,43	-3,5149	23,749	8,5182
71067	-16,337	-3,0258	23,144	8,205
71068	-15,901	-3,5189	22,896	8,3749
71069	-20,19	-2,9974	4,7515	15,143
71070	-19,918	-2,9928	4,1202	15,255
71071	-20,442	-3,0098	3,7391	15,885
71072	-20,337	-3,4989	4,2775	15,67
71073	-19,87	-2,9978	5,7015	14,194
71074	-19,564	-3,0149	5,0832	14,384
71075	-20,01	-3,5016	5,2356	14,676
71076	-19,54	-2,9994	6,6518	13,308
71077	-19,272	-2,9988	6,0122	13,582
71078	-19,676	-3,5037	6,196	13,738
71079	-19,198	-3,0037	7,5869	12,51
71080	-18,929	-3,0034	6,9446	12,791
71081	-19,321	-3,5113	7,1414	12,881
71082	-18,795	-3,0308	8,5021	11,802
71083	-18,516	-3,0411	7,8729	12,056
71084	-18,989	-3,5096	8,0556	12,15
71085	-18,41	-3,0354	9,4004	11,197
71086	-18,107	-3,0681	8,7599	11,434
71087	-18,572	-3,5391	8,9552	11,493
71088	-18,056	-3,0098	10,284	10,688
71089	-17,807	-3,0196	9,6406	10,917
71090	-18,237	-3,5209	9,8377	10,95
71091	-17,64	-3,0027	11,151	10,243
71092	-17,411	-3,0068	10,508	10,448
71093	-17,843	-3,5103	10,706	10,471
71094	-16,982	-3,0003	11,367	10,042
71095	-17,207	-3,0035	12,006	9,8669
71096	-17,422	-3,5074	11,567	10,061
71097	-16,093	-3,0101	10,938	10,009
71098	-16,324	-3,0051	11,569	9,8702
71099	-16,752	-3,0044	10,724	10,239
71100	-16,536	-3,52	11,135	10,061
71101	-16,549	-3,0083	12,209	9,7019
71102	-16,781	-3,0318	12,835	9,5607
71103	-16,999	-3,5171	12,415	9,7181
71104	-15,436	-3,0105	11,141	9,8078
71105	-15,206	-3,0222	10,521	9,9165
71106	-15,862	-3,0095	10,308	10,166
71107	-15,644	-3,5192	10,722	9,9897
71108	-15,667	-3,0055	11,772	9,6753
71109	-15,899	-3,0439	12,391	9,5655
71110	-16,115	-3,5248	11,974	9,7227
71111	-16,132	-3,0673	13,017	9,4294
71112	-16,333	-3,0354	13,678	9,3035
71113	-16,568	-3,5392	13,247	9,4366
71114	-15,005	-3,005	11,968	9,5023
71115	-14,785	-2,999	11,344	9,5908
71116	-15,229	-3,5181	11,551	9,6603
71117	-15,238	-3,0434	12,587	9,3985
71118	-15,467	-3,0718	13,216	9,3114
71119	-15,694	-3,5558	12,799	9,4427
71120	-14,325	-3,0193	10,121	9,7756
71121	-14,555	-3,0107	10,724	9,6929
71122	-14,973	-3,0156	9,9089	10,037
71123	-14,759	-3,519	10,32	9,8665
71124	-14,346	-3,0124	12,158	9,3127
71125	-14,574	-3,0474	12,783	9,2503
71126	-14,801	-3,5273	12,374	9,3807
71127	-13,445	-3,0259	9,7366	9,5989
71128	-13,679	-3,0222	10,319	9,5387
71129	-14,082	-3,0138	9,5262	9,8634
71130	-13,875	-3,5223	9,9281	9,7026
71131	-15,868	-3,0286	14,529	9,0967
71132	-15,668	-3,0399	13,876	9,1916
71133	-16,107	-3,5179	14,11	9,1994
71134	-14,127	-3,0064	11,534	9,3953
71135	-13,908	-3,0136	10,922	9,4621
71136	-14,349	-3,5218	11,131	9,5488
71137	-15,403	-3,0236	15,378	8,9423
71138	-15,208	-3,0506	14,708	9,0124
71139	-15,645	-3,532	14,943	9,0218
71140	-13,699	-3,0588	12,337	9,1467
71141	-13,471	-3,0188	11,717	9,1896
71142	-13,918	-3,5286	11,938	9,2737
71143	-14,934	-3,0194	16,235	8,8351
71144	-14,726	-3,0042	15,575	8,8764
71145	-15,167	-3,5105	15,807	8,8884
71146	-12,573	-3,0745	9,3344	9,4086
71147	-12,806	-3,0446	9,9241	9,3575
71148	-13,186	-3,0239	9,1633	9,6568
71149	-12,987	-3,5496	9,549	9,5079
71150	-11,749	-3,1924	9,0566	9,197
71151	-11,947	-3,0906	9,4995	9,1708
71152	-12,279	-3,0888	8,8006	9,4331
71153	-11,88	-2,8914	9,2183	9,2074
71154	-12,126	-3,5998	9,1443	9,3134
71155	-14,473	-3,0211	17,088	8,775
71156	-14,27	-3,0398	16,411	8,7937
71157	-14,708	-3,5264	16,656	8,8053
71158	-11,219	-3,2816	9,0739	9,0192
71159	-11,34	-3,2187	8,6339	9,1455
71160	-11,034	-3,0001	8,7832	9,0111
71161	-11,486	-2,9712	9,1545	9,0869
71162	-11,422	-3,6819	8,977	9,1114
71163	-14,015	-3,021	17,939	8,7574
71164	-13,805	-3,0066	17,275	8,7535
71165	-14,245	-3,5101	17,514	8,7659
71166	-13,04	-3,0409	10,507	9,3025
71167	-13,253	-3,026	11,105	9,2508
71168	-13,474	-3,5436	10,717	9,399
71169	-13,551	-3,0213	18,797	8,7803
71170	-13,359	-3,0381	18,112	8,7563
71171	-13,791	-3,5235	18,361	8,7682
71172	-12,18	-3,0607	10,089	9,1237
71173	-12,394	-3,0508	10,676	9,0845
71174	-12,616	-3,574	10,31	9,2279
71175	-15,008	-3,0619	14,055	9,1021
71176	-14,803	-3,0758	13,412	9,1693
71177	-15,245	-3,5484	13,64	9,2075
71178	-11,417	-3,1797	9,5168	8,9909
71179	-11,551	-3,0666	10,221	8,9112
71180	-11,684	-2,8693	9,5974	9,0625
71181	-11,766	-3,5924	9,8938	9,0426
71182	-14,531	-3,0312	14,905	8,9406
71183	-14,338	-3,0647	14,242	8,9844
71184	-14,775	-3,5414	14,478	9,0221
71185	-13,927	-3,0939	12,962	9,0899
71186	-14,133	-3,0786	13,598	9,0458
71187	-14,366	-3,5617	13,192	9,1512
71188	-13,853	-3,0068	15,096	8,8447
71189	-14,061	-3,0246	15,751	8,83
71190	-14,294	-3,5139	15,329	8,8848
71191	-13,261	-3,0955	13,136	8,943
71192	-13,054	-3,1122	12,511	8,9684
71193	-13,489	-3,5763	12,739	9,0477
71194	-10,81	-3,1999	9,6147	8,789
71195	-10,73	-3,2527	9,0194	8,8719
71196	-10,897	-3,0094	8,8643	8,9514
71197	-11,349	-2,9805	9,2356	9,0284
71198	-11,059	-3,7073	9,1744	8,9554
71199	-13,466	-3,0802	13,772	8,9045
71200	-13,659	-3,0403	14,432	8,8822
71201	-13,904	-3,5525	14,013	8,9654
71202	-12,826	-3,0722	11,892	9,0059
71203	-12,607	-3,0358	11,275	9,0375
71204	-13,045	-3,5357	11,501	9,1312
71205	-12,788	-3,0486	13,956	8,7772
71206	-12,596	-3,0951	13,305	8,7826
71207	-13,032	-3,5642	13,54	8,862
71208	-12,183	-3,128	12,049	8,8169
71209	-12,389	-3,1118	12,681	8,8025
71210	-12,615	-3,5827	12,288	8,907
71211	-12,981	-3,0087	14,616	8,7613
71212	-13,189	-3,0312	15,265	8,7685
71213	-13,423	-3,5182	14,849	8,8247
71214	-11,765	-3,0567	10,808	8,8746
71215	-11,964	-3,0915	11,432	8,844
71216	-12,187	-3,5633	11,065	8,9668
71217	-12,321	-3,0375	14,781	8,6605
71218	-12,113	-3,0106	14,135	8,6365
71219	-12,557	-3,5219	14,373	8,7183
71220	-11,117	-3,0539	10,95	8,6733
71221	-10,944	-3,0869	10,319	8,711
71222	-11,348	-3,5777	10,569	8,8016
71223	-11,316	-3,0887	11,574	8,6464
71224	-11,525	-3,1251	12,208	8,6392
71225	-11,75	-3,5896	11,817	8,7441
71226	-13,398	-3,049	15,921	8,7591
71227	-13,602	-3,0253	16,599	8,767
71228	-13,835	-3,5322	16,169	8,7988
71229	-10,469	-3,0513	11,092	8,471
71230	-10,653	-3,0383	11,727	8,4584
71231	-10,893	-3,5569	11,339	8,5682
71232	-13,077	-3,0043	19,666	8,8419
71233	-12,881	-3,0086	18,986	8,7992
71234	-13,324	-3,5089	19,228	8,8099
71235	-10,296	-3,0843	10,462	8,5049
71236	-10,179	-3,155	9,8642	8,5577
71237	-10,55	-3,6033	10,062	8,6426
71238	-12,529	-3,06	15,43	8,6733
71239	-12,732	-3,0305	16,106	8,7032
71240	-12,963	-3,5396	15,677	8,7359
71241	-9,8316	-3,1021	11,235	8,2871
71242	-9,6423	-3,0672	10,616	8,3011
71243	-10,071	-3,5624	10,854	8,3973
71244	-11,866	-3,0347	15,616	8,593
71245	-11,667	-3,0714	14,941	8,5465
71246	-12,098	-3,548	15,189	8,6268
71247	-12,609	-3,0016	20,525	8,9384
71248	-12,414	-3,0054	19,845	8,8794
71249	-12,858	-3,5045	20,088	8,8883
71250	-11,92	-3,057	13,484	8,6355
71251	-11,731	-3,1089	12,84	8,6299
71252	-12,162	-3,5748	13,08	8,7207
71253	-12,148	-3,0034	21,381	9,0667
71254	-11,951	-3,0054	20,7	8,9932
71255	-12,401	-3,509	20,941	8,9993
71256	-11,25	-3,0146	13,649	8,4812
71257	-11,459	-3,0445	14,295	8,5168
71258	-11,692	-3,5265	13,892	8,5757
71259	-12,936	-3,0069	16,785	8,717
71260	-13,149	-3,0237	17,448	8,748
71261	-13,375	-3,5118	17,024	8,7571
71262	-11,704	-3,0143	22,222	9,2209
71263	-11,49	-3,0059	21,555	9,1388
71264	-11,936	-3,5068	21,797	9,1424
71265	-12,068	-3,0053	16,292	8,6294
71266	-12,283	-3,0266	16,954	8,6836
71267	-12,506	-3,515	16,53	8,6926
71268	-11,259	-3,0202	23,076	9,4041
71269	-11,063	-3,0253	22,387	9,3065
71270	-11,491	-3,5163	22,641	9,3104
71271	-11,06	-3,0665	13,005	8,4698
71272	-10,861	-3,0747	12,361	8,4558
71273	-11,299	-3,5775	12,607	8,5556
71274	-10,603	-3,0192	23,261	9,5109
71275	-10,797	-3,0161	23,958	9,6207
71276	-11,03	-3,5122	23,516	9,5117
71277	-10,393	-3,0179	13,158	8,3063
71278	-10,603	-3,0532	13,806	8,348
71279	-10,832	-3,5323	13,406	8,408
71280	-12,689	-3,0253	18,301	8,7705
71281	-12,496	-3,0434	17,617	8,7196
71282	-12,929	-3,53	17,866	8,7587
71283	-11,203	-3,0031	15,796	8,4999
71284	-11,409	-3,0049	16,467	8,572
71285	-11,642	-3,5146	16,038	8,5818
71286	-12,218	-3,0097	19,166	8,8327
71287	-12,035	-3,028	18,481	8,7627
71288	-12,465	-3,5149	18,73	8,8007
71289	-10,194	-3,0261	12,514	8,2873
71290	-10,016	-3,0891	11,87	8,2786
71291	-10,436	-3,5472	12,121	8,3755
71292	-10,812	-3,0831	14,451	8,3891
71293	-11,005	-3,0397	15,121	8,4466
71294	-11,239	-3,5564	14,699	8,4819
71295	-9,7496	-3,0612	13,306	8,1638
71296	-9,5465	-3,0245	12,66	8,1233
71297	-9,9801	-3,5364	12,913	8,2262
71298	-11,623	-3,0262	17,129	8,6318
71299	-11,842	-3,0461	17,796	8,7066
71300	-12,066	-3,5344	17,37	8,6946
71301	-9,9593	-3,0964	13,953	8,2106
71302	-10,15	-3,0462	14,623	8,274
71303	-10,387	-3,5653	14,209	8,3116
71304	-10,547	-3,0038	15,965	8,4231
71305	-10,344	-3,0028	15,294	8,3382
71306	-10,78	-3,511	15,542	8,4338
71307	-10,752	-3,0055	16,637	8,5013
71308	-10,97	-3,0293	17,308	8,5964
71309	-11,193	-3,5158	16,884	8,5834
71310	-9,3682	-3,0875	12,016	8,1099
71311	-9,2019	-3,1521	11,382	8,1076
71312	-9,6142	-3,5982	11,629	8,2011
71313	-9,8952	-3,0101	16,127	8,3375
71314	-10,112	-3,0329	16,8	8,4474
71315	-10,332	-3,5155	16,379	8,434
71316	-11,756	-3,0093	20,02	8,9308
71317	-11,554	-3,0067	19,343	8,8444
71318	-12,001	-3,5099	19,586	8,8805
71319	-11,189	-3,0492	17,975	8,6766
71320	-11,37	-3,025	18,658	8,7697
71321	-11,621	-3,534	18,224	8,7377
71322	-11,293	-3,008	20,874	9,0625
71323	-11,097	-3,0093	20,192	8,961
71324	-11,543	-3,5107	20,437	8,9945
71325	-10,33	-3,0566	17,471	8,5479
71326	-10,513	-3,0306	18,154	8,6608
71327	-10,759	-3,539	17,727	8,6288
71328	-10,849	-3,017	21,719	9,2224
71329	-10,655	-3,0232	21,033	9,108
71330	-11,077	-3,5083	21,292	9,1415
71331	-9,3008	-3,0587	14,114	8,085
71332	-9,1155	-3,112	13,448	8,0223
71333	-9,5351	-3,5761	13,705	8,1247
71334	-10,407	-3,0244	22,572	9,4115
71335	-10,21	-3,0303	21,877	9,2843
71336	-10,637	-3,5198	22,138	9,3151
71337	-9,4918	-3,0084	14,784	8,1546
71338	-9,692	-3,0091	15,455	8,2465
71339	-9,9249	-3,5134	15,037	8,2588
71340	-9,9459	-3,0214	23,449	9,6335
71341	-9,748	-3,0249	22,75	9,4953
71342	-10,177	-3,5168	23,008	9,5219
71343	-10,14	-3,0183	24,146	9,7445
71344	-10,31	-3,0067	24,845	9,8687
71345	-10,567	-3,5118	24,401	9,7421
71346	-8,6456	-3,012	14,265	7,9589
71347	-8,8463	-3,0164	14,937	8,0526
71348	-9,0784	-3,5209	14,525	8,0672
71349	-8,9124	-3,0753	12,802	7,9771
71350	-8,7079	-3,0268	12,156	7,9411
71351	-9,1421	-3,5464	12,414	8,0419
71352	-9,4605	-3,01	24,328	9,8852
71353	-9,2679	-3,0109	23,63	9,736
71354	-9,7183	-3,5165	23,888	9,7574
71355	-8,4604	-3,0653	13,599	7,8905
71356	-8,2808	-3,1292	12,935	7,8338
71357	-8,6996	-3,5883	13,198	7,9346
71358	-9,2594	-3,0429	16,283	8,2688
71359	-9,0465	-3,0171	15,608	8,1502
71360	-9,4802	-3,5226	15,866	8,2563
71361	-9,4766	-3,0657	16,956	8,3842
71362	-9,657	-3,033	17,64	8,5121
71363	-9,9048	-3,545	17,216	8,4802
71364	-8,0037	-3,0156	14,41	7,8501
71365	-7,8068	-3,0112	13,739	7,7613
71366	-8,2371	-3,5212	14,003	7,8683
71367	-8,6303	-3,0768	16,434	8,1952
71368	-8,8084	-3,0399	17,118	8,3326
71369	-9,0522	-3,5524	16,699	8,3013
71370	-9,63	-2,9984	25,027	10,01
71371	-9,8249	-2,9993	25,724	10,141
71372	-10,078	-3,5016	25,284	10,003
71373	-10,894	-3,0067	19,515	8,8707
71374	-10,694	-3,0064	18,837	8,7593
71375	-11,138	-3,5077	19,085	8,8193
71376	-8,972	-2,9969	25,199	10,16
71377	-8,7848	-2,9995	24,5	10,001
71378	-9,2256	-3,5006	24,763	10,021
71379	-10,459	-3,0245	20,351	9,0034
71380	-10,24	-3,0078	19,681	8,879
71381	-10,686	-3,5115	19,93	8,9366
71382	-10,04	-3,0075	19,003	8,7632
71383	-9,8395	-3,007	18,323	8,6305
71384	-10,286	-3,5123	18,574	8,7109
71385	-10,016	-3,0365	21,191	9,1673
71386	-9,8253	-3,0434	20,506	9,0279
71387	-10,25	-3,5291	20,765	9,0842
71388	-9,1669	-2,9978	25,895	10,291
71389	-9,3922	-3,0142	26,603	10,427
71390	-9,6173	-3,5026	26,16	10,281
71391	-9,3885	-3,0095	19,163	8,7531
71392	-9,6063	-3,0266	19,836	8,9003
71393	-9,8296	-3,5095	19,417	8,8313
71394	-9,3595	-3,0377	21,358	9,2117
71395	-9,5515	-3,0308	22,056	9,3659
71396	-9,786	-3,5252	21,621	9,266
71397	-8,4174	-3,051	15,759	8,0712
71398	-8,2044	-3,02	15,082	7,9491
71399	-8,6355	-3,5299	15,346	8,0601
71400	-8,9888	-3,0072	17,802	8,4662
71401	-9,1883	-3,009	18,484	8,6159
71402	-9,4304	-3,5112	18,059	8,5628
71403	-7,9687	-3,0463	16,586	8,1318
71404	-7,7985	-3,089	15,899	7,9906
71405	-8,2127	-3,5612	16,172	8,1022
71406	-8,1468	-3,0095	17,269	8,2749
71407	-8,3446	-3,0116	17,954	8,4364
71408	-8,5859	-3,5143	17,532	8,3832
71409	-8,763	-3,034	19,313	8,7567
71410	-8,5441	-3,0133	18,636	8,5906
71411	-8,9843	-3,5146	18,895	8,6856
71412	-7,3122	-3,0104	16,727	8,0654
71413	-7,5068	-3,0129	17,414	8,2333
71414	-7,7479	-3,5161	16,996	8,1809
71415	-7,5855	-3,058	15,222	7,8636
71416	-7,3707	-3,0188	14,545	7,744
71417	-7,7995	-3,5341	14,817	7,8552
71418	-8,3164	-2,9933	25,361	10,285
71419	-8,5153	-2,9986	26,063	10,454
71420	-8,768	-3,501	25,632	10,304
71421	-7,142	-3,053	16,04	7,9187
71422	-6,9761	-3,1021	15,354	7,7799
71423	-7,3889	-3,5706	15,629	7,8921
71424	-9,1687	-3,0445	20,672	9,0691
71425	-8,9809	-3,0511	19,986	8,9073
71426	-9,4024	-3,5344	20,25	8,984
71427	-6,6804	-3,0143	16,863	8,0157
71428	-6,4874	-3,0093	16,172	7,8467
71429	-6,9205	-3,518	16,449	7,9653
71430	-8,6858	-3,0234	21,537	9,2739
71431	-8,5192	-3,0473	20,832	9,0951
71432	-8,9405	-3,5318	21,099	9,1699
71433	-8,8778	-3,0165	22,235	9,4308
71434	-9,07	-3,0144	22,932	9,5962
71435	-9,3249	-3,522	22,491	9,4797
71436	-8,3313	-3,0539	20,145	8,9299
71437	-8,1407	-3,0605	19,455	8,7489
71438	-8,562	-3,5408	19,725	8,8429
71439	-8,2013	-2,9982	22,405	9,5085
71440	-8,0413	-3,0276	21,7	9,3181
71441	-8,4595	-3,5104	21,969	9,3905
71442	-8,3935	-2,9961	23,102	9,6758
71443	-8,5922	-3,0004	23,802	9,851
71444	-8,8404	-3,5028	23,365	9,7227
71445	-8,7406	-3,0151	26,771	10,589
71446	-8,9306	-3,0148	27,469	10,74
71447	-9,1915	-3,5205	27,045	10,579
71448	-7,7389	-2,9893	23,26	9,7649
71449	-7,5548	-2,9943	22,56	9,5663
71450	-7,9936	-3,4984	22,829	9,6353
71451	-7,8747	-3,0515	20,995	9,1362
71452	-7,6661	-3,0339	20,304	8,9415
71453	-8,1055	-3,5394	20,568	9,0326
71454	-7,7046	-3,015	18,098	8,3994
71455	-7,9218	-3,0399	18,778	8,5793
71456	-8,1446	-3,519	18,363	8,5073
71457	-7,9375	-2,9936	23,96	9,9412
71458	-8,1293	-2,9958	24,662	10,126
71459	-8,3868	-3,5034	24,232	9,9866
71460	-7,091	-3,0464	18,235	8,3774
71461	-6,8751	-3,0169	17,55	8,1881
71462	-7,3109	-3,5218	17,821	8,3044
71463	-7,3082	-3,0713	18,915	8,5608
71464	-7,4755	-3,0405	19,614	8,7568
71465	-7,7231	-3,5485	19,188	8,6672
71466	-7,2882	-2,9882	24,113	10,043
71467	-7,1015	-2,9878	23,408	9,8345
71468	-7,5414	-3,4953	23,687	9,9033
71469	-6,6488	-3,0444	19,065	8,5559
71470	-6,4902	-3,0826	18,363	8,351
71471	-6,8974	-3,557	18,645	8,4667
71472	-7,6745	-2,9953	25,52	10,422
71473	-7,4799	-2,9904	24,815	10,228
71474	-7,9229	-3,4966	25,092	10,272
71475	-7,8733	-3,0007	26,223	10,589
71476	-8,0644	-3,0025	26,925	10,767
71477	-8,3156	-3,5037	26,498	10,607
71478	-7,3948	-3,0236	21,855	9,3735
71479	-7,2398	-3,0565	21,148	9,1645
71480	-7,6528	-3,538	21,423	9,2544
71481	-7,0408	-2,9981	25,669	10,533
71482	-7,2307	-3,0012	26,375	10,736
71483	-7,4934	-3,5104	25,957	10,577
71484	-6,8161	-3,0135	19,764	8,756
71485	-7,0312	-3,0389	20,457	8,9672
71486	-7,2543	-3,5228	20,036	8,8619
71487	-6,2743	-3,053	17,678	8,1583
71488	-6,058	-3,0189	16,987	7,9652
71489	-6,4896	-3,5247	17,266	8,0857
71490	-5,9972	-3,0126	19,201	8,5443
71491	-6,2135	-3,0427	19,899	8,7676
71492	-6,4331	-3,524	19,483	8,6618
71493	-6,8462	-2,9932	24,964	10,34
71494	-6,6581	-2,9906	24,258	10,124
71495	-7,1092	-3,5064	24,548	10,192
71496	-6,9174	-2,9928	22,707	9,6346
71497	-6,7351	-2,9982	22,004	9,4161
71498	-7,1675	-3,5015	22,282	9,5046
71499	-6,4101	-3,0024	25,812	10,654
71500	-6,2256	-3,0015	25,105	10,431
71501	-6,67	-3,5114	25,398	10,498
71502	-6,4715	-2,9903	23,553	9,9153
71503	-6,2871	-2,99	22,844	9,6869
71504	-6,7183	-3,4945	23,13	9,7751
71505	-6,5801	-3,0311	21,298	9,2045
71506	-6,4286	-3,068	20,593	8,9812
71507	-6,8361	-3,5467	20,873	9,0857
71508	-8,2544	-3,0022	27,624	10,917
71509	-8,4421	-3,0018	28,323	11,081
71510	-8,6997	-3,5045	27,897	10,907
71511	-5,8493	-2,9926	23,687	9,9787
71512	-6,0375	-2,999	24,4	10,215
71513	-6,2779	-3,4963	23,979	10,067
71514	-7,4218	-3,003	27,077	10,913
71515	-7,6091	-3,0039	27,782	11,102
71516	-7,8631	-3,5053	27,358	10,931
71517	-5,8387	-3,0507	18,5	8,3354
71518	-5,6875	-3,0937	17,794	8,1262
71519	-6,0871	-3,5653	18,085	8,2475
71520	-6,6	-3,0054	26,518	10,856
71521	-6,7826	-3,0045	27,224	11,069
71522	-7,0495	-3,5131	26,809	10,9
71523	-5,411	-3,0478	19,325	8,5465
71524	-5,1948	-3,0152	18,621	8,3155
71525	-5,6244	-3,5233	18,91	8,4394
71526	-5,9688	-3,0084	26,653	10,984
71527	-5,825	-3,0399	25,957	10,754
71528	-6,2355	-3,5183	26,243	10,82
71529	-6,1048	-2,9954	22,141	9,4671
71530	-5,9248	-3,0008	21,435	9,232
71531	-6,3538	-3,5054	21,72	9,3367
71532	-7,7968	-3,0034	28,481	11,264
71533	-7,9841	-3,0034	29,184	11,442
71534	-8,2417	-3,5049	28,76	11,256
71535	-5,4748	-2,9876	22,271	9,5062
71536	-5,665	-2,9923	22,978	9,7496
71537	-5,9074	-3,4961	22,562	9,6102
71538	-7,1501	-3,0043	28,635	11,46
71539	-6,9699	-3,0053	27,929	11,257
71540	-7,4204	-3,5124	28,224	11,278
71541	-7,3374	-3,0043	29,337	11,635
71542	-7,5605	-3,0164	30,056	11,826
71543	-7,7864	-3,5066	29,623	11,63
71544	-5,6273	-3,0779	20,023	8,772
71545	-5,7733	-3,0377	20,729	9,0061
71546	-6,0267	-3,5544	20,313	8,8882
71547	-6,684	-3,0044	29,483	11,842
71548	-6,5101	-3,0052	28,775	11,621
71549	-6,9668	-3,5124	29,076	11,646
71550	-4,9745	-3,0417	20,15	8,7858
71551	-4,8395	-3,0843	19,435	8,5432
71552	-5,2312	-3,561	19,735	8,6676
71553	-5,1205	-3,0015	20,856	9,0226
71554	-5,2948	-2,993	21,564	9,2697
71555	-5,549	-3,5079	21,147	9,1389
71556	-6,9072	-3,0164	30,202	12,028
71557	-7,1182	-3,0222	30,922	12,242
71558	-7,3666	-3,5197	30,502	12,029
71559	-4,4975	-2,9946	20,979	9,0499
71560	-4,3247	-3,0012	20,264	8,7931
71561	-4,7521	-3,5091	20,564	8,9188
71562	-6,3299	-3,0062	28,069	11,42
71563	-6,1513	-3,0074	27,359	11,195
71564	-6,6022	-3,5156	27,66	11,243
71565	-6,0347	-3,0028	29,613	12,008
71566	-6,201	-3,0037	30,321	12,247
71567	-6,5007	-3,5121	29,924	12,04
71568	-5,7002	-3,0106	28,197	11,552
71569	-5,8608	-3,0037	28,905	11,791
71570	-6,1496	-3,5166	28,507	11,606
71571	-5,5217	-3,0118	27,487	11,329
71572	-5,3854	-3,0424	26,785	11,087
71573	-5,7913	-3,5196	27,08	11,157
71574	-4,853	-2,9859	22,398	9,5553
71575	-4,6718	-2,9862	21,687	9,2985
71576	-5,113	-3,5098	21,992	9,418
71577	-5,0432	-2,9906	23,105	9,7994
71578	-5,236	-2,9994	23,814	10,05
71579	-5,4732	-3,498	23,402	9,9028
71580	-4,9444	-3,0499	27,608	11,434
71581	-5,0693	-3,0162	28,311	11,686
71582	-5,3496	-3,5241	27,911	11,508
71583	-4,248	-2,9912	22,515	9,5933
71584	-4,4327	-2,9962	23,227	9,8569
71585	-4,6888	-3,5124	22,825	9,7127
71586	-5,6405	-3,0391	25,25	10,531
71587	-5,4242	-3,0058	24,526	10,286
71588	-5,8527	-3,5104	24,825	10,374
71589	-5,2298	-3,0092	29,019	11,923
71590	-5,3786	-3,0017	29,725	12,176
71591	-5,6842	-3,515	29,335	11,983
71592	-5,2416	-3,0739	26,089	10,858
71593	-5,0296	-3,0471	25,371	10,608
71594	-5,4595	-3,5528	25,679	10,699
71595	-4,0669	-2,9915	21,804	9,3358
71596	-3,886	-2,99	21,089	9,0698
71597	-4,3116	-3,4978	21,395	9,196
71598	-4,8081	-3,0806	26,906	11,193
71599	-4,6236	-3,0808	26,204	10,942
71600	-5,0299	-3,5561	26,499	11,028
71601	-3,649	-2,9993	22,627	9,6385
71602	-3,4713	-2,9986	21,914	9,3659
71603	-3,9029	-3,518	22,231	9,4958
71604	-4,1509	-3,0606	27,001	11,277
71605	-4,3719	-3,0936	27,708	11,536
71606	-4,5932	-3,5624	27,311	11,369
71607	-4,8133	-3,0138	24,647	10,364
71608	-4,6255	-3,0049	23,935	10,107
71609	-5,0495	-3,5095	24,239	10,211
71610	-4,4968	-3,0598	28,411	11,787
71611	-4,6032	-3,0204	29,118	12,053
71612	-4,879	-3,5219	28,717	11,869
71613	-4,4115	-3,0539	25,485	10,694
71614	-4,2069	-3,0236	24,764	10,428
71615	-4,6257	-3,523	25,069	10,532
71616	-4,0191	-3,0147	24,052	10,172
71617	-3,8336	-3,0042	23,339	9,9021
71618	-4,2548	-3,5106	23,648	10,019
71619	-3,9665	-3,0608	26,299	11,028
71620	-3,8258	-3,091	25,606	10,765
71621	-4,2234	-3,5633	25,908	10,868
71622	-3,6212	-3,0607	24,884	10,5
71623	-3,4217	-3,0263	24,162	10,223
71624	-3,8333	-3,5247	24,472	10,34
71625	-3,2362	-3,0158	23,449	9,9542
71626	-3,0517	-3,0041	22,736	9,6764
71627	-3,4723	-3,5141	23,05	9,8035
71628	-3,3136	-3,0353	26,379	11,091
71629	-3,4851	-3,0394	27,089	11,365
71630	-3,7498	-3,5401	26,694	11,199
71631	-3,1729	-3,0655	25,685	10,828
71632	-3,0415	-3,1077	25,003	10,561
71633	-3,4348	-3,5713	25,303	10,674
71634	-2,8421	-3,0733	24,28	10,285
71635	-2,6432	-3,0262	23,558	9,9992
71636	-3,0533	-3,5281	23,867	10,124
71637	-3,706	-3,0724	27,795	11,621
71638	-3,9281	-3,1176	28,49	11,882
71639	-4,1603	-3,5745	28,1	11,712
71640	-2,5306	-3,0287	25,751	10,873
71641	-2,7017	-3,0771	26,473	11,16
71642	-2,9418	-3,5373	26,075	10,997
71643	-2,3992	-3,0709	25,068	10,607
71644	-2,2695	-3,1269	24,394	10,336
71645	-2,6573	-3,5865	24,701	10,46
71646	-2,8731	-3,0813	27,183	11,433
71647	-3,0452	-3,048	27,88	11,707
71648	-3,3087	-3,5471	27,481	11,537
71649	-1,9022	-3,0277	25,816	10,92
71650	-1,7905	-3,0124	25,132	10,642
71651	-2,1718	-3,5326	25,446	10,769
71652	-2,0733	-3,0762	26,538	11,205
71653	-2,296	-3,0948	27,3	11,512
71654	-2,4964	-3,5879	26,874	11,335
71655	-1,3121	-3,0126	25,866	10,951
71656	-1,3848	-3,0832	26,632	11,257
71657	-1,6658	-3,5493	26,214	11,095
71658	-1,2005	-2,9973	25,182	10,673
71659	-0,7664	-2,9897	25,296	10,725
71660	-0,67844	-2,9958	25,838	10,947
71661	-0,99177	-3,505	25,541	10,828
71662	-1,6608	-3,0684	24,458	10,372
71663	-1,0995	-2,9979	24,594	10,43
71664	-1,4557	-3,5149	24,847	10,538
71665	-0,66543	-2,9903	24,708	10,483
71666	-0,26428	-2,9857	25,195	10,685
71667	-0,58168	-3,4971	25,051	10,629
71668	-2,0706	-3,0798	23,671	10,052
71669	-1,4892	-3,1318	23,806	10,107
71670	-1,8915	-3,5981	24,079	10,222
71671	-0,92788	-3,0613	23,943	10,167
71672	-0,41873	-2,9483	24,235	10,286
71673	-0,77272	-3,5082	24,389	10,355
71674	-2,4586	-3,0145	22,845	9,722
71675	-1,8601	-3,0182	22,96	9,7652
71676	-2,2755	-3,5269	23,266	9,8937
71677	-1,2787	-3,0702	23,095	9,822
71678	-0,60891	-3,1132	23,277	9,8945
71679	-1,0961	-3,5845	23,533	10,004
71680	-2,874	-3,0035	22,022	9,4038
71681	-2,2815	-3,0081	22,132	9,4396
71682	-2,6949	-3,5117	22,443	9,5695
71683	-1,683	-3,0117	22,247	9,4833
71684	-1,1052	-3,0573	22,289	9,4957
71685	-1,5001	-3,5225	22,672	9,6563
71686	-3,2905	-2,9972	21,199	9,0993
71687	-2,7579	-3,0523	21,319	9,1323
71688	-3,1327	-3,5237	21,629	9,2612
71689	-2,1655	-3,0569	21,429	9,1673
71690	-1,5364	-3,0343	21,526	9,1957
71691	-1,939	-3,5203	21,834	9,3267
71692	-3,7131	-2,9966	20,375	8,8118
71693	-3,1227	-3,0028	20,479	8,8276
71694	-3,5489	-3,5134	20,793	8,9603
71695	-2,5901	-3,058	20,599	8,8597
71696	-2,0707	-3,1147	20,709	8,8884
71697	-2,4343	-3,5758	21,028	9,0217
71698	-4,1896	-3,0438	19,55	8,548
71699	-3,541	-3,0014	19,653	8,5492
71700	-3,9675	-3,5102	19,962	8,6806
71701	-2,9505	-3,0077	19,757	8,564
71702	-2,3692	-3,0125	19,855	8,5774
71703	-2,7947	-3,5239	20,176	8,713
71704	-4,6233	-3,0517	18,731	8,3104
71705	-4,0567	-3,0871	18,83	8,3018
71706	-4,4495	-3,5645	19,137	8,4305
71707	-3,4081	-3,0447	18,933	8,3008
71708	-2,7643	-2,9961	19,026	8,2994
71709	-3,1945	-3,5113	19,343	8,4321
71710	-5,0436	-3,0581	17,915	8,1025
71711	-4,4041	-3,0174	18,023	8,0775
71712	-4,8301	-3,5267	18,321	8,2043
71713	-3,8375	-3,0528	18,121	8,0675
71714	-3,2839	-3,0873	18,2	8,0541
71715	-3,6638	-3,5656	18,523	8,1846
71716	-5,4713	-3,0596	17,103	7,93
71717	-4,8974	-3,1035	17,203	7,8939
71718	-5,291	-3,5733	17,506	8,0171
71719	-4,2579	-3,0628	17,311	7,8655
71720	-3,6233	-3,013	17,404	7,8375
71721	-4,0454	-3,5277	17,714	7,9637
71722	-5,865	-3,0139	16,296	7,7921
71723	-5,2535	-3,0204	16,409	7,7393
71724	-5,6808	-3,5275	16,696	7,8595
71725	-4,6797	-3,0642	16,509	7,7009
71726	-4,1261	-3,1059	16,604	7,6666
71727	-4,5037	-3,5796	16,905	7,7828
71728	-6,3215	-3,0584	15,486	7,7028
71729	-5,6738	-3,0108	15,603	7,6284
71730	-6,1035	-3,5177	15,887	7,7448
71731	-5,0622	-3,0172	15,715	7,5721
71732	-4,4603	-3,0145	15,821	7,5205
71733	-4,8848	-3,5296	16,111	7,635
71734	-17,161	-3,0166	9,8647	10,668
71735	-16,521	-3,0038	10,094	10,403
71736	-16,943	-3,5253	10,285	10,458
71737	-6,1623	-3,1143	14,794	7,5712
71738	-6,7614	-3,0629	14,677	7,6559
71739	-6,5677	-3,5805	15,084	7,6806
71740	-5,5145	-3,0667	14,911	7,4924
71741	-4,8704	-3,0117	15,026	7,4205
71742	-5,2969	-3,5215	15,312	7,5294
71743	-16,915	-3,0161	9,2401	10,85
71744	-17,504	-3,0523	9,0001	11,142
71745	-17,335	-3,5215	9,4332	10,912
71746	-16,275	-3,0034	9,4691	10,576
71747	-15,629	-3,0029	9,6958	10,294
71748	-16,051	-3,5252	9,8857	10,373
71749	-5,9478	-3,0665	14,114	7,4566
71750	-5,3516	-3,1209	14,226	7,3742
71751	-5,7538	-3,5786	14,511	7,474
71752	-16,016	-3,0183	8,8598	10,714
71753	-16,661	-3,0132	8,6183	11,036
71754	-16,432	-3,5297	9,0444	10,802
71755	-7,1738	-3,0144	13,874	7,6505
71756	-6,5469	-3,0151	13,997	7,5447
71757	-6,972	-3,5359	14,273	7,6505
71758	-15,37	-3,0178	9,0865	10,423
71759	-14,73	-3,01	9,3137	10,132
71760	-15,159	-3,5119	9,5019	10,23
71761	-6,9811	-3,011	13,204	7,5725
71762	-7,6273	-3,0751	13,074	7,6998
71763	-7,4078	-3,5235	13,475	7,6733
71764	-6,3542	-3,0117	13,328	7,4628
71765	-5,7276	-3,0175	13,441	7,3596
71766	-6,155	-3,5217	13,723	7,4569
71767	-15,101	-3,0298	8,498	10,522
71768	-15,694	-3,0725	8,2628	10,827
71769	-15,528	-3,5272	8,6776	10,632
71770	-6,8143	-3,0816	12,549	7,5246
71771	-6,1663	-3,0092	12,659	7,4006
71772	-6,5908	-3,5244	12,938	7,4913
71773	-14,46	-3,022	8,7253	10,222
71774	-13,824	-3,0118	8,953	9,9275
71775	-14,256	-3,5162	9,1316	10,042
71776	-8,0763	-3,0808	12,289	7,7941
71777	-7,4605	-3,1457	12,419	7,656
71778	-7,8659	-3,6018	12,68	7,7476
71779	-14,175	-3,0249	8,1591	10,285
71780	-14,769	-3,0792	7,9252	10,59
71781	-14,604	-3,5438	8,3289	10,411
71782	-8,5416	-3,0914	11,522	7,9349
71783	-7,8794	-3,0232	11,647	7,7695
71784	-8,3089	-3,5471	11,91	7,8625
71785	-7,2636	-3,0882	11,777	7,6282
71786	-6,6608	-3,158	11,901	7,4974
71787	-7,0582	-3,6133	12,167	7,5777
71788	-9,0126	-3,1171	10,763	8,1181
71789	-8,3862	-3,1629	10,899	7,9432
71790	-8,7974	-3,6094	11,145	8,0301
71791	-13,539	-3,0148	8,3868	9,9833
71792	-12,892	-3,0382	8,6295	9,6846
71793	-13,344	-3,5201	8,7796	9,8189
71794	-7,7241	-3,0948	11,023	7,775
71795	-7,0703	-3,0204	11,128	7,6187
71796	-7,4947	-3,5508	11,401	7,6996
71797	-13,221	-3,0181	7,8433	10,012
71798	-13,883	-3,017	7,5962	10,341
71799	-13,673	-3,5308	7,9997	10,154
71800	-9,5256	-3,1379	10,019	8,3496
71801	-8,8518	-3,1166	10,154	8,1436
71802	-8,9217	-2,778	9,9499	8,1888
71803	-9,2603	-3,5778	10,385	8,2317
71804	-12,575	-3,0415	8,0861	9,707
71805	-11,87	-3,115	8,3779	9,3862
71806	-12,4	-3,582	8,4596	9,5629
71807	-8,2254	-3,1625	10,29	7,9661
71808	-7,5544	-3,0919	10,391	7,792
71809	-7,9784	-3,6242	10,658	7,8709
71810	-12,23	-3,0298	7,5413	9,7155
71811	-12,914	-3,0137	7,2929	10,042
71812	-12,705	-3,5256	7,6928	9,867
71813	-10,099	-3,2077	9,2689	8,6325
71814	-9,4292	-3,2059	9,4162	8,4108
71815	-9,2167	-2,8411	9,585	8,327
71816	-9,8162	-3,6465	9,6384	8,4936
71817	-8,7553	-3,1847	9,5518	8,2021
71818	-8,0405	-3,0931	9,6737	7,9944
71819	-8,5429	-2,8199	9,7206	8,1219
71820	-8,4747	-3,6213	9,9245	8,0785
71821	-10,851	-3,1898	8,5794	9,0006
71822	-10,016	-3,1927	8,6878	8,7106
71823	-10,544	-2,9712	8,7287	8,8673
71824	-10,369	-3,6601	8,8679	8,7928
71825	-9,3465	-3,1909	8,8351	8,486
71826	-8,5735	-2,9488	9,0015	8,2386
71827	-8,8253	-2,846	9,3473	8,2555
71828	-9,0327	-3,6383	9,1838	8,3403
71829	-11,525	-3,1034	7,8331	9,3876
71830	-10,794	-3,1219	8,0436	9,0885
71831	-11,018	-2,9465	8,4243	9,0847
71832	-11,312	-3,6316	8,2262	9,234
71833	-9,9589	-3,1249	8,152	8,7982
71834	-9,2086	-3,0831	8,2582	8,5472
71835	-10,183	-2,9495	8,5327	8,7924
71836	-9,6427	-3,6244	8,4966	8,6389
71837	-11,179	-3,0754	7,2519	9,3992
71838	-11,916	-3,0273	6,9927	9,7309
71839	-11,68	-3,55	7,3913	9,5563
71840	-10,447	-3,094	7,4624	9,0976
71841	-9,7622	-3,1025	7,5881	8,8513
71842	-10,487	-2,9033	8,1929	8,9508
71843	-10,227	-3,5723	7,8101	8,9578
71844	-10,177	-3,0548	7,0062	9,1128
71845	-10,874	-3,0582	6,6966	9,415
71846	-10,634	-3,5779	7,0976	9,2481
71847	-9,4918	-3,0634	7,132	8,8674
71848	-9,2769	-3,0228	6,679	8,8904
71849	-9,9581	-3,0325	6,1989	9,2035
71850	-9,7557	-3,519	6,8457	9,014
71851	-9,0119	-3,0608	7,6944	8,601
71852	-8,9487	-3,1368	7,1103	8,6988
71853	-8,8887	-2,7784	7,6457	8,5744
71854	-9,2699	-3,5986	7,4159	8,7405
71855	-8,4355	-2,841	8,4247	8,2982
71856	-8,4061	-3,048	7,731	8,418
71857	-8,6386	-2,7128	7,976	8,4352
71858	-8,7648	-3,5371	8,057	8,4622
71859	-7,8587	-2,8572	9,1234	8,0308
71860	-7,8325	-2,7901	8,5647	8,1163
71861	-8,3611	-2,584	9,1704	8,1535
71862	-8,3124	-2,5586	8,376	8,2704
71863	-8,167	-3,3833	8,7709	8,1716
71864	-7,3695	-3,0225	9,7749	7,8202
71865	-7,2571	-2,9985	9,2045	7,8729
71866	-8,1104	-2,7544	9,4692	8,0455
71867	-7,6497	-3,5546	9,4206	7,9392
71868	-6,9006	-3,0175	10,496	7,6346
71869	-6,7857	-3,0911	9,8626	7,6785
71870	-7,1647	-3,5356	10,131	7,7342
71871	-6,4675	-3,0902	11,251	7,4854
71872	-6,2862	-3,0284	10,594	7,4959
71873	-6,6989	-3,5503	10,877	7,5607
71874	-6,0128	-3,0856	12,011	7,3706
71875	-5,8768	-3,1697	11,366	7,364
71876	-6,2653	-3,6208	11,642	7,4296
71877	-5,5397	-3,015	12,772	7,2945
71878	-5,3615	-3,0101	12,104	7,2532
71879	-5,7843	-3,5247	12,392	7,3301
71880	-5,1314	-3,072	13,553	7,2746
71881	-4,9121	-3,0082	12,875	7,1969
71882	-5,3395	-3,5228	13,165	7,2812
71883	-4,7075	-3,066	14,341	7,2985
71884	-4,5083	-3,0668	13,663	7,1935
71885	-4,9378	-3,5753	13,949	7,2851
71886	-4,2684	-3,009	15,131	7,3662
71887	-4,0597	-3,009	14,464	7,2325
71888	-4,5108	-3,5331	14,731	7,3302
71889	-3,7273	-2,9963	15,239	7,3262
71890	-3,9068	-3,0562	15,916	7,4845
71891	-4,0957	-3,5305	15,51	7,4199
71892	-3,5186	-2,9962	14,572	7,1904
71893	-3,2364	-2,9904	15,246	7,2816
71894	-2,8821	-3,0144	14,818	7,1703
71895	-3,4249	-3,5007	14,966	7,2479
71896	-3,8605	-3,0098	13,786	7,1248
71897	-3,2553	-3,0282	13,96	7,0778
71898	-3,6775	-3,5241	14,184	7,1525
71899	-4,2889	-3,003	12,985	7,1139
71900	-3,6616	-3,0019	13,095	7,041
71901	-4,0937	-3,5183	13,393	7,1173
71902	-4,7339	-3,0033	12,206	7,1536
71903	-4,1026	-2,9903	12,297	7,0642
71904	-4,5348	-3,5283	12,607	7,1329
71905	-5,2255	-3,0943	11,458	7,2449
71906	-4,5729	-3,005	11,53	7,1378
71907	-4,9897	-3,5249	11,833	7,1968
71908	-17,829	-3,0784	8,1307	11,671
71909	-17,25	-3,0494	8,3783	11,339
71910	-17,656	-3,5589	8,5674	11,413
71911	-5,6955	-3,108	10,709	7,3727
71912	-5,0748	-3,096	10,796	7,2567
71913	-5,4847	-3,6066	11,089	7,3097
71914	-17,616	-3,0436	7,5066	11,896
71915	-18,247	-3,0407	7,2305	12,312
71916	-18,012	-3,5556	7,6954	11,984
71917	-17,038	-3,0145	7,7542	11,549
71918	-16,339	-3,0674	8,0213	11,159
71919	-16,8	-3,5326	8,1939	11,282
71920	-6,1712	-3,102	9,961	7,5386
71921	-5,5179	-3,0378	10,046	7,4038
71922	-5,9308	-3,5514	10,33	7,4533
71923	-16,766	-3,0157	7,1539	11,7
71924	-17,412	-3,0057	6,8742	12,115
71925	-17,176	-3,5214	7,3298	11,82
71926	-6,6733	-3,067	9,2923	7,7308
71927	-6,0734	-3,1559	9,3187	7,6019
71928	-6,439	-3,622	9,5925	7,6418
71929	-16,067	-3,0686	7,421	11,297
71930	-15,363	-3,1219	7,69	10,905
71931	-15,839	-3,5774	7,8528	11,053
71932	-7,2309	-2,9314	8,6458	7,9574
71933	-6,5394	-3,0505	8,5838	7,8096
71934	-6,7745	-2,8933	8,7066	7,8438
71935	-6,9173	-3,5077	8,9161	7,8443
71936	-15,786	-3,0654	6,8511	11,394
71937	-16,489	-3,0132	6,5567	11,829
71938	-16,265	-3,5235	6,9987	11,568
71939	-14,477	-3,0712	7,3623	10,654
71940	-15,081	-3,1188	7,1201	10,99
71941	-14,899	-3,5935	7,5245	10,792
71942	-7,8031	-2,9971	7,871	8,2333
71943	-7,1479	-2,9805	7,9526	8,0587
71944	-7,0992	-2,8553	8,3657	7,9777
71945	-8,0356	-2,6619	8,1161	8,2491
71946	-7,5038	-3,4587	8,2265	8,0979
71947	-14,235	-3,015	6,7904	10,733
71948	-13,576	-3,0126	7,0457	10,378
71949	-14,011	-3,5349	7,2045	10,525
71950	-14,839	-3,0626	6,5482	11,078
71951	-15,495	-3,0599	6,2744	11,473
71952	-15,277	-3,57	6,7044	11,239
71953	-8,343	-3,124	7,1469	8,5169
71954	-7,7475	-3,0707	7,1521	8,3548
71955	-8,283	-2,7656	7,6823	8,3926
71956	-8,0148	-3,5722	7,4516	8,3744
71957	-13,93	-3,0147	6,2417	10,768
71958	-14,595	-3,0082	5,9701	11,152
71959	-14,368	-3,5341	6,394	10,932
71960	-12,601	-3,0112	6,7443	10,063
71961	-13,271	-3,0122	6,4971	10,405
71962	-13,06	-3,5141	6,8992	10,219
71963	-8,7338	-3,0961	6,6574	8,7259
71964	-8,257	-3,0383	6,4896	8,6225
71965	-8,5755	-2,7888	7,3919	8,5247
71966	-8,5726	-3,5969	6,8491	8,646
71967	-11,611	-3,0101	6,4374	9,7516
71968	-12,292	-3,0068	6,1983	10,076
71969	-12,07	-3,5166	6,5987	9,8981
71970	-12,962	-3,0079	5,9511	10,424
71971	-13,629	-3,0049	5,6939	10,787
71972	-13,398	-3,5324	6,1112	10,583
71973	-10,655	-3,0359	5,8893	9,5156
71974	-11,329	-3,0016	5,8595	9,7754
71975	-11,069	-3,516	6,2797	9,5909
71976	-12,01	-2,9983	5,6204	10,105
71977	-12,654	-2,9951	5,4047	10,428
71978	-12,443	-3,5046	5,81	10,248
71979	-18,043	-3,0028	6,5981	12,553
71980	-18,662	-3,0028	6,305	13,03
71981	-18,45	-3,5078	6,7778	12,679
71982	-9,5133	-3,0548	5,9781	9,1128
71983	-8,6885	-2,9449	6,1136	8,8227
71984	-8,8734	-3,5345	6,352	8,8343
71985	-17,135	-3,0032	6,277	12,262
71986	-17,775	-2,9959	5,9788	12,72
71987	-17,547	-3,512	6,4466	12,408
71988	-10,5	-3,0136	5,1796	9,6214
71989	-9,7015	-3,0367	5,1301	9,3459
71990	-10,082	-3,5338	5,5964	9,3874
71991	-11,174	-2,9794	5,1498	9,878
71992	-11,727	-2,9709	5,025	10,122
71993	-11,495	-3,5042	5,4639	9,9427
71994	-16,198	-3,0077	5,9799	11,924
71995	-16,848	-3,0007	5,6826	12,366
71996	-16,629	-3,5134	6,1367	12,094
71997	-11,002	-2,9696	4,6345	9,9275
71998	-10,248	-2,9564	4,3988	9,6771
71999	-10,265	-2,5023	4,5913	9,6453
72000	-10,728	-3,4811	4,8788	9,7757
72001	-15,251	-3,0056	5,6963	11,56
72002	-15,856	-3,0458	5,4265	11,953
72003	-15,683	-3,5274	5,8522	11,736
72004	-11,555	-2,9612	4,5097	10,173
72005	-11,097	-3,0066	4,0364	10,072
72006	-10,462	-2,5091	4,3645	9,7706
72007	-11,161	-3,4866	4,4418	10,032
72008	-14,294	-2,9985	5,4223	11,181
72009	-14,94	-3,0047	5,1396	11,581
72010	-14,73	-3,5186	5,5686	11,363
72011	-12,371	-2,9677	4,8093	10,45
72012	-12,027	-2,9704	4,3022	10,407
72013	-11,862	-3,474	4,6707	10,269
72014	-13,32	-2,9922	5,1476	10,798
72015	-13,976	-2,988	4,8774	11,177
72016	-13,763	-3,5127	5,2985	10,977
72017	-12,978	-3,0017	4,6174	10,765
72018	-12,791	-3,5013	5,0265	10,597
72019	-18,394	-2,9959	5,6856	13,226
72020	-18,966	-3,0158	5,3939	13,721
72021	-18,797	-3,5057	5,8597	13,393
72022	-17,488	-2,9934	5,3844	12,848
72023	-18,116	-2,9902	5,0692	13,336
72024	-17,903	-3,5049	5,5457	13,028
72025	-18,689	-3,0102	4,7775	13,869
72026	-19,291	-3,0103	4,4519	14,414
72027	-19,102	-3,5214	4,9369	14,096
72028	-16,506	-3,0387	5,1292	12,413
72029	-17,187	-2,9919	4,7961	12,903
72030	-16,978	-3,5148	5,2614	12,637
72031	-17,815	-2,9886	4,481	13,422
72032	-18,429	-2,9867	4,1576	13,904
72033	-18,247	-3,496	4,6253	13,651
72034	-15,545	-3,0449	4,8698	11,987
72035	-16,149	-3,0769	4,578	12,402
72036	-15,989	-3,552	5,0089	12,197
72037	-19,031	-2,9869	3,832	14,505
72038	-19,47	-3,4969	3,963	14,816
72039	-16,831	-3,0301	4,245	12,916
72040	-17,496	-2,9885	3,9002	13,407
72041	-17,312	-3,5078	4,3674	13,175
72042	-15,258	-2,998	4,2962	12,002
72043	-14,622	-2,9942	4,5946	11,588
72044	-15,063	-3,525	4,7331	11,794
72045	-18,11	-2,9866	3,5768	13,926
72046	-18,749	-2,9877	3,2454	14,383
72047	-18,57	-3,4951	3,7005	14,194
72048	-15,863	-3,03	4,0044	12,434
72049	-16,457	-3,0674	3,6931	12,854
72050	-16,316	-3,5524	4,1376	12,671
72051	-17,772	-2,9837	3,0003	13,829
72052	-17,123	-3,0259	3,3483	13,373
72053	-17,614	-3,5048	3,4628	13,662
72054	-14,923	-2,9871	3,7522	11,979
72055	-15,546	-2,9958	3,4397	12,396
72056	-15,376	-3,5073	3,8771	12,214
72057	-18,411	-2,9848	2,6689	14,327
72058	-18,883	-3,4944	2,7847	14,623
72059	-14,287	-2,9833	4,0506	11,551
72060	-13,633	-2,9975	4,3472	11,153
72061	-14,094	-3,5084	4,4779	11,363
72062	-17,384	-3,0206	2,4442	13,74
72063	-18,001	-2,9826	2,1132	14,135
72064	-17,872	-3,4961	2,5567	14,026
72065	-14,568	-2,9858	3,209	11,899
72066	-13,931	-2,9899	3,5165	11,501
72067	-14,4	-3,4995	3,6381	11,736
72068	-16,14	-3,0332	3,1284	12,837
72069	-16,734	-3,0627	2,7923	13,256
72070	-16,604	-3,5464	3,2467	13,105
72071	-13,277	-3,004	3,8131	11,091
72072	-12,634	-3,0044	4,1104	10,726
72073	-13,091	-3,5254	4,2383	10,925
72074	-15,191	-2,9945	2,8966	12,333
72075	-15,793	-3,031	2,5747	12,74
72076	-15,653	-3,5134	3,0114	12,596
72077	-16,387	-3,0606	2,2385	13,182
72078	-16,997	-3,0271	1,8909	13,589
72079	-16,863	-3,5401	2,3373	13,474
72080	-14,203	-2,9936	2,671	11,819
72081	-14,827	-2,9883	2,353	12,213
72082	-14,682	-3,4968	2,7834	12,08
72083	-13,566	-2,9976	2,9785	11,407
72084	-12,929	-3,0007	3,269	11,042
72085	-13,396	-3,5128	3,4089	11,258
72086	-15,428	-3,0249	2,0311	12,638
72087	-16,007	-3,0601	1,6404	13,025
72088	-15,907	-3,5428	2,1369	12,928
72089	-13,835	-2,9901	2,1303	11,689
72090	-13,183	-3,0299	2,4613	11,311
72091	-13,681	-3,5126	2,5619	11,566
72092	-14,46	-2,9848	1,8123	12,099
72093	-15,069	-2,9961	1,4695	12,484
72094	-14,945	-3,5082	1,9196	12,384
72095	-14,143	-2,9242	1,3379	11,959
72096	-13,472	-3,0298	1,577	11,577
72097	-13,963	-3,5014	1,6967	11,844
72098	-14,752	-2,9355	0,99518	12,359
72099	-14,332	-2,9152	0,49311	12,116
72100	-13,735	-2,9695	0,77522	11,789
72101	-14,298	-3,4416	0,93763	12,109
72102	-15,648	-3,0314	1,0788	12,894
72103	-15,428	-3,1633	0,45269	12,769
72104	-15,168	-3,5081	0,99022	12,626
72105	-16,617	-3,0266	1,2927	13,457
72106	-16,291	-3,1699	0,52383	13,293
72107	-16,101	-3,542	1,1417	13,187
72108	-17,614	-2,9891	1,5598	14,008
72109	-17,295	-2,9949	0,99386	13,865
72110	-17,109	-3,5092	1,4338	13,759
72111	-18,186	-2,9799	1,247	14,321
72112	-18,089	-3,4952	1,6727	14,282
72113	-17,867	-2,9858	0,68107	14,196
72114	-17,574	-2,9907	0,26817	14,071
72115	-16,97	-3,1383	0,22499	13,726
72116	-17,426	-3,5145	0,57113	14,001
72117	-18,301	-2,9728	0,4188	14,398
72118	-18,264	-3,4887	0,82361	14,401
72119	-18,008	-2,9778	5,9024e-003	14,28
72120	-17,547	-2,9893	-0,30591	14,052
72121	-17,678	-3,4993	8,7835e-003	14,152
72122	-18,309	-2,9766	-0,38554	14,4
72123	-18,334	-3,4903	2,5773e-002	14,433
72124	-17,847	-2,9881	-0,69735	14,18
72125	-18,212	-2,9914	-1,2112	14,332
72126	-18,294	-3,4931	-0,77711	14,411
72127	-16,942	-3,1368	-0,34909	13,71
72128	-17,284	-2,9944	-1,0142	13,86
72129	-17,422	-3,5126	-0,55552	13,997
72130	-17,649	-2,9978	-1,528	14,029
72131	-18,038	-3,0029	-2,0766	14,161
72132	-18,156	-3,5265	-1,612	14,316
72133	-16,332	-3,1556	-0,64954	13,321
72134	-16,071	-3,3018	-0,10231	13,206
72135	-16,407	-3,6575	-4,5217e-002	13,437
72136	-16,674	-3,0132	-1,3146	13,493
72137	-17,055	-2,9965	-1,8647	13,633
72138	-17,174	-3,5237	-1,3828	13,805
72139	-11,57	-3,0159	3,8289	10,31
72140	-12,286	-3,0011	3,5663	10,667
72141	-12,113	-3,5155	4,0055	10,519
72142	-15,669	-3,0312	-1,0894	12,908
72143	-16,077	-3,016	-1,647	13,08
72144	-16,186	-3,5282	-1,1652	13,241
72145	-11,205	-3,0268	3,2575	10,251
72146	-10,343	-2,9934	3,8007	9,8323
72147	-10,361	-2,5393	3,9931	9,7938
72148	-10,95	-3,5349	3,746	10,074
72149	-6,5638	-3,006	31,751	12,707
72150	-6,412	-3,0095	31,041	12,455
72151	-6,8724	-3,51	31,353	12,471
72152	-15,409	-3,1775	-0,54217	12,767
72153	-15,007	-3,143	-4,9383e-002	12,554
72154	-15,454	-3,679	-5,6642e-002	12,84
72155	-5,9667	-2,9978	32,56	13,208
72156	-5,8455	-2,999	31,853	12,92
72157	-6,2881	-3,4961	32,158	12,953
72158	-14,66	-3,0155	-0,88223	12,317
72159	-15,065	-3,0116	-1,4367	12,491
72160	-14,961	-3,5283	-0,96539	12,507
72161	-5,332	-3,0086	33,321	13,718
72162	-5,2646	-3,0017	32,64	13,4
72163	-5,7227	-3,4916	32,973	13,463
72164	-11,922	-3,012	2,9949	10,615
72165	-12,546	-3,033	2,7519	10,936
72166	-12,386	-3,5167	3,1774	10,805
72167	-14,258	-2,9811	-0,38945	12,087
72168	-13,75	-3,0155	0,29449	11,815
72169	-14,358	-3,4832	-1,5173e-002	12,178
72170	-11,607	-3,0045	2,4272	10,547
72171	-10,939	-3,0051	2,6596	10,241
72172	-11,392	-3,5106	2,896	10,402
72173	-5,6938	-3,0025	31,143	12,674
72174	-5,5449	-3,0026	30,433	12,412
72175	-5,9875	-3,5051	30,737	12,455
72176	-13,709	-3,0923	-0,86806	11,783
72177	-14,075	-3,	-1,2398	11,937
72178	-14,174	-3,5158	-0,81296	12,054
72179	-4,5952	-3,0512	33,918	14,173
72180	-4,6067	-3,0376	33,303	13,851
72181	-5,0424	-3,5079	33,649	13,961
72182	-5,0369	-3,0045	31,244	12,835
72183	-5,1434	-3,003	31,933	13,118
72184	-5,4609	-3,5039	31,542	12,892
72185	-12,231	-3,0255	2,1842	10,875
72186	-12,819	-3,0696	1,908	11,185
72187	-12,662	-3,5415	2,3657	11,07
72188	-4,888	-3,0046	30,534	12,576
72189	-4,7521	-3,0129	29,825	12,304
72190	-5,2011	-3,517	30,14	12,372
72191	-3,8737	-3,0871	33,874	14,253
72192	-3,8594	-3,0784	34,525	14,624
72193	-4,2101	-3,5583	34,15	14,378
72194	-4,3596	-3,0063	31,312	12,982
72195	-4,2581	-3,0139	30,623	12,699
72196	-4,6891	-3,5204	30,919	12,773
72197	-4,4661	-3,0047	32,001	13,262
72198	-4,5394	-3,0307	32,622	13,537
72199	-4,8964	-3,507	32,297	13,335
72200	-11,95	-2,9842	1,592	10,796
72201	-11,348	-2,9838	1,7975	10,516
72202	-11,782	-3,5018	2,0295	10,692
72203	-3,7127	-3,014	31,373	13,09
72204	-3,7928	-3,0539	31,984	13,353
72205	-4,1179	-3,5218	31,652	13,172
72206	-4,0345	-3,0782	29,197	12,147
72207	-4,1222	-3,0222	29,914	12,43
72208	-4,4067	-3,5273	29,509	12,238
72209	-13,064	-3,0751	1,0143	11,397
72210	-12,538	-3,0283	1,3159	11,116
72211	-12,984	-3,5488	1,4568	11,343
72212	-3,2672	-3,0932	28,575	11,965
72213	-3,4556	-3,1482	29,25	12,23
72214	-3,7107	-3,5959	28,875	12,062
72215	-12,739	-3,0572	0,48522	11,276
72216	-13,202	-3,1267	-0,18413	11,483
72217	-12,686	-2,4735	0,36212	11,242
72218	-13,223	-3,5486	0,47781	11,535
72219	-2,6973	-3,0737	28,507	11,983
72220	-2,468	-3,0616	27,997	11,784
72221	-2,8949	-3,5615	28,262	11,876
72222	-3,6112	-3,0217	30,684	12,809
72223	-3,5433	-3,0923	29,966	12,511
72224	-3,9055	-3,5251	30,285	12,615
72225	-12,212	-3,0104	0,78679	10,983
72226	-11,707	-2,976	0,99319	10,738
72227	-12,097	-3,5173	1,2337	10,915
72228	-2,9878	-3,0298	30,74	12,892
72229	-3,0596	-3,015	31,425	13,184
72230	-3,3807	-3,5409	31,01	12,981
72231	-12,194	-3,0628	-0,27589	10,981
72232	-12,064	-3,0878	0,30519	10,935
72233	-12,271	-2,461	0,27074	11,036
72234	-12,343	-3,5608	0,37948	11,088
72235	-3,8661	-3,0799	32,605	13,626
72236	-3,8852	-3,0734	33,259	13,931
72237	-4,2384	-3,5386	32,934	13,744
72238	-2,8857	-3,1287	29,182	12,246
72239	-2,9199	-3,1004	30,022	12,595
72240	-3,2041	-3,6034	29,617	12,409
72241	-3,1397	-3,0548	32,036	13,445
72242	-3,186	-3,0563	32,698	13,741
72243	-3,5157	-3,573	32,285	13,531
72244	-2,2556	-3,0914	29,266	12,325
72245	-2,2402	-3,1239	28,564	12,033
72246	-2,5421	-3,5924	28,862	12,146
72247	-2,2898	-3,0631	30,106	12,674
72248	-2,3598	-3,0283	30,786	12,961
72249	-2,6524	-3,5408	30,382	12,775
72250	-12,657	-3,1323	-0,94523	11,227
72251	-13,145	-3,0954	-1,2422	11,44
72252	-12,734	-2,5304	-0,39861	11,255
72253	-13,251	-3,6161	-0,83919	11,544
72254	-1,694	-3,0668	30,135	12,718
72255	-1,4956	-3,1098	29,512	12,458
72256	-1,9793	-3,5942	29,725	12,539
72257	-11,692	-3,1825	-0,67174	10,753
72258	-11,852	-2,9617	-1,2257	10,796
72259	-12,141	-2,4791	-0,39899	10,953
72260	-12,183	-3,7283	-0,80294	11,003
72261	-2,4316	-3,0134	31,471	13,252
72262	-2,4788	-3,01	32,139	13,549
72263	-2,7857	-3,5191	31,736	13,353
72264	-3,2052	-3,0499	33,352	14,045
72265	-3,1986	-3,1087	33,936	14,338
72266	-3,5524	-3,5633	33,586	14,146
72267	-11,558	-3,0534	0,51159	10,684
72268	-11,562	-3,2075	-9,0663e-002	10,691
72269	-12,011	-2,5041	0,18209	10,903
72270	-11,76	-3,5742	0,21395	10,796
72271	-2,5251	-3,0114	32,8	13,843
72272	-2,5464	-3,0586	33,367	14,103
72273	-2,8656	-3,5238	33,053	13,943
72274	-1,7639	-3,0319	30,815	13,003
72275	-1,8053	-3,0149	31,51	13,308
72276	-2,1017	-3,5425	31,071	13,107
72277	-1,8525	-3,0114	32,178	13,604
72278	-1,8787	-3,0747	32,778	13,87
72279	-2,1848	-3,5276	32,421	13,701
72280	-1,1703	-3,0366	30,829	13,029
72281	-1,0771	-3,0828	30,045	12,694
72282	-1,45	-3,5692	30,401	12,846
72283	-1,2116	-3,0196	31,523	13,334
72284	-1,2448	-3,0797	32,166	13,613
72285	-1,52	-3,5434	31,764	13,438
72286	-2,011	-3,1118	28,053	11,836
72287	-1,6074	-3,1019	27,394	11,561
72288	-2,1219	-3,5669	27,68	11,682
72289	-0,61364	-3,0196	30,82	13,032
72290	-0,65814	-3,1075	31,498	13,317
72291	-0,89148	-3,5568	31,071	13,148
72292	-11,105	-2,9756	1,1987	10,452
72293	-11,008	-3,016	0,55766	10,448
72294	-11,335	-3,5009	0,83286	10,589
72295	-11,012	-3,1702	-4,4593e-002	10,454
72296	-11,078	-3,1518	-0,69739	10,47
72297	-11,769	-2,5807	-0,12511	10,792
72298	-11,384	-3,6686	-0,30328	10,625
72299	-1,4803	-3,1422	28,81	12,166
72300	-1,5839	-3,1869	28,157	11,898
72301	-1,8815	-3,6286	28,371	11,977
72302	-10,681	-2,9844	2,0299	10,203
72303	-10,506	-3,0063	1,3015	10,203
72304	-10,887	-3,4886	1,6346	10,341
72305	-10,409	-3,0467	0,66049	10,197
72306	-10,45	-2,9879	-4,5935e-002	10,224
72307	-10,42	-2,9195	0,18986	10,217
72308	-10,726	-3,5559	0,33936	10,345
72309	-10,077	-2,9718	3,2028	9,8087
72310	-10,024	-2,9753	2,1931	9,9393
72311	-10,438	-3,4966	2,5165	10,066
72312	-0,91313	-3,1641	28,796	12,175
72313	-0,87872	-3,1258	29,422	12,438
72314	-1,1977	-3,621	29,125	12,314
72315	-9,4495	-2,9795	4,3494	9,4107
72316	-9,3094	-2,8862	3,4319	9,5134
72317	-9,7081	-2,4959	4,1288	9,53
72318	-9,8478	-3,4665	3,8698	9,6422
72319	-1,1804	-3,177	27,498	11,626
72320	-1,0168	-3,2088	28,144	11,905
72321	-1,2491	-3,6618	27,921	11,814
72322	-9,8489	-2,9971	1,4647	9,9348
72323	-9,8933	-2,9801	0,66391	9,9959
72324	-10,126	-2,91	0,54168	10,082
72325	-10,136	-3,5197	1,0614	10,082
72326	-3,1843	-3,1	34,587	14,71
72327	-2,9561	-3,1898	35,464	15,159
72328	-2,0756	-2,8685	34,128	14,482
72329	-3,5152	-3,5593	34,911	14,888
72330	-0,68433	-3,1322	27,297	11,541
72331	-0,75105	-3,0665	26,604	11,252
72332	-1,1312	-3,6019	27,078	11,453
72333	-0,52077	-3,164	27,942	11,821
72334	-0,56757	-3,1565	28,556	12,08
72335	-0,79705	-3,6383	28,322	11,983
72336	-0,53317	-3,1181	29,181	12,342
72337	-0,52043	-3,0658	30,037	12,698
72338	-0,77099	-3,6023	29,609	12,525
72339	-2,5399	-3,1174	33,951	14,396
72340	-2,2777	-3,1852	34,758	14,763
72341	-1,7446	-2,8968	33,826	14,337
72342	-2,8658	-3,5889	34,288	14,559
72343	-8,8766	-2,9268	5,2657	9,0531
72344	-8,6843	-2,8818	4,3608	9,1646
72345	-9,4672	-2,5254	4,5418	9,3769
72346	-8,5388	-2,6673	4,2538	9,1372
72347	-9,147	-3,488	4,7469	9,2465
72348	0,12782	-3,0611	27,816	11,77
72349	3,0829e-002	-3,0618	27,111	11,477
72350	-0,26062	-3,5937	27,511	11,652
72351	8,1016e-002	-3,0536	28,429	12,028
72352	1,5442e-003	-2,9935	29,214	12,36
72353	-0,28126	-3,6017	28,782	12,186
72354	-1,9	-3,1218	33,344	14,13
72355	-1,6594	-3,1534	34,072	14,44
72356	-1,4311	-2,8859	33,492	14,197
72357	-2,1989	-3,5784	33,654	14,263
72358	0,776	-2,9919	28,444	12,033
72359	0,80644	-2,9998	27,676	11,704
72360	1,0284	-2,6968	28,407	12,001
72361	0,45603	-3,5125	28,086	11,89
72362	-1,271	-3,1429	32,765	13,879
72363	-1,1078	-3,1395	33,438	14,167
72364	-1,1048	-2,9012	33,219	14,089
72365	-1,5482	-3,5945	33,06	14,007
72366	-8,2117	-2,887	5,9458	8,7263
72367	-8,0319	-2,8778	5,2014	8,8148
72368	-8,4573	-3,4097	5,6832	8,8518
72369	-0,6913	-3,1676	32,14	13,595
72370	-0,55294	-3,1433	32,787	13,891
72371	-0,8021	-2,907	32,913	13,956
72372	-0,93965	-3,602	32,416	13,731
72373	-2,0495	-3,2751	35,635	15,224
72374	-2,2711	-3,1217	36,294	15,558
72375	-1,5164	-2,9866	34,703	14,803
72376	-2,4717	-3,7475	35,886	15,398
72377	1,4281e-002	-2,9411	30,069	12,716
72378	-9,9912e-002	-3,0886	30,771	12,996
72379	-0,29993	-3,5446	30,356	12,844
72380	-1,3972	-3,2212	34,879	14,817
72381	-1,5092	-3,1238	35,495	15,089
72382	-1,1689	-2,9537	34,299	14,576
72383	-1,9157	-3,6511	35,147	14,967
72384	0,69653	-2,9317	29,228	12,364
72385	0,51516	-3,0164	29,905	12,646
72386	0,33175	-3,4769	29,567	12,516
72387	-0,14442	-3,1766	31,448	13,28
72388	-2,5584e-003	-3,1955	32,117	13,582
72389	-0,52505	-2,9259	32,594	13,809
72390	-0,36053	-3,6237	31,749	13,438
72391	-0,86718	-3,1711	34,165	14,485
72392	-0,88167	-3,1101	34,813	14,755
72393	-0,86412	-2,9328	33,947	14,407
72394	-1,2903	-3,6273	34,46	14,625
72395	1,1792	-3,0282	29,096	12,3
72396	1,5121	-3,0378	28,38	11,987
72397	1,2916	-2,6968	28,747	12,147
72398	0,97974	-3,525	28,759	12,169
72399	-0,17631	-2,9918	25,736	10,908
72400	-3,5893e-002	-2,9961	26,417	11,188
72401	-0,40066	-3,5312	26,135	11,078
72402	0,40096	-3,1639	30,606	12,925
72403	0,50987	-3,1869	31,344	13,232
72404	-0,25521	-2,916	32,221	13,639
72405	0,20581	-3,6174	31,004	13,109
72406	-0,38975	-3,1399	33,46	14,183
72407	-0,35387	-3,0816	34,108	14,444
72408	-0,6389	-2,9036	33,586	14,247
72409	-0,76686	-3,5998	33,763	14,314
72410	0,99783	-3,1129	29,773	12,579
72411	1,0601	-3,17	30,471	12,869
72412	2,0329e-002	-2,9132	31,752	13,447
72413	0,76209	-3,6037	30,164	12,754
72414	-7,6615	-2,985	6,4948	8,4636
72415	-7,4602	-2,926	5,7067	8,5696
72416	-7,8052	-3,4739	6,1441	8,5784
72417	-9,256	-2,8897	2,4222	9,6363
72418	-9,2209	-2,9641	1,5341	9,7111
72419	-9,5836	-3,4636	1,9475	9,8111
72420	-7,0923	-3,0541	7,2337	8,1807
72421	-7,0039	-2,9842	6,3579	8,3264
72422	-7,3084	-3,5385	6,8296	8,3131
72423	1,5674	-3,091	29,105	12,285
72424	1,6718	-3,0492	29,744	12,55
72425	1,4316	-2,7332	29,06	12,271
72426	1,3324	-3,5709	29,425	12,437
72427	-8,5442	-2,7885	3,4434	9,2721
72428	-8,512	-2,8256	2,446	9,3963
72429	-8,9464	-3,3883	2,9106	9,4855
72430	1,9003	-3,1006	28,389	11,975
72431	2,0483	-3,0951	29,079	12,253
72432	1,6798	-2,7596	28,756	12,133
72433	1,8049	-3,5899	28,83	12,167
72434	-6,4564	-3,0996	7,8907	7,9164
72435	-6,4183	-3,0305	7,0734	8,0607
72436	-6,6915	-2,9424	8,0135	7,9448
72437	-6,6903	-3,5547	7,5446	8,0355
72438	0,4165	-2,9809	25,561	10,834
72439	-1,758e-002	-2,9437	24,722	10,489
72440	-3,3455e-003	-3,4938	25,309	10,738
72441	0,55692	-2,9851	26,242	11,115
72442	0,70945	-3,0005	26,971	11,41
72443	0,29266	-3,5124	26,657	11,295
72444	0,1358	-3,1711	32,763	13,88
72445	0,11442	-3,139	33,403	14,159
72446	-0,38669	-2,9016	33,241	14,106
72447	-0,21066	-3,6029	33,067	14,022
72448	1,2066	-2,9816	26,085	11,042
72449	1,0481	-2,9768	25,337	10,739
72450	0,77664	-3,4962	25,747	10,916
72451	1,3592	-2,997	26,814	11,338
72452	1,5425	-3,0457	27,613	11,659
72453	1,322	-2,7048	27,979	11,818
72454	1,0542	-3,5132	27,23	11,523
72455	-3,4916	-3,0561	16,697	7,6358
72456	-3,4159	-3,0504	15,923	7,4391
72457	-3,741	-3,576	16,305	7,5609
72458	-5,9394	-3,1394	8,6102	7,6834
72459	-5,7878	-3,0986	7,9164	7,7762
72460	-6,4077	-2,9745	8,3037	7,8334
72461	-6,1591	-3,5905	8,2159	7,7981
72462	-3,0698	-3,0475	17,483	7,8234
72463	-2,8636	-3,0031	16,759	7,6036
72464	-3,2639	-3,5256	17,081	7,7236
72465	-5,4201	-3,0917	9,4033	7,4668
72466	-5,2442	-3,0555	8,7499	7,5331
72467	-5,6892	-3,5916	9,0302	7,5723
72468	2,0135	-2,9879	26,673	11,263
72469	1,851	-2,9847	25,939	10,972
72470	1,5869	-3,4967	26,357	11,154
72471	0,65172	-3,2058	32,013	13,537
72472	0,70845	-3,1783	32,666	13,83
72473	-0,11336	-2,9349	32,889	13,941
72474	0,3643	-3,6393	32,362	13,707
72475	-2,6402	-3,0387	18,293	8,0507
72476	-2,4748	-3,043	17,563	7,8106
72477	-2,903	-3,5646	17,875	7,9345
72478	-7,8395	-2,8328	4,2966	8,9349
72479	-7,8572	-2,7738	3,4456	9,0718
72480	-8,943	-2,3983	4,1403	9,2826
72481	-7,7494	-2,4223	4,1151	8,9442
72482	-8,0146	-2,5402	3,8523	9,0558
72483	-8,2411	-3,347	3,882	9,1226
72484	1,169	-3,193	31,209	13,18
72485	1,2081	-3,1779	31,924	13,493
72486	0,12923	-2,9363	32,49	13,754
72487	0,8932	-3,6414	31,598	13,365
72488	-7,2804	-2,9168	4,9623	8,6712
72489	-7,1914	-2,855	4,1662	8,7859
72490	-7,4289	-2,5004	4,4524	8,8014
72491	-7,694	-2,6183	4,1896	8,9099
72492	-7,599	-3,4293	4,616	8,8219
72493	2,1968	-3,0366	27,472	11,586
72494	2,3266	-3,0817	28,172	11,863
72495	1,7645	-2,7427	28,344	11,96
72496	1,9164	-3,5698	28,009	11,824
72497	-6,8026	-2,9252	5,5698	8,4419
72498	-6,6669	-2,9454	4,9174	8,534
72499	-7,0456	-3,449	5,2958	8,5561
72500	-2,183	-3,0009	19,124	8,3124
72501	-2,0064	-2,9947	18,387	8,0528
72502	-2,4278	-3,5063	18,71	8,1821
72503	-4,8973	-3,0258	10,133	7,2879
72504	-4,7562	-3,0535	9,4837	7,344
72505	-5,1695	-3,5449	9,7767	7,3758
72506	1,734	-3,1063	30,442	12,843
72507	1,7784	-3,1831	31,094	13,116
72508	0,4039	-2,9221	32,086	13,571
72509	1,4447	-3,6323	30,828	13,026
72510	-4,4222	-3,0068	10,868	7,1496
72511	-4,3811	-3,0751	10,177	7,2035
72512	-4,702	-3,5405	10,518	7,2206
72513	-1,8499	-3,0692	19,965	8,6062
72514	-1,6217	-3,0373	19,207	8,3213
72515	-2,0392	-3,5222	19,543	8,4596
72516	-3,9416	-2,992	11,621	7,0472
72517	-3,8135	-2,9924	10,943	7,0609
72518	-4,22	-3,5198	11,256	7,0992
72519	-1,4417	-3,092	20,805	8,9161
72520	-1,413	-3,1337	19,96	8,5967
72521	-1,7031	-3,5858	20,377	8,7615
72522	2,7984	-2,9937	27,261	11,467
72523	2,6302	-2,9921	26,53	11,185
72524	2,3771	-3,5023	26,953	11,372
72525	-0,95861	-3,0798	21,568	9,2092
72526	-0,92501	-3,1251	20,857	8,9295
72527	-1,2242	-3,5603	21,219	9,0783
72528	2,1527	-3,0533	29,718	12,52
72529	2,3289	-3,0909	30,341	12,773
72530	1,7842	-2,7178	29,395	12,399
72531	1,995	-3,5503	30,082	12,687
72532	-6,3299	-2,9605	6,1976	8,2169
72533	-6,1874	-2,9222	5,5891	8,3083
72534	-5,8695	-2,6284	5,6272	8,235
72535	-6,5084	-3,4614	5,945	8,308
72536	2,4747	-3,0762	28,862	12,142
72537	2,6416	-3,0843	29,602	12,434
72538	1,9125	-2,7372	29,033	12,237
72539	2,3197	-3,5611	29,32	12,347
72540	-0,43537	-3,1003	22,472	9,5689
72541	-0,38225	-3,1655	21,729	9,2696
72542	-0,36173	-2,8284	22,096	9,4175
72543	-0,78652	-3,5738	22,002	9,386
72544	2,9282	-3,0387	27,961	11,746
72545	3,0664	-3,0804	28,68	12,023
72546	2,6737	-3,5558	28,358	11,928
72547	-9,9763e-002	-3,0002	23,57	10,016
72548	8,199e-002	-3,0935	22,839	9,7176
72549	0,22175	-2,7489	23,253	9,8841
72550	-5,28e-002	-2,826	22,653	9,6434
72551	-0,24928	-3,5656	23,019	9,7969
72552	-3,4753	-2,9892	12,406	6,9894
72553	-3,32	-2,9954	11,701	6,97
72554	-3,7326	-3,5029	12,025	7,0161
72555	3,4055	-2,9996	27,128	11,385
72556	3,5385	-3,023	27,843	11,654
72557	3,1282	-3,5082	27,545	11,573
72558	-5,7498	-3,0294	7,0991	7,9231
72559	-5,7138	-2,9775	6,1917	8,0955
72560	-5,6361	-2,6612	5,976	8,1159
72561	-6,0235	-3,4952	6,6666	8,0664
72562	0,61403	-2,9396	24,498	10,389
72563	0,3671	-2,8884	23,63	10,037
72564	0,24842	-2,6512	23,795	10,105
72565	-0,12966	-3,5074	24,225	10,29
72566	-5,0927	-3,0147	8,056	7,6256
72567	-5,0396	-2,9316	7,2523	7,7677
72568	-6,023	-2,9414	8,0392	7,8013
72569	-5,3942	-3,5376	7,6402	7,7574
72570	-1,7308	-2,9704	36,153	15,421
72571	-1,9326	-2,9578	36,858	15,733
72572	-2,1719	-3,5021	36,506	15,661
72573	-4,5804	-3,0173	8,8303	7,4116
72574	-4,3836	-2,9373	8,1374	7,5
72575	-4,8526	-3,4974	8,4891	7,5124
72576	-0,99363	-3,0127	35,429	15,026
72577	-1,1328	-3,0437	36,125	15,296
72578	-1,4524	-3,5238	35,768	15,206
72579	-3,0564	-3,0204	13,269	6,9895
72580	-2,8456	-2,9894	12,51	6,9263
72581	-3,2757	-3,5007	12,829	6,9838
72582	1,6925	-2,9799	25,191	10,668
72583	1,5196	-2,9815	24,448	10,371
72584	1,2427	-3,4863	24,861	10,547
72585	-0,36836	-3,0206	34,756	14,714
72586	-0,3771	-3,023	35,453	14,986
72587	-0,80035	-3,535	35,099	14,871
72588	2,4678	-2,989	25,796	10,893
72589	2,3011	-2,9905	25,07	10,61
72590	2,0479	-3,5016	25,466	10,78
72591	0,15029	-3,0807	34,052	14,42
72592	0,24284	-3,0302	34,756	14,71
72593	-0,16697	-3,535	34,406	14,573
72594	-2,6188	-3,0463	14,207	7,0535
72595	-2,4644	-3,0236	13,457	6,9529
72596	-2,863	-3,5272	13,718	7,014
72597	0,68706	-3,1461	33,306	14,109
72598	0,72908	-3,1521	34,063	14,435
72599	1,0537	-2,891	33,926	14,375
72600	0,35235	-3,6013	33,702	14,287
72601	-2,7879	-2,9973	15,984	7,4038
72602	-2,7301	-3,0205	15,112	7,2118
72603	-3,0378	-3,5137	15,617	7,3415
72604	1,2648	-3,1504	32,577	13,787
72605	1,3505	-3,167	33,212	14,067
72606	1,3744	-2,897	33,54	14,214
72607	0,97697	-3,6099	32,944	13,96
72608	-2,1113	-2,9879	16,097	7,3863
72609	-2,2686	-2,9986	16,839	7,5905
72610	-2,4944	-3,5147	16,384	7,4838
72611	3,2373	-2,998	26,397	11,101
72612	3,0304	-3,0348	25,667	10,826
72613	2,82	-3,5049	26,085	11,005
72614	1,8175	-3,168	31,809	13,429
72615	1,8828	-3,1471	32,491	13,732
72616	1,5255	-3,6093	32,239	13,639
72617	2,3732	-3,1677	30,993	13,048
72618	2,4578	-3,1755	31,678	13,335
72619	2,1027	-3,6304	31,435	13,26
72620	0,54885	-2,9816	22,899	9,7404
72621	0,13511	-3,1587	22,096	9,4152
72622	0,40733	-3,1132	22,239	9,4761
72623	0,43017	-2,7445	23,064	9,8061
72624	0,15562	-2,8216	22,464	9,5653
72625	0,28992	-3,578	22,633	9,6371
72626	2,8178	-3,1219	30,225	12,69
72627	2,9628	-3,1902	30,929	12,977
72628	3,1832	-2,8279	30,733	12,868
72629	2,628	-3,6094	30,651	12,893
72630	3,9802	-3,0276	26,997	11,289
72631	3,8068	-3,0336	26,28	11,03
72632	3,5931	-3,5097	26,697	11,209
72633	-4,2399	-3,1028	9,5286	7,2603
72634	-3,8953	-2,9659	8,8906	7,3064
72635	-3,8766	-2,8434	9,1032	7,2717
72636	-4,4076	-3,5525	9,2263	7,3279
72637	3,2334	-3,0885	29,42	12,318
72638	3,3882	-3,1123	30,144	12,598
72639	3,3677	-2,8019	30,355	12,693
72640	3,0345	-3,5755	29,851	12,519
72641	1,2726	-2,9303	23,58	10,015
72642	1,1208	-2,9454	22,85	9,7233
72643	0,68861	-2,637	23,313	9,9089
72644	0,86891	-3,4579	23,24	9,8858
72645	-3,8019	-3,0717	9,6871	7,1819
72646	-3,7724	-3,0607	10,252	7,1129
72647	-3,738	-2,8754	9,4314	7,2051
72648	-4,0933	-3,6134	9,9114	7,194
72649	3,6767	-3,0646	28,561	11,933
72650	3,8529	-3,0751	29,289	12,202
72651	3,4702	-3,5573	28,986	12,127
72652	2,1281	-2,992	24,328	10,312
72653	1,9546	-3,0044	23,605	10,026
72654	1,6981	-3,5002	23,995	10,19
72655	-2,0535	-3,0111	15,225	7,1883
72656	-1,9075	-2,9644	14,38	7,0287
72657	-2,403	-3,524	14,725	7,1187
72658	4,1133	-3,051	27,711	11,56
72659	4,2907	-3,048	28,432	11,816
72660	3,8893	-3,5357	28,128	11,747
72661	-1,5734	-3,0346	16,191	7,3846
72662	-1,3593	-2,9843	15,443	7,199
72663	-1,7713	-3,4999	15,717	7,2802
72664	-3,1562	-2,9736	9,763	7,0969
72665	-3,4573	-2,9348	9,0491	7,2275
72666	-3,4386	-2,8123	9,2617	7,1944
72667	-2,9601	-2,496	9,5441	7,1054
72668	-3,5057	-3,5428	9,5713	7,1604
72669	2,8637	-3,0363	24,941	10,542
72670	2,7334	-3,0007	24,234	10,268
72671	2,4799	-3,5105	24,629	10,435
72672	-1,841	-2,9989	17,657	7,8118
72673	-1,7308	-3,0453	16,932	7,5903
72674	-2,0865	-3,5098	17,24	7,6979
72675	-1,3347	-3,0311	36,83	15,608
72676	-1,288	-2,9964	37,565	15,778
72677	-2,226	-2,8514	38,095	16,748
72678	-1,6575	-3,5075	37,176	15,827
72679	-1,4451	-3,031	18,47	8,0619
72680	-1,2644	-3,0114	17,74	7,8175
72681	-1,6892	-3,5173	18,069	7,9403
72682	-0,51628	-3,054	36,148	15,256
72683	-0,55479	-3,0737	36,854	15,461
72684	-0,95203	-3,5598	36,495	15,414
72685	-3,1267	-2,9627	10,328	7,0301
72686	-3,1919	-2,9958	11,023	6,9829
72687	-3,4989	-3,5099	10,669	7,0423
72688	0,2341	-3,0326	35,453	14,983
72689	0,15996	-3,0299	36,178	15,238
72690	-0,19016	-3,5363	35,804	15,114
72691	-2,5836	-3,0045	10,361	6,9744
72692	-2,4928	-2,8655	9,5833	7,0534
72693	-3,0923	-2,7774	9,5073	7,1206
72694	-2,6138	-2,4611	9,7896	7,0396
72695	-2,8579	-3,4971	9,9985	7,038
72696	0,82163	-3,1016	34,767	14,726
72697	0,77495	-3,0691	35,431	15,002
72698	0,46244	-3,5451	35,092	14,855
72699	-1,1848	-3,1018	19,202	8,3137
72700	-0,87736	-3,0864	18,604	8,0923
72701	-0,62546	-2,7979	18,963	8,2156
72702	-1,3088	-3,5587	18,883	8,2045
72703	1,3926	-3,173	33,969	14,394
72704	1,3458	-3,1797	34,717	14,733
72705	1,4164	-2,903	34,297	14,541
72706	1,0453	-3,6148	34,387	14,583
72707	-1,1542	-3,0578	17,016	7,5945
72708	-1,0007	-3,0859	16,276	7,3858
72709	-1,4252	-3,5655	16,613	7,4918
72710	-0,50817	-3,039	37,589	15,637
72711	-0,51441	-3,0951	38,243	15,697
72712	-1,794	-2,8676	38,49	16,71
72713	-0,89048	-3,5281	37,915	15,785
72714	-0,71173	-3,2252	19,403	8,3819
72715	-0,89632	-3,1667	20,012	8,6088
72716	-0,55616	-2,8363	19,29	8,3367
72717	-1,0642	-3,6107	19,622	8,4692
72718	1,9685	-3,1637	33,126	14,013
72719	1,9906	-3,1713	33,738	14,297
72720	1,7171	-2,9119	33,832	14,34
72721	1,6504	-3,626	33,541	14,216
72722	0,12146	-3,0496	36,884	15,443
72723	0,15204	-3,1388	37,589	15,616
72724	0,31785	-2,8772	37,326	15,598
72725	-0,2294	-3,5507	37,207	15,524
72726	-2,6903	-2,9956	11,804	6,9051
72727	-2,6489	-3,0377	11,056	6,9271
72728	-2,9667	-3,523	11,426	6,9409
72729	0,70081	-3,0665	36,156	15,255
72730	0,7106	-3,0656	36,854	15,509
72731	0,59956	-2,8615	36,993	15,522
72732	0,37945	-3,5386	36,521	15,356
72733	2,5231	-3,1546	32,36	13,639
72734	2,5305	-3,0935	33,003	13,937
72735	2,2241	-3,6028	32,779	13,856
72736	-0,69666	-3,0668	17,874	7,8475
72737	-0,62114	-3,0638	17,162	7,6277
72738	-0,94691	-3,5417	17,429	7,7157
72739	1,2991	-3,1472	35,38	15,007
72740	1,3628	-3,1509	36,054	15,319
72741	0,99891	-3,5733	35,763	15,15
72742	-0,40425	-3,2099	18,804	8,1611
72743	3,9441e-002	-3,0612	18,012	7,8877
72744	-0,24868	-2,821	18,692	8,1193
72745	-0,61074	-3,5859	18,181	7,95
72746	1,9438	-3,178	34,486	14,635
72747	1,9474	-3,1523	35,309	15,042
72748	1,6703	-2,9186	34,58	14,679
72749	1,6237	-3,6297	34,994	14,873
72750	3,1553	-3,0583	32,224	13,523
72751	3,0473	-3,1981	31,614	13,266
72752	2,7864	-3,611	32,01	13,471
72753	-0,18478	-3,3028	19,606	8,4524
72754	9,0981e-003	-3,2667	19,011	8,2359
72755	-0,15235	-2,9214	19,163	8,2907
72756	-0,32801	-3,7	19,192	8,3047
72757	2,5526	-3,1011	33,616	14,222
72758	2,6015	-3,105	34,303	14,564
72759	2,0145	-2,9012	34,066	14,445
72760	2,2786	-3,61	34,083	14,463
72761	0,14581	-3,1949	38,244	15,676
72762	-0,20328	-2,8982	38,979	15,463
72763	-0,19744	-3,6671	38,582	15,641
72764	-0,36937	-3,2443	20,215	8,6793
72765	-0,34864	-3,2108	21,018	8,988
72766	-0,20475	-2,965	20,706	8,8649
72767	-0,6477	-3,6404	20,517	8,8008
72768	3,1628	-2,9973	32,868	13,822
72769	3,1325	-3,0629	33,633	14,203
72770	3,2939	-2,7522	33,308	14,015
72771	2,8499	-3,5433	33,336	14,084
72772	0,74119	-3,1548	37,559	15,681
72773	0,78248	-3,2431	38,183	15,873
72774	0,11525	-2,9156	38,697	15,498
72775	0,63015	-2,9507	37,698	15,694
72776	0,42142	-3,6237	37,928	15,68
72777	3,7819	-2,9497	32,147	13,426
72778	3,8688	-3,0048	32,875	13,756
72779	3,6394	-2,7079	32,917	13,801
72780	3,4907	-3,4946	32,556	13,656
72781	4,562	-3,0552	26,878	11,204
72782	4,7423	-3,0502	27,588	11,447
72783	4,3376	-3,5393	27,293	11,385
72784	3,5998	-3,0704	25,55	10,753
72785	3,4252	-3,0769	24,834	10,487
72786	3,2082	-3,5549	25,243	10,659
72787	4,3886	-3,0613	26,162	10,943
72788	4,2146	-3,067	25,449	10,69
72789	3,9912	-3,5485	25,862	10,864
72790	1,3725	-3,15	36,752	15,571
72791	1,3493	-3,0949	37,371	15,842
72792	0,90699	-2,8931	37,296	15,666
72793	1,0183	-3,57	37,157	15,653
72794	5,1922	-3,0524	26,755	11,095
72795	5,0118	-3,0574	26,048	10,861
72796	4,7878	-3,5418	26,466	11,037
72797	3,5332	-3,1806	30,848	12,887
72798	3,6739	-3,0895	31,536	13,166
72799	3,5127	-2,8703	31,059	12,982
72800	3,3027	-3,642	31,267	13,099
72801	1,3905	-3,1833	37,995	16,031
72802	1,4383	-3,1964	38,62	16,34
72803	0,43339	-2,9464	38,918	15,66
72804	0,94829	-2,9815	37,92	15,857
72805	1,0923	-3,6762	38,459	16,031
72806	4,0077	-3,0989	30,014	12,484
72807	4,1241	-3,0711	30,725	12,76
72808	3,7536	-2,8183	30,652	12,782
72809	3,7859	-3,5852	30,439	12,692
72810	2,0111	-3,156	35,983	15,354
72811	2,0253	-3,1548	36,68	15,741
72812	1,6942	-3,6241	36,374	15,507
72813	2,002	-3,0998	37,298	16,007
72814	2,0096	-3,0811	37,877	16,387
72815	1,2382	-2,8908	37,51	15,854
72816	1,6805	-3,5698	37,689	16,101
72817	-2,2537	-2,9927	12,698	6,8843
72818	-2,0939	-2,9915	11,938	6,8558
72819	-2,4609	-3,4971	12,243	6,8865
72820	4,4668	-3,0585	29,16	12,087
72821	4,6345	-3,0596	29,878	12,343
72822	4,2469	-3,5491	29,584	12,288
72823	2,6391	-3,1028	35,926	15,432
72824	2,6051	-3,0794	35,125	14,97
72825	2,018	-2,8756	34,889	14,852
72826	2,3031	-3,5771	35,621	15,23
72827	4,9197	-3,0472	28,309	11,705
72828	5,0967	-3,0441	29,023	11,944
72829	4,6946	-3,5354	28,732	11,898
72830	2,6533	-3,1016	36,623	15,815
72831	2,6595	-3,0864	37,228	16,243
72832	2,3199	-3,5787	37,008	16,002
72833	5,3724	-3,0474	27,465	11,339
72834	5,5527	-3,0426	28,173	11,565
72835	5,1485	-3,5344	27,885	11,524
72836	-1,6227	-2,9817	12,9	6,8548
72837	-1,7532	-2,9417	13,631	6,923
72838	-2,0561	-3,4947	13,184	6,9005
72839	3,3205	-3,0802	36,444	15,82
72840	3,3217	-3,0791	35,847	15,407
72841	2,9847	-3,5694	36,227	15,658
72842	-2,0525	-3,0336	11,189	6,8724
72843	-1,9278	-3,0105	10,409	6,9191
72844	-2,334	-3,5437	10,717	6,9232
72845	6,0082	-3,044	27,329	11,205
72846	5,8261	-3,0482	26,628	10,992
72847	5,5995	-3,5355	27,047	11,168
72848	-1,4629	-2,9805	12,139	6,8198
72849	-1,3305	-3,0021	11,32	6,8249
72850	-1,7315	-3,4902	11,666	6,8356
72851	0,1337	-3,2372	19,614	8,4549
72852	0,16262	-3,2661	20,183	8,6699
72853	-2,9211e-002	-2,9139	19,493	8,409
72854	0,10298	-3,016	20,427	8,7584
72855	-5,5307e-002	-3,6953	19,919	8,5705
72856	4,2648	-2,98	31,413	13,041
72857	4,48	-2,9783	32,123	13,313
72858	3,8944	-2,7272	31,34	13,062
72859	4,0439	-3,4894	31,842	13,267
72860	-0,9278	-2,9973	13,118	6,8403
72861	-0,75799	-2,9663	12,333	6,7957
72862	-1,1845	-3,4794	12,616	6,8199
72863	-1,0583	-2,9573	13,85	6,9162
72864	-1,2133	-2,9375	14,598	7,0313
72865	-1,4944	-3,4433	14,106	6,9679
72866	4,9488	-2,9999	31,305	12,873
72867	4,7508	-3,0318	30,59	12,62
72868	4,1035	-2,7608	30,936	12,854
72869	4,5127	-3,5201	31,016	12,84
72870	3,1814	-3,0668	34,32	14,546
72871	3,2877	-3,0557	35,047	14,946
72872	2,328	-2,8456	34,397	14,601
72873	2,938	-3,5424	34,748	14,795
72874	-0,50779	-3,0217	14,147	6,9428
72875	-0,10692	-3,0604	13,478	6,8565
72876	-0,70309	-3,5211	13,614	6,8796
72877	3,8386	-3,0705	33,64	14,137
72878	3,8453	-3,0499	34,253	14,458
72879	3,6092	-2,7735	33,682	14,182
72880	3,5156	-3,5558	34,02	14,38
72881	0,25203	-3,1828	21,685	9,2543
72882	0,18335	-3,2326	20,985	8,9786
72883	3,2274e-004	-2,8912	21,909	9,3427
72884	0,1237	-2,9825	21,229	9,0708
72885	-3,984e-002	-3,6518	21,487	9,1782
72886	0,54436	-3,1178	19,583	8,4483
72887	0,32757	-3,2011	19,02	8,2402
72888	0,16612	-2,8558	19,172	8,2933
72889	0,33824	-3,6214	19,34	8,3581
72890	0,8418	-3,1269	21,477	9,1753
72891	0,97923	-3,077	22,19	9,4576
72892	0,27254	-2,8457	22,053	9,4022
72893	0,39591	-2,937	21,373	9,1297
72894	0,62103	-3,6039	21,85	9,3263
72895	4,5668	-3,0334	32,851	13,646
72896	4,5557	-3,0374	33,557	13,993
72897	4,	-2,7597	33,316	13,953
72898	4,8521	-2,7674	33,373	13,83
72899	4,2179	-3,5378	33,278	13,92
72900	2,0573	-3,0942	38,502	16,69
72901	0,77105	-2,8688	39,133	15,964
72902	1,7529	-3,5826	39,009	16,783
72903	0,57328	-3,1468	20,152	8,6633
72904	0,77312	-3,1768	20,778	8,9012
72905	0,19505	-2,8847	19,74	8,502
72906	0,32724	-2,9868	20,673	8,8577
72907	0,41146	-3,6584	20,491	8,7921
72908	2,6671	-3,0677	37,806	16,617
72909	2,6869	-3,0816	38,472	17,247
72910	2,3286	-3,5658	38,278	16,844
72911	1,1363	-3,0486	20,105	8,647
72912	0,89925	-3,0342	19,409	8,3856
72913	0,38145	-2,7945	19,462	8,4004
72914	0,78639	-3,5657	19,846	8,5507
72915	1,3361	-3,0786	20,731	8,8868
72916	1,4492	-3,1381	21,434	9,1608
72917	0,71347	-2,9267	21,022	8,9916
72918	1,122	-3,5952	21,143	9,0485
72919	5,164	-2,9982	32,015	13,15
72920	5,2283	-2,9939	32,72	13,444
72921	5,1896	-2,7441	32,951	13,572
72922	4,8432	-3,5068	32,429	13,404
72923	1,8737	-3,0486	20,647	8,8603
72924	1,7105	-3,0322	19,948	8,5971
72925	1,495	-3,546	20,35	8,7463
72926	5,6212	-3,0071	31,172	12,701
72927	5,7633	-2,9936	31,885	12,954
72928	5,3734	-3,4951	31,596	12,933
72929	3,3266	-3,0649	37,049	16,245
72930	3,3178	-3,0829	37,741	16,85
72931	2,9793	-3,5623	37,509	16,575
72932	-0,66282	-3,0019	14,896	7,0682
72933	-0,78659	-3,0356	15,528	7,2008
72934	-1,0644	-3,5098	15,083	7,1157
72935	3,9971	-3,0595	36,284	15,709
72936	3,9595	-3,0917	36,943	16,224
72937	3,6431	-3,5567	36,717	16,064
72938	3,9983	-3,0585	35,688	15,296
72939	3,9515	-3,0387	34,981	14,862
72940	3,6683	-3,5433	35,457	15,185
72941	-0,25781	-3,1063	15,025	7,0876
72942	3,9579e-002	-3,0868	14,503	6,9922
72943	-0,37065	-3,5318	14,555	7,0046
72944	-0,38159	-3,14	15,658	7,2231
72945	-0,46766	-3,0919	16,422	7,4161
72946	-0,64779	-3,5643	15,948	7,2979
72947	4,7129	-2,9745	35,519	15,088
72948	4,6063	-3,1185	36,243	15,626
72949	4,3562	-3,5391	35,979	15,488
72950	1,5866	-3,0881	22,148	9,4441
72951	1,8027	-3,0195	22,875	9,7322
72952	1,4059	-3,5253	22,539	9,6038
72953	4,666	-2,9547	34,812	14,649
72954	4,5624	-3,0168	34,17	14,316
72955	4,0067	-2,7392	33,929	14,274
72956	4,2789	-3,5136	34,568	14,598
72957	1,9868	-3,1081	21,35	9,134
72958	2,1628	-3,0972	22,064	9,4112
72959	1,7456	-3,6161	21,749	9,2911
72960	5,4232	-3,039	30,456	12,444
72961	5,2644	-3,0452	29,742	12,202
72962	5,0331	-3,5355	30,17	12,412
72963	5,4203	-2,9284	34,79	14,474
72964	5,6828	-2,9026	35,643	14,873
72965	5,1119	-3,4398	35,203	14,817
72966	2,4435	-3,0437	20,561	8,8421
72967	2,6234	-3,0433	21,268	9,1104
72968	2,2166	-3,5637	20,966	8,9946
72969	6,0648	-3,0267	30,311	12,271
72970	6,2266	-3,0163	31,021	12,494
72971	5,8234	-3,5189	30,74	12,491
72972	4,644e-002	-3,2073	15,18	7,1182
72973	0,17342	-3,2022	15,786	7,2512
72974	-0,12875	-3,6351	15,379	7,1604
72975	5,7297	-3,0395	28,888	11,806
72976	5,9059	-3,033	29,596	12,026
72977	5,5041	-3,5292	29,315	12,005
72978	0,44196	-3,218	15,143	7,1138
72979	0,34383	-3,1878	14,658	7,0217
72980	0,30554	-3,6625	14,974	7,0791
72981	5,2172	-2,9978	33,425	13,793
72982	5,3166	-2,9905	34,148	14,133
72983	4,3263	-2,7404	33,599	14,031
72984	5,1785	-2,7481	33,656	13,922
72985	4,9198	-3,5109	33,851	14,089
72986	6,1885	-3,0392	28,037	11,432
72987	6,3747	-3,0337	28,738	11,633
72988	5,9604	-3,5282	28,463	11,621
72989	5,8276	-2,9893	32,589	13,252
72990	5,9435	-2,9542	33,291	13,527
72991	5,5136	-2,7278	33,241	13,638
72992	5,5551	-3,4859	33,024	13,526
72993	8,7342e-002	-3,1541	16,55	7,4475
72994	0,11496	-3,0581	17,299	7,6655
72995	-0,31498	-3,5821	16,858	7,5369
72996	6,6494	-3,0398	27,195	11,079
72997	6,8378	-3,0355	27,89	11,267
72998	6,4202	-3,5292	27,614	11,256
72999	0,56894	-3,213	15,748	7,2474
73000	0,79759	-3,1415	16,434	7,4254
73001	0,44191	-3,6371	16,154	7,3462
73002	0,45279	-3,118	18,218	7,9631
73003	0,68246	-3,1175	18,846	8,1783
73004	0,16466	-2,8778	18,898	8,1953
73005	0,25594	-3,6816	18,659	8,1141
73006	6,3688	-3,0028	31,734	12,751
73007	6,5208	-2,9872	32,442	12,982
73008	6,1087	-3,4987	32,174	13,005
73009	6,7258	-3,0182	30,152	12,055
73010	6,5509	-3,0271	29,446	11,856
73011	6,3138	-3,5181	29,881	12,064
73012	6,8877	-3,0077	30,862	12,282
73013	7,0554	-2,9953	31,57	12,48
73014	6,6381	-3,5019	31,303	12,515
73015	0,82521	-3,0454	17,183	7,6397
73016	1,0399	-2,9995	17,943	7,88
73017	0,29134	-2,7727	18,37	8,0115
73018	0,42011	-3,6262	17,662	7,7832
73019	1,0248	-3,1847	15,619	7,2263
73020	0,88055	-3,1535	14,963	7,0858
73021	0,62657	-3,6533	15,297	7,1492
73022	1,2695	-2,9989	18,571	8,0933
73023	1,4734	-3,0178	19,253	8,3354
73024	1,061	-3,5569	18,957	8,2257
73025	1,2535	-3,1132	16,305	7,4033
73026	1,4818	-3,0332	17,022	7,6078
73027	1,0163	-3,5681	16,718	7,5102
73028	1,6964	-2,9872	17,783	7,8468
73029	1,8968	-2,9915	18,482	8,0811
73030	1,4564	-3,5115	18,201	7,9779
73031	2,5599	-3,0131	23,511	9,9808
73032	2,3789	-3,0286	22,791	9,7008
73033	2,13	-3,5368	23,193	9,865
73034	1,8642	-3,0788	16,243	7,4095
73035	1,6558	-3,1414	15,531	7,2318
73036	1,4478	-3,6071	15,94	7,3182
73037	3,295	-3,0414	24,127	10,213
73038	3,158	-3,0103	23,418	9,9429
73039	2,916	-3,513	23,819	10,106
73040	2,0925	-2,9988	16,96	7,6153
73041	2,299	-2,9802	17,666	7,833
73042	1,846	-3,508	17,368	7,725
73043	2,1007	-3,0104	19,164	8,3242
73044	2,2803	-3,0272	19,863	8,5788
73045	1,8686	-3,5505	19,561	8,463
73046	2,6926	-3,0047	16,854	7,6185
73047	2,5023	-3,014	16,151	7,4242
73048	2,2499	-3,5277	16,554	7,5141
73049	2,4994	-2,9845	18,365	8,0668
73050	2,6875	-2,9962	19,066	8,3094
73051	2,2578	-3,5125	18,766	8,1936
73052	0,78242	-3,1232	14,478	6,9972
73053	0,44045	-3,1255	13,833	6,8999
73054	0,38901	-3,6154	14,245	6,9548
73055	2,8991	-2,9861	17,56	7,8355
73056	3,0971	-2,9792	18,263	8,0631
73057	2,666	-3,4915	17,963	7,9487
73058	1,5115	-3,1102	14,875	7,092
73059	1,3176	-3,0594	14,21	6,9748
73060	1,1299	-3,5739	14,61	7,0308
73061	7,5654	-3,0047	30,697	12,022
73062	7,3842	-3,0147	29,992	11,851
73063	7,1428	-3,5068	30,428	12,064
73064	3,3079	-2,9978	16,756	7,6365
73065	3,4908	-3,004	17,458	7,8433
73066	3,0693	-3,5057	17,159	7,7315
73067	2,2939	-3,0766	15,439	7,2467
73068	2,0981	-3,0818	14,74	7,1002
73069	1,885	-3,5949	15,126	7,1604
73070	2,977	-3,0258	22,698	9,6622
73071	2,7995	-3,0324	21,982	9,3883
73072	2,5568	-3,5456	22,388	9,5478
73073	3,1176	-3,007	16,052	7,4436
73074	2,9225	-3,0184	15,349	7,2748
73075	2,6819	-3,5324	15,752	7,3438
73076	6,0429	-2,9468	34,014	13,874
73077	6,2853	-2,9721	34,738	14,134
73078	5,613	-2,7205	33,965	13,98
73079	5,7662	-3,4754	34,454	14,2
73080	3,7339	-3,0004	15,954	7,4763
73081	3,9245	-2,9971	16,653	7,6599
73082	3,499	-3,5041	16,357	7,5519
73083	6,6366	-2,9522	33,144	13,264
73084	6,7969	-2,9305	33,845	13,499
73085	5,9048	-2,7044	33,522	13,654
73086	6,3577	-3,4516	33,59	13,564
73087	3,5388	-3,0117	15,251	7,3092
73088	2,7267	-3,0235	14,65	7,1289
73089	3,3393	-3,0149	14,551	7,1689
73090	3,1042	-3,5303	14,955	7,2159
73091	4,3481	-3,0068	15,85	7,5145
73092	4,1255	-3,0454	15,168	7,3565
73093	3,9206	-3,5152	15,559	7,4115
73094	7,2074	-2,9798	32,278	12,717
73095	7,3773	-2,9645	32,979	12,912
73096	6,941	-3,4778	32,722	12,986
73097	1,9042	-3,0311	14,075	6,9849
73098	2,5042	-3,0551	13,948	7,0103
73099	2,2995	-3,5346	14,334	7,0483
73100	7,7332	-2,9923	31,405	12,225
73101	7,9087	-2,9807	32,107	12,39
73102	7,4775	-3,488	31,846	12,467
73103	0,97568	-3,0617	13,566	6,8814
73104	1,6759	-3,0485	13,352	6,8912
73105	1,471	-3,5369	13,774	6,925
73106	8,236	-3,0043	30,537	11,783
73107	8,4205	-2,9949	31,235	11,922
73108	7,9904	-3,4976	30,972	12,
73109	6,2896e-002	-3,0294	12,693	6,7988
73110	0,76331	-3,0607	12,816	6,8157
73111	0,41077	-3,5549	13,272	6,841
73112	2,867	-3,013	19,765	8,5636
73113	3,0417	-3,0259	20,471	8,8222
73114	2,6239	-3,5449	20,166	8,7039
73115	-0,62557	-2,9878	11,514	6,794
73116	-2,0245e-002	-2,9736	11,851	6,7807
73117	-0,16655	-2,7548	11,538	6,7879
73118	-0,36522	-3,4659	12,056	6,7834
73119	3,2852	-2,9909	18,964	8,3049
73120	3,4753	-2,9942	19,668	8,5515
73121	3,0441	-3,5151	19,365	8,4335
73122	4,0399	-3,0735	24,733	10,423
73123	3,8582	-3,0791	24,023	10,164
73124	3,6432	-3,5584	24,43	10,33
73125	3,7212	-3,0481	23,314	9,8948
73126	3,5756	-3,0228	22,604	9,6298
73127	3,3419	-3,5223	23,008	9,7884
73128	4,8378	-3,0631	25,335	10,608
73129	4,6561	-3,0683	24,627	10,364
73130	4,4403	-3,5504	25,039	10,531
73131	3,6888	-2,997	18,161	8,0696
73132	3,8895	-2,9853	18,863	8,3023
73133	3,4434	-3,5145	18,561	8,1835
73134	5,6457	-3,0532	25,92	10,757
73135	5,4616	-3,0581	25,217	10,532
73136	5,2391	-3,5429	25,633	10,699
73137	4,1074	-3,0034	17,356	7,8647
73138	4,2996	-3,0011	18,055	8,0789
73139	3,8547	-3,524	17,763	7,9635
73140	-0,48369	-3,0258	10,622	6,8412
73141	-1,2059	-2,979	10,541	6,8686
73142	-0,45439	-2,7742	11,	6,8148
73143	-0,9444	-3,4852	11,02	6,8247
73144	4,5387	-3,0035	16,55	7,6957
73145	4,7285	-3,0013	17,247	7,8888
73146	4,2909	-3,5191	16,961	7,7769
73147	6,2842	-3,0482	25,79	10,66
73148	6,4673	-3,0441	26,493	10,865
73149	6,0562	-3,5357	26,21	10,828
73150	4,4744	-3,0739	23,917	10,105
73151	4,298	-3,0793	23,209	9,8525
73152	4,0776	-3,5588	23,619	10,012
73153	5,1539	-3,0134	16,439	7,7346
73154	4,9404	-3,0434	15,754	7,5649
73155	4,7306	-3,5146	16,153	7,6265
73156	5,28	-3,0633	24,51	10,288
73157	5,0978	-3,0682	23,805	10,051
73158	4,8762	-3,5507	24,218	10,211
73159	7,024	-3,03	28,591	11,471
73160	7,2093	-3,0237	29,287	11,649
73161	6,7928	-3,5207	29,016	11,662
73162	6,1001	-3,053	25,087	10,435
73163	5,9089	-3,0575	24,389	10,219
73164	5,6884	-3,5428	24,804	10,378
73165	3,2217	-3,0256	21,179	9,0906
73166	3,398	-3,0294	21,888	9,3556
73167	2,9924	-3,5305	21,58	9,241
73168	6,9294	-3,0434	25,65	10,54
73169	6,7393	-3,0472	24,954	10,346
73170	6,5163	-3,5353	25,372	10,505
73171	3,6499	-3,0071	20,374	8,8093
73172	3,8239	-3,0189	21,082	9,0656
73173	3,4046	-3,5352	20,78	8,9519
73174	7,1124	-3,0394	26,353	10,745
73175	7,302	-3,0358	27,049	10,924
73176	6,8821	-3,5293	26,778	10,915
73177	7,4904	-3,0314	27,744	11,114
73178	7,681	-3,0272	28,441	11,277
73179	7,2585	-3,5228	28,169	11,293
73180	7,7651	-3,0349	26,2	10,599
73181	7,5725	-3,0383	25,506	10,43
73182	7,3466	-3,5286	25,929	10,588
73183	7,9547	-3,0313	26,896	10,778
73184	8,143	-3,0278	27,591	10,931
73185	7,7254	-3,5232	27,321	10,946
73186	4,1524	-3,054	22,499	9,588
73187	4,0002	-3,0228	21,791	9,3303
73188	3,7667	-3,5277	22,196	9,4815
73189	8,4194	-3,0302	26,045	10,464
73190	8,6092	-3,0273	26,737	10,606
73191	8,1874	-3,5227	26,472	10,622
73192	4,9215	-3,0736	23,097	9,7988
73193	4,7375	-3,0787	22,393	9,5537
73194	4,5238	-3,5586	22,802	9,7057
73195	5,7268	-3,0625	23,684	9,9824
73196	5,5431	-3,0673	22,981	9,7532
73197	5,3244	-3,5503	23,395	9,9046
73198	0,15895	-3,1018	9,8975	6,9098
73199	-0,58731	-3,0711	9,812	6,9262
73200	0,12163	-3,0115	10,959	6,8126
73201	0,42462	-3,0243	10,559	6,8454
73202	-2,4669e-002	-2,7927	10,645	6,8354
73203	-0,10105	-3,5203	10,336	6,8624
73204	6,5481	-3,0517	24,255	10,13
73205	6,3588	-3,0561	23,555	9,921
73206	6,1343	-3,5419	23,975	10,073
73207	-0,18496	-3,0898	9,0946	7,0195
73208	0,57835	-3,1668	9,175	7,0128
73209	0,80212	-3,1604	9,8527	6,9248
73210	0,38899	-3,5913	9,5191	6,9604
73211	4,0795	-2,9887	19,567	8,5478
73212	4,2603	-2,9988	20,27	8,7925
73213	3,8294	-3,519	19,971	8,678
73214	7,3824	-3,0421	24,809	10,236
73215	7,1939	-3,0455	24,113	10,05
73216	6,9667	-3,5342	24,536	10,2
73217	8,0548	-3,0143	29,833	11,607
73218	7,8663	-3,0209	29,138	11,458
73219	7,6286	-3,5129	29,563	11,652
73220	8,2267	-3,0335	25,351	10,295
73221	8,03	-3,0364	24,66	10,136
73222	7,8024	-3,5275	25,084	10,284
73223	8,7169	-3,0131	29,679	11,385
73224	8,9101	-3,0069	30,369	11,502
73225	8,4822	-3,5064	30,109	11,581
73226	8,8817	-3,0284	25,196	10,173
73227	9,079	-3,0259	25,886	10,304
73228	8,655	-3,5215	25,62	10,318
73229	4,5003	-2,9894	18,757	8,31
73230	4,6841	-2,9915	19,462	8,5425
73231	4,2481	-3,5127	19,167	8,4279
73232	4,5854	-3,0474	21,684	9,297
73233	4,4342	-3,0106	20,977	9,0477
73234	4,1981	-3,5202	21,384	9,1901
73235	8,3336	-3,0236	28,288	11,097
73236	8,5283	-3,0197	28,984	11,231
73237	8,1061	-3,5167	28,717	11,277
73238	5,3592	-3,0724	22,277	9,5087
73239	5,1711	-3,0766	21,577	9,2721
73240	4,9568	-3,5577	21,985	9,4147
73241	4,9207	-2,9991	17,947	8,1006
73242	5,1111	-2,9976	18,645	8,3164
73243	4,6708	-3,5162	18,361	8,2041
73244	6,1751	-3,061	22,853	9,6924
73245	5,982	-3,0653	22,159	9,4736
73246	5,7672	-3,5491	22,57	9,6148
73247	8,9901	-3,0206	28,126	10,883
73248	8,7975	-3,0239	27,432	10,76
73249	8,5637	-3,5176	27,862	10,929
73250	7,0046	-3,0498	23,413	9,841
73251	6,8115	-3,054	22,719	9,6413
73252	6,5886	-3,5406	23,137	9,7821
73253	5,3437	-3,0112	17,136	7,9247
73254	5,5415	-3,0015	17,83	8,1216
73255	5,0981	-3,5194	17,553	8,0107
73256	7,8415	-3,0398	23,964	9,9502
73257	7,6485	-3,0433	23,27	9,773
73258	7,4258	-3,5326	23,691	9,9121
73259	9,1849	-3,0167	28,821	11,021
73260	9,3783	-3,013	29,514	11,126
73261	8,9525	-3,5115	29,254	11,202
73262	8,685	-3,0313	24,505	10,014
73263	8,4927	-3,034	23,811	9,8623
73264	8,2619	-3,5257	24,237	10,
73265	9,6519	-3,0169	27,963	10,685
73266	9,8482	-3,014	28,65	10,775
73267	9,4194	-3,5125	28,391	10,851
73268	5,7578	-3,0443	16,33	7,7859
73269	5,973	-3,0135	17,014	7,9615
73270	5,5354	-3,5263	16,739	7,8523
73271	5,0199	-3,0398	20,87	9,0244
73272	4,8649	-3,0016	20,165	8,7855
73273	4,6294	-3,5123	20,571	8,9167
73274	9,4593	-3,0201	27,27	10,559
73275	9,2689	-3,023	26,577	10,446
73276	9,0344	-3,5172	27,004	10,603
73277	5,7939	-3,0695	21,459	9,2382
73278	5,6045	-3,0721	20,761	9,0106
73279	5,3913	-3,5552	21,169	9,1427
73280	9,3442	-3,026	24,343	9,9035
73281	9,542	-3,0239	25,031	10,025
73282	9,1121	-3,5199	24,773	10,04
73283	10,121	-3,0162	27,102	10,373
73284	10,321	-3,0136	27,794	10,453
73285	9,8872	-3,5119	27,537	10,529
73286	6,6183	-3,0583	22,026	9,4235
73287	6,4261	-3,0612	21,332	9,2127
73288	6,2026	-3,5469	21,75	9,3454
73289	-1,3095	-3,0243	9,7313	6,9589
73290	-1,837	-2,8715	9,6319	6,9986
73291	-1,5667	-3,4651	10,13	6,9254
73292	7,4554	-3,0474	22,576	9,5743
73293	7,2629	-3,0505	21,884	9,3831
73294	7,0399	-3,5386	22,303	9,5135
73295	-0,93122	-3,0591	9,0091	7,0464
73296	-1,4571	-2,9536	9,008	7,0694
73297	-1,062	-3,5399	9,4145	6,992
73298	8,2997	-3,0375	23,118	9,686
73299	8,1038	-3,0406	22,428	9,5185
73300	7,8761	-3,5308	22,85	9,6468
73301	-0,57113	-3,0226	8,5435	7,114
73302	-0,92746	-2,9297	8,3193	7,1599
73303	-0,49003	-2,6492	8,2148	7,1724
73304	-0,59562	-3,529	8,6965	7,0892
73305	9,1519	-3,0286	23,65	9,7525
73306	8,956	-3,0316	22,961	9,6111
73307	8,7277	-3,5239	23,386	9,7371
73308	0,19218	-3,0996	8,624	7,0976
73309	-0,27687	-2,9776	7,9017	7,224
73310	-0,31937	-2,6517	8,097	7,1927
73311	-0,17111	-3,5193	8,4064	7,1335
73312	10,007	-3,0216	24,172	9,7684
73313	9,8131	-3,0236	23,485	9,6557
73314	9,5797	-3,5178	23,914	9,7797
73315	1,0148	-3,1197	8,4497	7,1421
73316	1,2145	-3,1416	9,0792	7,0484
73317	0,88826	-3,5875	8,736	7,0909
73318	0,68017	-3,0049	11,975	6,7891
73319	0,60022	-2,9915	11,251	6,8034
73320	0,15093	-2,76	11,337	6,7946
73321	0,29953	-3,4759	11,65	6,7852
73322	9,7393	-3,0214	25,721	10,156
73323	9,9309	-3,0191	26,409	10,258
73324	9,5066	-3,5162	26,152	10,301
73325	10,205	-3,0196	24,86	9,8897
73326	10,406	-3,0178	25,551	9,9812
73327	9,975	-3,5149	25,29	10,023
73328	10,597	-3,0155	26,24	10,084
73329	10,791	-3,0134	26,924	10,155
73330	10,358	-3,5115	26,667	10,228
73331	1,4636	-3,0474	12,602	6,8309
73332	1,3092	-3,0282	11,904	6,811
73333	1,0445	-3,517	12,286	6,804
73334	10,871	-3,0167	24,687	9,7291
73335	10,676	-3,018	24,003	9,6476
73336	10,437	-3,5136	24,43	9,7689
73337	11,072	-3,015	25,378	9,8206
73338	11,269	-3,0134	26,066	9,881
73339	10,839	-3,5111	25,813	9,952
73340	2,2759	-3,0725	13,224	6,9182
73341	2,1016	-3,043	12,519	6,8658
73342	1,8586	-3,5489	12,905	6,868
73343	11,543	-3,0149	24,514	9,5821
73344	11,736	-3,0135	25,195	9,6324
73345	11,306	-3,5109	24,944	9,7012
73346	3,1167	-3,0464	13,848	7,051
73347	2,7887	-3,0276	13,134	6,9543
73348	2,6879	-3,5525	13,544	6,9809
73349	1,0678	-3,0829	10,515	6,8647
73350	1,2293	-3,0149	11,18	6,8266
73351	0,45391	-2,7727	10,938	6,8186
73352	0,90445	-3,5139	10,868	6,833
73353	1,4752	-3,0775	7,6595	7,306
73354	1,6751	-3,0858	8,3567	7,19
73355	0,54572	-2,9976	7,7274	7,2642
73356	1,2068	-3,5549	8,0273	7,2258
73357	1,5913	-3,0583	10,509	6,8893
73358	1,4382	-3,1352	9,7569	6,9614
73359	1,526	-2,8561	10,08	6,9273
73360	1,2228	-3,5997	10,159	6,9051
73361	1,9413	-3,1257	6,8196	7,4982
73362	2,063	-3,1643	7,5281	7,3674
73363	1,3052	-3,0558	6,8663	7,4567
73364	1,6397	-3,5727	7,2039	7,4061
73365	2,4118	-3,122	6,2151	7,6577
73366	2,5265	-3,2011	6,7261	7,5607
73367	1,8865	-3,269	6,0783	7,6452
73368	2,159	-3,5998	6,4283	7,595
73369	3,9259	-3,0485	14,467	7,2176
73370	3,737	-3,0508	13,771	7,1089
73371	3,5229	-3,5272	14,16	7,1325
73372	1,7528	-2,9903	11,174	6,8538
73373	1,9473	-3,0238	11,821	6,8461
73374	1,5576	-3,5261	11,492	6,8298
73375	4,7178	-3,082	15,071	7,4086
73376	4,5494	-3,0543	14,369	7,2813
73377	4,3071	-3,5635	14,783	7,3132
73378	2,0842	-2,9566	10,673	6,9078
73379	2,3567	-2,9402	11,145	6,8981
73380	1,885	-2,7529	10,411	6,9158
73381	1,9753	-3,5015	10,793	6,8912
73382	2,9654	-3,1212	6,1974	7,7093
73383	2,6804	-3,1056	5,5202	7,8133
73384	2,6252	-3,5765	6,0348	7,7125
73385	5,5443	-3,0743	15,645	7,6189
73386	5,3454	-3,0789	14,959	7,4757
73387	5,1312	-3,5586	15,361	7,5162
73388	1,8748	-3,1077	8,9862	7,0973
73389	1,9311	-3,0335	9,9205	6,9704
73390	1,7319	-2,8298	9,6594	6,9903
73391	1,6385	-3,5745	9,3413	7,0298
73392	6,3769	-3,0651	16,209	7,8392
73393	6,1795	-3,0697	15,524	7,6884
73394	5,9612	-3,5516	15,931	7,734
73395	2,2629	-3,1726	8,2253	7,2513
73396	2,4775	-3,1342	8,9055	7,1547
73397	1,9626	-2,8286	9,3093	7,0516
73398	2,0615	-3,5733	8,6013	7,1724
73399	2,5339	-3,0601	9,8399	7,0255
73400	2,6426	-2,9332	10,76	6,9411
73401	2,0189	-2,7544	10,244	6,9408
73402	3,1102	-2,7551	10,684	6,9993
73403	2,2728	-3,5261	10,367	6,9482
73404	5,4494	-3,034	20,056	8,7739
73405	5,295	-2,9997	19,35	8,5466
73406	5,0575	-3,508	19,76	8,6658
73407	2,8285	-3,1709	8,1301	7,3157
73408	2,6481	-3,2396	7,4346	7,43
73409	2,4171	-3,6457	7,8138	7,3394
73410	6,0461	-3,0657	19,941	8,7716
73411	6,2367	-3,0639	20,634	8,987
73412	5,8239	-3,5508	20,352	8,8918
73413	5,7319	-3,0001	18,529	8,3346
73414	5,8917	-3,0314	19,235	8,5472
73415	5,4913	-3,5089	18,943	8,4394
73416	3,0432	-3,1325	8,8103	7,2202
73417	3,2261	-3,1545	9,4541	7,143
73418	2,3346	-2,8564	9,5787	7,043
73419	3,426	-2,857	10,019	7,0943
73420	2,8322	-3,6059	9,1907	7,1412
73421	6,1708	-3,0038	17,707	8,1549
73422	6,3396	-3,0277	18,407	8,3493
73423	5,933	-3,5074	18,122	8,2428
73424	3,6459	-3,1016	8,7445	7,298
73425	3,4691	-3,1669	8,0644	7,3941
73426	3,2332	-3,5763	8,445	7,3019
73427	6,4994	-3,059	19,113	8,5584
73428	6,6916	-3,0572	19,805	8,761
73429	6,2743	-3,5455	19,529	8,6653
73430	6,8027	-3,0111	17,576	8,1862
73431	6,5921	-3,0343	16,893	8,0113
73432	6,3658	-3,5187	17,304	8,0806
73433	6,9715	-3,035	18,276	8,3763
73434	7,1488	-3,052	18,971	8,5631
73435	6,7294	-3,5412	18,697	8,4663
73436	3,2887	-3,2357	7,369	7,5065
73437	3,08	-3,2003	6,7084	7,6136
73438	2,8702	-3,6598	7,0732	7,5229
73439	2,5512	-2,9737	11,791	6,8932
73440	2,6144	-2,9981	12,429	6,9032
73441	2,3279	-3,5312	12,138	6,8746
73442	7,4236	-3,0333	17,45	8,2314
73443	7,6361	-3,0131	18,127	8,3992
73444	7,1999	-3,5197	17,863	8,3025
73445	2,9151	-2,9168	11,232	6,9386
73446	3,0487	-2,9427	11,698	6,9412
73447	2,7402	-3,4619	11,43	6,9189
73448	6,8822	-3,0554	20,498	8,9738
73449	7,0707	-3,0534	21,19	9,1742
73450	6,6555	-3,5428	20,915	9,0936
73451	3,112	-2,9671	12,335	6,9481
73452	3,409	-3,032	13,057	7,0098
73453	2,9958	-3,4964	12,742	6,9509
73454	3,3348	-3,0277	10,374	7,0414
73455	3,3443	-2,9129	11,236	6,9841
73456	3,5347	-2,7302	10,938	7,0237
73457	3,1136	-3,4715	10,815	6,9838
73458	7,213	-3,0565	16,767	8,0604
73459	7,0186	-3,0608	16,078	7,9074
73460	6,7963	-3,5448	16,49	7,9567
73461	3,8288	-3,1236	9,3883	7,2228
73462	3,9086	-3,1071	10,041	7,1518
73463	3,8025	-2,8495	10,298	7,1111
73464	3,5964	-3,5906	9,786	7,1435
73465	7,8605	-3,0535	16,626	8,1241
73466	8,0591	-3,0493	17,309	8,2723
73467	7,6329	-3,539	17,046	8,1763
73468	3,4779	-2,9387	11,703	6,9888
73469	3,8728	-2,9904	12,26	7,0333
73470	3,4299	-3,4861	11,974	6,9801
73471	4,2685	-3,1	8,6587	7,3937
73472	4,4111	-3,0293	9,3341	7,3114
73473	4,0567	-3,5747	9,043	7,3053
73474	4,0918	-3,1653	7,9786	7,4888
73475	3,8632	-3,2277	7,1719	7,6094
73476	3,6816	-3,6572	7,6676	7,4955
73477	4,8724	-3,0738	8,5181	7,5097
73478	4,6797	-3,1107	7,8149	7,602
73479	4,487	-3,5735	8,2734	7,4932
73480	3,9181	-2,9923	10,904	7,0777
73481	4,2086	-3,0045	11,629	7,0837
73482	3,812	-2,7347	11,161	7,0508
73483	3,7953	-3,475	11,329	7,0398
73484	7,341	-3,0502	19,663	8,7623
73485	7,5318	-3,0482	20,355	8,9506
73486	7,114	-3,5384	20,081	8,8681
73487	3,3376	-3,0968	38,408	17,475
73488	3,3913	-3,1499	39,063	18,287
73489	3,0107	-3,5824	38,86	17,887
73490	7,8133	-3,0301	18,822	8,5814
73491	7,9904	-3,0446	19,517	8,7554
73492	7,5729	-3,5341	19,244	8,671
73493	4,4909	-3,0128	9,9873	7,2407
73494	4,7375	-3,0671	10,671	7,2126
73495	4,1085	-2,8096	10,606	7,1265
73496	4,4	-2,887	10,203	7,203
73497	4,3063	-3,5443	10,388	7,1728
73498	8,2716	-3,029	17,986	8,4358
73499	8,4799	-3,0114	18,666	8,5919
73500	8,0416	-3,5171	18,407	8,508
73501	3,9174	-3,1758	38,303	17,512
73502	3,9507	-3,1098	37,635	16,828
73503	3,5987	-3,5928	38,097	17,298
73504	5,0149	-3,003	9,1936	7,426
73505	5,2419	-3,0026	9,8613	7,3769
73506	4,6762	-2,8326	9,8404	7,2849
73507	4,8194	-3,5016	9,6253	7,3365
73508	7,9112	-3,0437	21,736	9,3291
73509	7,7204	-3,0462	21,046	9,1483
73510	7,4912	-3,5354	21,465	9,2662
73511	5,5085	-3,046	8,3444	7,6474
73512	5,6888	-3,0356	9,0469	7,5677
73513	5,2926	-3,5415	8,7909	7,5374
73514	4,3604	-3,0566	13,673	7,1747
73515	4,1698	-3,0553	12,982	7,098
73516	3,9283	-3,5669	13,391	7,0966
73517	3,971	-3,2289	38,958	18,33
73518	4,0181	-3,1921	39,722	19,453
73519	3,9443	-3,0933	39,344	18,966
73520	3,6889	-3,6404	39,413	18,974
73521	5,177	-3,0512	14,257	7,352
73522	5,0127	-3,0227	13,557	7,2569
73523	4,7663	-3,5327	13,97	7,2629
73524	4,4237	-3,2836	38,277	17,49
73525	4,4539	-3,2415	38,856	18,188
73526	4,1678	-3,1159	38,952	18,464
73527	4,7425	-2,9645	38,074	17,194
73528	4,1544	-3,6818	38,634	17,98
73529	8,7601	-3,0348	22,271	9,4452
73530	8,5639	-3,0377	21,583	9,2873
73531	8,336	-3,5286	22,007	9,4037
73532	8,373	-3,0402	20,893	9,109
73533	8,1813	-3,0426	20,208	8,9403
73534	7,954	-3,5324	20,628	9,0446
73535	9,4183	-3,0296	22,109	9,3846
73536	9,6172	-3,0265	22,796	9,5157
73537	9,1882	-3,5221	22,536	9,4984
73538	4,5687	-3,1506	36,902	16,142
73539	4,4571	-3,2175	37,609	16,804
73540	4,2222	-3,6061	37,31	16,565
73541	5,9806	-3,0743	14,838	7,5489
73542	5,7789	-3,0784	14,154	7,4337
73543	5,5632	-3,5585	14,558	7,451
73544	4,8221	-3,0214	12,866	7,1828
73545	4,6035	-3,0562	12,187	7,1342
73546	4,3779	-3,5194	12,576	7,1096
73547	6,8212	-3,0655	15,392	7,7611
73548	6,6175	-3,0698	14,712	7,6362
73549	6,4015	-3,5518	15,119	7,6594
73550	5,6146	-3,05	13,454	7,342
73551	5,4538	-3,0218	12,758	7,2796
73552	5,2092	-3,5294	13,166	7,2605
73553	7,6661	-3,0578	15,937	7,9762
73554	7,4711	-3,0622	15,258	7,8495
73555	7,2443	-3,5458	15,666	7,8752
73556	6,4158	-3,0739	14,029	7,525
73557	6,2478	-3,0474	13,335	7,4442
73558	5,9981	-3,5579	13,752	7,4326
73559	8,5135	-3,0509	16,471	8,1843
73560	8,319	-3,0562	15,792	8,0602
73561	8,0916	-3,5405	16,206	8,0895
73562	8,7121	-3,0467	17,154	8,3271
73563	8,9145	-3,0426	17,837	8,4655
73564	8,4881	-3,5339	17,574	8,3804
73565	7,2674	-3,0665	14,578	7,7292
73566	7,0788	-3,0478	13,888	7,6341
73567	6,8365	-3,5519	14,307	7,6301
73568	9,1686	-3,0492	16,315	8,2601
73569	9,3674	-3,0438	16,995	8,3763
73570	8,9409	-3,5353	16,735	8,2917
73571	5,0095	-3,2725	36,83	16,008
73572	5,5763	-3,0466	36,367	15,412
73573	4,9166	-3,6189	36,589	15,852
73574	4,8979	-3,3394	37,537	16,669
73575	4,8832	-3,2927	38,277	17,385
73576	4,397	-3,148	38,663	18,123
73577	4,9717	-2,9966	37,784	16,869
73578	4,6546	-3,7141	37,967	17,166
73579	9,2221	-3,0326	21,421	9,229
73580	9,0301	-3,0356	20,735	9,0825
73581	8,7958	-3,5267	21,159	9,1851
73582	8,8384	-3,038	20,049	8,9171
73583	8,6569	-3,0259	19,36	8,7614
73584	8,4121	-3,5303	19,788	8,851
73585	9,8854	-3,0286	21,256	9,1843
73586	10,081	-3,0253	21,94	9,3044
73587	9,6519	-3,5211	21,684	9,2847
73588	8,124	-3,0606	15,113	7,9388
73589	7,9332	-3,0407	14,428	7,8386
73590	7,6984	-3,5446	14,845	7,8404
73591	5,3631	-3,2911	37,608	16,574
73592	5,5495	-3,3201	37,053	15,974
73593	5,2167	-3,0203	37,333	16,39
73594	5,1998	-3,7415	37,159	16,249
73595	9,6934	-3,0316	20,57	9,0408
73596	9,5105	-3,022	19,883	8,9073
73597	9,2684	-3,5246	20,31	8,9945
73598	10,28	-3,0223	22,626	9,4334
73599	10,482	-3,02	23,317	9,5359
73600	10,049	-3,5166	23,056	9,5447
73601	10,55	-3,0251	21,086	9,1212
73602	10,366	-3,0177	20,399	9,0128
73603	10,122	-3,5207	20,829	9,0986
73604	10,746	-3,0219	21,77	9,2386
73605	10,946	-3,0195	22,454	9,3294
73606	10,513	-3,516	22,197	9,3358
73607	8,9742	-3,0545	15,637	8,1418
73608	8,7833	-3,0354	14,953	8,0428
73609	8,5484	-3,5403	15,375	8,0486
73610	11,227	-3,0129	20,911	9,0715
73611	11,417	-3,0199	21,598	9,1509
73612	10,98	-3,5161	21,344	9,1558
73613	5,028	-3,0793	11,396	7,2155
73614	5,2352	-3,0566	12,079	7,2323
73615	4,7883	-3,554	11,79	7,1656
73616	9,8253	-3,0468	16,154	8,3304
73617	9,6362	-3,0317	15,47	8,2387
73618	9,4008	-3,5353	15,895	8,2472
73619	5,3485	-3,2444	38,348	17,301
73620	5,8024	-3,2084	38,168	16,847
73621	5,4369	-2,9483	37,855	16,783
73622	5,5113	-3,6733	38,042	16,945
73623	3,6545	-3,1923	6,5114	7,7175
73624	3,3355	-3,1448	5,9625	7,7897
73625	3,247	-3,6199	6,3539	7,7042
73626	4,9134	-3,2506	38,856	18,096
73627	5,3406	-3,2384	38,758	17,727
73628	4,6274	-3,125	38,953	18,34
73629	5,202	-2,9736	38,074	17,112
73630	5,0686	-3,7143	38,49	17,614
73631	4,4511	-3,1732	7,0082	7,7232
73632	4,1014	-3,212	6,339	7,8056
73633	4,3875	-2,9768	6,4817	7,8201
73634	4,0324	-3,6502	6,7708	7,7141
73635	5,4885	-3,0569	10,545	7,3499
73636	5,684	-3,0434	11,266	7,3341
73637	4,9228	-2,8869	10,524	7,2522
73638	5,2453	-3,5443	10,988	7,275
73639	4,5009	-3,2048	39,62	19,326
73640	4,9675	-3,2456	39,377	18,711
73641	4,4272	-3,1059	39,241	18,821
73642	4,7006	-3,6765	39,191	18,656
73643	5,9158	-3,0352	9,7146	7,5182
73644	6,1257	-3,0321	10,408	7,4818
73645	5,151	-2,8769	10,077	7,3361
73646	5,6975	-3,5336	10,136	7,4298
73647	6,0869	-3,0192	12,638	7,3857
73648	5,8911	-3,0207	11,949	7,3487
73649	5,653	-3,5263	12,363	7,3069
73650	5,3157	-3,083	7,6412	7,741
73651	5,1214	-3,1003	6,9809	7,8314
73652	4,8138	-2,9253	6,8294	7,8101
73653	4,8855	-3,5944	7,3888	7,7184
73654	4,5995	-3,1935	40,337	20,28
73655	4,2148	-3,0791	39,717	19,593
73656	4,2681	-3,6398	40,107	20,177
73657	6,1909	-3,0347	8,2131	7,803
73658	5,9436	-3,0308	7,5343	7,8758
73659	5,7704	-3,5344	7,9768	7,7645
73660	6,9108	-3,0212	13,194	7,5586
73661	6,7155	-3,0196	12,51	7,5047
73662	6,4704	-3,5273	12,932	7,4684
73663	9,1227	-3,0249	18,517	8,6171
73664	9,329	-3,0099	19,194	8,7559
73665	8,891	-3,5148	18,936	8,688
73666	7,7446	-3,022	13,738	7,7491
73667	7,5252	-3,0516	13,079	7,679
73668	7,3061	-3,5305	13,481	7,6538
73669	9,5697	-3,0397	17,678	8,5093
73670	9,7707	-3,0364	18,359	8,6316
73671	9,3434	-3,529	18,102	8,5628
73672	11,348	-3,0162	23,83	9,5012
73673	11,148	-3,0173	23,144	9,4302
73674	10,917	-3,5128	23,578	9,5389
73675	8,5925	-3,0155	14,268	7,9488
73676	8,3884	-3,0228	13,598	7,8755
73677	8,1537	-3,5263	14,016	7,8528
73678	10,024	-3,0414	16,834	8,4408
73679	10,227	-3,037	17,509	8,5429
73680	9,7993	-3,5301	17,254	8,4737
73681	9,4453	-3,0126	14,787	8,1463
73682	9,2436	-3,0147	14,117	8,0734
73683	9,0055	-3,5217	14,54	8,0543
73684	10,183	-3,0082	19,713	8,8832
73685	9,977	-3,0214	19,036	8,7659
73686	9,7461	-3,5115	19,458	8,8358
73687	10,492	-3,0258	15,981	8,4167
73688	10,688	-3,0387	16,663	8,4962
73689	10,252	-3,5312	16,414	8,4269
73690	10,836	-3,0179	19,548	8,8748
73691	11,043	-3,0055	20,224	8,9667
73692	10,604	-3,5092	19,972	8,9432
73693	10,303	-3,0107	15,297	8,3317
73694	10,102	-3,0117	14,626	8,2649
73695	9,8657	-3,5148	15,051	8,2492
73696	6,3712	-3,0242	8,9157	7,7231
73697	6,5421	-3,0239	9,6192	7,6569
73698	6,1323	-3,5296	9,3554	7,611
73699	11,166	-3,0105	15,802	8,4949
73700	10,962	-3,0104	15,129	8,4397
73701	10,728	-3,5114	15,557	8,4265
73702	7,046	-3,028	8,8038	7,8883
73703	6,8495	-3,0015	8,0207	7,9754
73704	6,64	-3,5207	8,524	7,8473
73705	6,5197	-3,0211	11,821	7,4708
73706	6,3211	-3,0186	11,129	7,4633
73707	6,0909	-3,5206	11,547	7,399
73708	10,63	-3,031	18,871	8,7617
73709	10,428	-3,0337	18,19	8,6598
73710	10,2	-3,5248	18,617	8,7127
73711	12,012	-3,0153	23,649	9,3692
73712	12,212	-3,0138	24,333	9,4078
73713	11,78	-3,5112	24,083	9,4753
73714	11,493	-3,0259	19,377	8,8485
73715	11,29	-3,0286	18,697	8,7715
73716	11,061	-3,521	19,126	8,8232
73717	7,1501	-3,0208	11,695	7,607
73718	7,33	-3,05	12,396	7,6284
73719	6,9088	-3,5306	12,119	7,5474
73720	11,812	-3,0164	22,963	9,2995
73721	11,618	-3,0175	22,282	9,2394
73722	11,381	-3,5131	22,711	9,3347
73723	11,7	-3,0136	20,053	8,9366
73724	11,907	-3,0025	20,731	8,9996
73725	11,467	-3,5065	20,481	9,0034
73726	12,477	-3,0156	22,786	9,1834
73727	12,69	-3,0077	23,463	9,2072
73728	12,244	-3,5115	23,215	9,276
73729	12,157	-3,0235	19,196	8,8362
73730	12,359	-3,0214	19,877	8,8848
73731	11,926	-3,5164	19,626	8,8862
73732	6,9515	-3,0183	11,003	7,6021
73733	6,7521	-3,0208	10,313	7,6206
73734	6,5174	-3,5279	10,74	7,5339
73735	12,282	-3,0167	22,104	9,1252
73736	12,097	-3,0095	21,417	9,0759
73737	11,853	-3,5128	21,85	9,158
73738	7,7696	-3,0539	11,583	7,7478
73739	7,5867	-3,0215	10,886	7,754
73740	7,3538	-3,5235	11,303	7,674
73741	7,9496	-3,0831	12,284	7,7661
73742	8,169	-3,0525	12,939	7,8096
73743	7,7275	-3,5577	12,69	7,7177
73744	12,96	-3,0077	21,918	9,0224
73745	13,15	-3,0142	22,601	9,0381
73746	12,711	-3,5115	22,357	9,1043
73747	8,6152	-3,0551	12,127	7,9207
73748	8,3945	-3,0975	11,494	7,9017
73749	8,1687	-3,5654	11,882	7,8313
73750	8,8346	-3,0245	12,782	7,9596
73751	9,0396	-3,0221	13,447	8,0056
73752	8,6014	-3,5252	13,199	7,9129
73753	7,3873	-3,0241	10,196	7,774
73754	7,2169	-3,0276	9,5073	7,8219
73755	6,9546	-3,5284	9,9224	7,7115
73756	9,2845	-3,0221	11,974	8,0911
73757	9,4919	-3,0156	12,627	8,1114
73758	9,0433	-3,5322	12,397	8,0191
73759	8,2116	-3,0651	10,798	7,9093
73760	8,0474	-3,0299	10,098	7,9453
73761	7,7817	-3,5327	10,512	7,8378
73762	11,088	-3,0312	18,016	8,6747
73763	10,891	-3,0343	17,339	8,5925
73764	10,66	-3,5254	17,764	8,625
73765	9,0638	-3,0646	11,342	8,0759
73766	8,8443	-3,1247	10,74	8,0768
73767	8,6127	-3,5778	11,113	7,9868
73768	11,954	-3,0262	18,516	8,7638
73769	11,755	-3,0289	17,841	8,7055
73770	11,52	-3,5211	18,269	8,7376
73771	7,877	-3,0335	9,4088	7,9936
73772	7,8903	-2,9984	8,65	8,1182
73773	7,4591	-3,5295	9,1019	7,9417
73774	9,9449	-3,0165	11,82	8,2636
73775	9,7421	-3,0269	11,181	8,2683
73776	9,4931	-3,5372	11,612	8,171
73777	8,6354	-3,1144	9,2977	8,2077
73778	8,6801	-3,0895	10,04	8,1123
73779	8,2329	-3,5438	9,7469	8,0413
73780	12,624	-3,024	18,337	8,7718
73781	12,823	-3,0217	19,014	8,8023
73782	12,389	-3,5175	18,765	8,8033
73783	9,173	-3,2022	8,7867	8,4448
73784	9,3581	-3,1972	9,2199	8,4187
73785	8,6487	-3,0793	8,5389	8,3348
73786	8,8318	-3,6162	9,0039	8,3125
73787	9,6968	-3,0132	13,292	8,152
73788	9,8999	-3,0138	13,957	8,1981
73789	9,456	-3,5259	13,717	8,1079
73790	9,6505	-3,2129	8,863	8,5703
73791	9,3394	-3,148	8,4369	8,5553
73792	9,3413	-3,6591	8,7338	8,5073
73793	10,152	-3,01	12,473	8,2791
73794	10,357	-3,0079	13,128	8,2989
73795	9,9133	-3,5208	12,9	8,2108
73796	12,566	-3,0103	20,554	8,9444
73797	12,775	-3,0005	21,231	8,9757
73798	12,332	-3,5038	20,984	9,0097
73799	10,608	-3,0255	11,677	8,4508
73800	10,814	-3,0112	12,311	8,4477
73801	10,372	-3,52	12,097	8,3607
73802	13,026	-3,0195	19,694	8,8468
73803	13,236	-3,0096	20,369	8,8625
73804	12,793	-3,5135	20,125	8,8957
73805	9,5226	-3,0871	10,579	8,2725
73806	9,4027	-3,1724	9,9626	8,3223
73807	9,0616	-3,604	10,38	8,1781
73808	10,56	-3,0085	13,793	8,339
73809	10,761	-3,0114	14,459	8,3792
73810	10,32	-3,5211	14,221	8,2982
73811	10,199	-3,0861	10,458	8,4762
73812	10,405	-3,0359	11,038	8,4593
73813	9,9575	-3,548	10,853	8,3662
73814	10,079	-3,1714	9,8414	8,5283
73815	9,8355	-3,2079	9,2963	8,549
73816	9,6614	-3,6429	9,6329	8,4493
73817	11,019	-3,0092	12,966	8,4619
73818	11,22	-3,0088	13,624	8,4758
73819	10,782	-3,5108	13,392	8,3971
73820	10,869	-3,1144	10,32	8,6876
73821	10,642	-3,189	9,8104	8,7034
73822	10,815	-2,9145	9,8895	8,7417
73823	10,423	-3,6105	10,151	8,5894
73824	11,075	-3,0643	10,9	8,6683
73825	11,274	-3,0312	11,513	8,6417
73826	10,832	-3,5413	11,323	8,5528
73827	5,0661	-3,2343	40,094	19,712
73828	5,2603	-3,1907	40,845	20,515
73829	4,5258	-3,0946	39,959	19,76
73830	4,9202	-3,6494	40,607	20,66
73831	11,746	-3,0764	10,726	8,883
73832	11,531	-3,1668	10,202	8,9098
73833	11,261	-2,8877	10,081	8,8419
73834	11,303	-3,5749	10,559	8,7898
73835	11,558	-3,032	17,164	8,6289
73836	11,361	-3,0235	16,484	8,5678
73837	11,126	-3,5257	16,916	8,5792
73838	11,481	-3,0169	12,146	8,6335
73839	11,684	-3,0088	12,793	8,6223
73840	11,243	-3,52	12,582	8,5434
73841	12,426	-3,0267	17,662	8,7186
73842	12,222	-3,0304	16,986	8,6804
73843	11,992	-3,5215	17,415	8,6924
73844	11,945	-3,0433	11,339	8,8515
73845	12,149	-3,0199	11,968	8,8177
73846	11,71	-3,5228	11,769	8,7387
73847	13,296	-3,0223	18,155	8,7575
73848	13,093	-3,025	17,48	8,747
73849	12,862	-3,5179	17,91	8,7588
73850	5,3946	-3,2334	39,279	18,363
73851	5,5344	-3,2518	39,825	18,826
73852	4,6814	-3,12	39,474	18,938
73853	5,2599	-3,6885	39,674	18,988
73854	12,37	-3,145	10,607	9,0906
73855	12,615	-3,0545	11,157	9,0594
73856	12,177	-3,5613	11,	8,9736
73857	11,829	-3,0109	15,629	8,5882
73858	12,025	-3,0219	16,306	8,6254
73859	11,591	-3,515	16,061	8,5764
73860	5,7945	-3,2025	38,578	17,281
73861	5,9832	-3,1826	39,159	17,644
73862	5,9688	-2,9824	38,92	17,448
73863	5,6122	-3,6677	38,928	17,821
73864	13,495	-3,02	18,832	8,7835
73865	13,702	-3,0105	19,505	8,782
73866	13,26	-3,5145	19,263	8,8148
73867	13,444	-2,9997	21,047	8,8909
73868	13,643	-3,	21,727	8,8903
73869	13,2	-3,5028	21,482	8,9565
73870	11,421	-3,0117	14,29	8,5097
73871	11,625	-3,0108	14,956	8,5394
73872	11,181	-3,519	14,719	8,4716
73873	14,173	-3,012	18,642	8,7373
73874	13,965	-3,0205	17,972	8,7583
73875	13,732	-3,5144	18,401	8,7703
73876	13,913	-3,0006	20,18	8,7942
73877	14,107	-3,006	20,861	8,7786
73878	13,672	-3,5022	20,616	8,8432
73879	11,886	-3,0085	13,45	8,6299
73880	12,087	-3,0109	14,115	8,6324
73881	11,648	-3,5119	13,882	8,5672
73882	14,38	-3,0025	19,315	8,7319
73883	14,573	-3,0068	19,996	8,6986
73884	14,14	-3,5036	19,751	8,7634
73885	10,398	-3,2255	9,2653	8,7218
73886	10,064	-3,1379	8,758	8,7126
73887	9,9919	-3,6634	9,0832	8,6373
73888	14,849	-3,0033	18,449	8,7061
73889	15,047	-3,0083	19,127	8,6519
73890	14,609	-3,505	18,886	8,719
73891	11,303	-3,2414	9,6926	8,9264
73892	10,974	-3,1625	9,1564	8,9236
73893	11,033	-2,9623	9,5714	8,865
73894	10,872	-3,6681	9,4939	8,8364
73895	12,553	-3,0129	13,276	8,7758
73896	12,353	-3,0118	12,615	8,8004
73897	12,116	-3,5085	13,049	8,7124
73898	12,154	-3,2355	10,084	9,1192
73899	11,887	-3,1892	9,5303	9,1467
73900	11,477	-2,9669	9,7717	8,9659
73901	11,738	-3,6649	9,8851	9,0365
73902	12,291	-3,0101	14,781	8,6556
73903	12,488	-3,0234	15,454	8,6676
73904	12,051	-3,5154	15,212	8,6196
73905	13,012	-3,2111	10,479	9,3019
73906	12,776	-3,2225	9,8734	9,3604
73907	12,604	-3,6437	10,281	9,2301
73908	12,684	-3,0343	16,131	8,6987
73909	12,889	-3,0287	16,804	8,7144
73910	12,453	-3,5232	16,559	8,6887
73911	12,958	-3,0099	14,601	8,7585
73912	12,754	-3,0154	13,94	8,7719
73913	12,515	-3,5179	14,368	8,7113
73914	13,155	-3,0232	15,274	8,7641
73915	13,353	-3,0329	15,947	8,7544
73916	12,918	-3,5268	15,705	8,7302
73917	5,9888	-3,2375	37,612	16,249
73918	6,3058	-3,1992	38,218	16,529
73919	6,1957	-2,9776	38,549	16,897
73920	5,6559	-2,9377	37,893	16,645
73921	5,9774	-3,6553	38,139	16,731
73922	13,831	-3,0076	15,086	8,8431
73923	13,627	-3,0123	14,422	8,8783
73924	13,388	-3,5146	14,851	8,82
73925	6,1162	-3,0943	36,59	15,404
73926	6,3905	-3,2703	37,181	15,626
73927	5,6233	-2,9774	37,3	16,183
73928	6,0305	-3,6729	37,037	15,779
73929	13,558	-3,0272	16,62	8,7643
73930	13,762	-3,0232	17,296	8,7527
73931	13,327	-3,5189	17,05	8,755
73932	6,5478	-2,9463	35,591	14,56
73933	6,7737	-2,9649	36,312	14,824
73934	6,156	-3,4524	36,052	15,022
73935	14,029	-3,0173	15,759	8,8272
73936	14,227	-3,0254	16,437	8,7906
73937	13,791	-3,5209	16,192	8,7949
73938	14,641	-3,0118	17,779	8,7314
73939	14,431	-3,0214	17,113	8,7739
73940	14,199	-3,5153	17,543	8,7656
73941	14,502	-3,0074	14,902	8,9381
73942	14,702	-3,0155	15,574	8,8752
73943	14,264	-3,5105	15,333	8,8818
73944	15,318	-3,0029	17,584	8,7198
73945	15,516	-3,0083	18,264	8,6432
73946	15,08	-3,5045	18,021	8,7126
73947	13,423	-3,0178	13,761	8,898
73948	13,224	-3,0168	13,097	8,9396
73949	12,982	-3,5252	13,537	8,8524
73950	7,0392	-2,9557	34,569	13,775
73951	7,2823	-2,9859	35,285	13,978
73952	6,7557	-3,4667	35,016	14,129
73953	14,298	-3,0121	14,238	8,9793
73954	14,092	-3,0365	13,591	9,0399
73955	13,858	-3,5193	14,013	8,9582
73956	7,5376	-2,9428	33,681	13,158
73957	7,7251	-2,9329	34,376	13,338
73958	7,2585	-3,4451	34,125	13,471
73959	14,967	-3,0271	14,061	9,0962
73960	15,17	-3,0192	14,722	9,0071
73961	14,733	-3,5134	14,486	9,0166
73962	8,0787	-2,9654	32,808	12,593
73963	8,2672	-2,9553	33,501	12,741
73964	7,8147	-3,4647	33,25	12,868
73965	12,82	-3,0311	11,787	9,0199
73966	13,023	-3,0157	12,436	8,9705
73967	12,584	-3,5207	12,23	8,9059
73968	8,5961	-2,9832	31,938	12,093
73969	8,7838	-2,9737	32,633	12,217
73970	8,34	-3,48	32,378	12,339
73971	13,258	-3,1206	11,029	9,2686
73972	13,493	-3,0346	11,608	9,2149
73973	13,055	-3,5452	11,429	9,1464
73974	9,0945	-2,9976	31,067	11,646
73975	9,2861	-2,9893	31,763	11,75
73976	8,8501	-3,4921	31,506	11,865
73977	15,108	-3,0124	16,918	8,7669
73978	14,9	-3,0236	16,253	8,8332
73979	14,665	-3,5161	16,685	8,803
73980	9,5715	-3,0068	30,204	11,247
73981	9,7698	-3,0012	30,892	11,331
73982	9,3379	-3,5018	30,635	11,442
73983	13,923	-3,1698	10,905	9,4696
73984	13,681	-3,1913	10,268	9,5538
73985	13,498	-3,6234	10,688	9,4139
73986	10,042	-3,0103	29,343	10,884
73987	10,239	-3,0066	30,034	10,956
73988	9,8055	-3,5067	29,778	11,065
73989	15,788	-3,002	16,721	8,7758
73990	15,992	-3,0011	17,391	8,6748
73991	15,55	-3,5043	17,157	8,7472
73992	10,518	-3,0108	28,481	10,547
73993	10,71	-3,0077	29,165	10,608
73994	10,28	-3,5077	28,91	10,713
73995	13,893	-3,0355	12,928	9,0873
73996	13,697	-3,0192	12,257	9,1596
73997	13,459	-3,515	12,695	9,0468
73998	10,991	-3,0108	27,617	10,237
73999	11,188	-3,0081	28,305	10,287
74000	10,758	-3,5077	28,053	10,391
74001	14,761	-3,0515	13,414	9,1624
74002	14,567	-3,0362	12,752	9,2549
74003	14,327	-3,5422	13,186	9,1451
74004	15,371	-3,0272	15,394	8,9389
74005	15,579	-3,0131	16,055	8,847
74006	15,137	-3,5186	15,823	8,8858
74007	11,463	-3,0113	26,75	9,9527
74008	11,659	-3,0087	27,433	9,992
74009	11,226	-3,5079	27,182	10,094
74010	15,638	-3,0392	13,877	9,1884
74011	15,439	-3,0469	13,225	9,3057
74012	15,203	-3,5322	13,648	9,2004
74013	15,842	-3,0313	14,538	9,0938
74014	16,046	-3,0251	15,207	8,9722
74015	15,607	-3,5211	14,969	9,0158
74016	11,934	-3,0119	25,882	9,6931
74017	12,133	-3,0097	26,569	9,7218
74018	11,701	-3,5085	26,319	9,8221
74019	16,318	-3,0347	13,684	9,3008
74020	16,519	-3,0284	14,347	9,1494
74021	16,08	-3,524	14,11	9,1977
74022	12,406	-3,0124	25,014	9,4579
74023	12,598	-3,0101	25,696	9,4776
74024	12,168	-3,5089	25,446	9,5754
74025	16,255	-3,011	15,868	8,8756
74026	16,462	-3,0004	16,527	8,7495
74027	16,02	-3,5041	16,296	8,8254
74028	12,89	-3,0063	24,147	9,2449
74029	13,079	-3,0103	24,83	9,2539
74030	12,645	-3,5087	24,581	9,3519
74031	16,724	-3,0222	15,017	9,0228
74032	16,929	-3,0187	15,682	8,867
74033	16,487	-3,5153	15,448	8,9483
74034	13,363	-3,0064	23,278	9,0606
74035	13,57	-2,9992	23,958	9,0521
74036	13,127	-3,5024	23,712	9,1524
74037	14,159	-3,0839	11,483	9,4135
74038	14,371	-3,02	12,081	9,3332
74039	13,934	-3,5311	11,88	9,2885
74040	13,833	-3,0065	22,41	8,904
74041	14,025	-3,0105	23,091	8,8863
74042	13,589	-3,5086	22,846	8,9841
74043	14,809	-3,0781	11,347	9,5945
74044	14,693	-3,1209	10,642	9,751
74045	14,784	-2,8121	10,986	9,6856
74046	14,404	-3,5907	11,114	9,5659
74047	15,021	-3,0142	11,945	9,511
74048	15,244	-3,0316	12,562	9,4044
74049	14,812	-3,5218	12,342	9,3893
74050	14,305	-3,0062	21,541	8,7756
74051	14,502	-3,0042	22,22	8,742
74052	14,068	-3,5028	21,976	8,8397
74053	15,704	-3,0096	11,767	9,6835
74054	15,507	-3,0307	11,15	9,8231
74055	15,209	-2,7479	11,209	9,7309
74056	15,267	-3,5222	11,55	9,6687
74057	14,767	-3,0122	20,677	8,6801
74058	14,972	-3,0104	21,352	8,6284
74059	14,535	-3,5077	21,109	8,7279
74060	16,119	-3,0424	13,033	9,4237
74061	15,927	-3,027	12,384	9,5719
74062	15,682	-3,5355	12,807	9,439
74063	15,24	-3,0126	19,809	8,6153
74064	15,446	-3,0062	20,482	8,5449
74065	15,	-3,5089	20,246	8,6479
74066	16,993	-3,0307	13,49	9,3803
74067	16,795	-3,0366	12,83	9,5635
74068	16,56	-3,5263	13,263	9,4314
74069	15,715	-3,0133	18,942	8,5854
74070	15,919	-3,0115	19,614	8,4954
74071	15,48	-3,5087	19,374	8,5996
74072	17,194	-3,0243	14,153	9,2238
74073	17,403	-3,0201	14,82	9,0361
74074	16,962	-3,517	14,588	9,1226
74075	16,19	-3,0065	18,071	8,5941
74076	16,389	-3,0124	18,751	8,4815
74077	15,949	-3,51	18,513	8,5892
74078	16,602	-3,0212	12,181	9,7179
74079	16,412	-3,029	11,531	9,8986
74080	16,172	-3,5144	11,963	9,7349
74081	16,667	-2,9995	17,196	8,6444
74082	16,87	-2,9998	17,868	8,5067
74083	16,429	-3,5015	17,635	8,6186
74084	17,667	-3,0251	13,287	9,4822
74085	17,87	-3,0211	13,947	9,2626
74086	17,429	-3,5182	13,721	9,3527
74087	17,137	-3,0081	16,34	8,737
74088	17,342	-3,	17,001	8,5738
74089	16,901	-3,5029	16,771	8,6904
74090	17,469	-3,0311	12,626	9,6711
74091	17,276	-3,037	11,965	9,8897
74092	17,034	-3,527	12,4	9,7262
74093	17,608	-3,0166	15,485	8,876
74094	17,812	-3,0153	16,148	8,6831
74095	17,371	-3,5122	15,917	8,8056
74096	18,145	-3,0244	12,417	9,8033
74097	18,346	-3,0208	13,082	9,5454
74098	17,908	-3,5182	12,854	9,642
74099	18,079	-3,0169	14,613	9,0701
74100	18,286	-3,0067	15,277	8,8441
74101	17,846	-3,5123	15,053	8,9714
74102	18,622	-3,0217	11,538	10,197
74103	18,822	-3,0185	12,208	9,8964
74104	17,952	-3,0302	11,757	10,028
74105	18,386	-3,5176	11,98	9,9988
74106	18,549	-3,0168	13,742	9,3208
74107	18,755	-3,0152	14,408	9,0588
74108	18,313	-3,5125	14,174	9,1963
74109	19,092	-3,0185	10,638	10,681
74110	19,295	-3,0126	11,319	10,329
74111	18,423	-3,0279	10,875	10,46
74112	18,858	-3,5152	11,093	10,434
74113	19,024	-3,0149	12,872	9,6329
74114	19,229	-3,0029	13,541	9,3307
74115	18,788	-3,5119	13,31	9,4751
74116	19,494	-3,0587	9,7692	11,224
74117	19,768	-3,	10,437	10,843
74118	18,876	-3,0269	9,9713	10,982
74119	19,313	-3,5152	10,181	10,968
74120	19,496	-3,0094	11,989	10,021
74121	19,699	-3,0105	12,667	9,672
74122	19,264	-3,5091	12,434	9,824
74123	19,801	-3,1154	8,7639	11,929
74124	20,171	-3,0828	9,5521	11,455
74125	19,246	-3,1029	9,1903	11,5
74126	19,684	-3,5583	9,3069	11,556
74127	19,972	-2,9942	11,118	10,483
74128	20,169	-3,0022	11,777	10,096
74129	19,731	-3,505	11,542	10,256
74130	20,445	-3,0241	10,22	11,066
74131	20,639	-2,9856	10,895	10,608
74132	20,198	-3,4959	10,663	10,768
74133	20,304	-3,1147	8,3109	12,403
74134	20,154	-3,1307	7,7057	12,836
74135	19,572	-3,1064	8,024	12,364
74136	19,969	-3,5881	8,1995	12,397
74137	20,674	-3,0821	9,0991	11,885
74138	21,026	-3,0302	9,3185	11,798
74139	21,096	-3,036	9,9748	11,261
74140	20,665	-3,5431	9,6674	11,479
74141	5,7286	-3,2081	40,576	19,682
74142	5,9896	-3,2228	41,314	19,994
74143	4,8756	-3,0763	40,224	19,648
74144	6,1239	-2,9704	40,887	19,455
74145	5,6128	-3,6232	41,118	20,578
74146	21,023	-3,047	8,6699	12,304
74147	20,877	-3,117	7,9839	12,899
74148	20,675	-3,5703	8,4491	12,428
74149	20,524	-3,1337	6,7736	13,81
74150	20,728	-3,1331	7,3787	13,361
74151	19,952	-3,1196	7,0934	13,205
74152	20,367	-3,5951	7,2441	13,318
74153	20,805	-3,0873	5,8817	14,894
74154	21,092	-3,1386	6,4608	14,521
74155	20,267	-3,1255	6,1546	14,173
74156	20,671	-3,6007	6,3062	14,365
74157	21,581	-3,0049	8,4678	12,659
74158	21,728	-2,9932	9,131	12,022
74159	21,364	-3,5135	8,8455	12,247
74160	6,123	-3,2009	39,705	18,146
74161	6,2717	-3,3043	40,333	18,487
74162	4,9942	-3,1121	39,69	18,812
74163	6,2425	-3,0061	40,352	18,552
74164	5,9199	-3,6779	40,117	18,856
74165	21,353	-3,0357	5,6533	15,758
74166	20,569	-3,0741	5,259	15,237
74167	20,974	-3,5497	5,4179	15,575
74168	21,436	-3,0749	7,7818	13,269
74169	21,296	-3,1379	7,0658	14,031
74170	21,082	-3,5994	7,5236	13,417
74171	6,4945	-3,1794	38,798	16,919
74172	6,6943	-3,1973	39,508	17,234
74173	6,5183	-2,9632	40,016	17,915
74174	6,3844	-2,9578	39,13	17,289
74175	6,4034	-3,622	39,335	17,502
74176	22,011	-3,0713	7,525	13,895
74177	22,16	-3,0482	8,2041	13,064
74178	21,8	-3,5269	8,0018	13,203
74179	6,7075	-3,2321	37,786	15,923
74180	6,9597	-3,1614	38,488	16,168
74181	6,4801	-2,9791	38,56	16,715
74182	5,9403	-2,9392	37,905	16,431
74183	6,6332	-3,6344	38,27	16,364
74184	21,872	-3,1343	6,809	14,687
74185	21,64	-3,087	6,2324	15,344
74186	21,51	-3,6049	6,6156	14,692
74187	22,475	-3,1235	6,5757	15,673
74188	22,631	-3,1083	7,2519	14,52
74189	22,241	-3,5934	7,0077	14,694
74190	22,244	-3,0762	5,9991	16,354
74191	21,792	-3,539	5,8105	16,122
74192	7,048	-3,1409	36,902	15,072
74193	7,318	-3,1498	37,572	15,234
74194	6,0576	-2,9705	37,462	16,015
74195	6,8912	-3,6433	37,328	15,467
74196	23,113	-3,0674	6,4582	16,303
74197	22,965	-2,8429	6,0409	17,324
74198	22,686	-3,5881	6,1557	16,614
74199	7,5081	-3,0045	36,006	14,263
74200	7,7342	-3,0181	36,704	14,434
74201	7,2477	-3,4968	36,406	14,649
74202	7,9681	-2,9631	35,092	13,558
74203	8,1952	-2,9708	35,78	13,69
74204	7,7006	-3,4733	35,527	13,91
74205	8,4547	-2,9453	34,196	12,933
74206	8,6602	-2,9442	34,888	13,051
74207	8,1862	-3,4492	34,636	13,245
74208	8,9723	-2,9636	33,326	12,374
74209	9,1685	-2,9594	34,018	12,473
74210	8,7144	-3,4647	33,763	12,645
74211	9,4738	-2,9797	32,459	11,881
74212	9,6742	-2,9737	33,15	11,959
74213	9,224	-3,478	32,897	12,122
74214	9,9613	-2,9929	31,588	11,44
74215	10,164	-2,9865	32,28	11,503
74216	9,7198	-3,4894	32,027	11,656
74217	10,438	-3,001	30,722	11,044
74218	10,639	-2,9962	31,41	11,095
74219	10,201	-3,498	31,155	11,238
74220	23,269	-3,0521	7,1344	15,17
74221	23,892	-3,0304	6,9168	15,806
74222	23,362	-2,7911	6,3511	16,925
74223	23,487	-3,5193	6,6928	16,124
74224	10,908	-3,004	29,856	10,684
74225	11,113	-3,0004	30,545	10,722
74226	10,675	-3,502	30,294	10,862
74227	22,78	-3,0852	7,931	13,669
74228	23,434	-3,068	7,7351	14,086
74229	23,03	-3,561	7,5062	14,346
74230	11,381	-3,005	28,989	10,351
74231	11,583	-3,0017	29,675	10,38
74232	11,144	-3,503	29,421	10,516
74233	22,307	-3,0365	8,8673	12,41
74234	22,949	-3,06	8,6121	12,738
74235	22,539	-3,5567	8,3716	12,989
74236	11,857	-3,006	28,122	10,044
74237	12,059	-3,0026	28,807	10,062
74238	11,621	-3,5036	28,558	10,196
74239	21,799	-2,999	9,7874	11,477
74240	22,475	-3,0045	9,5606	11,675
74241	22,066	-3,5029	9,3343	11,897
74242	12,33	-3,0071	27,252	9,7626
74243	12,533	-3,0038	27,936	9,7702
74244	12,095	-3,5045	27,687	9,902
74245	21,29	-2,9976	10,649	10,794
74246	21,963	-3,	10,436	10,904
74247	21,539	-3,506	10,194	11,137
74248	12,798	-3,0078	26,383	9,5072
74249	13,001	-3,0046	27,066	9,5042
74250	12,567	-3,5053	26,819	9,6333
74251	20,836	-2,9937	11,554	10,214
74252	21,511	-2,9904	11,34	10,271
74253	21,066	-3,4909	11,097	10,498
74254	13,271	-3,008	25,512	9,2739
74255	13,469	-3,0047	26,194	9,2611
74256	13,03	-3,5055	25,948	9,3913
74257	20,372	-3,0033	12,455	9,7413
74258	21,05	-3,0001	12,245	9,7544
74259	20,607	-3,4999	12,006	9,9712
74260	13,759	-3,0033	24,641	9,0606
74261	13,949	-3,005	25,323	9,0383
74262	13,514	-3,5054	25,077	9,1672
74263	19,905	-2,9985	13,335	9,3653
74264	20,581	-3,0082	13,13	9,3451
74265	20,138	-3,5052	12,897	9,5499
74266	14,233	-3,0034	23,77	8,8769
74267	14,432	-3,0006	24,45	8,8385
74268	13,997	-3,5006	24,205	8,9679
74269	19,436	-3,0013	14,206	9,0648
74270	20,112	-2,9909	14,001	9,0193
74271	19,674	-3,4974	13,774	9,212
74272	14,694	-3,0082	22,902	8,7228
74273	14,897	-3,0059	23,58	8,6693
74274	14,461	-3,5054	23,336	8,8003
74275	18,962	-3,005	15,072	8,8289
74276	19,641	-3,0135	14,875	8,7588
74277	19,199	-3,5098	14,641	8,9457
74278	15,168	-3,0084	22,031	8,5929
74279	15,375	-3,0034	22,707	8,5224
74280	14,929	-3,5059	22,468	8,6582
74281	18,489	-3,0055	15,941	8,6474
74282	19,166	-2,9978	15,735	8,5622
74283	18,727	-3,5017	15,51	8,7363
74284	15,65	-3,0044	21,157	8,491
74285	15,846	-3,0069	21,837	8,406
74286	15,409	-3,5061	21,596	8,5415
74287	18,017	-3,0073	16,808	8,5166
74288	18,694	-3,0138	16,615	8,4114
74289	18,253	-3,5106	16,379	8,5807
74290	16,124	-3,0051	20,287	8,4224
74291	16,331	-2,9995	20,96	8,3159
74292	15,888	-3,502	20,722	8,4563
74293	17,545	-3,0004	17,673	8,4328
74294	18,221	-3,0065	17,48	8,3127
74295	17,781	-3,5027	17,243	8,474
74296	16,593	-3,0106	19,422	8,3887
74297	16,796	-3,009	20,095	8,2624
74298	16,357	-3,5072	19,855	8,4056
74299	17,069	-3,0058	18,548	8,3907
74300	17,748	-3,0009	18,345	8,257
74301	17,307	-3,5024	18,113	8,4109
74302	17,269	-3,0102	19,226	8,2407
74303	16,829	-3,5081	18,99	8,3891
74304	24,058	-3,0463	7,5175	14,729
74305	24,706	-3,028	7,3035	15,167
74306	24,285	-3,5305	7,0664	15,634
74307	23,603	-3,0428	8,4161	13,155
74308	24,264	-3,0306	8,205	13,457
74309	23,848	-3,5328	7,9744	13,808
74310	23,117	-3,028	9,3055	11,993
74311	23,792	-3,0239	9,097	12,183
74312	23,371	-3,5255	8,8694	12,492
74313	22,639	-3,0055	10,209	11,094
74314	23,312	-3,0083	9,9925	11,203
74315	22,869	-3,5103	9,7545	11,507
74316	22,183	-2,9928	11,127	10,375
74317	22,855	-2,9914	10,906	10,419
74318	22,415	-3,4973	10,67	10,713
74319	21,725	-2,9968	12,031	9,8058
74320	22,398	-2,9943	11,814	9,7948
74321	21,954	-3,4952	11,579	10,079
74322	21,26	-3,005	12,919	9,3541
74323	21,934	-3,0029	12,71	9,2998
74324	21,492	-3,5008	12,473	9,5753
74325	20,789	-3,0007	13,795	8,9958
74326	21,465	-3,0096	13,589	8,9104
74327	21,026	-3,506	13,359	9,1707
74328	20,318	-3,0031	14,67	8,7102
74329	20,992	-2,9934	14,46	8,604
74330	20,552	-3,4979	14,231	8,8519
74331	19,845	-3,0064	15,538	8,4893
74332	20,521	-3,0139	15,338	8,3602
74333	20,083	-3,5102	15,109	8,5965
74334	6,1494	-3,2508	42,006	20,386
74335	6,2504	-3,1616	42,647	20,406
74336	5,6745	-3,1687	43,008	22,637
74337	5,897	-3,6433	42,497	21,403
74338	19,37	-3,0062	16,409	8,3232
74339	20,046	-2,9993	16,201	8,181
74340	19,608	-3,5029	15,974	8,4053
74341	6,5327	-3,3191	41,072	18,871
74342	6,6961	-3,201	41,723	18,861
74343	6,5034	-3,0208	41,091	18,932
74344	6,3452	-3,6818	41,542	19,583
74345	18,897	-3,013	17,286	8,2048
74346	19,573	-3,0131	17,082	8,0468
74347	19,135	-3,51	16,852	8,2621
74348	6,843	-3,3007	40,136	17,623
74349	7,1029	-3,2845	40,87	17,618
74350	6,667	-3,0666	40,644	18,316
74351	6,7156	-3,7311	40,629	18,238
74352	18,424	-3,007	18,152	8,1344
74353	19,099	-3,0121	17,954	7,9628
74354	18,66	-3,5093	17,722	8,1688
74355	7,1595	-3,1793	39,197	16,508
74356	7,3858	-3,1728	39,904	16,598
74357	6,8138	-3,0025	40,155	17,685
74358	6,6799	-2,997	39,27	17,02
74359	7,0441	-3,6619	39,674	16,998
74360	17,949	-3,0054	19,023	8,1045
74361	18,627	-3,0019	18,819	7,921
74362	18,186	-3,5033	18,588	8,1189
74363	7,5702	-3,0792	38,274	15,51
74364	7,7495	-3,0905	39,001	15,666
74365	6,8497	-2,9398	38,82	16,539
74366	7,4176	-3,5788	38,74	15,951
74367	17,472	-3,0086	19,899	8,1122
74368	18,15	-3,0086	19,698	7,9172
74369	17,71	-3,5068	19,464	8,1076
74370	8,0042	-3,027	37,373	14,623
74371	8,2184	-3,0376	38,071	14,721
74372	7,817	-3,5304	37,809	15,019
74373	17,002	-3,0033	20,767	8,1539
74374	17,675	-3,007	20,571	7,9493
74375	17,235	-3,5057	20,336	8,1332
74376	8,4212	-2,9844	36,478	13,881
74377	8,6571	-3,0053	37,177	13,951
74378	8,2022	-3,4994	36,908	14,24
74379	16,527	-3,002	21,639	8,2292
74380	17,209	-2,999	21,439	8,0118
74381	16,766	-3,5007	21,202	8,1907
74382	8,8872	-2,9519	35,576	13,199
74383	9,1092	-2,9746	36,281	13,267
74384	8,6404	-3,4609	36,004	13,528
74385	16,053	-3,0019	22,513	8,3342
74386	16,726	-3,0041	22,317	8,1093
74387	16,285	-3,5037	22,079	8,2829
74388	9,374	-2,9582	34,709	12,604
74389	9,5862	-2,9608	35,4	12,66
74390	9,124	-3,4629	35,143	12,895
74391	15,578	-3,001	23,385	8,468
74392	16,259	-2,9999	23,189	8,2309
74393	15,818	-3,5002	22,948	8,4001
74394	9,8705	-2,9695	33,841	12,069
74395	10,074	-2,9687	34,532	12,118
74396	9,615	-3,4715	34,277	12,332
74397	15,097	-3,0031	24,259	8,6305
74398	15,778	-3,0017	24,064	8,3833
74399	15,335	-3,5023	23,824	8,5497
74400	10,364	-2,9806	32,971	11,59
74401	10,569	-2,9781	33,662	11,628
74402	10,12	-3,4805	33,409	11,822
74403	14,622	-3,0024	25,132	8,8162
74404	15,303	-3,0007	24,938	8,5588
74405	14,86	-3,5017	24,696	8,7227
74406	10,841	-2,9898	32,101	11,164
74407	11,047	-2,9864	32,79	11,192
74408	10,605	-3,4886	32,537	11,371
74409	14,147	-3,0018	26,004	9,0262
74410	14,829	-2,9996	25,812	8,7584
74411	14,386	-3,5011	25,569	8,9205
74412	11,314	-2,9956	31,232	10,778
74413	11,518	-2,9925	31,92	10,797
74414	11,075	-3,4947	31,668	10,969
74415	13,673	-3,0015	26,877	9,2594
74416	14,355	-2,999	26,686	8,981
74417	13,911	-3,5008	26,441	9,1419
74418	11,788	-2,9981	30,363	10,422
74419	11,993	-2,9955	31,049	10,431
74420	11,553	-3,4975	30,798	10,597
74421	13,204	-3,0013	27,749	9,5137
74422	13,881	-2,9989	27,559	9,2261
74423	13,436	-3,5007	27,314	9,3865
74424	12,261	-2,9993	29,493	10,094
74425	12,465	-2,9969	30,179	10,094
74426	12,024	-3,4987	29,93	10,257
74427	12,735	-3,0005	28,622	9,791
74428	13,412	-2,9987	28,433	9,4913
74429	12,973	-3,5004	28,187	9,6502
74430	12,939	-2,9979	29,306	9,7808
74431	12,499	-3,4995	29,058	9,9409
74432	17,085	-3,0447	11,316	10,078
74433	17,753	-3,0364	11,095	10,284
74434	17,523	-3,5268	11,534	10,087
74435	16,882	-3,0533	10,668	10,287
74436	16,215	-3,0501	10,914	10,046
74437	16,654	-3,5383	11,101	10,096
74438	17,549	-3,045	10,447	10,501
74439	18,207	-3,0364	10,209	10,751
74440	17,991	-3,5258	10,659	10,518
74441	17,291	-3,0458	9,7907	10,733
74442	16,69	-3,0267	10,078	10,456
74443	17,105	-3,5367	10,242	10,512
74444	17,949	-3,0372	9,5526	10,993
74445	18,628	-3,0712	9,3924	11,25
74446	18,432	-3,5261	9,7641	11,027
74447	17,023	-3,009	9,1873	10,907
74448	17,707	-3,0439	9,0002	11,208
74449	17,339	-2,691	9,0744	11,055
74450	17,496	-3,5254	9,3581	10,991
74451	16,024	-3,0236	10,324	10,206
74452	15,39	-3,0735	10,444	9,9873
74453	15,482	-2,7648	10,788	9,9185
74454	15,769	-3,536	10,713	10,025
74455	18,385	-3,0779	8,84	11,471
74456	19,018	-3,094	8,4504	11,898
74457	18,83	-3,5636	8,936	11,571
74458	16,422	-2,9899	9,4742	10,617
74459	15,735	-2,971	9,7373	10,309
74460	16,08	-2,6675	9,6156	10,457
74461	16,247	-3,5165	9,8802	10,431
74462	15,102	-3,0209	9,8574	10,088
74463	14,451	-3,1424	10,005	9,8446
74464	15,093	-2,7907	10,503	9,8935
74465	14,947	-3,5702	10,22	9,9488
74466	16,07	-2,9981	8,8215	10,744
74467	16,724	-2,999	8,5625	11,079
74468	16,234	-2,6579	9,1714	10,674
74469	16,891	-2,6624	8,9172	10,989
74470	16,611	-3,5073	9,0079	10,873
74471	15,383	-2,9792	9,0846	10,424
74472	14,719	-2,9855	9,351	10,113
74473	15,547	-2,6389	9,4345	10,36
74474	15,244	-3,4824	9,5088	10,253
74475	17,409	-3,0339	8,3754	11,387
74476	18,082	-3,0331	8,0798	11,785
74477	17,575	-2,6973	8,7301	11,294
74478	17,943	-3,5392	8,5649	11,508
74479	13,445	-3,2027	9,6624	9,6187
74480	14,068	-3,107	9,499	9,8677
74481	13,924	-3,6216	9,8724	9,7337
74482	15,104	-3,0158	8,4513	10,539
74483	15,85	-3,0533	8,1853	10,917
74484	15,728	-2,6757	8,9629	10,577
74485	15,626	-3,5158	8,6206	10,687
74486	13,155	-3,1421	9,1286	9,6561
74487	12,509	-3,1762	9,3201	9,3934
74488	13,013	-3,6457	9,4926	9,5305
74489	14,44	-3,0221	8,7176	10,217
74490	13,778	-3,0465	8,9652	9,9085
74491	14,333	-3,5404	9,1118	10,075
74492	16,505	-3,0541	7,9263	11,265
74493	17,075	-3,0134	7,6641	11,607
74494	17,04	-2,6811	8,4497	11,233
74495	16,947	-3,5242	8,1025	11,378
74496	14,184	-3,025	8,1237	10,299
74497	14,851	-3,0209	7,867	10,641
74498	14,712	-3,5228	8,2806	10,466
74499	13,522	-3,0493	8,3713	9,9821
74500	12,862	-3,0567	8,6047	9,6802
74501	13,406	-3,5632	8,7535	9,8488
74502	15,597	-3,0584	7,601	11,029
74503	16,327	-3,0925	7,3257	11,442
74504	16,14	-3,5669	7,7597	11,208
74505	14,	-3,0761	7,5378	10,407
74506	13,256	-3,0373	7,788	10,041
74507	13,779	-3,5333	7,9467	10,211
74508	11,558	-3,1104	8,9941	9,1462
74509	12,216	-3,0907	8,7962	9,4136
74510	11,617	-2,9101	9,4091	9,0845
74511	12,085	-3,603	9,1548	9,2979
74512	14,666	-3,072	7,281	10,759
74513	15,253	-3,028	7,0239	11,096
74514	15,122	-3,5332	7,44	10,911
74515	11,275	-3,0704	8,4426	9,1666
74516	10,639	-3,0749	8,6491	8,914
74517	11,147	-2,888	9,2355	8,9583
74518	11,15	-3,5773	8,8026	9,0571
74519	11,933	-3,0508	8,2447	9,4375
74520	12,596	-3,0447	8,0214	9,732
74521	12,496	-3,5609	8,3981	9,6122
74522	13,708	-3,0704	6,9626	10,457
74523	14,457	-3,116	6,711	10,855
74524	14,277	-3,5873	7,1177	10,664
74525	11,626	-3,0391	7,6683	9,4619
74526	10,977	-3,0501	7,8934	9,1839
74527	11,509	-3,5462	8,0581	9,3401
74528	12,289	-3,033	7,445	9,7614
74529	12,964	-3,0317	7,2129	10,084
74530	12,867	-3,5538	7,6111	9,9514
74531	10,342	-3,0546	8,0999	8,928
74532	9,7525	-3,073	8,3319	8,6978
74533	10,256	-3,5659	8,4678	8,8339
74534	11,308	-3,0329	7,1122	9,4776
74535	11,968	-3,0206	6,8727	9,7795
74536	11,844	-3,526	7,2798	9,6439
74537	12,643	-3,0193	6,6406	10,107
74538	13,329	-3,0236	6,4033	10,456
74539	13,194	-3,5262	6,8115	10,299
74540	10,659	-3,0439	7,3374	9,1957
74541	10,003	-3,0578	7,5946	8,9252
74542	10,539	-3,5424	7,7378	9,0757
74543	9,4134	-3,0762	7,8266	8,6918
74544	8,8151	-3,0252	8,1891	8,4502
74545	9,3682	-3,5763	8,2314	8,6055
74546	10,365	-3,0618	6,8494	9,2061
74547	10,993	-3,0364	6,5445	9,4908
74548	10,88	-3,5422	6,9817	9,3607
74549	9,7085	-3,0757	7,1066	8,9317
74550	8,9598	-3,1163	7,3776	8,6512
74551	9,1579	-2,857	7,1049	8,7572
74552	9,5584	-3,561	7,4915	8,8106
74553	11,654	-3,0241	6,305	9,7976
74554	12,343	-3,0213	6,0884	10,124
74555	12,208	-3,5233	6,4944	9,9789
74556	10,106	-3,1134	6,2827	9,2354
74557	9,4061	-3,0625	6,6945	8,9248
74558	9,3538	-2,8648	6,7445	8,8992
74559	9,9211	-3,5626	6,7442	9,0842
74560	8,3615	-3,0653	7,7401	8,4053
74561	7,6938	-2,9719	7,8669	8,2056
74562	8,0963	-2,7462	7,8711	8,3082
74563	8,2345	-3,5024	8,2263	8,2859
74564	10,735	-3,088	5,9778	9,5271
74565	11,358	-3,0325	5,7411	9,8158
74566	11,215	-3,533	6,176	9,6677
74567	-1,9847	-2,8008	8,9085	7,1141
74568	-2,7939	-2,8267	8,8693	7,1859
74569	-2,7752	-2,7042	9,082	7,151
74570	-2,2968	-2,3879	9,3643	7,0677
74571	-2,2795	-3,3833	9,274	7,0795
74572	9,7887	-3,1271	5,7461	9,2515
74573	10,517	-3,1301	5,4398	9,5554
74574	10,248	-2,8423	5,1415	9,5154
74575	10,289	-3,5895	5,8688	9,3971
74576	8,6574	-3,1031	6,9654	8,6426
74577	8,0042	-3,1397	7,0431	8,4473
74578	8,1417	-2,8456	7,4191	8,4113
74579	8,6051	-2,9054	7,0154	8,6181
74580	8,4749	-3,5928	7,287	8,5324
74581	-1,4533	-2,8242	8,3181	7,1827
74582	-2,1821	-2,8344	8,2791	7,2353
74583	-2,1057	-2,3964	9,1148	7,0913
74584	-1,5944	-2,5738	8,3898	7,1785
74585	-1,7884	-3,3834	8,6834	7,14
74586	9,0885	-3,0762	6,158	8,9329
74587	8,4096	-3,0275	6,4013	8,6859
74588	8,8556	-2,8437	6,6928	8,7542
74589	8,9241	-3,5301	6,5559	8,8077
74590	6,6022	-2,9975	7,3419	8,0493
74591	7,3364	-3,0463	7,1699	8,2497
74592	7,4739	-2,7522	7,5459	8,2129
74593	7,1128	-3,4908	7,6413	8,1103
74594	8,7675	-3,0888	5,4846	8,9823
74595	9,4028	-3,0687	5,1064	9,2431
74596	8,8516	-2,79	5,2367	9,0477
74597	9,728	-2,826	5,0685	9,3645
74598	9,2755	-3,5665	5,6476	9,107
74599	6,3824	-2,9857	6,7726	8,1097
74600	5,7492	-3,048	6,8741	7,9647
74601	6,272	-2,8268	6,4387	8,1511
74602	6,1714	-3,521	7,1624	7,9962
74603	7,7564	-3,0642	6,479	8,4932
74604	7,1166	-3,0345	6,6006	8,3101
74605	7,7389	-2,8206	7,1741	8,3478
74606	8,2023	-2,8804	6,7704	8,557
74607	7,5883	-3,5724	6,8283	8,3854
74608	-0,6332	-2,8846	7,6774	7,2728
74609	-1,4996	-2,6314	7,5322	7,3296
74610	-0,67569	-2,5587	7,8728	7,2403
74611	-1,2542	-2,5887	8,0489	7,2217
74612	-0,98235	-3,382	8,0451	7,2123
74613	8,0886	-3,0402	5,728	8,7327
74614	7,4804	-3,0056	5,9119	8,5387
74615	8,1727	-2,7414	5,4801	8,7962
74616	8,3573	-2,8298	6,4513	8,6602
74617	7,8533	-2,8216	5,8818	8,637
74618	7,9274	-3,508	6,0976	8,6202
74619	6,8406	-2,9759	6,0335	8,3571
74620	6,1501	-3,0053	6,0667	8,2034
74621	6,5214	-2,7953	6,0691	8,2817
74622	6,6255	-3,4758	6,3914	8,2424
74623	0,37574	-2,9759	6,9343	7,4171
74624	-0,27688	-2,7236	6,9238	7,4164
74625	-0,19577	-2,6042	7,5729	7,291
74626	-0,77426	-2,6342	7,7491	7,2641
74627	-7,0106e-003	-3,4323	7,4156	7,3198
74628	4,7718	-3,1391	6,3118	7,9088
74629	5,5169	-3,0676	6,1682	8,0602
74630	5,8883	-2,8577	6,1706	8,135
74631	5,0579	-2,9039	6,4545	7,9265
74632	5,3428	-3,5485	6,6317	7,9415
74633	7,8193	-3,0932	4,907	8,8222
74634	8,439	-3,0765	4,6997	9,0271
74635	8,3499	-2,768	5,0482	8,9411
74636	8,0304	-2,8482	5,4499	8,7745
74637	8,2778	-3,5369	5,2511	8,8871
74638	-2,9913	-2,8603	8,2399	7,3112
74639	-3,6985	-2,8859	8,1977	7,3975
74640	-3,3934	-2,7385	8,7933	7,2601
74641	-3,3991	-3,4192	8,6919	7,2782
74642	3,7824	-3,1644	5,7902	7,8777
74643	4,4194	-3,1413	5,6658	7,9832
74644	4,4641	-2,9641	6,1602	7,8937
74645	4,2809	-3,6243	6,0455	7,892
74646	-2,2283	-2,6416	7,4932	7,3832
74647	-2,8737	-2,8599	7,5251	7,4327
74648	-2,5419	-3,3975	7,9087	7,3316
74649	7,2112	-3,0586	5,091	8,6267
74650	6,4941	-3,0677	5,3495	8,419
74651	6,7303	-2,8171	5,6997	8,4073
74652	7,4223	-2,8137	5,6339	8,5796
74653	7,0114	-3,4957	5,6019	8,489
74654	1,2504	-3,199	6,125	7,6042
74655	0,5483	-2,8269	6,0613	7,5972
74656	0,85041	-3,5094	6,4644	7,5244
74657	6,8457	-3,1256	4,4351	8,6714
74658	7,4869	-3,0746	4,1182	8,8738
74659	6,8919	-2,878	5,1265	8,5506
74660	6,7585	-2,6078	3,7171	8,7554
74661	7,584	-2,8746	5,0608	8,7229
74662	7,3436	-3,5729	4,5921	8,7619
74663	3,5146	-2,9818	5,1239	7,9737
74664	3,0505	-3,1292	5,2853	7,8955
74665	3,4429	-3,5945	5,5536	7,8862
74666	-3,5809	-2,8855	7,4828	7,5171
74667	-4,3305	-2,8543	7,3336	7,6424
74668	-4,0272	-3,4429	7,8326	7,5081
74669	-1,1432	-2,4704	6,7786	7,4704
74670	-2,1704	-2,6176	6,7836	7,5208
74671	-1,8136	-3,1617	7,1383	7,4277
74672	5,8035	-3,097	5,3826	8,2703
74673	5,1646	-3,0699	5,5222	8,1319
74674	6,0397	-2,8464	5,7328	8,2553
74675	5,2093	-2,8926	6,0167	8,0422
74676	5,6699	-3,5266	5,7774	8,1724
74677	-2,8158	-2,8359	6,8155	7,5679
74678	-3,6673	-2,7959	6,5811	7,703
74679	-3,1975	-3,3951	7,127	7,545
74680	6,1286	-3,1347	4,6936	8,4629
74681	5,4876	-3,0634	4,8021	8,3216
74682	6,1749	-2,8871	5,385	8,3454
74683	5,98	-3,5806	5,0114	8,379
74684	-0,10432	-2,5746	6,0508	7,5948
74685	-0,83296	-2,5994	6,018	7,6123
74686	-0,31938	-2,3977	7,1191	7,3792
74687	-0,47348	-3,2421	6,2971	7,55
74688	1,2168	-3,2244	5,2857	7,7695
74689	2,1551	-3,2526	5,3834	7,8019
74690	1,5248	-3,7154	5,7366	7,6963
74691	0,51464	-2,8523	5,222	7,7645
74692	-0,24078	-2,7824	5,1484	7,7755
74693	8,6735e-002	-3,2954	5,6165	7,6844
74694	5,8901	-3,0404	4,0943	8,523
74695	6,6339	-3,0668	3,5988	8,7438
74696	6,3648	-2,8841	5,0438	8,4406
74697	6,2314	-2,6138	3,6344	8,6529
74698	6,3349	-3,5524	4,256	8,5867
74699	4,1516	-2,9588	4,9995	8,0779
74700	4,8487	-3,0362	4,9417	8,1848
74701	4,7056	-2,9061	5,8085	7,9955
74702	4,6856	-3,5531	5,2853	8,1004
74703	-1,8601	-2,7467	6,0231	7,6561
74704	-3,0126	-2,8019	6,0421	7,7421
74705	-2,4297	-3,3503	6,4032	7,6191
74706	3,3355	-2,9852	4,3837	8,091
74707	3,8287	-2,9024	4,2706	8,1647
74708	3,7166	-3,4305	4,6762	8,0844
74709	1,1381	-3,1512	4,4513	7,924
74710	0,34808	-3,0556	4,3012	7,9333
74711	0,76064	-3,5357	4,8274	7,848
74712	-0,96942	-2,8072	5,1157	7,7945
74713	-1,776	-2,7157	5,124	7,826
74714	-1,4262	-3,2741	5,5305	7,7334
74715	5,2491	-2,9691	4,2028	8,383
74716	4,5259	-2,9798	4,2128	8,2685
74717	5,0574	-3,4948	4,4862	8,3056
74718	2,0765	-3,1794	4,549	7,9534
74719	2,8714	-3,1325	4,5451	8,0124
74720	2,5746	-2,8628	4,292	8,0271
74721	2,5404	-3,5948	5,0528	7,896
74722	4,9688	-2,967	3,4183	8,4629
74723	5,6198	-2,9457	3,2122	8,5972
74724	5,8029	-2,5225	3,3763	8,6182
74725	5,3799	-2,8587	3,3739	8,5309
74726	5,4371	-3,4761	3,6761	8,5072
74727	1,0022	-3,1556	3,6649	8,0513
74728	1,5837	-3,2018	3,6645	8,0732
74729	1,9368	-2,9134	3,8331	8,0713
74730	1,3994	-3,6269	4,0761	8,0023
74731	3,0977	-3,1163	3,5971	8,1928
74732	2,3787	-3,155	3,6607	8,1281
74733	2,7318	-2,8665	3,8292	8,1283
74734	2,9291	-3,5888	4,0405	8,1126
74735	-0,40733	-2,9857	4,2277	7,9464
74736	-1,1873	-2,8011	4,0951	7,9885
74737	-0,74528	-3,4243	4,6577	7,879
74738	-4,417	-2,7647	6,4319	7,8313
74739	-5,0036	-2,8797	6,3449	7,9383
74740	-4,6446	-3,3803	6,9006	7,7764
74741	4,2456	-2,9778	3,4283	8,3517
74742	3,5909	-3,0335	3,4841	8,266
74743	3,9476	-2,807	3,4897	8,3025
74744	4,0639	-3,4502	3,8033	8,2761
74745	-3,8642	-2,7619	5,8077	7,8826
74746	-4,2783	-2,7584	5,6506	7,966
74747	-4,0067	-3,3297	6,1104	7,8428
74748	4,0226	-2,9786	2,4828	8,4454
74749	4,6435	-3,0047	2,5627	8,5212
74750	4,178	-2,8142	3,0618	8,3965
74751	4,8871	-2,8766	2,956	8,5129
74752	4,4812	-3,4908	2,918	8,4607
74753	0,21218	-3,0599	3,5149	8,0627
74754	-0,51419	-2,907	3,1143	8,1168
74755	-0,27384	-2,7172	2,8086	8,1443
74756	-0,12058	-3,5	3,8406	8,013
74757	-2,9285	-2,7709	5,143	7,9082
74758	-3,6064	-2,8465	5,1068	7,9822
74759	-3,3604	-3,3575	5,6318	7,8613
74760	0,27573	-2,994	2,8075	8,1582
74761	0,8246	-3,1703	2,8715	8,1601
74762	7,9596e-002	-2,7385	2,5335	8,1881
74763	0,54308	-3,511	3,2153	8,1116
74764	3,3679	-3,0343	2,5385	8,3613
74765	2,6963	-3,1729	2,7369	8,2818
74766	3,5233	-2,8699	3,1176	8,3114
74767	2,763	-2,8123	2,1328	8,3344
74768	2,8008	-2,8466	3,344	8,2105
74769	3,1923	-3,5545	3,0727	8,2858
74770	1,9773	-3,2116	2,8005	8,219
74771	1,4061	-3,2166	2,8711	8,1814
74772	2,0818	-2,8853	3,4076	8,147
74773	1,8192	-3,619	3,2401	8,1553
74774	3,175	-2,9576	1,4492	8,4448
74775	3,7157	-2,9959	1,5611	8,4948
74776	3,7246	-2,8078	2,5442	8,3964
74777	2,9643	-2,7502	1,5594	8,4236
74778	3,5893	-3,4746	2,0146	8,4485
74779	-2,675	-2,798	4,3454	8,035
74780	-1,9939	-2,7096	4,1034	8,0203
74781	-2,2847	-3,2997	4,6273	7,9546
74782	-4,8649	-2,8734	5,5636	8,0721
74783	-5,5713	-2,9391	5,5833	8,1903
74784	-5,2534	-2,6453	5,6213	8,1195
74785	-5,268	-3,4565	5,9434	8,0661
74786	-0,45064	-2,841	2,4069	8,2135
74787	6,1137e-002	-2,8576	2,0073	8,2439
74788	-0,21029	-2,6513	2,1012	8,2417
74789	1,1111e-002	-3,4303	2,4304	8,2046
74790	-4,0206	-2,8431	4,9498	8,0659
74791	-4,7571	-2,8199	4,8967	8,1819
74792	-4,7872	-2,5572	5,3478	8,0988
74793	-4,209	-2,4433	5,1177	8,0609
74794	-4,3967	-3,3534	5,3093	8,0532
74795	2,5034	-3,0963	1,6476	8,3651
74796	1,8574	-3,3642	1,9202	8,3068
74797	2,2926	-2,8888	1,7578	8,344
74798	2,3304	-2,9231	2,969	8,2164
74799	2,2474	-3,6607	2,3391	8,2953
74800	-3,3529	-2,8737	4,3093	8,1064
74801	-4,054	-2,9113	4,1454	8,2138
74802	-3,8308	-2,5011	4,7774	8,0747
74803	-3,6651	-3,4052	4,5609	8,0974
74804	2,2547	-3,0353	0,66951	8,4121
74805	3,0253	-2,908	0,62235	8,4706
74806	2,5701	-2,7356	1,0435	8,421
74807	2,7589	-3,4855	1,0979	8,4327
74808	-2,7681	-2,764	3,3836	8,1919
74809	-3,4045	-2,9227	3,405	8,2553
74810	-3,1879	-2,5766	3,0853	8,2661
74811	-3,0101	-3,3483	3,8117	8,1595
74812	-1,2941	-2,7224	2,9818	8,1601
74813	-2,087	-2,6755	3,1416	8,1804
74814	-1,645	-3,2762	3,5993	8,0932
74815	1,2862	-3,3692	1,9909	8,2694
74816	0,61	-3,034	2,0714	8,2453
74817	1,0789	-3,5772	2,4901	8,2172
74818	-0,71597	-2,8135	1,7854	8,2661
74819	-0,64678	-2,5856	2,1329	8,2443
74820	-0,90945	-3,3128	2,5272	8,2092
74821	1,6087	-3,3032	0,94215	8,3534
74822	1,0544	-3,1842	1,1064	8,3282
74823	1,9241	-3,0036	1,3161	8,3621
74824	1,3342	-3,1305	1,0758	8,336
74825	1,5442	-3,8066	1,4678	8,3316
74826	-0,2042	-2,83	1,3858	8,2968
74827	0,37817	-2,849	1,1869	8,3043
74828	-0,135	-2,6022	1,7333	8,2747
74829	0,38703	-2,6619	1,2197	8,3034
74830	0,18468	-3,3511	1,6615	8,2779
74831	1,3776	-3,0087	7,3525e-002	8,3689
74832	1,9525	-3,0246	-6,0059e-002	8,3904
74833	2,0439	-2,8278	0,77969	8,3907
74834	1,454	-2,9548	0,53943	8,3648
74835	1,8126	-3,5702	0,42911	8,3889
74836	-2,7464	-2,7115	2,1676	8,3396
74837	-2,8927	-2,4942	2,4599	8,3308
74838	-2,408	-3,272	2,7107	8,2609
74839	-0,3683	-2,8314	0,49249	8,3279
74840	-0,47563	-2,6237	1,4797	8,2947
74841	-0,52732	-3,3678	1,1096	8,3208
74842	0,82329	-2,8897	0,23779	8,3437
74843	0,21407	-2,8504	0,29355	8,3354
74844	0,10674	-2,6427	1,2807	8,3021
74845	1,4896	-2,7088	0,94396	8,3654
74846	0,62878	-2,7025	0,76715	8,331
74847	0,89976	-2,8358	0,70369	8,3396
74848	0,64642	-3,4324	0,72033	8,3354
74849	0,73106	-2,807	-0,68175	8,3306
74850	0,83216	-2,7027	0,27066	8,3428
74851	1,1031	-2,836	0,20721	8,3514
74852	0,60182	-2,6329	-1,0554	8,303
74853	1,0528	-3,4226	-0,32143	8,3556
74854	0,12184	-2,7677	-0,62598	8,3223
74855	-0,53993	-2,7649	-0,45407	8,3399
74856	-0,2991	-2,6035	0,84	8,3056
74857	-7,3987e-003	-2,5936	-0,99959	8,2947
74858	-0,154	-3,3545	-9,0123e-002	8,3416
74859	2,4836e-003	-2,7121	-1,5041	8,2763
74860	0,64929	-2,7743	-1,7543	8,2552
74861	0,30621	-2,55	-1,4784	8,2783
74862	0,3708	-3,3176	-1,1099	8,3091
74863	-0,65929	-2,7094	-1,3321	8,2938
74864	-1,203	-2,6779	-1,1782	8,3234
74865	-0,64726	-2,5573	0,53311	8,3065
74866	-0,35556	-2,5473	-1,3065	8,2956
74867	-0,87443	-3,2956	-0,7746	8,3383
74868	-0,18082	-2,7814	-2,1649	8,2173
74869	-0,76603	-2,7163	-2,3139	8,2095
74870	-0,12675	-2,538	-1,8777	8,2491
74871	-0,41905	-3,291	-1,859	8,2527
74872	-0,20232	-2,8621	-2,9023	8,127
74873	0,46599	-2,8436	-2,4151	8,1965
74874	0,12291	-2,6193	-2,1392	8,2192
74875	1,7469e-002	-3,3801	-2,4312	8,188
74876	-0,78753	-2,797	-3,0513	8,1199
74877	-0,28151	-2,8429	-3,5673	8,0338
74878	-0,78697	-2,9546	-3,9306	7,98
74879	-0,88038	-2,7849	-3,4093	8,0722
74880	-0,14825	-2,6187	-2,6151	8,158
74881	-0,52026	-3,3873	-3,2255	8,0917
74882	-1,3098	-2,6848	-2,16	8,239
74883	-1,4866	-2,74	-3,0489	8,1442
74884	-1,5479	-2,5854	-2,2235	8,2459
74885	-1,1944	-2,7204	-3,0825	8,1247
74886	-0,46231	-2,5542	-2,2883	8,2109
74887	-1,1096	-3,3112	-2,6327	8,1852
74888	-2,0344	-2,6373	-2,0127	8,2975
74889	-1,7561	-2,5377	-1,6589	8,3132
74890	-0,67048	-2,5065	-1,7237	8,2781
74891	-1,5593	-3,2487	-1,5847	8,3115
74892	-5,4634	-2,8856	4,9164	8,2967
74893	-6,0517	-2,9424	4,9367	8,4031
74894	-5,4936	-2,6228	5,3675	8,2156
74895	-5,7691	-3,4366	5,2908	8,2866
74896	-4,7905	-2,8881	4,0923	8,329
74897	-5,4087	-2,8796	4,061	8,4377
74898	-5,5456	-2,5322	3,8135	8,4966
74899	-5,1455	-2,5918	4,9545	8,2266
74900	-5,0597	-3,3886	4,4825	8,3099
74901	-3,3828	-2,8702	2,189	8,4015
74902	-3,463	-2,8406	1,1877	8,4947
74903	-3,036	-2,5727	0,88957	8,451
74904	-3,1662	-2,5241	1,8693	8,416
74905	-3,0288	-3,2858	1,6483	8,4224
74906	-4,1057	-2,9604	3,2411	8,3634
74907	-4,7719	-2,8829	3,1413	8,4682
74908	-4,411	-3,4288	3,6492	8,3487
74909	-4,0794	-3,0038	2,3203	8,472
74910	-3,5291	-2,6529	2,4813	8,3935
74911	-3,6918	-3,4292	2,7524	8,3818
74912	19,37	-3,0954	7,4117	12,703
74913	18,715	-3,0492	7,6903	12,246
74914	19,695	-3,1114	6,4744	13,524
74915	19,1	-3,0992	6,7875	12,979
74916	20,031	-3,1123	5,532	14,457
74917	19,437	-3,1049	5,8508	13,795
74918	19,771	-3,1012	4,9126	14,671
74919	17,749	-3,0126	7,3685	12,026
74920	18,445	-3,0531	7,0661	12,497
74921	17,459	-3,0119	6,7894	12,177
74922	16,896	-3,0518	7,0635	11,799
74923	18,155	-3,0524	6,487	12,67
74924	18,842	-3,0927	6,1639	13,21
74925	17,885	-3,0544	5,8782	12,829
74926	17,257	-3,0577	6,1842	12,366
74927	18,571	-3,0947	5,5551	13,403
74928	19,177	-3,0938	5,2315	13,95
74929	18,232	-3,0591	4,973	13,451
74930	17,667	-3,0995	5,28	12,998
74931	18,838	-3,0582	4,6493	14,041
74932	19,445	-3,0579	4,284	14,602
74933	15,983	-3,0622	6,7486	11,522
74934	16,695	-3,0975	6,4582	11,968
74935	18,473	-3,0236	4,0772	13,958
74936	17,87	-3,0235	4,4143	13,483
74937	15,044	-3,072	6,4539	11,203
74938	15,63	-3,0295	6,1813	11,57
74939	17,04	-3,1029	5,586	12,508
74940	16,342	-3,0649	5,8909	12,032
74941	14,078	-3,0692	6,1517	10,861
74942	14,814	-3,1162	5,8947	11,281
74943	19,079	-3,0233	3,712	14,575
74944	13,029	-3,0256	5,8511	10,479
74945	13,701	-3,0271	5,6027	10,847
74946	18,702	-3,0241	3,1655	14,369
74947	18,136	-3,016	3,5141	13,955
74948	12,048	-3,0297	5,5245	10,146
74949	12,716	-3,0242	5,3004	10,479
74950	16,671	-3,0607	5,0302	12,54
74951	17,305	-3,0639	4,7213	13,
74952	11,767	-3,0397	4,9232	10,165
74953	11,14	-3,0746	5,2031	9,8488
74954	15,973	-3,0227	5,3351	12,045
74955	15,4	-3,0736	5,6221	11,661
74956	18,363	-3,0316	2,6185	14,306
74957	18,89	-3,0265	2,2674	14,607
74958	16,286	-3,0141	4,4849	12,507
74959	15,713	-3,0711	4,7922	12,104
74960	16,92	-3,0173	4,1761	12,99
74961	17,532	-3,0159	3,8512	13,443
74962	14,437	-3,074	5,3457	11,275
74963	15,141	-3,1221	5,0792	11,705
74964	15,962	-3,0249	3,9478	12,507
74965	16,578	-3,0126	3,6291	12,943
74966	13,388	-3,0256	5,052	10,854
74967	14,092	-3,0801	4,8256	11,251
74968	17,797	-3,0235	2,9672	13,856
74969	17,19	-3,0113	3,3041	13,422
74970	12,434	-3,0342	4,699	10,504
74971	13,067	-3,0322	4,5079	10,842
74972	15,39	-3,0819	4,2551	12,086
74973	14,795	-3,1281	4,5591	11,691
74974	12,216	-3,1116	4,1539	10,517
74975	11,501	-3,0677	4,419	10,174
74976	12,293	-2,6543	3,0695	10,694
74977	15,626	-3,0355	3,4198	12,447
74978	15,032	-3,0914	3,7441	12,042
74979	17,447	-3,0312	2,4314	13,785
74980	18,012	-3,0327	2,0913	14,147
74981	13,771	-3,0866	4,2815	11,246
74982	14,438	-3,1376	4,0481	11,633
74983	16,241	-3,0233	3,101	12,903
74984	16,841	-3,019	2,7684	13,325
74985	12,849	-3,1096	3,9627	10,862
74986	13,408	-3,0421	3,7181	11,188
74987	18,539	-3,0277	1,7402	14,476
74988	19,31	-3,031	1,9047	14,876
74989	12,576	-3,1584	3,418	10,826
74990	11,823	-3,2056	3,6984	10,441
74991	12,531	-2,719	2,7228	10,897
74992	15,299	-3,1012	2,9327	12,389
74993	15,883	-3,0393	2,587	12,79
74994	16,482	-3,035	2,2543	13,233
74995	17,057	-3,025	1,913	13,62
74996	14,706	-3,1571	3,257	11,968
74997	14,075	-3,0931	3,4846	11,584
74998	17,621	-3,0264	1,5729	14,005
74999	18,163	-3,0344	1,2326	14,314
75000	14,954	-3,1901	2,4753	12,267
75001	14,332	-3,1028	2,6998	11,881
75002	13,136	-3,0909	3,1734	11,161
75003	13,701	-3,0387	2,9274	11,486
75004	15,537	-3,1281	2,1295	12,685
75005	16,103	-3,052	1,7548	13,067
75006	12,802	-3,1354	2,6743	11,077
75007	12,111	-3,134	2,9268	10,703
75008	12,653	-2,7011	2,3336	11,062
75009	16,678	-3,0419	1,4134	13,475
75010	17,19	-3,029	1,1418	13,802
75011	14,575	-3,211	1,9884	12,142
75012	15,182	-3,2432	1,7115	12,526
75013	13,367	-3,0832	2,4282	11,411
75014	13,954	-3,1237	2,2129	11,746
75015	15,748	-3,1671	1,3367	12,926
75016	16,273	-3,1331	0,98909	13,265
75017	12,871	-3,1306	1,9018	11,223
75018	12,37	-3,1283	2,1858	10,943
75019	12,756	-2,696	1,979	11,191
75020	13,457	-3,1711	1,6864	11,566
75021	14,197	-3,1634	1,4034	11,981
75022	14,804	-3,1957	1,1265	12,38
75023	15,34	-3,3493	0,93123	12,704
75024	13,058	-3,1221	1,1668	11,395
75025	12,348	-3,2024	1,4613	11,023
75026	12,722	-2,6963	1,5611	11,231
75027	13,797	-3,1145	0,88379	11,822
75028	14,366	-3,2275	0,63577	12,151
75029	13,811	-2,5119	0,67804	11,826
75030	13,327	-3,0974	0,54535	11,568
75031	12,719	-3,2294	0,84871	11,243
75032	12,943	-2,6874	1,2441	11,36
75033	13,293	-2,5107	0,64401	11,538
75034	12,332	-2,6818	0,72794	11,061
75035	13,617	-2,9518	1,4249e-002	11,74
75036	13,895	-3,2105	0,29734	11,903
75037	12,969	-3,1418	4,2762e-003	11,399
75038	13,341	-2,4948	0,33961	11,578
75039	12,38	-2,6659	0,42354	11,099
75040	14,176	-2,874	-0,26035	12,056
75041	13,655	-2,865	-0,44924	11,751
75042	13,583	-2,3651	0,1129	11,705
75043	14,454	-3,1326	2,274e-002	12,212
75044	14,902	-3,3812	0,4405	12,484
75045	13,861	-2,6238	0,39599	11,871
75046	14,95	-3,13	-0,22607	12,519
75047	14,395	-2,9252	-0,5498	12,171
75048	13,899	-2,417	6,5007e-002	11,885
75049	15,398	-3,3786	0,1917	12,781
75050	15,864	-3,3153	0,58358	13,059
75051	15,924	-3,0416	0,25905	13,084
75052	15,924	-3,315	-0,1396	13,117
75053	15,411	-3,3089	-0,44528	12,783
75054	15,934	-2,9972	-7,6529e-002	13,102
75055	16,39	-3,2518	0,25229	13,381
75056	16,785	-3,1201	0,71748	13,605
75057	16,4	-2,934	0,31535	13,368
75058	16,987	-3,2216	-9,1057e-002	13,75
75059	16,38	-3,24	-0,44035	13,377
75060	16,45	-2,9781	-7,2241e-002	13,418
75061	17,382	-3,0899	0,37413	13,957
75062	17,733	-3,037	0,80155	14,124
75063	16,845	-2,8464	0,39295	13,626
75064	17,911	-3,1688	-5,5422e-002	14,234
75065	17,354	-3,0852	-0,43002	13,942
75066	16,997	-2,9037	-2,799e-002	13,735
75067	18,262	-3,1159	0,37199	14,388
75068	18,252	-3,1865	-0,49652	14,379
75069	10,131	-3,0716	4,8	9,5526
75070	10,875	-3,1026	4,6989	9,8529
75071	10,456	-2,829	4,7621	9,6765
75072	9,7264	-2,9565	4,2671	9,5236
75073	9,0743	-3,0563	4,3215	9,2971
75074	8,9852	-2,7478	4,67	9,2064
75075	9,8616	-2,7838	4,5017	9,5262
75076	10,471	-2,9876	4,166	9,8208
75077	11,109	-3,1617	3,9635	10,093
75078	11,816	-2,6751	2,9879	10,536
75079	10,606	-2,8148	4,4007	9,8247
75080	10,035	-2,9703	3,619	9,747
75081	9,382	-2,9558	3,7491	9,4984
75082	10,052	-2,7139	4,2292	9,6459
75083	10,673	-3,1445	3,4165	10,021
75084	11,358	-3,1813	3,2072	10,312
75085	11,9	-2,7483	2,614	10,662
75086	10,69	-2,8881	4,0267	9,9157
75087	17,695	-3,1029	-0,87111	14,098
75088	18,145	-3,1685	-1,3606	14,296
75089	10,34	-3,0381	2,8623	9,9672
75090	9,7162	-3,0512	3,0105	9,7256
75091	10,17	-2,7976	3,8536	9,7405
75092	11,025	-3,0749	2,653	10,261
75093	11,679	-3,127	2,4383	10,562
75094	12,066	-2,6946	2,2316	10,806
75095	16,747	-3,1037	-0,77931	13,581
75096	17,155	-3,016	-1,1877	13,776
75097	16,818	-2,8418	-0,4112	13,609
75098	10,645	-3,0504	2,0707	10,175
75099	10,057	-3,045	2,2231	9,9409
75100	11,299	-3,1025	1,856	10,481
75101	11,847	-3,2002	1,7453	10,734
75102	12,221	-2,694	1,8451	10,943
75103	15,867	-3,2338	-0,74604	13,053
75104	16,251	-3,1136	-1,0934	13,249
75105	16,39	-2,9222	-0,37728	13,359
75106	10,947	-3,0996	1,3798	10,37
75107	10,275	-3,059	1,4189	10,101
75108	11,074	-2,6645	1,1332	10,425
75109	10,685	-2,7924	1,4952	10,255
75110	11,494	-3,1973	1,2691	10,625
75111	12,009	-3,3097	1,1432	10,865
75112	12,233	-2,7678	1,5386	10,988
75113	11,622	-2,7621	1,0224	10,682
75114	14,856	-3,104	-0,76902	12,442
75115	15,344	-3,2009	-1,0597	12,709
75116	15,937	-2,9719	-0,37793	13,082
75117	11,349	-3,0718	0,73458	10,584
75118	10,736	-3,0775	0,6879	10,325
75119	11,257	-2,6855	0,85277	10,531
75120	10,867	-2,8134	1,2148	10,355
75121	11,864	-3,1842	0,60871	10,828
75122	12,362	-3,2738	0,30763	11,063
75123	12,383	-2,8036	1,243	11,07
75124	11,772	-2,7979	0,7269	10,774
75125	13,874	-2,9162	-0,73869	11,871
75126	14,158	-3,0151	-1,1131	11,997
75127	11,724	-3,0065	0,1412	10,775
75128	11,137	-2,858	-8,8895e-003	10,509
75129	11,477	-2,6367	0,48794	10,649
75130	13,006	-3,055	-0,45921	11,41
75131	13,309	-2,9813	-1,0146	11,531
75132	12,221	-3,0961	-0,15988	11,02
75133	11,639	-2,9817	-0,43681	10,727
75134	11,631	-2,6202	0,25939	10,717
75135	12,41	-3,1954	-0,67418	11,089
75136	11,974	-2,7262	0,18687	10,887
75137	17,605	-3,0816	-1,6772	13,99
75138	17,969	-3,1372	-2,226	14,104
75139	16,659	-3,0259	-1,5018	13,458
75140	17,037	-3,0086	-1,9933	13,601
75141	8,7299	-3,0556	3,8034	9,2744
75142	8,1066	-3,058	3,9109	9,081
75143	8,5231	-2,7777	4,4518	9,1012
75144	15,728	-3,0806	-1,407	12,916
75145	16,081	-3,0217	-1,8459	13,049
75146	9,0631	-3,0366	3,1407	9,4765
75147	8,4044	-3,0219	3,1953	9,268
75148	14,645	-3,1119	-1,4037	12,273
75149	15,189	-3,0719	-1,7424	12,544
75150	9,433	-3,058	2,3714	9,6975
75151	8,7661	-3,007	2,4742	9,4738
75152	13,593	-3,0802	-1,389	11,667
75153	13,906	-3,1176	-1,7824	11,782
75154	9,6866	-3,0535	1,5713	9,8641
75155	9,0709	-3,0359	1,6582	9,6533
75156	12,713	-3,1217	-1,2296	11,218
75157	13,008	-3,0429	-1,721	11,313
75158	10,064	-3,0369	0,72704	10,056
75159	9,4445	-3,0245	0,86209	9,8256
75160	10,196	-2,7728	1,2539	10,086
75161	11,829	-3,081	-0,95111	10,805
75162	12,056	-3,0956	-1,5324	10,863
75163	10,524	-2,8637	-5,5573e-002	10,252
75164	10,115	-2,9632	0,13966	10,098
75165	10,474	-2,7703	0,80327	10,206
75166	11,053	-2,8332	-0,5869	10,467
75167	11,165	-2,9636	-1,1734	10,486
75168	10,532	-2,6304	-0,60942	10,249
75169	7,2751	-3,0158	3,2819	8,9504
75170	7,7811	-3,0243	3,3027	9,0756
75171	6,8726	-2,5628	3,3174	8,8577
75172	6,3637	-2,9721	2,7167	8,8253
75173	7,0429	-3,0591	2,5631	8,9883
75174	6,5467	-2,549	2,8808	8,8461
75175	7,5489	-3,0675	2,5839	9,111
75176	8,1074	-2,9922	2,5288	9,2672
75177	5,9527	-2,9455	2,1375	8,7923
75178	5,2945	-2,9834	2,3565	8,6559
75179	5,9611	-2,5191	2,7522	8,7351
75180	5,5382	-2,8552	2,7498	8,6478
75181	6,632	-3,0324	1,9839	8,9547
75182	7,3601	-3,0864	1,8744	9,1334
75183	7,3633	-2,8826	1,3071	9,1548
75184	6,6404	-2,6061	2,5986	8,8967
75185	7,9187	-3,0111	1,8193	9,2891
75186	8,404	-2,9849	1,761	9,4296
75187	6,3105	-2,91	1,2296	8,9329
75188	5,7051	-2,9716	1,3418	8,8132
75189	6,8587	-2,7989	1,0102	9,0774
75190	6,1358	-2,5223	2,3017	8,8101
75191	7,0386	-2,964	1,1201	9,1113
75192	7,7612	-3,0963	1,1528	9,2933
75193	7,5868	-2,8529	0,90062	9,2576
75194	8,2465	-3,0701	1,0945	9,4339
75195	8,8288	-3,0069	0,94893	9,614
75196	8,5224	-2,9215	1,0335	9,5149
75197	5,0469	-3,0095	1,5608	8,6756
75198	4,3366	-3,0221	1,641	8,5683
75199	5,0546	-2,8963	2,5183	8,588
75200	6,7296	-2,9258	0,42844	9,054
75201	6,1658	-2,8849	0,36749	8,9376
75202	7,0418	-2,7602	0,55282	9,144
75203	6,3189	-2,4836	1,8443	8,8646
75204	7,4522	-3,0581	0,46114	9,2338
75205	8,0616	-3,2791	0,36938	9,4037
75206	7,7644	-2,8925	0,58552	9,3252
75207	8,2146	-2,9873	0,77668	9,4401
75208	5,5605	-2,9465	0,47967	8,8171
75209	4,9174	-2,9963	0,5847	8,7078
75210	8,6438	-3,2159	0,22379	9,5865
75211	9,4951	-2,9508	0,2747	9,8633
75212	8,3467	-2,8293	0,43992	9,5063
75213	8,7969	-2,9241	0,63109	9,6217
75214	7,2852	-3,1252	-0,40669	9,1883
75215	6,6031	-2,9548	-0,3864	9,0247
75216	7,2778	-2,8147	0,20899	9,2031
75217	7,8946	-3,3462	-0,49844	9,36
75218	8,5007	-3,2122	-0,58053	9,5323
75219	7,8872	-3,0357	0,11723	9,3734
75220	8,3375	-3,1305	0,30839	9,486
75221	10,123	-2,7299	-0,41419	10,089
75222	9,3519	-2,9471	-0,52961	9,8066
75223	6,0393	-2,9139	-0,44735	8,9094
75224	5,4499	-2,8861	-0,45769	8,7996
75225	5,981	-2,5225	-0,19298	8,9073
75226	5,5095	-2,8148	-0,58588	8,8013
75227	9,8724	-2,7839	-1,3326	9,9601
75228	10,645	-2,7607	-1,1959	10,269
75229	3,566	-2,9463	0,73421	8,5197
75230	4,2071	-3,0089	0,66488	8,6004
75231	7,7478	-3,1241	-1,4204	9,2728
75232	7,2952	-3,2009	-1,2504	9,1664
75233	7,5445	-2,938	-1,3619	9,2201
75234	7,5974	-2,9597	-0,28231	9,2759
75235	9,1009	-3,0011	-1,4481	9,6822
75236	8,3538	-2,99	-1,5025	9,448
75237	6,613	-3,0304	-1,2301	9,0015
75238	5,8792	-2,9321	-1,254	8,8437
75239	6,1822	-2,5379	-0,60303	8,9362
75240	6,8623	-2,7675	-1,3416	9,0543
75241	6,9153	-2,7892	-0,26202	9,1116
75242	5,7107	-2,8302	-0,99594	8,8326
75243	9,0499	-3,0073	-2,1862	9,6076
75244	9,7876	-2,9611	-2,1944	9,8588
75245	2,7231	-2,8973	-0,10721	8,4487
75246	3,5244	-2,8775	-0,1618	8,5246
75247	2,8145	-2,7005	0,73254	8,4491
75248	4,8068	-2,9359	-0,35265	8,6892
75249	4,1655	-2,9401	-0,23113	8,6056
75250	8,3027	-2,9962	-2,2406	9,3733
75251	7,5901	-3,0442	-2,2461	9,1668
75252	7,6874	-2,7918	-1,8843	9,2303
75253	7,1375	-3,121	-2,0761	9,0559
75254	6,5606	-3,0109	-2,0297	8,9302
75255	7,2348	-2,8686	-1,7143	9,1212
75256	7,2877	-2,8903	-0,6347	9,1674
75257	5,2897	-2,9044	-1,2643	8,7339
75258	4,6589	-2,9034	-1,2711	8,6348
75259	5,5928	-2,5102	-0,61337	8,826
75260	5,1213	-2,8024	-1,0063	8,7231
75261	2,4319	-2,9249	-0,97274	8,4003
75262	2,2679	-2,7249	0,31389	8,3983
75263	3,2332	-2,9051	-1,0273	8,4764
75264	4,0176	-2,9075	-1,1496	8,5498
75265	3,0693	-2,7051	0,2593	8,4733
75266	4,0752	-2,5833	-1,3027	8,5409
75267	8,375	-3,0392	-2,8793	9,3145
75268	9,0637	-3,0489	-2,9383	9,5233
75269	8,0994	-2,8101	-2,1821	9,3171
75270	7,9842	-2,7124	-3,8453	9,0164
75271	5,8268	-2,9126	-2,0536	8,7718
75272	5,1544	-2,949	-2,039	8,6521
75273	4,9445	-2,6097	-1,8105	8,6418
75274	5,3493	-2,833	-1,3925	8,7373
75275	2,4167	-2,8365	-1,8575	8,3357
75276	3,1676	-2,9389	-2,0714	8,3832
75277	2,5233	-2,7281	-0,13298	8,3983
75278	7,6623	-3,0871	-2,8848	9,106
75279	7,0327	-2,9872	-2,9215	8,9386
75280	7,3868	-2,8581	-2,1876	9,1119
75281	4,5236	-2,948	-2,0459	8,5525
75282	3,952	-2,9413	-2,1937	8,4586
75283	4,3136	-2,6087	-1,8173	8,543
75284	4,7184	-2,832	-1,3993	8,6379
75285	6,4559	-2,877	-2,8751	8,8106
75286	5,7831	-2,8818	-2,936	8,6658
75287	5,1108	-2,9182	-2,9215	8,5445
75288	4,4758	-2,8422	-2,9754	8,4387
75289	4,5812	-2,6238	-2,199	8,5454
75290	4,986	-2,8471	-1,781	8,6386
75291	2,5457	-2,8616	-2,9228	8,219
75292	1,8104	-2,8139	-2,9359	8,1694
75293	3,2966	-2,964	-3,1368	8,2697
75294	3,9043	-2,8355	-3,1232	8,3454
75295	7,727	-3,0266	-3,6631	9,0151
75296	8,4101	-3,0941	-3,7056	9,2055
75297	7,7596	-2,8348	-2,523	9,1617
75298	7,6444	-2,737	-4,1861	8,8803
75299	7,0974	-2,9267	-3,6997	8,8464
75300	6,4395	-2,7109	-3,7827	8,6765
75301	5,7668	-2,7156	-3,8436	8,5305
75302	5,1638	-2,8853	-3,8281	8,422
75303	3,2309	-2,8193	-3,9777	8,1349
75304	2,5625	-3,0241	-3,9455	8,0755
75305	7,093	-2,9858	-4,4359	8,7324
75306	7,8276	-3,0472	-4,5374	8,9001
75307	7,3362	-2,6998	-4,629	8,7444
75308	4,5288	-2,8093	-3,882	8,3146
75309	3,8386	-2,6909	-3,9641	8,2111
75310	4,8141	-2,6478	-4,6612	8,2078
75311	6,4351	-2,77	-4,5189	8,5621
75312	5,8903	-2,6815	-4,6333	8,4244
75313	5,2873	-2,8511	-4,6178	8,3127
75314	4,5256	-2,8651	-4,728	8,1619
75315	5,1824	-2,7356	-5,02	8,212
75316	3,8354	-2,7466	-4,8101	8,0578
75317	3,1848	-2,7087	-4,8426	7,9773
75318	4,4922	-2,6172	-5,1022	8,1025
75319	6,433	-3,2112	-5,253	8,4274
75320	7,1366	-2,9297	-5,3125	8,5769
75321	7,0103	-2,6962	-4,959	8,6122
75322	5,8883	-3,1227	-5,3674	8,2906
75323	5,3637	-2,7679	-5,4938	8,1616
75324	5,7095	-2,6163	-6,0411	8,11
75325	5,5726	-2,6896	-5,397	8,2259
75326	4,602	-2,7818	-5,604	8,0103
75327	3,8909	-2,8617	-5,5715	7,916
75328	4,8109	-2,7035	-5,5072	8,0723
75329	5,8472	-3,2972	-6,1501	8,1312
75330	6,5634	-3,2066	-6,1936	8,2753
75331	5,9202	-2,9338	-6,4138	8,0933
75332	5,7833	-3,0072	-5,7697	8,1994
75333	6,6763	-2,9252	-5,4461	8,4446
75334	5,3226	-2,9424	-6,2765	8,0038
75335	4,8961	-2,6086	-6,349	7,9156
75336	5,2588	-2,6524	-5,8961	8,0717
75337	5,8743	-3,0408	-6,8903	7,9932
75338	5,6921	-3,1908	-6,9135	7,9556
75339	5,6684	-2,7908	-6,8237	7,9696
75340	5,5316	-2,8641	-6,1797	8,0666
75341	6,5906	-2,9502	-6,9338	8,1416
75342	6,364	-2,9211	-7,6492	7,9593
75343	5,9474	-2,6774	-7,154	7,9635
75344	7,267	-2,9252	-6,2531	8,4322
75345	7,3021	-2,9796	-6,9658	8,3064
75346	6,3847	-2,7002	-6,8672	8,1148
75347	7,1407	-2,6916	-5,8996	8,4538
75348	7,8712	-2,9911	-5,414	8,7527
75349	7,8486	-2,9185	-6,0977	8,6173
75350	8,0398	-2,616	-6,2308	8,6467
75351	7,3798	-2,6438	-5,5056	8,5985
75352	8,5106	-3,1146	-4,58	9,0963
75353	8,5313	-3,0927	-5,2367	8,9684
75354	7,7449	-2,7575	-5,0605	8,7844
75355	9,0988	-3,1038	-3,7646	9,4192
75356	9,069	-3,121	-4,5584	9,2749
75357	8,0193	-2,7673	-4,6715	8,937
75358	9,8015	-3,0027	-2,9464	9,7768
75359	9,6764	-3,1486	-3,6786	9,6208
75360	8,3331	-2,7468	-4,2451	9,0898
75361	10,56	-2,9379	-2,0576	10,163
75362	11,392	-2,9781	-1,7547	10,551
75363	-6,5778	-2,8836	4,1213	8,6529
75364	-5,997	-2,9365	4,0812	8,5409
75365	-6,1339	-2,589	3,8338	8,5993
75366	-5,7338	-2,6486	4,9747	8,3309
75367	10,327	-3,0688	-3,1741	9,9237
75368	10,853	-2,9498	-2,6703	10,224
75369	10,564	-2,9545	-3,1584	10,013
75370	-7,2091	-2,7959	3,3152	8,9293
75371	-6,4828	-2,765	3,3246	8,7581
75372	-7,1013	-2,4444	3,9848	8,797
75373	-6,4199	-2,5044	3,4111	8,7363
75374	-7,3664	-2,5623	3,722	8,9089
75375	10,202	-3,2148	-3,9063	9,7785
75376	9,6466	-3,1658	-4,4724	9,4762
75377	10,246	-3,1649	-4,306	9,7198
75378	10,663	-3,1587	-3,9575	9,9424
75379	10,907	-3,2662	-3,6595	10,099
75380	10,701	-3,1013	-3,7778	9,9877
75381	11,685	-2,99	-2,3674	10,604
75382	12,351	-3,0169	-2,0238	10,967
75383	9,65	-3,084	-5,1172	9,3569
75384	9,0897	-3,0991	-5,2151	9,1486
75385	9,3995	-3,001	-5,0359	9,2991
75386	11,433	-3,1472	-3,1557	10,388
75387	12,034	-3,0415	-2,8332	10,718
75388	11,227	-2,9822	-3,274	10,273
75389	10,707	-3,1089	-4,3572	9,8864
75390	11,11	-3,1767	-4,136	10,094
75391	10,901	-3,0444	-3,9418	10,033
75392	11,354	-3,2842	-3,8379	10,247
75393	11,825	-3,3279	-3,6332	10,493
75394	11,144	-3,1519	-3,6438	10,191
75395	-5,902	-2,8178	3,2846	8,6493
75396	-5,3902	-2,8744	3,11	8,5754
75397	-5,839	-2,5572	3,3711	8,6275
75398	-5,4389	-2,6169	4,5121	8,3464
75399	10,249	-3,0832	-4,9508	9,5972
75400	10,802	-3,119	-4,773	9,8428
75401	10,447	-2,8434	-5,0641	9,643
75402	11,206	-3,1868	-4,5517	10,045
75403	11,783	-3,261	-4,2351	10,36
75404	11,148	-3,1192	-3,9562	10,136
75405	12,7	-3,0684	-2,4897	11,072
75406	13,322	-3,0804	-2,1144	11,438
75407	10,314	-2,9653	-5,5308	9,5023
75408	9,671	-3,0682	-5,7602	9,231
75409	10,145	-2,8107	-5,422	9,4646
75410	9,6965	-2,9675	-5,2274	9,3564
75411	12,426	-3,2222	-3,3108	10,814
75412	13,078	-3,1561	-2,8545	11,223
75413	12,734	-2,8872	-3,254	10,974
75414	11,392	-3,0785	-5,0703	10,017
75415	10,867	-3,0012	-5,353	9,7441
75416	10,698	-2,8466	-5,2442	9,7064
75417	12,254	-3,3047	-4,0304	10,602
75418	12,882	-3,2596	-3,6846	10,982
75419	11,619	-3,1629	-3,7516	10,38
75420	12,607	-3,0038	-3,6842	10,844
75421	-7,3103	-2,8654	2,4701	9,062
75422	-7,825	-2,8108	2,4482	9,1991
75423	-7,7117	-2,5592	3,3386	9,0508
75424	11,97	-3,1526	-4,7536	10,322
75425	12,699	-3,209	-4,3956	10,733
75426	11,573	-3,1287	-4,0409	10,296
75427	12,561	-2,9697	-3,9736	10,76
75428	-6,5841	-2,8345	2,4795	8,8922
75429	-5,9262	-2,8009	2,427	8,7548
75430	-6,0389	-2,4704	3,0371	8,7122
75431	-6,1798	-2,562	2,4333	8,8026
75432	11,51	-3,0739	-5,611	9,9473
75433	12,269	-3,0614	-5,2299	10,361
75434	11,523	-2,8553	-6,2628	9,7735
75435	-5,4144	-2,8574	2,2524	8,6852
75436	-4,7456	-2,9262	2,2205	8,5766
75437	-4,7503	-2,6057	2,2623	8,5713
75438	-4,985	-2,7504	2,1743	8,6118
75439	10,984	-2,9966	-5,8937	9,6821
75440	10,371	-2,9402	-6,1924	9,3932
75441	10,512	-2,7256	-5,6442	9,5531
75442	-6,7579	-2,957	1,6167	9,0113
75443	-7,2632	-2,8594	1,5821	9,1334
75444	-6,662	-2,6655	1,9622	8,9654
75445	13,699	-3,1681	-2,4792	11,579
75446	14,45	-3,0775	-2,121	12,065
75447	-6,1	-2,9235	1,5642	8,8754
75448	-5,4441	-2,976	1,3168	8,7587
75449	-6,1868	-2,7837	1,0924	8,9097
75450	-6,0041	-2,632	1,9097	8,8287
75451	-5,3211	-2,7639	1,8253	8,7077
75452	13,534	-3,1935	-3,2284	11,377
75453	14,228	-3,1734	-2,8679	11,818
75454	13,258	-2,9377	-3,2279	11,24
75455	-4,7754	-3,0448	1,2849	8,6518
75456	-4,1595	-2,9741	1,3191	8,5634
75457	-3,8628	-2,6576	2,0006	8,4856
75458	-4,4177	-2,6879	1,8814	8,5595
75459	-4,6524	-2,8327	1,7934	8,6
75460	13,328	-3,1639	-4,0499	11,106
75461	14,015	-3,176	-3,726	11,545
75462	13,19	-2,9246	-3,6278	11,142
75463	11,923	-3,1412	-6,052	10,031
75464	11,124	-3,1161	-6,4537	9,6208
75465	11,301	-2,8944	-6,6863	9,6199
75466	12,998	-3,1177	-4,8719	10,762
75467	13,636	-3,1557	-4,556	11,144
75468	13,052	-2,9081	-4,0495	10,967
75469	-6,112	-3,0804	0,56869	8,9177
75470	-6,8031	-3,0218	0,79281	9,0717
75471	-6,5364	-2,8363	0,7532	9,009
75472	-6,3536	-2,6846	1,5705	8,923
75473	12,682	-3,1287	-5,6709	10,436
75474	13,316	-3,0621	-5,3236	10,805
75475	12,061	-2,8819	-6,3052	10,006
75476	-5,4561	-3,133	0,32127	8,8057
75477	-4,9122	-3,0113	0,26982	8,7097
75478	-5,8804	-2,8888	0,50577	8,8951
75479	-5,0148	-2,869	1,2386	8,687
75480	12,31	-3,1629	-6,4945	10,08
75481	12,985	-3,155	-6,1337	10,456
75482	11,936	-2,9226	-6,7039	9,8815
75483	-3,6337	-2,8061	0,27405	8,5371
75484	-4,2963	-2,9406	0,30399	8,6212
75485	-3,479	-2,6719	0,50031	8,5213
75486	-3,6093	-2,6233	1,4801	8,4844
75487	-4,1642	-2,6536	1,3608	8,5577
75488	12,137	-3,1019	-7,2088	9,8279
75489	11,511	-3,1377	-6,8962	9,6783
75490	12,604	-3,0859	-6,9198	10,091
75491	11,688	-2,9161	-7,1287	9,6883
75492	8,5087	-3,0201	-5,9204	8,8301
75493	9,1106	-3,0832	-5,8581	9,0241
75494	9,1361	-2,9825	-5,3253	9,1479
75495	-5,5539	-3,1591	-0,48787	8,8189
75496	-6,26	-3,1087	-0,44206	8,9599
75497	-6,1988	-2,9406	9,6901e-002	8,9606
75498	-5,5692	-2,8041	-0,95922	8,787
75499	-3,7775	-2,6701	-0,56628	8,5517
75500	-3,094	-2,7434	-0,74701	8,4666
75501	-3,2067	-2,5383	-2,4118e-002	8,4948
75502	-5,0099	-3,0374	-0,53931	8,7231
75503	-4,4401	-2,8046	-0,53634	8,6359
75504	8,5047	-2,9728	-6,6507	8,6976
75505	7,8837	-2,9729	-6,8103	8,4887
75506	8,3823	-2,6572	-6,4693	8,7004
75507	8,8186	-2,9221	-5,7412	8,973
75508	9,1066	-3,0359	-6,5885	8,8919
75509	9,7282	-3,0431	-6,4218	9,1279
75510	8,9842	-2,7203	-6,407	8,8939
75511	9,4205	-2,9852	-5,6789	9,169
75512	-5,1472	-3,1337	-1,3832	8,7018
75513	-5,7246	-3,065	-1,2407	8,822
75514	-5,3486	-2,7784	-1,3595	8,7396
75515	-4,5774	-2,9009	-1,3802	8,614
75516	-3,8972	-2,7933	-1,5214	8,5082
75517	-3,2137	-2,8666	-1,7022	8,4237
75518	-2,6888	-2,7259	-1,8368	8,3559
75519	-2,9739	-2,6866	-1,8054	8,3841
75520	-2,9394	-2,6092	-0,52075	8,4498
75521	-2,4104	-2,6263	-1,483	8,3715
75522	9,1976	-2,9874	-7,2268	8,7981
75523	8,54	-2,9635	-7,4052	8,5648
75524	8,6958	-2,6702	-6,7838	8,7338
75525	9,1321	-2,9351	-6,0557	8,9942
75526	1,1689	-2,8536	-2,9901	8,1373
75527	0,3868	-2,8244	-3,0801	8,1011
75528	0,52006	-2,6002	-2,1279	8,2281
75529	-4,8062	-3,2894	-2,3729	8,5566
75530	-5,4151	-3,1165	-2,1423	8,6934
75531	-5,1625	-2,7787	-1,8546	8,6766
75532	-5,3014	-2,8733	-2,4308	8,6322
75533	9,8192	-2,9947	-7,0601	9,0305
75534	10,511	-3,0596	-6,7525	9,34
75535	1,8272	-2,9764	-3,9586	8,0246
75536	1,1629	-2,8825	-4,1289	7,9599
75537	1,6312	-2,706	-4,246	7,9545
75538	-4,126	-3,1818	-2,5141	8,4504
75539	-3,4416	-2,8072	-2,6282	8,3461
75540	-3,361	-2,7389	-2,264	8,3868
75541	-4,0108	-3,0579	-2,7479	8,3983
75542	9,868	-3,0526	-7,6739	8,9214
75543	9,3058	-2,9879	-7,9013	8,7013
75544	11,991	-3,089	-7,7548	9,6482
75545	12,518	-3,0267	-7,611	9,8745
75546	11,764	-2,8616	-7,4183	9,641
75547	10,559	-3,1175	-7,3662	9,2209
75548	11,364	-3,1248	-7,4421	9,4843
75549	11,137	-2,8974	-7,1056	9,4877
75550	2,5163	-2,9135	-4,8104	7,9164
75551	1,8184	-2,9801	-4,9322	7,8438
75552	1,9839	-2,7995	-4,628	7,9116
75553	-4,4339	-3,315	-3,3935	8,3702
75554	-5,0666	-3,3398	-3,2261	8,4966
75555	-4,536	-3,3209	-3,1013	8,4268
75556	-5,0076	-2,9341	-2,3492	8,5946
75557	-5,1465	-3,0286	-2,9254	8,5545
75558	10,679	-3,0864	-8,3219	9,0549
75559	9,8131	-3,1311	-8,2446	8,7907
75560	10,737	-2,8959	-7,5988	9,236
75561	14,979	-3,0829	-2,5097	12,291
75562	15,542	-3,0129	-2,1813	12,694
75563	3,2403	-2,8238	-5,604	7,834
75564	2,5719	-2,7422	-5,7767	7,7333
75565	2,3203	-2,6431	-5,0978	7,8486
75566	11,484	-3,0937	-8,3978	9,3291
75567	12,096	-3,0703	-8,2576	9,5764
75568	11,541	-2,9032	-7,6747	9,5048
75569	14,709	-3,1559	-3,3656	11,97
75570	15,293	-3,08	-3,0058	12,388
75571	-2,9166	-2,6665	-2,7628	8,2783
75572	-2,2113	-2,6924	-2,9016	8,2031
75573	-2,836	-2,5982	-2,3986	8,3189
75574	-2,2725	-2,5379	-2,0762	8,3049
75575	14,323	-3,1678	-4,2322	11,572
75576	14,995	-3,1009	-3,8855	12,031
75577	4,1851	-2,6885	-6,3164	7,815
75578	3,3421	-2,8743	-6,4521	7,6762
75579	7,919	-2,9637	-7,5648	8,3596
75580	7,0755	-2,9504	-7,6811	8,1245
75581	13,953	-3,1	-5,0078	11,177
75582	14,598	-3,0993	-4,7127	11,586
75583	-3,7494	-2,9404	-3,5077	8,2647
75584	-2,971	-2,7049	-3,624	8,1565
75585	-3,2017	-2,6273	-2,7315	8,3069
75586	-3,8515	-2,9462	-3,2154	8,3209
75587	13,618	-3,0883	-5,7864	10,813
75588	14,302	-3,0311	-5,4924	11,215
75589	8,6482	-2,9639	-8,0796	8,4718
75590	7,919	-2,9594	-8,2876	8,2354
75591	13,279	-3,078	-6,5591	10,458
75592	13,926	-3,078	-6,3091	10,813
75593	5,2656	-2,857	-6,986	7,8648
75594	4,4925	-2,6497	-7,2681	7,6764
75595	12,984	-3,0107	-7,3221	10,13
75596	13,61	-3,0101	-7,0767	10,452
75597	9,2509	-3,0664	-8,472	8,5776
75598	8,7385	-2,94	-8,8082	8,3784
75599	9,0236	-2,6524	-8,6887	8,4758
75600	12,623	-3,008	-8,1139	9,7994
75601	13,233	-3,0173	-7,8971	10,079
75602	-3,9158	-3,0741	-4,3586	8,1473
75603	-4,6356	-3,1327	-4,1908	8,2823
75604	-4,3187	-3,1911	-3,6274	8,3208
75605	6,1818	-3,071	-7,6724	7,9198
75606	5,4091	-3,2192	-7,8522	7,7314
75607	5,7651	-2,8274	-7,1772	7,9256
75608	10,977	-3,0516	-9,171	9,0123
75609	11,576	-3,0334	-9,0409	9,2281
75610	11,257	-2,8663	-8,0613	9,3086
75611	10,111	-3,0963	-9,0937	8,7356
75612	9,3738	-3,0696	-9,2265	8,4932
75613	10,391	-2,911	-7,984	9,0399
75614	9,2399	-2,7322	-8,8466	8,513
75615	-2,2657	-2,7308	-3,7628	8,0812
75616	-1,4861	-2,8975	-3,9281	8,0048
75617	-1,9329	-2,5929	-2,5478	8,2168
75618	-1,5795	-2,7279	-3,4068	8,0972
75619	7,0755	-2,9461	-8,404	8,0022
75620	6,4187	-2,9307	-8,5911	7,8193
75621	6,1581	-2,6711	-7,5826	7,9298
75622	-0,595	-2,936	-4,1198	7,9463
75623	0,38086	-2,8532	-4,2189	7,9243
75624	-0,68842	-2,7664	-3,5985	8,0376
75625	4,3711e-002	-2,6001	-2,8043	8,1233
75626	-3,1374	-2,8386	-4,4749	8,0377
75627	-2,4232	-2,8575	-4,6284	7,9417
75628	8,0094	-2,9354	-9,0163	8,1481
75629	7,3345	-2,9938	-9,1714	7,9529
75630	12,188	-3,01	-8,9008	9,4711
75631	12,838	-3,0103	-8,705	9,7376
75632	-1,6436	-3,0242	-4,7938	7,8648
75633	-1,0546	-3,0605	-5,0108	7,7926
75634	-0,51915	-3,2747	-5,0166	7,7784
75635	-0,8863	-2,8617	-5,1933	7,7462
75636	-1,1939	-2,878	-3,9617	7,9855
75637	-3,4413	-2,9191	-5,2509	7,9261
75638	-4,1294	-3,0808	-5,0538	8,046
75639	-3,7258	-2,8318	-5,3638	7,9351
75640	8,8614	-2,9432	-9,5627	8,3085
75641	8,2091	-2,9298	-9,7775	8,1036
75642	8,7275	-2,6058	-9,1828	8,3213
75643	-2,7272	-2,938	-5,4044	7,8283
75644	-2,0512	-2,9911	-5,4779	7,7503
75645	11,121	-3,0287	-9,843	8,9437
75646	10,424	-3,0532	-10,004	8,7096
75647	11,035	-2,8612	-8,4479	9,1485
75648	1,1541	-2,8861	-5,1026	7,7808
75649	0,45672	-3,1918	-5,1157	7,7584
75650	1,3196	-2,7055	-4,7984	7,8469
75651	11,721	-3,0105	-9,7129	9,1546
75652	12,373	-3,0135	-9,5266	9,3988
75653	-3,0441	-2,8737	-6,0681	7,7243
75654	-3,7695	-2,9606	-5,9283	7,8381
75655	-3,5522	-2,788	-5,8172	7,8351
75656	1,8739	-2,8087	-5,8985	7,6609
75657	1,2146	-2,9935	-5,9767	7,6059
75658	1,6223	-2,7096	-5,2196	7,7778
75659	9,6867	-3,0265	-10,137	8,4685
75660	9,0475	-3,0228	-10,276	8,2762
75661	9,1465	-2,6557	-9,4432	8,401
75662	-2,3681	-2,9268	-6,1416	7,6434
75663	-2,5612	-2,9421	-6,8029	7,53
75664	-3,2576	-2,9699	-6,7822	7,6038
75665	-3,3287	-2,7863	-6,1809	7,7344
75666	-1,4622	-3,0274	-5,6949	7,6775
75667	-1,6271	-3,0132	-6,305	7,5601
75668	-1,2939	-2,8286	-5,8775	7,6324
75669	2,6738	-2,7927	-6,6248	7,5768
75670	2,0336	-2,8387	-6,77	7,4953
75671	2,3001	-2,5005	-6,6525	7,5382
75672	2,0394	-2,6282	-5,5944	7,7237
75673	11,215	-3,036	-10,55	8,8685
75674	11,917	-3,0132	-10,365	9,0999
75675	10,517	-3,0605	-10,712	8,6403
75676	9,8752	-3,0596	-10,862	8,4455
75677	-0,86577	-3,0497	-6,0204	7,5905
75678	-0,47326	-3,2874	-5,5443	7,6793
75679	-0,84041	-2,8745	-5,7211	7,649
75680	3,6496	-2,8355	-7,4038	7,5345
75681	2,7638	-2,9016	-7,5225	7,4095
75682	2,6829	-2,566	-7,0041	7,5044
75683	16,46	-3,0044	-2,3374	13,212
75684	15,857	-3,01	-2,6774	12,773
75685	-1,0306	-3,0355	-6,6305	7,4759
75686	-0,59369	-3,0537	-6,651	7,4583
75687	-0,6975	-2,8509	-6,203	7,548
75688	0,51729	-3,2992	-5,9899	7,5824
75689	-0,20118	-3,2914	-6,1749	7,5411
75690	-0,30499	-3,0887	-5,7269	7,6357
75691	17,401	-3,0642	-2,5421	13,739
75692	16,807	-3,0087	-2,857	13,3
75693	-1,1163	-3,0403	-7,0407	7,3926
75694	-1,8201	-3,0285	-6,9664	7,446
75695	-1,0053	-2,8603	-6,3311	7,5296
75696	0,80561	-3,0277	-6,9214	7,3998
75697	1,3743	-3,0235	-6,8482	7,4395
75698	0,15014	-2,8862	-6,1667	7,5477
75699	18,397	-3,06	-2,7272	14,308
75700	17,727	-3,1091	-3,0996	13,792
75701	-0,67935	-3,0585	-7,0612	7,3748
75702	8,7137e-002	-3,0199	-7,1065	7,3593
75703	-0,56833	-2,8784	-6,3517	7,512
75704	4,3737	-2,827	-8,3274	7,4725
75705	4,636	-3,0119	-8,1342	7,549
75706	3,7301	-2,8881	-8,3132	7,3841
75707	4,4236	-2,5338	-8,1451	7,5125
75708	-0,5994	-3,0404	-7,7063	7,2482
75709	-1,4065	-3,1266	-7,6854	7,2813
75710	0,16709	-3,0019	-7,7515	7,2349
75711	0,92871	-2,9377	-7,8807	7,2286
75712	-1,6673e-002	-2,8172	-6,6584	7,4417
75713	18,743	-3,0232	-3,2551	14,38
75714	19,407	-3,0008	-2,9119	15,009
75715	2,1236	-2,9476	-7,6677	7,3301
75716	1,4974	-2,9335	-7,8075	7,2678
75717	2,0427	-2,612	-7,1493	7,424
75718	4,7813	-2,9495	-9,0423	7,4348
75719	4,1977	-2,905	-9,1633	7,3242
75720	4,5546	-2,5479	-8,6413	7,4539
75721	-0,70495	-3,0335	-8,3831	7,1321
75722	6,2918e-002	-3,0383	-8,4956	7,1027
75723	5,0436	-3,1344	-8,8492	7,5071
75724	5,6461	-3,0788	-8,7709	7,6323
75725	4,817	-2,7328	-8,4482	7,5287
75726	2,8443	-2,9542	-8,432	7,26
75727	2,1883	-2,9411	-8,573	7,18
75728	2,3901	-2,6094	-7,5502	7,3706
75729	-2,1103	-3,1148	-7,6111	7,338
75730	-2,6865	-2,9965	-7,5574	7,3977
75731	5,4478	-3,0133	-9,5936	7,4873
75732	4,8544	-3,0139	-9,7102	7,3661
75733	4,8312	-2,6562	-8,86	7,4682
75734	6,6777	-2,9784	-9,3585	7,773
75735	6,0503	-2,9577	-9,5153	7,6163
75736	-1,5121	-3,1197	-8,3621	7,1675
75737	-2,2008	-3,1779	-8,2837	7,2252
75738	0,82454	-2,9741	-8,6247	7,0977
75739	1,5622	-2,9269	-8,7127	7,1198
75740	0,9811	-2,749	-9,5379	6,9663
75741	7,5342	-2,9881	-9,9327	7,9117
75742	6,8887	-2,9896	-10,061	7,7442
75743	-0,82422	-3,062	-9,0492	7,0334
75744	-1,4887	-3,0269	-8,9578	7,0739
75745	-5,635e-002	-3,0668	-9,1617	7,0041
75746	0,45997	-3,0717	-9,3514	6,9862
75747	0,58702	-2,8063	-9,8144	6,921
75748	3,5541	-2,9661	-9,1491	7,2365
75749	2,966	-3,0142	-9,224	7,158
75750	6,2613	-2,9689	-10,218	7,5903
75751	5,6356	-2,9767	-10,34	7,4523
75752	8,3952	-3,0093	-10,49	8,0782
75753	7,7548	-2,976	-10,656	7,9031
75754	-0,37647	-3,0744	-9,6918	6,9441
75755	-0,92582	-3,1067	-9,7271	6,9529
75756	7,1093	-2,9774	-10,785	7,7379
75757	6,4763	-2,9785	-10,916	7,5895
75758	4,2708	-2,9695	-9,8312	7,2581
75759	3,6683	-2,987	-9,9066	7,1642
75760	10,742	-3,0351	-11,392	8,6388
75761	11,37	-3,0586	-11,223	8,8252
75762	9,2359	-3,0559	-11,001	8,2577
75763	8,5969	-3,0565	-11,147	8,0822
75764	7,9566	-3,0231	-11,313	7,9118
75765	7,3185	-2,9894	-11,469	7,7562
75766	5,0421	-2,9774	-10,457	7,3327
75767	4,4402	-2,9863	-10,555	7,2251
75768	0,13985	-3,0793	-9,8816	6,9264
75769	-3,6704e-002	-3,0774	-10,328	6,8822
75770	-0,5715	-3,0469	-10,367	6,8834
75771	9,4382	-3,0608	-11,69	8,2701
75772	10,101	-3,0342	-11,543	8,4487
75773	5,8507	-2,9863	-11,038	7,4534
75774	5,2396	-2,9989	-11,154	7,3336
75775	1,1976	-3,0245	-9,4395	7,0035
75776	0,50883	-3,1444	-10,105	6,913
75777	0,61654	-2,8466	-10,265	6,8907
75778	6,6856	-2,9905	-11,599	7,611
75779	6,0637	-2,9987	-11,727	7,4818
75780	2,3101	-3,0011	-9,365	7,08
75781	1,7313	-3,0235	-9,6454	7,0042
75782	1,3246	-2,7592	-9,9024	6,9437
75783	8,7992	-3,0614	-11,836	8,0994
75784	8,1685	-3,0659	-11,982	7,9454
75785	7,5304	-3,0322	-12,138	7,7946
75786	6,8913	-3,	-12,286	7,6584
75787	3,0802	-3,0351	-9,9814	7,0861
75788	2,5227	-3,0366	-10,096	7,0178
75789	1,0425	-3,1433	-10,311	6,9085
75790	0,33228	-3,1425	-10,551	6,8726
75791	0,95174	-3,1291	-10,691	6,8748
75792	0,63588	-2,879	-10,568	6,8681
75793	1,4661	-3,0956	-10,594	6,9017
75794	1,9439	-3,059	-10,377	6,9498
75795	1,1502	-2,8455	-10,471	6,8902
75796	16,204	-3,0144	-3,197	12,883
75797	15,579	-3,025	-3,5258	12,43
75798	3,8377	-3,0038	-10,631	7,131
75799	3,2588	-3,0052	-10,713	7,0518
75800	0,58083	-3,1009	-11,115	6,8453
75801	-0,18441	-3,1343	-10,968	6,8462
75802	0,43998	-2,8447	-10,711	6,8537
75803	17,133	-3,0537	-3,4145	13,379
75804	16,525	-3,0149	-3,725	12,913
75805	1,2003	-3,0875	-11,255	6,8586
75806	1,675	-3,038	-11,161	6,8884
75807	1,0594	-2,8313	-10,851	6,8601
75808	4,6377	-3,0078	-11,252	7,2269
75809	4,0363	-3,0054	-11,343	7,1331
75810	18,073	-3,0724	-3,6275	13,903
75811	17,463	-3,0525	-3,9584	13,395
75812	9,0038	-3,0654	-12,525	8,1406
75813	9,6519	-3,0369	-12,376	8,2947
75814	5,4526	-3,0112	-11,842	7,3641
75815	4,873	-3,0648	-11,961	7,2652
75816	19,018	-3,0241	-3,8366	14,508
75817	18,422	-3,016	-4,1626	13,918
75818	1,2978	-3,0438	-11,806	6,8661
75819	0,78181	-3,1095	-11,857	6,8489
75820	0,88443	-2,8374	-11,132	6,8445
75821	6,2694	-3,0081	-12,413	7,5328
75822	5,6803	-3,0566	-12,54	7,4273
75823	8,373	-3,0699	-12,67	7,992
75824	7,7338	-3,0414	-12,822	7,8562
75825	19,922	-2,9954	-4,1158	15,273
75826	19,337	-2,9867	-4,4191	14,489
75827	19,682	-3,0017	-3,4934	15,07
75828	2,1529	-3,0014	-10,944	6,9315
75829	2,7013	-3,0067	-10,827	6,9853
75830	7,0947	-3,0092	-12,97	7,7251
75831	6,4922	-3,0504	-13,105	7,6156
75832	10,314	-3,0103	-12,228	8,468
75833	10,977	-3,0095	-12,058	8,6409
75834	8,5644	-3,0383	-13,363	8,0605
75835	9,2062	-3,0673	-13,208	8,1916
75836	1,7725	-2,9944	-11,712	6,894
75837	2,3315	-2,9991	-11,632	6,9353
75838	20,204	-2,9848	-4,738	15,19
75839	7,9252	-3,0099	-13,515	7,9309
75840	7,3126	-3,0484	-13,66	7,8218
75841	15,9	-3,0255	-4,0538	12,48
75842	15,27	-3,0324	-4,366	12,029
75843	1,9248	-2,9982	-12,383	6,9276
75844	1,3472	-3,0101	-12,43	6,8955
75845	16,855	-3,0137	-4,2689	12,953
75846	16,18	-3,0683	-4,6148	12,446
75847	3,4575	-3,0068	-11,425	7,054
75848	2,8799	-3,0043	-11,515	6,9872
75849	9,8544	-3,0388	-13,059	8,3398
75850	10,516	-3,0108	-12,895	8,4888
75851	17,811	-2,9961	-4,4935	13,444
75852	17,126	-3,0456	-4,8474	12,886
75853	8,1392	-3,0429	-14,201	8,0349
75854	8,7621	-3,0089	-14,047	8,1397
75855	4,2717	-3,0625	-12,052	7,1717
75856	3,6449	-3,012	-12,132	7,088
75857	18,741	-2,9786	-4,7451	13,951
75858	18,118	-2,9849	-5,0695	13,37
75859	15,55	-3,0752	-4,927	12,014
75860	14,947	-3,0304	-5,1973	11,612
75861	5,1007	-3,1102	-12,659	7,331
75862	4,467	-3,0705	-12,756	7,238
75863	16,452	-3,1002	-5,1933	12,405
75864	15,853	-3,0659	-5,4713	11,986
75865	19,619	-2,9761	-5,0412	14,482
75866	19,02	-2,9723	-5,3552	13,811
75867	17,432	-3,0344	-5,4234	12,846
75868	16,789	-3,0418	-5,7315	12,366
75869	5,9031	-3,0988	-13,232	7,5139
75870	5,2647	-3,0599	-13,341	7,4158
75871	19,875	-2,9832	-5,6848	14,25
75872	20,454	-3,0068	-5,4078	15,016
75873	18,396	-2,9786	-5,6796	13,273
75874	17,761	-2,9842	-5,9863	12,758
75875	15,25	-3,021	-5,7416	11,598
75876	14,61	-3,0208	-6,0151	11,203
75877	2,4837	-3,0028	-12,303	6,9682
75878	3,0674	-3,0095	-12,222	7,0223
75879	16,191	-3,0075	-6,0095	11,964
75880	15,484	-3,0595	-6,3267	11,51
75881	19,276	-2,9794	-5,9988	13,633
75882	18,665	-2,9713	-6,2967	13,086
75883	17,119	-2,9916	-6,2944	12,302
75884	16,408	-3,0349	-6,6266	11,824
75885	6,0701	-3,0557	-13,916	7,6185
75886	6,7101	-3,0896	-13,795	7,7171
75887	18,03	-2,9769	-6,6034	12,602
75888	17,383	-2,9843	-6,8979	12,15
75889	20,118	-2,9885	-6,3578	13,935
75890	19,434	-3,0461	-6,7476	13,24
75891	2,6589	-3,0069	-13,002	7,0373
75892	2,0676	-3,0039	-13,073	6,9962
75893	18,823	-3,038	-7,0455	12,734
75894	18,244	-2,9539	-7,2381	12,37
75895	3,2426	-3,0135	-12,921	7,0905
75896	3,8403	-3,0201	-12,837	7,155
75897	20,256	-3,0556	-7,2427	13,309
75898	20,936	-2,8227	-6,6677	14,23
75899	20,698	-3,0122	-6,0808	14,643
75900	19,571	-3,1131	-7,6326	12,679
75901	19,113	-2,9943	-7,7293	12,443
75902	3,4282	-3,016	-13,623	7,1914
75903	2,8267	-3,0112	-13,706	7,1417
75904	4,631	-3,0202	-13,439	7,3256
75905	4,0259	-3,0226	-13,538	7,2545
75906	20,384	-3,0443	-7,9991	12,737
75907	19,973	-2,9738	-8,2168	12,427
75908	21,064	-2,8114	-7,4241	13,576
75909	21,748	-2,8666	-7,0139	14,373
75910	21,567	-2,6881	-6,3455	15,179
75911	5,4317	-3,0168	-14,026	7,5244
75912	4,816	-3,0153	-14,132	7,4485
75913	14,843	-3,0593	-6,6002	11,129
75914	14,257	-3,0102	-6,8268	10,8
75915	21,249	-3,0821	-7,9995	13,06
75916	21,005	-2,8653	-8,3583	12,619
75917	21,28	-2,75	-8,1412	12,893
75918	15,7	-3,0869	-6,9438	11,389
75919	15,103	-3,0584	-7,182	11,049
75920	21,932	-3,1373	-7,5894	13,817
75921	22,593	-3,1095	-7,3606	14,406
75922	22,376	-3,031	-6,7578	15,346
75923	21,963	-2,8051	-7,731	13,64
75924	16,672	-3,0275	-7,2301	11,694
75925	15,95	-3,0659	-7,5484	11,27
75926	5,6193	-3,0152	-14,719	7,6664
75927	6,2405	-3,013	-14,599	7,7417
75928	17,597	-2,9613	-7,5326	11,941
75929	16,971	-2,9967	-7,8141	11,571
75930	22,098	-3,2373	-8,0876	13,226
75931	21,886	-2,9542	-8,4785	12,736
75932	21,741	-2,8634	-8,0802	13,119
75933	18,533	-2,9103	-7,9219	12,093
75934	17,844	-2,9421	-8,2197	11,703
75935	18,206	-2,6327	-8,0784	11,881
75936	4,2109	-3,0177	-14,231	7,3801
75937	3,5993	-3,0132	-14,326	7,3242
75938	22,758	-3,2094	-7,8588	13,806
75939	22,583	-3,218	-8,4045	12,988
75940	22,129	-2,9051	-8,2293	13,065
75941	19,515	-2,855	-8,3135	12,194
75942	18,784	-2,8988	-8,5642	11,829
75943	18,735	-2,6048	-8,2877	11,964
75944	9,4038	-3,0379	-13,892	8,2643
75945	10,053	-3,064	-13,727	8,3875
75946	23,132	-3,174	-7,7148	14,105
75947	23,333	-3,0666	-7,1799	15,187
75948	23,349	-2,7895	-7,2631	14,983
75949	22,401	-2,8356	-7,8514	13,697
75950	20,595	-2,7948	-8,5759	12,319
75951	19,764	-2,8781	-8,9979	11,825
75952	5,0036	-3,0138	-14,826	7,5941
75953	4,3842	-3,009	-14,928	7,5353
75954	22,957	-3,1825	-8,2605	13,282
75955	23,493	-3,2387	-8,0186	13,713
75956	24,186	-2,7914	-8,0742	13,664
75957	23,45	-2,8236	-7,4969	14,628
75958	21,642	-2,7374	-8,8372	12,325
75959	20,886	-2,8534	-9,2505	11,874
75960	21,497	-2,6466	-8,439	12,686
75961	14,517	-3,0093	-7,4085	10,729
75962	13,859	-3,0168	-7,6518	10,393
75963	22,372	-2,9349	-8,7953	12,522
75964	23,007	-3,2307	-8,7111	12,671
75965	22,227	-2,8441	-8,3971	12,876
75966	15,352	-3,0374	-7,7866	10,941
75967	14,758	-3,0124	-8,013	10,638
75968	6,8805	-3,0469	-14,477	7,8353
75969	7,5266	-3,0815	-14,347	7,9315
75970	16,249	-3,035	-8,1324	11,163
75971	15,533	-3,054	-8,4385	10,787
75972	21,796	-2,8228	-9,6114	11,677
75973	22,406	-2,7432	-9,3756	11,892
75974	21,917	-2,622	-8,6201	12,585
75975	17,218	-2,9775	-8,5012	11,352
75976	16,509	-3,0556	-8,7323	11,023
75977	16,824	-2,7591	-8,9664	10,999
75978	5,8091	-3,0128	-15,408	7,8245
75979	5,1818	-3,0062	-15,519	7,7661
75980	18,095	-2,9306	-8,862	11,458
75981	17,41	-2,9647	-9,203	11,105
75982	18,046	-2,6366	-8,5855	11,584
75983	17,29	-2,7276	-9,192	11,07
75984	14,1	-3,0198	-8,2563	10,311
75985	13,447	-3,0196	-8,4882	10,01
75986	19,034	-2,9218	-9,2486	11,477
75987	18,36	-2,9196	-9,529	11,186
75988	18,458	-2,6212	-8,7206	11,628
75989	14,939	-3,029	-8,6649	10,494
75990	14,344	-3,0156	-8,8737	10,227
75991	20,056	-2,9367	-9,6725	11,41
75992	19,367	-2,9302	-9,9422	11,159
75993	15,794	-3,0746	-9,0384	10,661
75994	15,178	-3,026	-9,302	10,38
75995	6,4303	-3,0106	-15,288	7,8952
75996	7,0563	-3,0053	-15,156	7,9663
75997	16,701	-3,0428	-9,4341	10,787
75998	16,166	-3,0527	-9,6402	10,563
75999	16,582	-2,8057	-9,4231	10,753
76000	21,04	-2,9388	-10,025	11,256
76001	20,331	-2,9729	-10,241	11,085
76002	17,675	-2,9538	-9,8701	10,853
76003	17,117	-2,957	-10,152	10,614
76004	17,016	-2,7463	-9,6682	10,785
76005	7,7024	-3,0398	-15,025	8,0569
76006	8,3535	-3,074	-14,884	8,1462
76007	18,693	-2,928	-10,223	10,882
76008	18,014	-2,8883	-10,6	10,606
76009	21,306	-2,9722	-10,607	10,858
76010	21,992	-2,9496	-10,421	10,944
76011	18,982	-2,9424	-10,866	10,604
76012	19,642	-2,9665	-10,511	10,844
76013	8,9764	-3,04	-14,73	8,2448
76014	9,61	-3,0117	-14,567	8,3415
76015	6,6232	-3,0081	-15,975	8,0591
76016	5,9936	-3,0074	-16,097	8,0063
76017	19,267	-2,956	-11,448	10,313
76018	18,302	-2,9026	-11,243	10,345
76019	18,671	-2,9192	-11,599	10,225
76020	19,927	-2,9801	-11,093	10,54
76021	20,597	-3,0063	-10,823	10,693
76022	7,2492	-3,0028	-15,843	8,125
76023	7,8888	-3,0063	-15,703	8,1898
76024	13,692	-3,0154	-9,1056	9,9349
76025	13,023	-3,0138	-9,3309	9,6591
76026	20,202	-2,9975	-11,717	10,163
76027	19,536	-2,9659	-11,954	10,077
76028	14,583	-3,0126	-9,5107	10,121
76029	13,908	-3,0178	-9,7449	9,8504
76030	20,873	-3,0237	-11,447	10,307
76031	21,539	-3,0145	-11,231	10,368
76032	15,55	-3,0041	-9,9038	10,293
76033	14,811	-3,0073	-10,169	10,015
76034	8,5399	-3,0405	-15,562	8,2732
76035	9,197	-3,0668	-15,407	8,3513
76036	16,582	-2,9669	-10,358	10,4
76037	15,761	-2,9979	-10,591	10,144
76038	16,481	-2,7562	-9,8743	10,564
76039	20,439	-3,011	-12,334	9,8215
76040	21,107	-3,0328	-12,101	9,85
76041	17,456	-2,8915	-10,882	10,382
76042	16,714	-2,9517	-11,111	10,18
76043	16,997	-2,7199	-10,141	10,578
76044	7,45	-3,006	-16,528	8,2875
76045	6,8104	-3,0016	-16,659	8,2429
76046	18,182	-2,869	-11,495	10,219
76047	17,454	-2,9192	-11,61	10,115
76048	13,239	-3,0162	-9,9702	9,5827
76049	12,569	-3,0163	-10,179	9,3378
76050	18,94	-2,9291	-12,106	9,9916
76051	18,247	-2,9513	-12,253	9,9301
76052	14,136	-3,0126	-10,403	9,753
76053	13,401	-3,0301	-10,641	9,4972
76054	19,772	-2,9794	-12,571	9,7415
76055	19,095	-3,006	-12,755	9,7173
76056	15,022	-3,0011	-10,856	9,876
76057	14,343	-3,0122	-11,071	9,6617
76058	8,0896	-3,0095	-16,387	8,3469
76059	8,7359	-3,0139	-16,237	8,4005
76060	15,893	-2,9826	-11,343	9,9337
76061	15,209	-3,0003	-11,542	9,7514
76062	19,984	-3,0138	-13,186	9,4399
76063	20,655	-2,9904	-13,	9,4082
76064	16,712	-2,9794	-11,839	9,9219
76065	16,041	-2,9887	-12,047	9,7725
76066	12,731	-3,0301	-10,849	9,2604
76067	12,072	-3,0359	-11,038	9,0497
76068	17,519	-3,0015	-12,368	9,8277
76069	16,861	-2,9968	-12,54	9,732
76070	13,607	-3,0297	-11,309	9,415
76071	12,93	-3,033	-11,513	9,2122
76072	18,402	-3,0282	-12,902	9,6583
76073	17,728	-3,0202	-13,074	9,6109
76074	14,53	-3,0113	-11,757	9,5453
76075	13,823	-3,0255	-11,973	9,3556
76076	19,307	-3,0405	-13,37	9,4186
76077	18,637	-3,0182	-13,572	9,4109
76078	15,357	-3,0064	-12,245	9,5975
76079	14,694	-3,0176	-12,447	9,4469
76080	8,3164	-3,0382	-17,077	8,5039
76081	7,6453	-3,0089	-17,211	8,468
76082	16,19	-3,0062	-12,748	9,5897
76083	15,528	-3,0131	-12,942	9,4746
76084	19,521	-3,02	-14,027	9,1322
76085	20,192	-3,02	-13,832	9,0802
76086	17,07	-3,0156	-13,246	9,5198
76087	16,404	-3,0146	-13,432	9,446
76088	11,605	-3,033	-11,889	8,8214
76089	12,271	-3,0388	-11,702	9,0085
76090	17,962	-3,0103	-13,744	9,3671
76091	17,288	-3,0254	-13,921	9,3424
76092	11,179	-3,01	-12,725	8,6551
76093	11,84	-3,0146	-12,547	8,8157
76094	18,851	-2,9977	-14,23	9,1282
76095	18,178	-3,0136	-14,404	9,1551
76096	10,714	-3,036	-13,564	8,5298
76097	11,363	-3,0325	-13,394	8,6633
76098	12,506	-3,0204	-12,36	8,996
76099	13,146	-3,0288	-12,178	9,1603
76100	10,259	-3,0378	-14,402	8,4578
76101	10,907	-3,0594	-14,231	8,5674
76102	12,024	-3,0371	-13,216	8,8167
76103	12,682	-3,0315	-13,038	8,9592
76104	9,8307	-3,0385	-15,244	8,4414
76105	10,465	-3,0143	-15,077	8,5244
76106	11,556	-3,0558	-14,062	8,6941
76107	12,213	-3,0517	-13,887	8,8114
76108	9,3931	-3,0403	-16,083	8,4724
76109	10,052	-3,0601	-15,918	8,5349
76110	11,113	-3,0359	-14,906	8,6271
76111	11,77	-3,034	-14,732	8,7197
76112	8,9627	-3,0426	-16,928	8,5521
76113	9,6077	-3,0369	-16,763	8,5881
76114	10,686	-3,0359	-15,751	8,6116
76115	11,323	-3,0109	-15,582	8,6772
76116	9,1853	-3,0637	-17,613	8,6909
76117	8,53	-3,0708	-17,765	8,6756
76118	10,267	-3,0567	-16,597	8,6444
76119	10,891	-3,0328	-16,427	8,6846
76120	19,058	-2,999	-14,889	8,8754
76121	19,729	-2,998	-14,696	8,8009
76122	9,8303	-3,0579	-17,448	8,7213
76123	10,453	-3,0302	-17,278	8,7378
76124	13,987	-3,0317	-12,662	9,2656
76125	13,321	-3,04	-12,856	9,1163
76126	10,006	-3,0347	-18,124	8,8333
76127	9,3723	-3,0619	-18,286	8,8385
76128	14,864	-3,0243	-13,143	9,3313
76129	14,2	-3,0318	-13,33	9,211
76130	12,87	-3,0461	-13,709	8,947
76131	13,534	-3,04	-13,524	9,0687
76132	15,742	-3,0216	-13,626	9,337
76133	15,075	-3,0265	-13,815	9,2495
76134	13,084	-3,0454	-14,372	8,9262
76135	12,426	-3,0298	-14,558	8,8304
76136	13,748	-3,0393	-14,186	9,0413
76137	14,411	-3,0339	-14,003	9,1354
76138	16,622	-3,0244	-14,107	9,2735
76139	15,962	-3,0124	-14,303	9,2232
76140	13,959	-3,0395	-14,853	8,9926
76141	13,297	-3,0234	-15,044	8,9229
76142	14,622	-3,0342	-14,67	9,0807
76143	15,295	-3,0174	-14,492	9,1414
76144	17,504	-3,0287	-14,581	9,1339
76145	16,838	-3,014	-14,786	9,1235
76146	14,831	-3,0348	-15,338	9,0002
76147	14,167	-3,0238	-15,529	8,9617
76148	15,505	-3,018	-15,161	9,0558
76149	16,178	-3,002	-14,982	9,0783
76150	17,715	-3,0288	-15,243	8,9501
76151	18,386	-3,0149	-15,063	8,9049
76152	15,707	-3,0186	-15,83	8,9393
76153	15,04	-3,0336	-16,004	8,9392
76154	11,979	-3,0091	-15,408	8,7631
76155	12,639	-3,0078	-15,23	8,8337
76156	17,049	-3,0141	-15,448	8,944
76157	16,38	-3,0026	-15,651	8,9575
76158	11,527	-3,0079	-16,258	8,744
76159	12,182	-3,0043	-16,082	8,7896
76160	17,255	-3,0271	-16,102	8,7891
76161	17,924	-3,0269	-15,909	8,7285
76162	11,077	-3,0063	-17,107	8,7719
76163	11,731	-3,0052	-16,933	8,7932
76164	18,595	-3,0131	-15,729	8,6805
76165	19,265	-2,9994	-15,548	8,5832
76166	10,629	-3,0069	-17,954	8,8443
76167	11,286	-3,0065	-17,785	8,8418
76168	16,585	-3,0155	-16,305	8,8067
76169	15,916	-3,0177	-16,497	8,8438
76170	10,835	-3,01	-18,63	8,9323
76171	10,197	-3,033	-18,797	8,9585
76172	16,791	-3,0272	-16,964	8,6756
76173	17,463	-3,0254	-16,771	8,5949
76174	12,841	-3,003	-15,904	8,8539
76175	13,506	-3,0077	-15,72	8,8982
76176	18,132	-3,0253	-16,577	8,5312
76177	18,803	-3,0251	-16,382	8,4212
76178	12,386	-3,0016	-16,757	8,8328
76179	13,047	-3,0055	-16,575	8,8527
76180	14,376	-3,0225	-16,195	8,9061
76181	13,711	-3,0101	-16,392	8,8913
76182	11,94	-3,0054	-17,611	8,8576
76183	12,595	-3,0034	-17,43	8,8531
76184	15,249	-3,0327	-16,672	8,8479
76185	14,589	-3,0347	-16,859	8,8677
76186	11,492	-3,0096	-18,461	8,9249
76187	12,152	-3,0094	-18,287	8,8968
76188	16,122	-3,0294	-17,155	8,7163
76189	15,454	-3,0196	-17,354	8,7734
76190	11,72	-3,0251	-19,141	8,9798
76191	11,054	-3,0296	-19,308	9,0314
76192	16,329	-3,0289	-17,826	8,6054
76193	16,998	-3,0263	-17,634	8,5064
76194	13,257	-3,0073	-17,249	8,8676
76195	13,924	-3,0222	-17,055	8,8581
76196	17,67	-3,0245	-17,441	8,4228
76197	18,341	-3,0231	-17,246	8,2953
76198	12,807	-3,0073	-18,107	8,8875
76199	13,476	-3,0201	-17,917	8,8538
76200	14,794	-3,0216	-17,541	8,7975
76201	14,144	-3,0351	-17,723	8,8396
76202	12,379	-3,0249	-18,967	8,9475
76203	13,036	-3,0225	-18,783	8,8904
76204	15,661	-3,0191	-18,024	8,6661
76205	15,005	-3,0208	-18,218	8,7428
76206	12,605	-3,0391	-19,646	8,9656
76207	11,935	-3,0423	-19,821	9,0459
76208	15,877	-3,0313	-18,688	8,5742
76209	16,539	-3,0288	-18,497	8,4581
76210	14,355	-3,0343	-18,4	8,7887
76211	13,706	-3,0353	-18,593	8,8524
76212	17,207	-3,0263	-18,305	8,3563
76213	17,871	-3,0138	-18,12	8,2127
76214	15,221	-3,033	-18,882	8,6542
76215	14,553	-3,0227	-19,08	8,7529
76216	13,262	-3,0367	-19,462	8,9047
76217	13,903	-3,0237	-19,274	8,8203
76218	15,417	-3,0217	-19,561	8,5814
76219	16,088	-3,0319	-19,362	8,4458
76220	13,446	-3,0253	-20,136	8,8895
76221	12,795	-3,0395	-20,318	8,9963
76222	14,749	-3,0114	-19,759	8,6832
76223	14,088	-3,0123	-19,947	8,8019
76224	16,75	-3,0295	-19,17	8,3272
76225	17,408	-3,0159	-18,985	8,1699
76226	14,95	-3,0104	-20,434	8,6262
76227	15,612	-3,0087	-20,243	8,4736
76228	14,288	-3,0113	-20,621	8,7475
76229	13,622	-3,0115	-20,806	8,8867
76230	16,282	-3,0189	-20,043	8,3357
76231	16,948	-3,0186	-19,851	8,1621
76232	15,161	-3,0233	-21,102	8,5306
76233	14,483	-3,0091	-21,294	8,7052
76234	15,823	-3,0217	-20,912	8,376
76235	16,476	-3,006	-20,724	8,1905
76236	15,371	-3,0365	-21,773	8,4463
76237	16,025	-3,0224	-21,584	8,2455
76238	14,904	-3,035	-22,633	8,5496
76239	14,693	-3,0223	-21,965	8,6224
76240	15,559	-3,0223	-22,45	8,333
76241	14,436	-3,032	-23,489	8,6805
76242	14,227	-3,0226	-22,819	8,7436
76243	15,091	-3,0208	-23,308	8,4483
76244	13,961	-3,0195	-24,355	8,8399
76245	13,77	-3,0314	-23,672	8,8891
76246	14,626	-3,0189	-24,169	8,5881
76247	13,499	-3,0192	-25,219	9,0195
76248	13,287	-3,0089	-24,543	9,0698
76249	14,152	-3,008	-25,037	8,755
76250	13,036	-3,0184	-26,082	9,2241
76251	12,848	-3,031	-25,399	9,2602
76252	13,712	-3,0295	-25,892	8,9318
76253	12,564	-3,0088	-26,946	9,4557
76254	12,363	-3,0086	-26,265	9,4928
76255	13,226	-3,0087	-26,763	9,1496
76256	12,12	-3,0218	-27,804	9,6975
76257	11,905	-3,0107	-27,124	9,7398
76258	12,778	-3,0212	-27,621	9,3731
76259	11,661	-3,0243	-28,664	9,969
76260	11,473	-3,0346	-27,978	9,9981
76261	12,332	-3,0334	-28,482	9,6158
76262	11,183	-3,0126	-29,529	10,274
76263	11,005	-3,027	-28,841	10,298
76264	11,858	-3,0256	-29,345	9,8936
76265	10,719	-3,0093	-30,391	10,596
76266	10,544	-3,0254	-29,707	10,621
76267	11,392	-3,0241	-30,21	10,189
76268	10,257	-3,005	-31,248	10,94
76269	10,092	-3,026	-30,571	10,964
76270	10,934	-3,0248	-31,071	10,501
76271	9,7947	-3,0015	-32,106	11,309
76272	9,6037	-3,0018	-31,419	11,353
76273	10,454	-3,0064	-31,929	10,849
76274	9,3319	-3,0001	-32,963	11,703
76275	9,1397	-2,9977	-32,271	11,757
76276	9,9908	-3,0039	-32,79	11,207
76277	8,8645	-3,0038	-33,817	12,125
76278	8,6751	-2,9963	-33,124	12,191
76279	9,5245	-3,0006	-33,645	11,587
76280	8,3781	-2,9975	-34,67	12,59
76281	8,2038	-3,0116	-33,974	12,661
76282	9,0531	-3,002	-34,503	11,991
76283	14,017	-3,0099	-22,151	8,8153
76284	13,818	-3,0093	-21,479	8,8465
76285	7,8866	-2,9742	-35,532	13,094
76286	7,6816	-2,9846	-34,811	13,213
76287	8,5667	-2,9939	-35,359	12,429
76288	13,561	-3,022	-23,002	8,9516
76289	13,35	-3,0096	-22,332	8,9764
76290	7,4282	-2,9796	-36,404	13,597
76291	7,2143	-2,9698	-35,677	13,761
76292	8,0897	-2,9755	-36,224	12,883
76293	13,095	-3,0208	-23,86	9,1188
76294	12,906	-3,0344	-23,176	9,1291
76295	6,9848	-3,0007	-37,281	14,124
76296	6,682	-3,0476	-36,59	14,452
76297	7,6387	-2,9943	-37,093	13,329
76298	6,3023	-3,088	-37,509	15,021
76299	5,6234	-3,1662	-37,246	15,998
76300	5,7114	-3,1644	-37,808	15,96
76301	5,9995	-3,1348	-36,818	15,365
76302	12,635	-3,0207	-24,722	9,3109
76303	12,422	-3,0088	-24,043	9,3218
76304	6,5392	-3,0139	-38,168	14,706
76305	7,1816	-3,0124	-37,992	13,808
76306	5,1671	-3,1807	-37,532	16,799
76307	5,2259	-3,142	-36,994	16,498
76308	5,9483	-3,0903	-38,467	15,634
76309	5,255	-3,1788	-38,095	16,753
76310	5,371	-3,1352	-38,717	16,715
76311	6,0973	-3,0081	-39,054	15,371
76312	6,7376	-3,0083	-38,847	14,321
76313	12,175	-3,0212	-25,582	9,5298
76314	11,99	-3,0342	-24,894	9,5259
76315	4,6587	-3,1702	-38,274	17,963
76316	4,6596	-3,1161	-37,649	17,609
76317	5,5201	-3,0529	-39,304	16,441
76318	5,584	-2,9495	-39,954	16,316
76319	6,2686	-3,016	-39,787	14,923
76320	4,7747	-3,1266	-38,897	17,903
76321	4,9593	-2,9951	-39,552	17,718
76322	4,7981	-2,796	-39,275	18,044
76323	11,519	-3,0238	-25,756	9,7696
76324	11,704	-3,0105	-26,443	9,7784
76325	5,0232	-2,8917	-40,202	17,58
76326	5,7244	-2,9195	-40,666	15,84
76327	4,0927	-3,046	-39,019	19,541
76328	4,0791	-3,0871	-38,437	19,133
76329	4,4101	-2,8102	-39,058	18,798
76330	4,2773	-2,9146	-39,675	19,311
76331	4,5947	-2,6787	-39,714	18,596
76332	3,467	-2,9822	-39,156	20,997
76333	4,1162	-2,7155	-39,398	19,664
76334	10,817	-3,0373	-28,154	10,33
76335	10,617	-3,0389	-27,468	10,322
76336	11,258	-3,0234	-27,297	10,043
76337	10,366	-3,0399	-29,018	10,649
76338	10,149	-3,0233	-28,327	10,646
76339	9,9164	-3,0421	-29,886	10,993
76340	9,6975	-3,0242	-29,187	10,992
76341	9,4382	-3,0228	-30,742	11,382
76342	9,2484	-3,0254	-30,051	11,366
76343	8,9487	-2,998	-31,584	11,807
76344	8,7641	-3,0013	-30,894	11,79
76345	8,4829	-2,9939	-32,432	12,252
76346	8,3	-2,9959	-31,738	12,237
76347	3,4533	-3,0233	-38,574	20,622
76348	2,7794	-3,0071	-38,668	21,959
76349	8,0143	-3,004	-33,281	12,736
76350	7,8366	-2,9953	-32,588	12,722
76351	4,08	-3,0329	-37,813	18,801
76352	3,4237	-3,0228	-37,906	19,945
76353	7,5072	-2,9987	-34,116	13,295
76354	7,3568	-3,0234	-33,421	13,258
76355	4,7184	-3,0774	-37,11	17,319
76356	4,0532	-3,0219	-37,152	18,281
76357	7,0092	-2,9803	-34,956	13,893
76358	6,81	-2,999	-34,226	13,899
76359	5,602	-3,1105	-36,566	15,863
76360	4,7207	-3,0758	-36,49	16,946
76361	6,4681	-3,0378	-35,863	14,631
76362	6,3425	-2,9906	-35,069	14,539
76363	5,6674	-3,0501	-35,916	15,505
76364	2,7497	-3,0067	-38,	21,329
76365	2,0746	-3,003	-38,074	22,359
76366	3,3969	-3,0118	-37,245	19,459
76367	2,7299	-3,0117	-37,316	20,397
76368	4,0555	-3,0203	-36,531	17,932
76369	3,3715	-3,0092	-36,568	18,751
76370	4,7861	-3,0154	-35,839	16,611
76371	4,0435	-3,0495	-35,851	17,391
76372	5,5418	-3,0029	-35,122	15,439
76373	4,7132	-3,045	-35,175	16,254
76374	4,9354	-2,6983	-34,983	15,957
76375	6,1432	-3,0094	-34,34	14,561
76376	5,4301	-3,0331	-34,409	15,188
76377	5,2981	-2,6997	-34,615	15,42
76378	6,6596	-3,0237	-33,531	13,876
76379	5,972	-3,0345	-33,615	14,426
76380	7,1791	-3,0147	-32,728	13,255
76381	6,5252	-3,047	-32,842	13,741
76382	7,6537	-2,9973	-31,894	12,715
76383	7,013	-3,0024	-32,029	13,152
76384	8,1154	-2,9992	-31,048	12,226
76385	7,4787	-3,0043	-31,193	12,625
76386	8,5743	-3,0039	-30,203	11,78
76387	7,9316	-3,0018	-30,349	12,147
76388	9,0296	-3,0075	-29,352	11,37
76389	8,384	-3,0049	-29,507	11,709
76390	9,4801	-3,0076	-28,496	10,994
76391	8,8304	-3,0037	-28,656	11,306
76392	9,9488	-3,0249	-27,641	10,641
76393	9,2764	-3,0035	-27,806	10,936
76394	10,422	-3,0403	-26,784	10,317
76395	9,7471	-3,0223	-26,954	10,587
76396	10,878	-3,0381	-25,926	10,027
76397	10,203	-3,022	-26,099	10,273
76398	11,063	-3,0249	-26,613	10,035
76399	11,334	-3,0368	-25,068	9,7664
76400	10,658	-3,0198	-25,245	9,9886
76401	11,777	-3,0223	-24,215	9,537
76402	11,115	-3,0197	-24,39	9,7322
76403	12,232	-3,0224	-23,359	9,3316
76404	11,558	-3,0073	-23,54	9,5083
76405	12,695	-3,022	-22,506	9,1529
76406	12,044	-3,0385	-22,674	9,302
76407	13,151	-3,0091	-21,66	9,0061
76408	12,971	-3,0258	-20,987	8,9962
76409	12,489	-3,0122	-21,834	9,1374
76410	-7,7779	-2,8048	1,5602	9,2699
76411	-8,4768	-2,9	1,5579	9,4724
76412	-7,3083	-2,9242	0,75823	9,1939
76413	-7,9216	-2,8954	0,69562	9,3574
76414	-6,9511	-3,05	-0,21794	9,1096
76415	-7,4721	-3,0264	-9,8373e-002	9,2458
76416	-6,8899	-2,8819	0,32102	9,1131
76417	-6,4308	-3,0146	-1,1949	8,9634
76418	-7,1025	-3,0149	-1,1137	9,1263
76419	-6,6844	-2,8645	-0,25755	9,0478
76420	-6,0548	-2,7279	-1,3137	8,88
76421	-7,1063	-2,6983	-0,83644	9,1383
76422	-5,9925	-3,0478	-1,9998	8,8135
76423	-6,5634	-3,0049	-1,918	8,9459
76424	-5,7399	-2,71	-1,712	8,7965
76425	-5,6756	-3,1669	-2,9955	8,632
76426	-6,3739	-3,0576	-2,6865	8,8265
76427	-5,6165	-2,7612	-2,1186	8,7322
76428	-5,7555	-2,8557	-2,6948	8,6911
76429	-5,2684	-3,1575	-4,0233	8,4088
76430	-6,0039	-3,121	-3,8724	8,5786
76431	-5,8102	-2,973	-4,0395	8,5173
76432	-5,5619	-2,9237	-3,284	8,5751
76433	-4,8493	-3,1395	-4,886	8,1819
76434	-5,5933	-3,0388	-4,7763	8,3423
76435	-5,5965	-2,8957	-4,4781	8,4106
76436	-4,4576	-3,1223	-5,7312	7,9593
76437	-5,2168	-3,1604	-5,6118	8,1113
76438	-5,3911	-2,9549	-4,9022	8,2895
76439	-4,2403	-2,9497	-5,6201	7,9546
76440	-3,983	-3,0569	-6,6424	7,7187
76441	-4,7528	-3,022	-6,4248	7,8789
76442	-5,2049	-2,8785	-5,3233	8,1763
76443	-4,0541	-2,8733	-6,0412	7,8513
76444	-3,3829	-3,0243	-7,5366	7,4747
76445	-4,2189	-3,053	-7,3571	7,6203
76446	-3,7657	-2,8842	-6,5313	7,7119
76447	-2,777	-3,0596	-8,23	7,2854
76448	-3,5743	-3,0834	-8,252	7,3736
76449	-2,1774	-3,0851	-8,8794	7,1296
76450	-2,7332	-3,2224	-8,9011	7,176
76451	-1,5903	-3,0717	-9,6358	6,9924
76452	-2,2336	-3,0411	-9,5407	7,0488
76453	-1,1208	-3,0792	-10,402	6,8974
76454	-1,6803	-3,1178	-10,339	6,9313
76455	-0,71921	-3,1038	-11,007	6,8518
76456	-1,3213	-3,0474	-11,08	6,8724
76457	1,6576e-002	-3,1429	-11,71	6,8362
76458	-0,8256	-3,216	-11,596	6,8484
76459	0,11919	-2,8708	-10,985	6,8357
76460	0,83121	-3,0757	-12,481	6,8804
76461	0,35171	-3,1465	-12,482	6,8711
76462	0,64097	-2,8533	-11,453	6,8365
76463	1,49	-3,0158	-13,12	6,9636
76464	0,92405	-3,0306	-13,152	6,9424
76465	2,2354	-3,0082	-13,777	7,1012
76466	1,6433	-3,0057	-13,842	7,0735
76467	2,9978	-3,0084	-14,408	7,2762
76468	2,3974	-3,0112	-14,491	7,2422
76469	3,7726	-3,0046	-15,022	7,4821
76470	3,1525	-3,0041	-15,112	7,4425
76471	4,5624	-3,0014	-15,621	7,7107
76472	3,9453	-3,0062	-15,725	7,671
76473	5,3663	-3,0008	-16,208	7,952
76474	4,7406	-3,0001	-16,317	7,9129
76475	6,1809	-3,0009	-16,781	8,1946
76476	5,5522	-3,0004	-16,899	8,1613
76477	7,0057	-3,0045	-17,343	8,4281
76478	6,3687	-2,9993	-17,469	8,4037
76479	7,8589	-3,0414	-17,899	8,6443
76480	7,1971	-3,0058	-18,028	8,6306
76481	8,717	-3,0689	-18,439	8,8282
76482	8,0514	-3,0449	-18,582	8,8332
76483	12,125	-3,0427	-20,492	9,0799
76484	12,309	-3,0288	-21,162	9,1253
76485	9,5633	-3,0602	-18,959	8,9684
76486	8,8904	-3,0368	-19,112	8,994
76487	11,269	-3,0468	-19,987	9,1011
76488	11,45	-3,0316	-20,661	9,1823
76489	10,416	-3,0526	-19,474	9,0617
76490	9,7376	-3,0329	-19,634	9,1109
76491	10,596	-3,0323	-20,149	9,1755
76492	11,838	-3,0286	-22,002	9,2851
76493	11,635	-3,0177	-21,331	9,2304
76494	11,369	-3,0234	-22,854	9,4778
76495	11,186	-3,0431	-22,168	9,408
76496	10,983	-3,0322	-21,496	9,3515
76497	10,777	-3,0171	-20,823	9,2599
76498	10,897	-3,0047	-23,714	9,7035
76499	10,701	-3,0088	-23,03	9,6271
76500	10,518	-3,0284	-22,344	9,5559
76501	10,336	-3,0485	-21,657	9,4487
76502	10,241	-3,0051	-23,883	9,8719
76503	10,439	-3,0027	-24,566	9,9552
76504	10,045	-3,0092	-23,199	9,795
76505	9,865	-3,0318	-22,51	9,6771
76506	9,917	-3,0126	-20,309	9,2285
76507	10,129	-3,0334	-20,984	9,3549
76508	9,4113	-3,031	-23,36	9,9347
76509	9,5894	-3,0073	-24,048	10,062
76510	9,0647	-3,0096	-19,787	9,1407
76511	9,2586	-3,0073	-20,467	9,3002
76512	9,6829	-3,0518	-21,824	9,5682
76513	9,4705	-3,0282	-21,142	9,4292
76514	8,2248	-3,0128	-19,256	9,0034
76515	8,4152	-3,0068	-19,938	9,1891
76516	9,2312	-3,0535	-22,672	9,8159
76517	9,0171	-3,0311	-21,985	9,6663
76518	7,3896	-3,0093	-18,712	8,8235
76519	7,5822	-3,0117	-19,398	9,0312
76520	8,569	-3,0304	-22,828	9,935
76521	8,7871	-3,0564	-23,516	10,094
76522	8,6092	-3,0045	-20,618	9,3516
76523	8,8048	-3,0074	-21,303	9,5254
76524	6,5601	-3,0006	-18,154	8,6103
76525	6,7523	-3,0048	-18,844	8,8337
76526	7,7726	-3,0057	-20,08	9,2203
76527	7,9648	-3,0037	-20,766	9,4219
76528	8,355	-3,008	-22,141	9,7844
76529	8,1604	-3,0066	-21,452	9,5979
76530	6,9449	-3,0072	-19,53	9,0448
76531	7,1328	-3,0066	-20,221	9,2699
76532	7,7138	-3,0045	-22,287	9,877
76533	7,9094	-3,0091	-22,98	10,075
76534	5,74	-2,9988	-17,586	8,3743
76535	5,9321	-3,0043	-18,279	8,6072
76536	7,325	-3,0047	-20,908	9,474
76537	7,5192	-3,0031	-21,597	9,6892
76538	6,1242	-3,0085	-18,969	8,8339
76539	6,3113	-3,0071	-19,663	9,0761
76540	6,4993	-3,0065	-20,354	9,3039
76541	6,6919	-3,0046	-21,045	9,5431
76542	6,8861	-3,003	-21,734	9,7598
76543	7,0777	-3,0075	-22,431	9,9893
76544	4,9265	-2,9996	-17,008	8,1257
76545	5,1168	-3,002	-17,702	8,3608
76546	5,3089	-3,0075	-18,395	8,5967
76547	5,4987	-3,0087	-19,09	8,8496
76548	5,6858	-3,0073	-19,784	9,0944
76549	5,8745	-3,0032	-20,479	9,3527
76550	6,0672	-3,0013	-21,17	9,5934
76551	6,2597	-3,009	-21,87	9,8485
76552	4,3061	-3,0081	-17,12	8,1069
76553	4,1234	-3,0049	-16,421	7,8763
76554	4,4964	-3,0104	-17,814	8,3447
76555	4,6903	-3,012	-18,507	8,6005
76556	4,8801	-3,0131	-19,202	8,8557
76557	5,0662	-3,0042	-19,901	9,1272
76558	5,2549	-3,0002	-20,596	9,387
76559	5,4482	-3,0085	-21,297	9,6618
76560	3,6778	-3,0114	-17,227	8,0878
76561	3,9114	-3,063	-17,933	8,3488
76562	3,4952	-3,0082	-16,528	7,8547
76563	3,3251	-3,0058	-15,815	7,6336
76564	4,1053	-3,0645	-18,627	8,6066
76565	4,2816	-3,1007	-19,339	8,8879
76566	4,4676	-3,0918	-20,037	9,1613
76567	4,6396	-2,9983	-20,71	9,4361
76568	3,0515	-3,085	-17,423	8,1167
76569	2,7286	-3,0117	-16,512	7,7883
76570	3,2851	-3,1366	-18,13	8,3805
76571	3,4662	-3,2939	-18,749	8,6261
76572	3,6425	-3,3301	-19,461	8,9092
76573	3,8561	-2,9783	-20,085	9,1717
76574	2,6438	-3,1104	-18,268	8,4055
76575	2,1791	-3,3129	-17,648	8,1462
76576	2,8249	-3,2677	-18,888	8,6523
76577	3,0725	-3,1705	-19,448	8,8898
76578	2,5521	-3,007	-15,195	7,4103
76579	2,5586	-3,0093	-15,799	7,5694
76580	2,1782	-3,1169	-18,464	8,4574
76581	2,4041	-2,8231	-18,845	8,6182
76582	1,8053	-3,0087	-14,557	7,2147
76583	1,9223	-3,0317	-15,291	7,393
76584	1,9288	-3,0339	-15,894	7,5569
76585	1,8562	-3,2396	-16,736	7,8163
76586	1,7135	-3,3194	-17,844	8,202
76587	1,7975	-3,0475	-18,432	8,4383
76588	1,0773	-3,0205	-13,873	7,0512
76589	1,2485	-3,0677	-14,632	7,2046
76590	1,3656	-3,0906	-15,366	7,3849
76591	1,3181	-3,1393	-16,092	7,5887
76592	1,2455	-3,345	-16,934	7,8597
76593	1,1307	-3,2078	-17,628	8,108
76594	-8,6205	-2,9906	0,69326	9,5594
76595	-9,2652	-2,9471	0,7333	9,7705
76596	0,52186	-3,1095	-13,895	7,0409
76597	0,44455	-3,1014	-13,152	6,9315
76598	0,69307	-3,1567	-14,653	7,1925
76599	0,81286	-3,1289	-15,421	7,3826
76600	0,76535	-3,1776	-16,148	7,5905
76601	0,65777	-3,0345	-16,972	7,8577
76602	-8,0854	-2,9977	-0,16098	9,4112
76603	-8,7683	-2,9779	-7,4613e-002	9,6222
76604	-8,3735	-2,7859	3,9188e-002	9,4993
76605	-7,9251	-2,687	-0,32047	9,3605
76606	4,7321e-002	-3,2014	-14,523	7,1596
76607	1,5986e-002	-3,215	-13,954	7,0392
76608	0,16711	-3,1737	-15,291	7,3422
76609	0,20505	-3,0675	-16,155	7,5838
76610	-6,1327e-002	-3,2068	-13,211	6,9299
76611	-0,49047	-3,2196	-12,368	6,8651
76612	0,45432	-2,8744	-11,757	6,8339
76613	-7,6235	-2,9913	-0,99413	9,2609
76614	-8,1067	-2,8854	-0,85344	9,4036
76615	-8,0758	-2,7737	-0,35722	9,4073
76616	-7,2054	-2,8409	-0,13799	9,1833
76617	-7,6274	-2,6748	-0,71687	9,2736
76618	-0,39674	-3,2416	-14,508	7,1607
76619	-0,4517	-3,1331	-15,277	7,3408
76620	-0,42807	-3,2552	-13,939	7,0414
76621	-0,57473	-3,2984	-13,425	6,9627
76622	-7,2351	-3,0052	-1,8368	9,1088
76623	-7,7736	-2,9159	-1,7621	9,2584
76624	-7,0413	-2,8468	-0,57474	9,1181
76625	-7,4632	-2,6807	-1,1536	9,2145
76626	-0,71944	-3,2926	-14,082	7,0827
76627	-0,8455	-3,156	-14,668	7,2014
76628	-6,9447	-3,0148	-2,6046	8,96
76629	-7,4446	-3,0248	-2,5877	9,0886
76630	-0,8661	-3,3358	-13,568	7,0006
76631	-1,1816	-3,191	-14,15	7,1074
76632	-6,7022	-3,0118	-3,5634	8,7702
76633	-7,3128	-2,9972	-3,4372	8,9412
76634	-6,2602	-2,8144	-2,9749	8,7679
76635	-1,0039	-3,3111	-12,582	6,8954
76636	-1,3252	-3,1946	-13,408	6,9922
76637	-6,3288	-3,0023	-4,6254	8,5139
76638	-6,8928	-3,0232	-4,4818	8,6689
76639	-6,332	-2,8592	-4,3272	8,5828
76640	-6,0837	-2,8099	-3,5717	8,6316
76641	-1,4277	-3,1596	-11,669	6,8744
76642	-1,6428	-3,1577	-12,383	6,9113
76643	-0,20121	-2,9263	-11,339	6,8292
76644	-5,9609	-3,0597	-5,5021	8,2748
76645	-6,5427	-3,06	-5,509	8,404
76646	-6,1351	-2,8543	-4,7924	8,4549
76647	-1,8807	-3,086	-11,017	6,9078
76648	-2,1007	-3,0339	-11,699	6,9169
76649	-5,512	-3,06	-6,3054	8,0342
76650	-6,2343	-3,0838	-6,1913	8,2052
76651	-5,9641	-2,9166	-5,2039	8,3355
76652	-2,3236	-3,0873	-10,244	6,9862
76653	-2,4389	-3,1321	-10,957	6,9547
76654	-4,9887	-3,018	-7,1395	7,7806
76655	-5,7069	-3,011	-7,0032	7,9425
76656	-5,6863	-2,8545	-5,5958	8,1947
76657	-2,7894	-3,1784	-9,5623	7,0976
76658	-2,9704	-3,055	-10,149	7,0575
76659	-4,4102	-3,112	-8,0725	7,519
76660	-5,1944	-3,0339	-7,8861	7,686
76661	-3,5304	-3,2462	-8,923	7,2649
76662	-3,2505	-3,256	-9,4746	7,1572
76663	-4,0198	-3,1675	-8,955	7,3262
76664	-4,6209	-3,1382	-8,7799	7,4438
76665	-3,7399	-3,1773	-9,5066	7,2163
76666	-4,41	-3,1578	-9,5702	7,3091
76667	-3,4316	-3,1326	-10,062	7,1171
76668	-4,042	-3,1658	-10,055	7,2006
76669	-3,0856	-3,0997	-10,863	7,0243
76670	-3,7521	-3,0586	-10,762	7,1132
76671	-2,6588	-3,08	-11,64	6,9654
76672	-3,2725	-3,091	-11,555	7,031
76673	-2,3158	-3,032	-12,413	6,96
76674	-2,9057	-3,0232	-12,312	7,0093
76675	-1,9642	-3,0411	-13,209	7,005
76676	-2,5316	-3,0354	-13,103	7,0363
76677	-1,6407	-3,0497	-13,99	7,0981
76678	-2,1679	-3,0372	-13,887	7,1145
76679	-1,3076	-3,0544	-14,736	7,2296
76680	-1,8325	-3,0544	-14,666	7,2388
76681	-0,90046	-3,0475	-15,436	7,3884
76682	-1,4485	-3,0438	-15,403	7,3986
76683	-0,41376	-3,0269	-16,141	7,5806
76684	-1,0043	-3,0392	-16,119	7,5857
76685	9,7474e-002	-2,9243	-16,979	7,8543
76686	-0,49439	-3,0065	-16,858	7,8162
76687	0,54289	-2,8973	-17,666	8,1106
76688	6,3828e-002	-2,9002	-17,679	8,1097
76689	0,49307	-2,502	-17,715	8,1209
76690	1,2147	-2,9359	-18,217	8,3394
76691	0,58176	-3,0015	-18,354	8,3838
76692	0,69186	-2,5572	-17,925	8,2075
76693	2,0234	-2,7538	-18,813	8,5958
76694	1,4227	-2,9509	-19,064	8,6935
76695	2,6517	-2,7259	-19,405	8,8526
76696	2,0712	-2,7825	-19,556	8,9045
76697	3,2861	-2,8187	-20,071	9,1501
76698	2,7115	-2,95	-20,221	9,2079
76699	4,0281	-2,8848	-20,757	9,4465
76700	3,4275	-2,8784	-20,85	9,4904
76701	4,8329	-3,0066	-21,411	9,7115
76702	4,2174	-3,0043	-21,52	9,7749
76703	5,6407	-3,0162	-21,997	9,9177
76704	5,0541	-3,0577	-22,125	10,003
76705	6,4513	-3,0135	-22,567	10,079
76706	5,8538	-3,0512	-22,701	10,185
76707	7,2734	-3,0122	-23,124	10,188
76708	6,6659	-3,0453	-23,266	10,318
76709	8,1275	-3,0352	-23,669	10,234
76710	7,4887	-3,0412	-23,82	10,394
76711	9,7871	-3,0049	-24,732	10,145
76712	9,9833	-3,0037	-25,418	10,235
76713	8,9652	-3,0328	-24,205	10,221
76714	8,3449	-3,0597	-24,36	10,401
76715	9,1377	-3,0079	-24,896	10,358
76716	9,3338	-3,0067	-25,582	10,447
76717	9,5287	-3,004	-26,269	10,545
76718	8,5174	-3,0348	-25,051	10,538
76719	8,6884	-3,0094	-25,743	10,684
76720	7,7061	-3,0657	-24,511	10,56
76721	7,9024	-3,0638	-25,205	10,74
76722	6,8812	-3,0743	-23,962	10,523
76723	7,0741	-3,0719	-24,659	10,741
76724	6,0683	-3,0829	-23,401	10,423
76725	6,2326	-3,0492	-24,095	10,676
76726	5,2671	-3,0927	-22,829	10,27
76727	5,4215	-3,0529	-23,524	10,547
76728	4,4386	-3,0554	-22,234	10,066
76729	4,6221	-3,0581	-22,94	10,368
76730	3,6168	-2,9979	-21,613	9,8187
76731	3,7878	-3,0102	-22,33	10,14
76732	2,8529	-3,0097	-21,	9,5499
76733	3,016	-3,008	-21,712	9,8758
76734	2,1309	-3,0066	-20,373	9,2636
76735	2,2866	-3,0375	-21,078	9,5918
76736	1,4705	-2,9796	-19,808	9,0077
76737	1,5601	-3,0775	-20,418	9,2838
76738	0,78982	-3,0165	-19,201	8,7375
76739	0,85584	-3,1215	-19,893	9,0388
76740	0,10269	-3,0044	-18,367	8,3827
76741	0,15272	-3,0522	-19,264	8,7616
76742	0,53194	-2,6063	-18,403	8,395
76743	-0,52804	-2,9824	-17,558	8,0688
76744	-0,59022	-3,0108	-18,305	8,3593
76745	0,21279	-2,5601	-17,938	8,2036
76746	-1,085	-3,0188	-16,837	7,8218
76747	-1,1713	-3,0546	-17,547	8,0763
76748	-1,5523	-3,0355	-16,086	7,5963
76749	-1,6892	-3,0334	-16,784	7,8227
76750	-1,9733	-3,0439	-15,333	7,4069
76751	-2,137	-3,0349	-16,024	7,6055
76752	-2,3598	-3,0418	-14,563	7,254
76753	-2,5379	-3,0507	-15,259	7,4243
76754	-2,7354	-3,0314	-13,782	7,1446
76755	-2,9381	-3,0259	-14,474	7,2832
76756	-3,1215	-3,0266	-13,003	7,0849
76757	-3,3154	-3,0295	-13,693	7,1886
76758	-3,5194	-3,0342	-12,227	7,0761
76759	-3,7166	-3,0274	-12,913	7,1456
76760	-3,9389	-3,0498	-11,454	7,1194
76761	-4,0767	-3,0913	-12,164	7,1475
76762	-4,3625	-3,0918	-10,756	7,203
76763	-4,5125	-3,1095	-11,411	7,2046
76764	-4,7122	-3,1463	-10,119	7,3013
76765	-4,9616	-3,1313	-10,716	7,3058
76766	-4,9199	-2,9132	-10,181	7,3337
76767	-5,0112	-3,1285	-9,3951	7,4275
76768	-5,255	-3,1528	-9,9925	7,4073
76769	-5,0656	-2,9334	-9,8563	7,3892
76770	-5,4051	-3,0601	-8,5936	7,6101
76771	-5,6433	-3,1563	-9,1565	7,5738
76772	-5,219	-2,8954	-9,4578	7,4591
76773	-5,9126	-3,0269	-7,7498	7,8486
76774	-6,1314	-3,0279	-8,4194	7,7864
76775	-6,4292	-3,0348	-6,8891	8,1143
76776	-6,5609	-3,0264	-7,5017	8,0317
76777	-6,8161	-3,0841	-6,1983	8,3391
76778	-7,1636	-3,0437	-6,7276	8,3209
76779	-7,1067	-3,0809	-5,3655	8,5589
76780	-7,4671	-3,0607	-6,0235	8,5374
76781	-6,5459	-2,9169	-5,2108	8,4636
76782	-7,5034	-3,0087	-4,3557	8,8399
76783	-7,798	-3,0267	-5,0403	8,8018
76784	-6,6991	-2,8752	-4,6489	8,6089
76785	-7,6258	-2,8001	-4,161	8,9032
76786	-7,8126	-3,0072	-3,4202	9,0722
76787	-8,223	-3,0259	-4,2124	9,0661
76788	-7,8693	-2,7696	-3,7131	9,053
76789	-7,983	-2,9354	-2,513	9,2385
76790	-8,3953	-2,9684	-3,2821	9,2636
76791	-7,935	-2,7986	-3,2255	9,1418
76792	-9,413	-2,9344	-3,4574e-002	9,8324
76793	-9,9341	-2,9213	-4,252e-002	10,023
76794	-9,9047	-2,8529	0,19328	10,016
76795	-8,2568	-2,8099	-1,6214	9,3988
76796	-8,6384	-2,9262	-2,4449	9,4448
76797	-8,7897	-2,8656	-0,76708	9,6129
76798	-9,5916	-2,9608	-0,77757	9,8839
76799	-8,7587	-2,7539	-0,27085	9,6178
76800	-8,982	-2,9047	-1,5356	9,6391
76801	-10,113	-2,9476	-0,78552	10,076
76802	-10,516	-2,9695	-0,69873	10,239
76803	-10,166	-2,8512	-0,16475	10,114
76804	-9,7839	-2,9998	-1,546	9,9125
76805	-10,391	-3,0403	-1,425	10,155
76806	-9,3636	-3,021	-2,359	9,6858
76807	-9,944	-3,0926	-2,0872	9,9285
76808	-9,5271	-2,6715	-2,4996	9,7177
76809	-9,0507	-2,9592	-3,214	9,4718
76810	-9,7749	-3,0922	-2,9947	9,7632
76811	-9,3526	-2,6685	-2,937	9,6165
76812	-8,8057	-2,9871	-4,0743	9,2573
76813	-9,4981	-3,0599	-3,771	9,5507
76814	-9,2142	-2,6098	-3,3546	9,5097
76815	-8,452	-2,7307	-3,575	9,2442
76816	-9,5614	-2,7147	-4,1275	9,4934
76817	-8,5176	-3,0439	-4,8971	9,0288
76818	-9,224	-3,1244	-4,748	9,2822
76819	-8,3454	-2,8173	-4,0177	9,1304
76820	-9,4548	-2,8013	-4,5702	9,3921
76821	-8,1584	-3,0064	-5,6984	8,7765
76822	-8,8294	-3,0309	-5,482	9,0211
76823	-7,8145	-3,0203	-6,5529	8,5202
76824	-8,5457	-3,055	-6,3312	8,7729
76825	-7,2953	-3,0353	-7,3402	8,2374
76826	-8,1851	-3,1242	-7,156	8,5144
76827	-7,6722	-2,6461	-7,5034	8,3186
76828	-6,7797	-3,0275	-8,1713	7,9652
76829	-7,5825	-3,1009	-8,113	8,1721
76830	-7,3191	-2,6395	-7,8575	8,1654
76831	-6,3697	-3,1241	-8,9824	7,75
76832	-7,2167	-3,027	-8,9564	7,9494
76833	-7,1567	-2,6382	-8,3344	8,0493
76834	-5,8871	-3,1805	-9,754	7,5504
76835	-6,7251	-3,2191	-9,6266	7,7481
76836	-5,6977	-2,9611	-9,6178	7,531
76837	-6,9091	-2,7361	-8,6686	7,9308
76838	-5,5044	-3,1378	-10,59	7,4111
76839	-6,0969	-3,152	-10,492	7,5321
76840	-5,4628	-2,9197	-10,055	7,4425
76841	-6,6741	-2,6947	-9,106	7,8109
76842	9,0746	-3,001	-27,119	10,884
76843	8,8833	-3,0068	-26,43	10,779
76844	-5,1115	-3,1491	-11,371	7,3091
76845	-5,7753	-3,0935	-11,213	7,4318
76846	-5,315	-2,9184	-10,454	7,3858
76847	8,4326	-3,0043	-27,278	11,142
76848	8,6267	-2,9997	-27,967	11,252
76849	8,2413	-3,0101	-26,589	11,04
76850	8,0734	-3,0384	-25,897	10,884
76851	-4,6503	-3,151	-12,121	7,2325
76852	-5,2755	-3,1502	-12,025	7,3342
76853	7,6344	-3,0405	-26,74	11,261
76854	7,7987	-3,0089	-27,429	11,425
76855	7,4666	-3,0688	-26,048	11,107
76856	7,2704	-3,0699	-25,352	10,919
76857	-4,274	-3,0844	-12,85	7,2169
76858	-4,8488	-3,1353	-12,776	7,2972
76859	6,8453	-3,0744	-26,189	11,303
76860	7,0368	-3,0746	-26,889	11,505
76861	6,6491	-3,0754	-25,493	11,117
76862	6,4255	-3,0468	-24,792	10,892
76863	-3,9105	-3,0303	-13,603	7,2479
76864	-4,5185	-3,0268	-13,506	7,3169
76865	6,0328	-3,0785	-25,626	11,283
76866	6,1859	-3,0453	-26,319	11,53
76867	5,5858	-3,0192	-24,218	10,799
76868	5,8092	-3,0499	-24,925	11,061
76869	-3,5181	-3,024	-14,384	7,3261
76870	-4,1166	-3,0191	-14,288	7,3777
76871	4,7765	-3,0183	-23,635	10,645
76872	4,9594	-3,015	-24,341	10,939
76873	5,1828	-3,0457	-25,048	11,199
76874	5,3736	-3,0493	-25,75	11,476
76875	-3,1163	-3,0347	-15,169	7,4521
76876	-3,7188	-3,0145	-15,074	7,4878
76877	3,9713	-3,0129	-23,037	10,441
76878	4,1548	-3,0151	-23,751	10,759
76879	4,3377	-3,0118	-24,456	11,051
76880	4,5201	-3,0127	-25,163	11,359
76881	-2,7016	-3,0417	-15,949	7,6221
76882	-3,2897	-3,0426	-15,866	7,6438
76883	3,1871	-3,0203	-22,429	10,196
76884	3,3466	-3,0069	-23,14	10,529
76885	3,5301	-3,009	-23,854	10,845
76886	3,7165	-3,0164	-24,572	11,178
76887	-2,2739	-3,0328	-16,721	7,8313
76888	-2,8747	-3,0304	-16,643	7,841
76889	2,4497	-3,0357	-21,789	9,9168
76890	2,5758	-3,0377	-22,507	10,257
76891	2,7354	-3,0243	-23,218	10,589
76892	2,8981	-3,0087	-23,957	10,946
76893	-1,7755	-3,0692	-17,494	8,0763
76894	-2,4323	-3,0274	-17,419	8,076
76895	1,9685	-3,0983	-21,717	9,8978
76896	1,7157	-3,1084	-21,123	9,6104
76897	1,1655	-2,8409	-21,282	9,6683
76898	2,0946	-3,1003	-22,435	10,237
76899	2,1094	-3,0424	-23,298	10,656
76900	-1,2334	-3,083	-18,293	8,3672
76901	-1,9352	-3,0579	-18,197	8,3454
76902	1,4401	-3,2461	-21,817	9,9377
76903	1,5373	-3,1615	-22,543	10,298
76904	1,0396	-2,9005	-21,546	9,7992
76905	0,94545	-3,2194	-20,503	9,3143
76906	1,1873	-3,2562	-21,223	9,6537
76907	0,7868	-2,9106	-20,951	9,5214
76908	-0,54018	-3,0586	-19,202	8,7344
76909	-1,4345	-3,0396	-19,011	8,662
76910	0,21874	-3,1572	-19,955	9,0628
76911	0,46274	-3,2663	-20,751	9,4352
76912	0,39523	-2,9518	-20,663	9,3868
76913	0,10486	-2,6838	-20,124	9,1384
76914	0,70457	-3,3031	-21,47	9,7741
76915	0,84904	-3,2191	-21,998	10,023
76916	0,63705	-2,9887	-21,382	9,7238
76917	-0,12643	-3,0398	-20,208	9,1844
76918	-0,81713	-3,042	-19,912	9,0437
76919	6,0088e-002	-2,8484	-20,403	9,2695
76920	0,26282	-2,6078	-18,835	8,5697
76921	-0,23027	-2,5804	-19,865	9,0278
76922	0,11757	-3,1489	-21,003	9,5581
76923	0,23019	-3,2696	-21,442	9,7658
76924	0,30408	-2,9575	-21,199	9,6481
76925	-0,12288	-3,0819	-20,951	9,533
76926	-0,62438	-3,0317	-20,855	9,48
76927	5,0052e-002	-2,8344	-20,915	9,5102
76928	-0,24031	-2,5664	-20,376	9,2626
76929	-1,0259e-002	-3,2026	-21,39	9,7392
76930	-0,4383	-3,104	-21,424	9,7576
76931	6,364e-002	-2,8905	-21,147	9,621
76932	0,37466	-3,1856	-21,969	10,012
76933	-0,15313	-3,2684	-22,035	10,043
76934	0,16267	-2,9552	-21,354	9,7169
76935	-0,13438	-2,6116	-23,026	10,559
76936	0,94624	-3,1345	-22,723	10,383
76937	0,41441	-3,1241	-22,774	10,417
76938	0,15151	-2,5299	-23,398	10,74
76939	1,5521	-3,1037	-23,406	10,719
76940	0,88734	-3,0665	-23,496	10,782
76941	2,272	-3,0268	-24,037	11,011
76942	1,6028	-3,0318	-24,138	11,099
76943	3,0845	-3,0161	-24,675	11,276
76944	2,4059	-3,029	-24,796	11,397
76945	3,8989	-3,0174	-25,278	11,484
76946	3,2584	-3,026	-25,4	11,63
76947	4,7109	-3,0163	-25,865	11,633
76948	4,0771	-3,0114	-25,992	11,81
76949	7,9927	-3,0043	-28,118	11,531
76950	8,1849	-3,0011	-28,811	11,649
76951	5,5267	-3,0161	-26,444	11,72
76952	4,9074	-3,02	-26,568	11,925
76953	7,201	-3,0429	-27,578	11,666
76954	7,3606	-3,0085	-28,265	11,84
76955	6,3774	-3,0456	-27,019	11,728
76956	5,7171	-3,0133	-27,142	11,977
76957	6,6133	-3,0826	-27,723	11,931
76958	7,7414	-3,0028	-29,653	12,082
76959	7,5528	-3,0053	-28,958	11,954
76960	7,295	-3,0069	-30,495	12,553
76961	7,1116	-3,0076	-29,795	12,413
76962	6,923	-3,0102	-29,1	12,292
76963	6,7729	-3,0481	-28,41	12,101
76964	6,6656	-3,0135	-30,635	12,917
76965	6,838	-3,0093	-31,328	13,071
76966	6,4822	-3,0142	-29,935	12,784
76967	6,2995	-3,0157	-29,234	12,586
76968	6,1493	-3,0536	-28,544	12,402
76969	5,953	-3,0503	-27,845	12,174
76970	5,8607	-3,0192	-30,062	13,104
76971	6,0335	-3,0196	-30,757	13,32
76972	5,6779	-3,0206	-29,361	12,913
76973	5,4907	-3,0199	-28,663	12,667
76974	5,0978	-3,0172	-27,266	12,177
76975	5,2944	-3,0166	-27,964	12,446
76976	5,0591	-3,024	-29,484	13,19
76977	5,2453	-3,0311	-30,173	13,452
76978	4,2736	-3,015	-26,694	12,097
76979	4,4926	-3,0125	-27,386	12,395
76980	4,6892	-3,0119	-28,085	12,658
76981	4,8719	-3,0233	-28,786	12,952
76982	3,6714	-2,8356	-26,79	12,268
76983	3,4365	-3,0199	-26,114	11,953
76984	3,8905	-2,8331	-27,482	12,56
76985	4,0937	-3,0246	-28,202	12,89
76986	4,2764	-3,036	-28,904	13,177
76987	4,4574	-3,0308	-29,603	13,493
76988	3,3964	-2,7886	-27,598	12,738
76989	2,9202	-2,9278	-27,006	12,48
76990	2,8996	-2,7752	-27,246	12,614
76991	3,5996	-2,98	-28,318	13,063
76992	3,6528	-3,0658	-29,	13,421
76993	2,9872	-3,0598	-27,821	12,922
76994	3,0727	-3,0127	-28,387	13,22
76995	2,8067	-2,9012	-27,674	12,862
76996	2,5798	-3,0388	-25,521	11,747
76997	2,6854	-3,1121	-26,33	12,173
76998	2,5111	-3,199	-27,229	12,674
76999	2,5406	-3,2045	-27,846	13,024
77000	2,4905	-3,0464	-27,469	12,809
77001	1,9025	-3,1957	-25,635	11,875
77002	1,7367	-3,034	-24,896	11,483
77003	2,0081	-3,269	-26,444	12,298
77004	2,122	-3,1818	-27,059	12,63
77005	2,3305	-3,0404	-27,082	12,618
77006	1,5347	-3,235	-26,445	12,342
77007	0,93392	-3,2221	-25,815	12,002
77008	1,1393	-2,9796	-26,078	12,148
77009	1,6487	-3,1478	-27,06	12,671
77010	1,3131	-3,1133	-27,091	12,719
77011	1,0696	-3,0881	-26,652	12,479
77012	1,0091	-2,8697	-26,476	12,375
77013	1,326	-2,814	-27,251	12,811
77014	2,1515	-3,1873	-27,677	12,979
77015	1,5847	-3,1543	-27,637	13,015
77016	1,5702	-2,8367	-27,468	12,915
77017	2,1014	-3,0291	-27,299	12,765
77018	2,6261	-3,1574	-28,412	13,319
77019	2,0522	-3,2194	-28,36	13,394
77020	2,3601	-3,0459	-27,699	12,968
77021	3,1259	-3,0985	-29,069	13,576
77022	2,5981	-3,2105	-29,073	13,712
77023	2,8396	-2,9219	-29,486	13,914
77024	6,206	-3,0155	-31,45	13,465
77025	6,3591	-3,0347	-32,143	13,649
77026	3,8338	-3,0606	-29,699	13,729
77027	3,3113	-3,1249	-29,809	13,977
77028	3,1235	-2,9096	-29,807	14,034
77029	5,4182	-3,0315	-30,867	13,659
77030	5,5607	-3,0575	-31,549	13,906
77031	4,6436	-3,0378	-30,291	13,746
77032	4,0402	-3,0949	-30,361	14,045
77033	4,7926	-3,0824	-30,952	14,036
77034	5,7138	-3,0767	-32,243	14,079
77035	5,8376	-3,0577	-32,926	14,305
77036	4,9352	-3,1083	-31,635	14,273
77037	5,0622	-3,0649	-32,33	14,561
77038	4,1893	-3,1395	-31,022	14,325
77039	4,3206	-3,1355	-31,676	14,653
77040	3,5177	-3,1592	-30,471	14,284
77041	3,6229	-3,1484	-31,082	14,612
77042	2,7835	-3,237	-29,813	14,105
77043	3,0385	-3,1233	-30,575	14,522
77044	3,0251	-2,9484	-30,226	14,312
77045	2,0242	-3,2726	-29,021	13,787
77046	2,135	-3,2041	-29,724	14,215
77047	2,5957	-3,0216	-29,811	14,167
77048	1,4854	-3,1865	-28,32	13,432
77049	1,5034	-3,1352	-28,976	13,838
77050	1,2318	-2,7797	-28,638	13,641
77051	1,2491	-3,1198	-27,668	13,064
77052	0,98318	-3,0958	-28,385	13,513
77053	1,0229	-2,7314	-28,315	13,467
77054	1,2621	-2,8205	-27,828	13,156
77055	0,97821	-3,0762	-26,9	12,633
77056	0,7238	-3,1299	-27,598	13,041
77057	0,91768	-2,8578	-26,724	12,529
77058	1,2346	-2,8021	-27,499	12,964
77059	0,93808	-2,9946	-24,228	11,161
77060	0,76814	-3,0604	-25,075	11,615
77061	0,46881	-3,0752	-26,022	12,151
77062	0,2688	-3,0522	-26,694	12,527
77063	0,67422	-2,8326	-26,285	12,294
77064	0,3555	-3,0562	-23,546	10,818
77065	0,11679	-2,9323	-24,385	11,251
77066	-5,3143e-002	-2,998	-25,233	11,711
77067	-0,13138	-3,0757	-25,849	12,053
77068	-7,733e-002	-2,5276	-25,019	11,607
77069	0,40828	-2,8567	-25,846	12,049
77070	-0,11338	-3,207	-22,84	10,448
77071	-0,16027	-3,1221	-23,698	10,897
77072	-9,4631e-002	-2,5502	-23,831	10,974
77073	-0,39899	-2,9982	-24,537	11,335
77074	-0,65476	-2,9351	-25,124	11,641
77075	-0,33334	-2,4263	-24,669	11,413
77076	-0,58117	-3,1698	-22,069	10,064
77077	-0,54258	-3,2166	-22,77	10,408
77078	-7,9229e-002	-2,9563	-21,792	9,9222
77079	-0,37628	-2,6127	-23,465	10,777
77080	-0,58947	-3,1317	-23,628	10,857
77081	-0,8979	-3,0903	-24,343	11,222
77082	-0,42317	-2,5278	-24,323	11,232
77083	-0,9398	-3,0539	-21,328	9,7095
77084	-1,1251	-3,065	-21,986	10,025
77085	-0,26537	-2,8566	-21,388	9,7324
77086	-1,0866	-3,1118	-22,687	10,368
77087	-1,2276	-3,1396	-23,383	10,711
77088	-0,52383	-2,5598	-23,761	10,933
77089	-1,3151	-3,034	-20,56	9,3477
77090	-1,525	-3,0324	-21,253	9,6662
77091	-1,7103	-3,0435	-21,911	9,9845
77092	-1,858	-3,0432	-22,625	10,325
77093	-1,7114	-3,0231	-19,722	8,9761
77094	-1,8697	-3,0719	-20,415	9,2836
77095	-2,0795	-3,0704	-21,107	9,6035
77096	-2,314	-3,025	-21,824	9,9326
77097	-2,1363	-3,0145	-18,915	8,6417
77098	-2,2736	-3,0504	-19,62	8,9387
77099	-2,4318	-3,0993	-20,313	9,2463
77100	-2,6637	-3,0714	-21,018	9,5575
77101	-2,592	-3,0162	-18,123	8,345
77102	-2,72	-3,0521	-18,829	8,6233
77103	-2,8573	-3,088	-19,533	8,9195
77104	-3,0841	-3,0528	-20,232	9,2152
77105	-3,0331	-3,0251	-17,341	8,0847
77106	-3,1645	-3,0613	-18,042	8,3403
77107	-3,2925	-3,0972	-18,748	8,6171
77108	-3,4752	-3,0896	-19,448	8,898
77109	-3,4628	-3,0313	-16,559	7,8613
77110	-3,6009	-3,0707	-17,259	8,093
77111	-3,7323	-3,1068	-17,96	8,3466
77112	-3,9124	-3,0977	-18,655	8,6072
77113	-3,8922	-3,0223	-15,77	7,6772
77114	-4,066	-3,0291	-16,466	7,8839
77115	-4,2041	-3,0685	-17,166	8,1127
77116	-4,3538	-3,1031	-17,864	8,3512
77117	-10,794	-3,0621	-1,3382	10,316
77118	-11,238	-2,9309	-1,2514	10,512
77119	-11,105	-2,8035	-1,5072	10,435
77120	-4,3173	-3,0095	-14,978	7,5374
77121	-4,5006	-3,0153	-15,669	7,7152
77122	-4,6744	-3,0221	-16,365	7,9189
77123	-4,8519	-3,0297	-17,056	8,1331
77124	-10,551	-3,133	-1,9661	10,169
77125	-11,192	-3,0268	-1,8663	10,451
77126	-11,063	-2,8462	-1,8484	10,404
77127	-4,7247	-3,0155	-14,192	7,4447
77128	-4,9258	-3,0066	-14,874	7,5928
77129	-5,1091	-3,0124	-15,566	7,7673
77130	-5,2936	-3,0184	-16,253	7,9551
77131	-10,355	-3,1638	-2,7228	10,
77132	-10,948	-3,1209	-2,528	10,272
77133	-9,933	-2,7401	-2,6652	9,8531
77134	-10,862	-2,8744	-2,1351	10,294
77135	-5,0934	-3,0776	-13,432	7,3971
77136	-5,3349	-3,0172	-14,087	7,5176
77137	-5,536	-3,0082	-14,769	7,6626
77138	-5,7295	-3,0072	-15,453	7,8226
77139	-10,222	-3,1929	-3,5516	9,8406
77140	-10,826	-3,1225	-3,3339	10,114
77141	-9,9384	-2,7427	-3,1353	9,8011
77142	-10,868	-2,877	-2,6052	10,23
77143	-5,474	-3,1345	-12,68	7,3975
77144	-5,6751	-3,1235	-13,34	7,483
77145	-5,9166	-3,0631	-13,994	7,6019
77146	-6,152	-3,0135	-14,654	7,7361
77147	-9,9163	-3,1973	-4,4447	9,5702
77148	-10,528	-3,2008	-4,066	9,879
77149	-9,8	-2,7692	-3,494	9,6895
77150	-10,147	-2,8741	-4,2669	9,6835
77151	-5,9392	-3,0946	-11,867	7,4523
77152	-6,1004	-3,1293	-12,565	7,5055
77153	-6,3015	-3,1183	-13,225	7,5878
77154	-6,507	-3,1092	-13,889	7,69
77155	-9,5358	-3,1114	-5,3329	9,2751
77156	-10,191	-3,2651	-5,1545	9,5418
77157	-9,9797	-2,852	-4,8012	9,5269
77158	-6,3678	-3,1076	-11,115	7,5538
77159	-6,6048	-3,0424	-11,707	7,5876
77160	-6,766	-3,0771	-12,405	7,6349
77161	-6,9376	-3,1124	-13,099	7,7006
77162	-9,2167	-3,0795	-6,1148	9,0161
77163	-9,8216	-3,1539	-5,8441	9,2746
77164	-6,9349	-3,1905	-10,364	7,7301
77165	-6,9966	-3,1027	-10,986	7,7024
77166	-7,1189	-2,7076	-9,4062	7,8646
77167	-7,2336	-3,0374	-11,578	7,735
77168	-7,4392	-3,0307	-12,243	7,7755
77169	-8,9163	-3,1589	-6,9344	8,7665
77170	-9,5495	-3,1833	-6,6823	9,0164
77171	-7,5721	-3,122	-9,6007	7,955
77172	-7,6126	-3,1343	-10,166	7,9097
77173	-7,5121	-2,7332	-8,9787	8,0263
77174	-7,6742	-3,0465	-10,788	7,8738
77175	-7,8744	-3,0421	-11,447	7,8868
77176	-8,4724	-3,1898	-7,9288	8,4486
77177	-9,1706	-3,2953	-7,4404	8,7525
77178	-8,209	-2,7284	-7,6733	8,4407
77179	-8,0195	-3,1004	-8,8981	8,1635
77180	-8,0503	-3,0914	-9,53	8,0854
77181	-7,7561	-2,639	-8,6426	8,1397
77182	-8,0907	-3,1037	-10,095	8,0378
77183	-8,3096	-3,0688	-10,663	8,0382
77184	-8,4983	-3,1741	-8,6939	8,3318
77185	-8,8099	-3,2717	-8,4255	8,4664
77186	-7,9595	-2,7117	-8,2761	8,2633
77187	-8,529	-3,165	-9,3257	8,2465
77188	-8,6984	-3,1659	-10,046	8,2025
77189	-9,0297	-3,2297	-8,7807	8,4739
77190	-9,1598	-3,1011	-9,2875	8,4291
77191	-9,3413	-3,3273	-8,5124	8,6095
77192	-9,5682	-3,2406	-8,9448	8,6071
77193	-9,5081	-3,3772	-7,9372	8,7601
77194	-9,7951	-3,3624	-8,3703	8,7758
77195	-9,8038	-3,3196	-7,1883	8,9986
77196	-10,027	-3,3647	-7,6114	8,9924
77197	-10,154	-3,2577	-6,4116	9,27
77198	-10,484	-3,2753	-6,9677	9,2749
77199	-10,477	-3,3076	-5,6656	9,5401
77200	-10,829	-3,254	-6,1639	9,5696
77201	-10,804	-3,2687	-4,7758	9,8385
77202	-11,13	-3,2798	-5,4031	9,8506
77203	-10,422	-2,942	-4,9767	9,6489
77204	-11,132	-3,1304	-3,8483	10,149
77205	-11,435	-3,1322	-4,4286	10,177
77206	-10,592	-2,8556	-4,4226	9,8297
77207	-11,636	-2,8956	-1,7794	10,646
77208	-12,34	-2,9248	-1,5227	11,012
77209	-11,508	-2,715	-1,7616	10,598
77210	-11,419	-3,0797	-3,139	10,382
77211	-11,768	-3,057	-3,6711	10,454
77212	-11,333	-2,8331	-2,7461	10,387
77213	-11,589	-3,0147	-2,4281	10,553
77214	-12,228	-2,9642	-2,1906	10,891
77215	-11,503	-2,7681	-2,0353	10,577
77216	-12,048	-3,0409	-2,9487	10,699
77217	-11,461	-2,8341	-2,4103	10,504
77218	-12,932	-2,9935	-1,9338	11,252
77219	-13,511	-3,0031	-1,6139	11,605
77220	-12,687	-2,9905	-2,7111	11,03
77221	-13,305	-2,9914	-2,446	11,393
77222	-12,397	-3,0183	-3,4807	10,767
77223	-13,04	-3,0107	-3,2402	11,129
77224	-12,071	-3,0587	-4,2514	10,479
77225	-12,738	-3,0354	-4,0212	10,83
77226	-11,761	-3,1433	-5,0559	10,179
77227	-12,402	-3,0667	-4,8132	10,513
77228	-11,054	-2,8055	-4,6295	9,9828
77229	-11,481	-3,2262	-5,9014	9,8756
77230	-12,091	-3,1291	-5,6354	10,187
77231	-10,918	-2,8667	-5,0499	9,8245
77232	-11,158	-3,2716	-6,72	9,5702
77233	-11,768	-3,1774	-6,4509	9,8664
77234	-10,707	-3,3203	-7,3907	9,2662
77235	-11,408	-3,2193	-7,2493	9,5476
77236	-10,314	-3,3499	-8,0445	9,0014
77237	-10,982	-3,3213	-7,8564	9,2651
77238	-10,022	-3,2758	-8,8028	8,7718
77239	-10,652	-3,3258	-8,623	9,0052
77240	-9,6982	-3,1121	-9,4516	8,57
77241	-10,305	-3,1681	-9,3209	8,7729
77242	-9,3291	-3,1019	-10,008	8,3864
77243	-9,9513	-3,0757	-9,9672	8,5724
77244	-8,9173	-3,131	-10,613	8,2042
77245	-9,5745	-3,2358	-10,576	8,3901
77246	-8,5098	-3,0645	-11,322	8,0481
77247	-9,1281	-3,1341	-11,235	8,2104
77248	-8,0801	-3,0354	-12,112	7,9237
77249	-8,7222	-3,0449	-11,974	8,0768
77250	-7,6109	-3,066	-12,937	7,8347
77251	-8,2857	-3,0284	-12,774	7,9746
77252	-7,1431	-3,1033	-13,763	7,7987
77253	-7,7865	-3,0989	-13,627	7,9111
77254	-6,7424	-3,0596	-14,548	7,8214
77255	-7,3455	-3,0946	-14,429	7,9085
77256	-6,3455	-3,0125	-15,338	7,8919
77257	-6,9741	-3,0139	-15,209	7,9623
77258	-5,914	-3,0133	-16,141	8,0064
77259	-6,5425	-3,0117	-16,016	8,0569
77260	-5,4711	-3,026	-16,945	8,1657
77261	-6,0691	-3,0518	-16,836	8,1967
77262	-5,0016	-3,0644	-17,754	8,368
77263	-5,6271	-3,0582	-17,642	8,3813
77264	-4,534	-3,094	-18,559	8,6101
77265	-5,1586	-3,0895	-18,453	8,6068
77266	-4,0952	-3,0901	-19,355	8,8873
77267	-4,717	-3,0872	-19,256	8,869
77268	-3,7021	-3,0544	-20,147	9,1947
77269	-4,2837	-3,0862	-20,055	9,164
77270	-3,316	-3,0249	-20,937	9,5286
77271	-3,9319	-3,0157	-20,842	9,4827
77272	-2,8981	-3,026	-21,734	9,889
77273	-3,5101	-3,0196	-21,64	9,8317
77274	-2,4616	-3,0247	-22,538	10,275
77275	-3,0838	-3,0215	-22,44	10,205
77276	-1,999	-3,071	-23,321	10,672
77277	-2,6367	-3,0279	-23,244	10,604
77278	-1,5361	-3,0982	-24,099	11,081
77279	-2,1503	-3,103	-24,014	11,007
77280	-1,1537	-3,0272	-24,93	11,531
77281	-1,6996	-3,0764	-24,813	11,44
77282	-0,733	-3,0128	-25,74	11,983
77283	-1,3319	-3,0105	-25,654	11,909
77284	-0,33139	-3,0528	-26,521	12,433
77285	-0,85603	-3,0495	-26,452	12,374
77286	1,4381e-002	-3,1058	-27,392	12,943
77287	-0,50286	-3,0698	-27,289	12,871
77288	-0,28347	-2,8965	-27,116	12,778
77289	0,45783	-3,1059	-28,315	13,497
77290	-4,0331e-002	-3,1565	-28,197	13,425
77291	0,29749	-2,9071	-28,421	13,574
77292	-7,1937e-002	-2,9489	-27,581	13,054
77293	1,0011	-3,0445	-29,041	13,918
77294	0,35254	-3,0548	-29,052	13,962
77295	0,7295	-2,689	-28,703	13,729
77296	0,52941	-2,8547	-28,879	13,85
77297	1,6142	-3,0668	-29,679	14,262
77298	1,0562	-3,0283	-29,707	14,357
77299	1,0409	-2,6801	-28,971	13,872
77300	2,39	-3,0904	-30,486	14,617
77301	1,6711	-3,1402	-30,448	14,782
77302	2,3766	-2,9155	-30,136	14,41
77303	3,1437	-3,1125	-31,186	14,844
77304	2,4559	-3,0748	-31,216	15,112
77305	3,0543	-2,7857	-31,528	15,139
77306	2,8507	-2,9079	-30,573	14,58
77307	3,7543	-3,1445	-31,735	14,93
77308	3,0494	-3,1492	-31,847	15,333
77309	3,3339	-2,8154	-31,791	15,2
77310	5,1859	-3,046	-33,013	14,774
77311	5,2588	-3,0582	-33,685	15,073
77312	4,4476	-3,0921	-32,371	14,928
77313	3,7062	-3,1347	-32,44	15,434
77314	3,6649	-2,8178	-32,078	15,223
77315	4,4462	-3,0486	-33,123	15,387
77316	4,0272	-2,763	-32,427	15,172
77317	4,5191	-3,0608	-33,795	15,67
77318	4,6015	-3,0752	-34,462	16,03
77319	4,8237	-2,7284	-34,27	15,728
77320	3,7047	-3,0911	-33,192	15,879
77321	3,8652	-3,0532	-33,873	16,262
77322	3,6634	-2,7742	-32,83	15,665
77323	4,3871	-2,7274	-34,001	15,907
77324	3,0013	-3,1393	-32,552	15,831
77325	3,0654	-3,0665	-33,191	16,289
77326	3,2858	-2,8056	-32,496	15,701
77327	2,3616	-3,1114	-31,877	15,599
77328	2,4244	-3,1462	-32,572	16,112
77329	2,96	-2,8224	-32,19	15,628
77330	1,7371	-3,1245	-31,178	15,27
77331	1,7834	-3,1109	-31,874	15,788
77332	2,6461	-2,7777	-31,821	15,452
77333	1,1132	-3,1017	-30,477	14,873
77334	1,1562	-3,1738	-31,204	15,404
77335	0,40765	-3,0386	-29,718	14,399
77336	0,54134	-3,0204	-30,456	14,915
77337	-0,14562	-3,1055	-28,933	13,893
77338	-0,18014	-3,0052	-29,686	14,392
77339	0,1922	-2,8561	-29,158	14,04
77340	-0,55757	-3,1205	-28,094	13,354
77341	-0,58484	-3,1299	-28,877	13,841
77342	3,1248e-002	-2,9054	-28,761	13,775
77343	-0,33818	-2,9472	-27,921	13,26
77344	-1,0275	-3,0665	-27,221	12,816
77345	-1,1757	-3,0175	-28,008	13,262
77346	-0,21975	-2,8711	-28,319	13,493
77347	-0,58917	-2,9128	-27,479	12,983
77348	-1,455	-3,0471	-26,366	12,303
77349	-1,6829	-3,0086	-27,118	12,696
77350	-1,8779	-3,0597	-25,536	11,822
77351	-2,1169	-3,0132	-26,272	12,186
77352	-2,3138	-3,0811	-24,728	11,369
77353	-2,5411	-3,0338	-25,451	11,714
77354	-2,7879	-3,0599	-23,937	10,941
77355	-2,9311	-3,0845	-24,637	11,27
77356	-3,2588	-3,0247	-23,147	10,536
77357	-3,4014	-3,0573	-23,847	10,853
77358	-3,6957	-3,0151	-22,346	10,149
77359	-3,8433	-3,0535	-23,049	10,454
77360	-4,1259	-3,0104	-21,545	9,7865
77361	-4,2767	-3,0482	-22,25	10,08
77362	-4,5135	-3,0474	-20,751	9,4525
77363	-4,738	-3,0136	-21,441	9,7252
77364	-4,9055	-3,0832	-19,955	9,1445
77365	-5,1352	-3,0446	-20,641	9,4034
77366	-5,3416	-3,0827	-19,15	8,8636
77367	-5,5689	-3,0426	-19,832	9,1081
77368	-5,7841	-3,0833	-18,34	8,6165
77369	-6,0089	-3,0426	-19,02	8,8446
77370	-6,2251	-3,0839	-17,533	8,4081
77371	-6,4493	-3,0505	-18,206	8,6171
77372	-6,6975	-3,0502	-16,711	8,2419
77373	-6,8621	-3,0778	-17,404	8,4298
77374	-7,1711	-3,013	-15,888	8,1224
77375	-7,3681	-3,0158	-16,564	8,2851
77376	-7,5773	-3,0489	-15,09	8,0454
77377	-7,8096	-3,0104	-15,752	8,1865
77378	-7,9889	-3,0903	-14,292	8,0157
77379	-8,1912	-3,0818	-14,962	8,1278
77380	-8,4612	-3,0613	-13,464	8,044
77381	-8,6419	-3,0883	-14,153	8,1246
77382	-8,9278	-3,0379	-12,636	8,1229
77383	-9,1135	-3,0624	-13,325	8,1748
77384	-9,3405	-3,1145	-11,886	8,2373
77385	-9,5785	-3,0421	-12,489	8,2753
77386	-9,7853	-3,2389	-11,197	8,3973
77387	-9,9894	-3,143	-11,778	8,404
77388	-10,197	-3,2096	-10,535	8,5774
77389	-10,453	-3,2178	-11,096	8,5838
77390	-10,558	-3,1317	-9,8365	8,7739
77391	-10,778	-3,1167	-10,427	8,756
77392	-10,935	-3,2181	-9,1412	9,0037
77393	-11,204	-3,1261	-9,6591	8,9979
77394	-11,32	-3,2971	-8,4349	9,2659
77395	-11,57	-3,281	-9,007	9,2358
77396	-11,683	-3,2202	-7,715	9,5461
77397	-12,016	-3,2743	-8,2125	9,5573
77398	-13,884	-3,001	-2,1261	11,734
77399	-14,48	-2,996	-1,7942	12,13
77400	-12,018	-3,125	-6,9802	9,8368
77401	-12,414	-3,1396	-7,5112	9,8654
77402	-13,659	-3,0116	-2,9751	11,482
77403	-14,274	-3,0019	-2,6668	11,881
77404	-12,378	-3,0803	-6,1849	10,171
77405	-12,778	-3,1151	-6,7198	10,206
77406	-13,381	-3,0278	-3,7808	11,184
77407	-14,022	-3,0166	-3,5025	11,583
77408	-12,732	-3,0525	-5,3926	10,514
77409	-13,129	-3,0841	-5,9352	10,558
77410	-13,069	-3,0433	-4,583	10,857
77411	-13,785	-3,0703	-4,321	11,274
77412	-13,474	-3,0799	-5,1367	10,922
77413	-14,871	-2,9969	-2,3349	12,26
77414	-15,473	-2,9963	-1,9943	12,684
77415	-14,637	-3,0069	-3,1941	11,968
77416	-15,259	-3,0015	-2,8739	12,4
77417	-14,426	-3,0591	-4,0427	11,662
77418	-15,06	-3,0557	-3,7327	12,093
77419	-14,19	-3,1068	-4,8748	11,33
77420	-14,839	-3,1042	-4,5799	11,749
77421	-13,871	-3,1114	-5,6793	10,958
77422	-14,528	-3,1077	-5,4029	11,354
77423	-13,529	-3,1189	-6,4702	10,587
77424	-14,193	-3,113	-6,2081	10,958
77425	-13,174	-3,1296	-7,2508	10,229
77426	-13,842	-3,1205	-7,0059	10,572
77427	-12,747	-3,1937	-8,0086	9,8734
77428	-13,47	-3,1311	-7,7901	10,202
77429	-12,266	-3,2582	-8,7845	9,5217
77430	-12,97	-3,2244	-8,5721	9,8181
77431	-11,839	-3,189	-9,5249	9,2284
77432	-12,478	-3,2897	-9,3694	9,4662
77433	-11,424	-3,111	-10,25	8,9755
77434	-12,089	-3,1588	-10,05	9,2083
77435	-11,034	-3,1249	-10,988	8,7604
77436	-11,682	-3,1293	-10,85	8,963
77437	-11,225	-2,8954	-11,061	8,8013
77438	-10,657	-3,1219	-11,678	8,588
77439	-11,322	-3,1418	-11,531	8,7698
77440	-11,06	-2,9113	-11,41	8,7183
77441	-10,227	-3,0706	-12,381	8,4396
77442	-10,896	-3,0853	-12,232	8,6099
77443	-10,848	-2,8924	-11,75	8,6316
77444	-9,7642	-3,0666	-13,178	8,3211
77445	-10,443	-3,0346	-12,989	8,4703
77446	-9,2941	-3,0894	-14,014	8,2493
77447	-9,9503	-3,0912	-13,863	8,3707
77448	-8,8442	-3,0798	-14,822	8,231
77449	-9,5179	-3,0547	-14,656	8,3316
77450	-8,4236	-3,0433	-15,624	8,2643
77451	-9,0701	-3,0453	-15,473	8,339
77452	-8,0067	-3,0132	-16,428	8,3439
77453	-8,6542	-3,0102	-16,28	8,3967
77454	-7,5328	-3,0434	-17,257	8,4671
77455	-8,208	-3,0115	-17,102	8,4977
77456	-7,0863	-3,0444	-18,078	8,6354
77457	-7,7327	-3,0388	-17,936	8,6433
77458	-6,6741	-3,0097	-18,885	8,8425
77459	-7,3151	-3,0108	-18,747	8,8297
77460	-6,2362	-3,0025	-19,702	9,0873
77461	-6,8743	-3,0015	-19,569	9,0548
77462	-5,7987	-3,0039	-20,517	9,3663
77463	-6,3986	-3,0346	-20,4	9,3198
77464	-5,3598	-3,0107	-21,331	9,6763
77465	-5,958	-3,0378	-21,22	9,6148
77466	-4,8888	-3,0514	-22,145	10,018
77467	-5,5151	-3,0455	-22,033	9,9378
77468	-4,4243	-3,0866	-22,953	10,385
77469	-5,0442	-3,0816	-22,846	10,292
77470	-3,9858	-3,0861	-23,75	10,772
77471	-4,6428	-3,0521	-23,648	10,662
77472	-3,5445	-3,0819	-24,547	11,183
77473	-4,1674	-3,0808	-24,452	11,067
77474	-3,1584	-3,0371	-25,359	11,619
77475	-3,7306	-3,0751	-25,254	11,493
77476	-2,7802	-2,9873	-26,186	12,085
77477	-3,35	-3,0275	-26,07	11,944
77478	-2,3448	-2,9746	-27,024	12,586
77479	-2,9247	-3,0065	-26,887	12,425
77480	-1,8311	-2,9596	-27,906	13,148
77481	-2,4412	-2,9883	-27,774	12,983
77482	-1,203	-3,0269	-28,792	13,75
77483	-1,8475	-2,9677	-28,706	13,614
77484	-1,7577	-2,5824	-28,76	13,661
77485	-0,95634	-2,8442	-27,835	13,16
77486	3,9477	-3,0676	-34,54	16,604
77487	3,9706	-3,0791	-35,186	17,062
77488	4,4695	-2,7418	-34,668	16,266
77489	-0,61936	-3,0296	-29,63	14,341
77490	-1,2939	-3,0497	-29,669	14,293
77491	3,2259	-3,0286	-33,872	16,65
77492	3,3059	-3,0677	-34,558	17,178
77493	4,1699	-2,7209	-34,348	16,294
77494	-4,6458e-002	-2,987	-30,425	14,902
77495	-0,62058	-2,9838	-30,388	14,859
77496	2,4885	-3,0734	-33,211	16,559
77497	2,5351	-3,0601	-33,897	17,133
77498	0,58435	-3,0924	-31,184	15,442
77499	8,1881e-003	-3,0175	-31,159	15,447
77500	1,8462	-3,1456	-32,569	16,291
77501	1,8782	-3,1326	-33,261	16,88
77502	1,2025	-3,1601	-31,9	15,917
77503	0,60109	-3,1044	-31,894	16,001
77504	1,2252	-3,1065	-32,585	16,484
77505	3,3289	-3,0792	-35,204	17,617
77506	3,3594	-3,0384	-35,888	18,239
77507	2,6151	-3,0992	-34,583	17,639
77508	2,6494	-3,0897	-35,265	18,308
77509	2,6799	-3,0489	-35,949	18,905
77510	2,7045	-3,0091	-36,64	19,725
77511	1,9247	-3,1193	-33,947	17,441
77512	1,9582	-3,1075	-34,634	18,125
77513	1,9924	-3,0981	-35,316	18,774
77514	2,0143	-3,052	-36,007	19,624
77515	1,2572	-3,0935	-33,277	17,064
77516	1,2808	-3,1251	-33,988	17,754
77517	1,3142	-3,1133	-34,675	18,425
77518	1,3329	-3,0612	-35,362	19,24
77519	0,62381	-3,0508	-32,579	16,563
77520	0,63661	-3,0963	-33,298	17,219
77521	0,66013	-3,1279	-34,009	17,902
77522	0,66624	-3,0787	-34,697	18,66
77523	2,4926e-002	-3,0295	-31,869	16,004
77524	2,0124e-002	-3,0403	-32,578	16,599
77525	3,2925e-002	-3,0858	-33,296	17,253
77526	2,9987e-002	-3,128	-34,016	17,969
77527	-0,56594	-3,0143	-31,122	15,401
77528	-0,55986	-3,0148	-31,856	15,966
77529	-0,56466	-3,0256	-32,564	16,563
77530	-0,58788	-3,0359	-33,27	17,186
77531	-1,2951	-3,0039	-30,426	14,813
77532	-1,1472	-3,0097	-31,084	15,306
77533	-1,1412	-3,0101	-31,818	15,872
77534	-1,1701	-3,0166	-32,526	16,427
77535	-1,9259	-3,0109	-30,368	14,674
77536	-1,9384	-2,9905	-29,583	14,163
77537	-1,8486	-2,6052	-29,637	14,209
77538	-1,7781	-3,0167	-31,027	15,163
77539	-1,7402	-3,0089	-31,748	15,679
77540	-2,2772	-3,0149	-30,368	14,602
77541	-2,3471	-3,0139	-30,949	14,962
77542	-2,0499	-2,6217	-29,888	14,339
77543	-2,2896	-2,9945	-29,583	14,089
77544	-2,693	-3,0007	-30,276	14,422
77545	-2,1999	-2,6092	-29,637	14,133
77546	-2,4576	-2,9964	-28,575	13,451
77547	-2,6762	-3,0208	-29,288	13,805
77548	-2,0623	-2,6013	-29,102	13,827
77549	-3,0211	-3,0202	-27,637	12,825
77550	-3,2251	-3,0002	-28,391	13,177
77551	-3,4945	-3,0467	-26,771	12,288
77552	-3,6777	-3,0379	-27,489	12,607
77553	-3,9223	-3,0655	-25,966	11,821
77554	-4,1086	-3,0592	-26,673	12,119
77555	-4,3534	-3,0739	-25,159	11,38
77556	-4,5411	-3,0691	-25,863	11,662
77557	-4,8243	-3,0468	-24,35	10,96
77558	-4,9763	-3,0721	-25,054	11,234
77559	-5,2627	-3,0471	-23,542	10,57
77560	-5,4821	-3,017	-24,235	10,82
77561	-5,6705	-3,0757	-22,734	10,211
77562	-5,8599	-3,0717	-23,426	10,454
77563	-6,1134	-3,0726	-21,922	9,8751
77564	-6,3352	-3,0431	-22,604	10,101
77565	-6,558	-3,0685	-21,102	9,5663
77566	-6,782	-3,0384	-21,783	9,7814
77567	-7,0366	-3,0337	-20,267	9,2842
77568	-7,2283	-3,038	-20,954	9,4908
77569	-7,5152	-3,0026	-19,431	9,0388
77570	-7,7119	-3,0016	-20,114	9,23
77571	-7,9615	-3,0053	-18,606	8,8341
77572	-8,1632	-2,9999	-19,285	9,0091
77573	-8,4079	-3,0069	-17,781	8,6687
77574	-8,6083	-3,0035	-18,459	8,8267
77575	-8,8555	-3,0086	-16,954	8,545
77576	-9,0536	-3,0083	-17,633	8,6839
77577	-9,3007	-3,0121	-16,129	8,466
77578	-9,5082	-3,006	-16,798	8,5828
77579	-9,7438	-3,0202	-15,307	8,4334
77580	-9,9553	-3,0078	-15,968	8,5272
77581	-10,174	-3,0565	-14,505	8,4474
77582	-10,399	-3,0201	-15,144	8,5183
77583	-15,861	-3,0009	-2,5334	12,805
77584	-16,458	-2,9992	-2,1971	13,241
77585	-10,629	-3,0592	-13,674	8,5118
77586	-10,817	-3,0822	-14,363	8,5536
77587	-15,682	-3,0503	-3,4125	12,508
77588	-16,242	-3,006	-3,0857	12,93
77589	-11,111	-3,0493	-12,839	8,6361
77590	-11,309	-3,0274	-13,479	8,6488
77591	-15,473	-3,1008	-4,2699	12,164
77592	-16,096	-3,096	-3,9493	12,617
77593	-11,561	-3,1052	-12,085	8,7879
77594	-11,772	-3,0525	-12,679	8,791
77595	-11,299	-2,8747	-11,964	8,7307
77596	-15,178	-3,1051	-5,1081	11,76
77597	-15,818	-3,1006	-4,8068	12,199
77598	-11,971	-3,1462	-11,393	8,97
77599	-12,239	-3,1054	-11,91	8,9701
77600	-12,429	-2,8638	-11,069	9,1407
77601	-11,513	-2,9123	-11,604	8,8144
77602	-14,851	-3,1092	-5,9317	11,343
77603	-15,5	-3,104	-5,6498	11,755
77604	-12,347	-3,177	-10,649	9,1898
77605	-12,625	-3,1126	-11,239	9,1703
77606	-12,624	-2,8672	-10,737	9,2585
77607	-11,708	-2,9157	-11,271	8,9174
77608	-14,507	-3,1147	-6,7438	10,933
77609	-15,164	-3,1075	-6,4786	11,313
77610	-12,728	-3,2595	-9,8942	9,4432
77611	-13,004	-3,157	-10,407	9,4181
77612	-12,805	-2,8947	-10,326	9,3794
77613	-14,139	-3,1221	-7,5451	10,537
77614	-14,804	-3,1121	-7,2976	10,885
77615	-13,182	-3,2559	-9,157	9,7558
77616	-13,554	-3,2229	-9,719	9,7419
77617	-13,005	-2,9497	-9,9818	9,5063
77618	-13,693	-3,1618	-8,3536	10,141
77619	-14,419	-3,1187	-8,1048	10,479
77620	-13,895	-3,129	-8,955	10,052
77621	-13,259	-2,8911	-9,5891	9,667
77622	-16,839	-3,0043	-2,7494	13,343
77623	-17,444	-3,0016	-2,4133	13,789
77624	-16,656	-3,0517	-3,6225	13,018
77625	-17,214	-3,0101	-3,3063	13,455
77626	-16,44	-3,0958	-4,4862	12,632
77627	-16,999	-3,0525	-4,1854	13,065
77628	-16,14	-3,0995	-5,3485	12,177
77629	-16,694	-3,0522	-5,0686	12,58
77630	-15,813	-3,1023	-6,1966	11,711
77631	-16,368	-3,0528	-5,9355	12,08
77632	-15,461	-3,1049	-7,0323	11,254
77633	-16,021	-3,0529	-6,7864	11,589
77634	-15,084	-3,1087	-7,8572	10,817
77635	-15,659	-3,0576	-7,6243	11,122
77636	-14,621	-3,0859	-8,7062	10,382
77637	-15,279	-3,063	-8,4504	10,687
77638	-14,266	-3,096	-9,517	10,033
77639	-14,871	-3,0783	-9,2884	10,286
77640	-13,717	-2,8228	-9,7799	9,7905
77641	-13,83	-3,1204	-10,231	9,7135
77642	-14,552	-3,115	-10,068	9,9641
77643	-13,631	-2,8581	-10,151	9,6743
77644	-13,282	-3,0926	-10,996	9,3906
77645	-13,964	-3,1045	-10,811	9,6085
77646	-13,28	-2,8472	-10,494	9,487
77647	-12,894	-3,0719	-11,756	9,1668
77648	-13,53	-3,0872	-11,635	9,3363
77649	-13,083	-2,8303	-10,916	9,3473
77650	-12,45	-3,0528	-12,504	8,9681
77651	-13,105	-3,0814	-12,376	9,1248
77652	-12,892	-2,8264	-11,254	9,2353
77653	-11,97	-3,0307	-13,319	8,7977
77654	-12,619	-3,0626	-13,188	8,9312
77655	-11,497	-3,0504	-14,169	8,6823
77656	-12,161	-3,0507	-14,002	8,7972
77657	-11,042	-3,0458	-15,003	8,6192
77658	-11,687	-3,0719	-14,853	8,7079
77659	-10,611	-3,0077	-15,806	8,6058
77660	-11,266	-3,0117	-15,642	8,6727
77661	-10,163	-3,0017	-16,637	8,638
77662	-10,82	-3,0003	-16,47	8,6808
77663	-9,7063	-3,0057	-17,477	8,716
77664	-10,367	-3,0005	-17,309	8,7347
77665	-9,254	-3,0049	-18,311	8,8371
77666	-9,9104	-3,0026	-18,151	8,8326
77667	-8,8101	-2,9982	-19,138	8,9977
77668	-9,4628	-2,9962	-18,983	8,9706
77669	-8,3599	-2,9989	-19,968	9,1971
77670	-9,0088	-2,9971	-19,818	9,1481
77671	-7,9035	-3,0058	-20,802	9,4339
77672	-8,551	-3,003	-20,653	9,3627
77673	-7,4523	-3,0078	-21,635	9,7049
77674	-8,0994	-3,0062	-21,486	9,6115
77675	-7,0039	-3,0088	-22,465	10,007
77676	-7,6521	-3,0032	-22,32	9,8928
77677	-6,5246	-3,039	-23,296	10,345
77678	-7,1972	-3,0092	-23,153	10,206
77679	-6,0794	-3,0416	-24,12	10,706
77680	-6,6865	-3,0619	-23,995	10,563
77681	-5,6341	-3,0424	-24,939	11,095
77682	-6,2989	-3,016	-24,81	10,921
77683	-5,164	-3,0673	-25,758	11,519
77684	-5,7929	-3,0647	-25,642	11,337
77685	-4,7275	-3,0628	-26,57	11,963
77686	-5,3551	-3,0639	-26,455	11,764
77687	-4,2918	-3,0504	-27,39	12,443
77688	-4,9108	-3,0583	-27,274	12,227
77689	2,0388	-3,0122	-36,698	20,414
77690	2,0548	-3,008	-37,39	21,47
77691	-3,8817	-3,0179	-28,242	12,967
77692	-4,4703	-3,044	-28,103	12,728
77693	1,3548	-3,0151	-36,053	20,07
77694	1,3693	-3,0092	-36,748	21,123
77695	-3,4437	-3,0246	-29,104	13,543
77696	-4,0596	-3,0157	-28,965	13,275
77697	0,68495	-3,0266	-35,384	19,465
77698	0,69309	-3,0132	-36,08	20,438
77699	-3,0796	-3,027	-29,981	14,148
77700	-3,6094	-3,0572	-29,827	13,878
77701	3,6103e-002	-3,0789	-34,704	18,724
77702	3,0529e-002	-3,0287	-35,392	19,571
77703	-2,7629	-2,9997	-30,857	14,785
77704	-3,3145	-3,0024	-30,724	14,496
77705	-0,59082	-3,0781	-33,99	17,904
77706	-0,60872	-3,1129	-34,695	18,652
77707	-2,3093	-3,0061	-31,67	15,481
77708	-2,8939	-3,0027	-31,575	15,192
77709	-1,1933	-3,0269	-33,232	17,056
77710	-1,2288	-3,0304	-33,948	17,702
77711	-1,7692	-3,0155	-32,456	16,24
77712	-2,3794	-3,0125	-32,378	15,953
77713	-1,819	-3,0193	-33,173	16,795
77714	-17,819	-3,0073	-2,9701	13,873
77715	-18,452	-3,0085	-2,6356	14,35
77716	-17,557	-3,0108	-3,8692	13,475
77717	-18,231	-3,0374	-3,4997	14,039
77718	-17,252	-3,0089	-4,7678	12,988
77719	-17,885	-3,0137	-4,444	13,51
77720	-16,922	-3,0055	-5,6557	12,464
77721	-17,559	-3,009	-5,3526	12,945
77722	-16,576	-3,0035	-6,5253	11,942
77723	-17,218	-3,0048	-6,2425	12,374
77724	-16,219	-3,0056	-7,3784	11,444
77725	-16,868	-3,0023	-7,1132	11,827
77726	-15,854	-3,0119	-8,2175	10,981
77727	-16,51	-3,0049	-7,9668	11,32
77728	-15,528	-3,0553	-9,0326	10,581
77729	-16,135	-3,0075	-8,8069	10,856
77730	-15,156	-3,0972	-9,8393	10,21
77731	-15,791	-3,0556	-9,6243	10,459
77732	-14,686	-3,099	-10,647	9,8537
77733	-15,348	-3,0614	-10,441	10,076
77734	-14,212	-3,099	-11,45	9,5481
77735	-14,887	-3,0601	-11,242	9,7467
77736	-13,741	-3,0967	-12,254	9,2899
77737	-14,413	-3,0906	-12,071	9,4569
77738	-13,274	-3,0913	-13,06	9,0833
77739	-13,943	-3,0876	-12,881	9,2238
77740	-12,811	-3,0826	-13,871	8,9255
77741	-13,475	-3,0812	-13,689	9,0424
77742	-12,351	-3,0721	-14,687	8,816
77743	-13,016	-3,0717	-14,514	8,9083
77744	-11,91	-3,0378	-15,492	8,7561
77745	-12,559	-3,0619	-15,338	8,8232
77746	-11,474	-3,0043	-16,307	8,7417
77747	-12,117	-3,0293	-16,157	8,7859
77748	-11,024	-2,9991	-17,142	8,7717
77749	-11,68	-3,0023	-16,975	8,7927
77750	-10,571	-2,9973	-17,983	8,8459
77751	-11,225	-3,0007	-17,816	8,8429
77752	1,3853	-3,005	-37,44	22,147
77753	1,367	-3,0098	-38,15	23,399
77754	-10,119	-2,9939	-18,822	8,9617
77755	-10,77	-2,9993	-18,661	8,9357
77756	0,70763	-3,0073	-36,775	21,473
77757	0,71568	-3,0335	-37,477	22,702
77758	-9,6615	-2,9951	-19,662	9,1171
77759	-10,318	-2,9951	-19,499	9,0675
77760	3,8668e-002	-3,0152	-36,088	20,539
77761	3,683e-002	-3,0079	-36,779	21,631
77762	-9,1999	-3,0011	-20,503	9,3106
77763	-9,8584	-2,9973	-20,341	9,2375
77764	-0,61429	-3,0627	-35,383	19,502
77765	-0,62805	-3,0169	-36,08	20,426
77766	-8,7469	-3,0033	-21,338	9,5381
77767	-9,3975	-3,0021	-21,183	9,4438
77768	-1,2467	-3,0652	-34,654	18,458
77769	-1,2781	-3,0932	-35,346	19,206
77770	-8,2992	-3,0016	-22,172	9,7981
77771	-8,9454	-3,0021	-22,02	9,6824
77772	-1,8544	-3,0229	-33,889	17,452
77773	-1,9037	-3,0255	-34,606	18,082
77774	-7,8454	-3,0036	-23,009	10,092
77775	-8,4659	-3,0227	-22,87	9,9609
77776	-2,4292	-3,0164	-33,096	16,518
77777	-2,5008	-3,0183	-33,815	17,037
77778	-7,359	-3,0321	-23,852	10,424
77779	-8,0345	-3,0071	-23,699	10,258
77780	-2,964	-3,0091	-32,283	15,675
77781	-3,0598	-3,0172	-33,003	16,108
77782	-6,906	-3,0363	-24,685	10,78
77783	-7,5193	-3,053	-24,552	10,609
77784	-3,4455	-3,0053	-31,441	14,913
77785	-3,5789	-3,0088	-32,164	15,277
77786	-6,4577	-3,0383	-25,512	11,165
77787	-7,1275	-3,0135	-25,37	10,956
77788	-3,8443	-3,0326	-30,57	14,237
77789	-4,0416	-3,0131	-31,303	14,543
77790	-5,984	-3,0613	-26,339	11,587
77791	-6,6205	-3,0575	-26,211	11,368
77792	-4,2253	-3,0483	-29,688	13,618
77793	-4,4099	-3,0566	-30,416	13,905
77794	-5,5383	-3,0594	-27,159	12,033
77795	-6,2056	-3,0354	-27,03	11,781
77796	-4,6482	-3,0418	-28,825	13,043
77797	-4,8354	-3,0391	-29,541	13,301
77798	-5,0893	-3,052	-27,986	12,518
77799	-5,7583	-3,0309	-27,86	12,241
77800	-5,3081	-3,0258	-28,695	12,742
77801	0,69737	-3,0383	-38,187	23,937
77802	4,4877e-002	-3,0341	-37,481	22,851
77803	4,2179e-002	-3,0364	-38,17	24,079
77804	-0,62989	-3,0096	-36,771	21,524
77805	-0,63916	-3,0043	-37,45	22,66
77806	-1,2919	-3,0475	-36,043	20,143
77807	-1,3127	-3,0152	-36,74	21,079
77808	-1,9351	-3,0535	-35,298	18,846
77809	-1,9809	-3,0711	-35,974	19,538
77810	-2,55	-3,0209	-34,531	17,684
77811	-2,6138	-3,0147	-35,243	18,251
77812	-3,1314	-3,0191	-33,723	16,642
77813	-3,2205	-3,0164	-34,445	17,091
77814	-3,6747	-3,0169	-32,884	15,724
77815	-3,7755	-3,0377	-33,598	16,089
77816	-4,175	-3,0165	-32,026	14,919
77817	-4,2955	-3,034	-32,739	15,228
77818	-4,6072	-3,0371	-31,15	14,222
77819	-4,7724	-3,036	-31,87	14,479
77820	-5,02	-3,0474	-30,269	13,597
77821	-5,2008	-3,0483	-30,988	13,823
77822	-5,4952	-3,0231	-29,41	13,008
77823	-5,6474	-3,04	-30,117	13,224
77824	-5,9772	-3,0048	-28,568	12,473
77825	-6,1295	-3,0239	-29,269	12,672
77826	-6,4256	-3,0069	-27,73	11,995
77827	-6,581	-3,0248	-28,428	12,179
77828	-6,8421	-3,0316	-26,901	11,566
77829	-7,0342	-3,0279	-27,593	11,727
77830	-7,2904	-3,0327	-26,068	11,161
77831	-7,4555	-3,0499	-26,765	11,322
77832	-7,7409	-3,0303	-25,237	10,787
77833	-7,9669	-3,0097	-25,916	10,918
77834	-8,1947	-3,0281	-24,399	10,443
77835	-8,3642	-3,0452	-25,094	10,586
77836	-8,655	-3,0262	-23,56	10,127
77837	-8,8491	-3,0233	-24,244	10,255
77838	-9,1122	-3,0233	-22,718	9,8437
77839	-9,285	-3,0414	-23,412	9,9687
77840	-9,596	-3,0009	-21,865	9,5863
77841	-9,7913	-3,0029	-22,548	9,6953
77842	-10,056	-2,9983	-21,021	9,3679
77843	-10,249	-3,0019	-21,703	9,4672
77844	-10,515	-2,9973	-20,178	9,1844
77845	-10,711	-3,	-20,858	9,2715
77846	-10,968	-3,0005	-19,338	9,0374
77847	-11,168	-3,0018	-20,014	9,111
77848	-11,424	-3,0027	-18,493	8,9279
77849	-11,608	-3,0183	-19,179	8,9884
77850	-11,881	-3,0038	-17,648	8,8585
77851	-12,069	-3,02	-18,333	8,9009
77852	-12,322	-3,0273	-16,825	8,8317
77853	-12,541	-3,0061	-17,474	8,8538
77854	-12,766	-3,0535	-16,002	8,8475
77855	-12,973	-3,0464	-16,666	8,8498
77856	-13,224	-3,0615	-15,165	8,9094
77857	-13,433	-3,0525	-15,823	8,8894
77858	-18,865	-3,0386	-3,1652	14,481
77859	-13,68	-3,0703	-14,332	9,0189
77860	-13,888	-3,06	-14,983	8,9753
77861	-18,559	-3,0402	-4,0745	14,031
77862	-19,223	-3,0609	-3,7023	14,714
77863	-14,143	-3,0775	-13,511	9,1769
77864	-14,346	-3,0679	-14,15	9,1088
77865	-18,191	-3,0138	-5,0288	13,434
77866	-18,804	-3,0155	-4,7086	14,019
77867	-14,614	-3,0816	-12,698	9,3846
77868	-14,815	-3,0733	-13,334	9,2906
77869	-17,855	-3,0083	-5,9394	12,83
77870	-18,465	-3,0074	-5,6392	13,336
77871	-15,087	-3,0517	-11,863	9,6485
77872	-15,28	-3,0755	-12,51	9,5244
77873	-17,51	-3,0036	-6,8303	12,24
77874	-18,114	-2,998	-6,5507	12,669
77875	-15,549	-3,0225	-11,035	9,9622
77876	-15,762	-3,0185	-11,656	9,8209
77877	-17,158	-3,0015	-7,7016	11,689
77878	-17,791	-3,0025	-7,4365	12,067
77879	-15,984	-3,0199	-10,226	10,317
77880	-16,211	-3,0174	-10,843	10,158
77881	-16,791	-3,0005	-8,5562	11,184
77882	-17,512	-3,0284	-8,2945	11,54
77883	-16,398	-3,0078	-9,3986	10,725
77884	-16,64	-3,0113	-10,017	10,548
77885	-17,053	-2,9964	-9,1688	10,999
77886	-0,64186	-3,0066	-38,139	23,896
77887	-0,59837	-3,0317	-38,837	24,889
77888	-1,322	-3,0099	-37,419	22,234
77889	-1,4408	-3,0442	-38,038	23,065
77890	-2,0017	-3,0388	-36,67	20,499
77891	-2,0182	-3,0244	-37,386	21,394
77892	-2,6596	-3,0323	-35,919	18,969
77893	-2,7069	-3,0472	-36,599	19,581
77894	-3,2843	-3,0102	-35,157	17,682
77895	-3,3532	-3,	-35,869	18,154
77896	-3,8646	-3,035	-34,32	16,558
77897	-4,0002	-3,0079	-35,029	16,862
77898	-4,3963	-3,0548	-33,453	15,608
77899	-4,525	-3,0373	-34,164	15,869
77900	-4,893	-3,0535	-32,584	14,8
77901	-5,074	-3,0332	-33,298	14,99
77902	-5,3661	-3,0472	-31,708	14,091
77903	-5,5297	-3,0401	-32,419	14,275
77904	-5,8283	-3,0409	-30,836	13,461
77905	-6,0088	-3,0361	-31,546	13,618
77906	-6,2817	-3,0408	-29,976	12,895
77907	-6,468	-3,0359	-30,678	13,038
77908	-6,7334	-3,044	-29,129	12,384
77909	-6,923	-3,0394	-29,827	12,515
77910	-7,1895	-3,0459	-28,292	11,916
77911	-7,3776	-3,0417	-28,987	12,039
77912	-7,6475	-3,0463	-27,457	11,487
77913	-7,8383	-3,0424	-28,15	11,601
77914	-8,132	-3,0269	-26,613	11,082
77915	-8,2949	-3,042	-27,312	11,201
77916	-8,5903	-3,0246	-25,774	10,719
77917	-8,7828	-3,022	-26,46	10,82
77918	-9,0187	-3,0404	-24,94	10,399
77919	-9,219	-3,038	-25,624	10,491
77920	-9,4792	-3,0386	-24,097	10,097
77921	-9,6761	-3,0363	-24,782	10,184
77922	-9,9641	-3,0211	-23,242	9,8192
77923	-10,141	-3,0348	-23,935	9,9044
77924	-10,445	-3,004	-22,386	9,5747
77925	-10,624	-3,0179	-23,077	9,6502
77926	-10,904	-3,0036	-21,54	9,3684
77927	-11,084	-3,0173	-22,231	9,4343
77928	-11,364	-3,0044	-20,693	9,1951
77929	-11,563	-3,0053	-21,37	9,2452
77930	-19,467	-3,0362	-4,3363	14,631
77931	-20,053	-3,0367	-4,0042	15,461
77932	-11,807	-3,0195	-19,856	9,0585
77933	-12,027	-3,0041	-20,518	9,0934
77934	-19,078	-3,0092	-5,3189	13,878
77935	-19,681	-3,0166	-4,998	14,565
77936	-12,253	-3,0356	-19,019	8,9572
77937	-12,455	-3,0318	-19,693	8,9817
77938	-18,724	-2,9971	-6,2504	13,144
77939	-19,341	-3,0074	-5,9422	13,714
77940	-12,729	-3,0223	-18,159	8,8912
77941	-12,923	-3,035	-18,841	8,8998
77942	-18,395	-2,9969	-7,1568	12,474
77943	-18,985	-2,995	-6,8603	12,927
77944	-13,192	-3,0252	-17,315	8,8674
77945	-13,409	-3,006	-17,966	8,8563
77946	-18,145	-3,0294	-8,0294	11,901
77947	-18,696	-3,0063	-7,7687	12,248
77948	-13,64	-3,0454	-16,486	8,8861
77949	-13,845	-3,04	-17,154	8,8559
77950	-17,773	-3,0243	-8,907	11,342
77951	-18,411	-3,0251	-8,6494	11,654
77952	-14,096	-3,051	-15,641	8,9495
77953	-14,306	-3,0436	-16,306	8,8973
77954	-17,294	-2,9998	-9,7868	10,813
77955	-17,958	-2,9966	-9,5556	11,066
77956	-14,553	-3,0577	-14,801	9,0594
77957	-14,763	-3,0488	-15,459	8,9839
77958	-16,868	-3,0088	-10,634	10,381
77959	-17,533	-3,0063	-10,425	10,584
77960	-15,017	-3,0636	-13,974	9,217
77961	-15,226	-3,0546	-14,625	9,1165
77962	-16,424	-3,0134	-11,464	10,01
77963	-17,098	-3,0302	-11,284	10,17
77964	-15,481	-3,0672	-13,146	9,4244
77965	-15,689	-3,0594	-13,793	9,2983
77966	-15,955	-3,0423	-12,304	9,6898
77967	-16,638	-3,0103	-12,097	9,8309
77968	-16,151	-3,0615	-12,958	9,5317
77969	-20,267	-3,0171	-4,6659	15,297
77970	-19,944	-3,0148	-5,6213	14,345
77971	-20,535	-3,0191	-5,3099	15,193
77972	-19,601	-3,0053	-6,5521	13,46
77973	-20,221	-3,0257	-6,2453	14,109
77974	-19,285	-3,0044	-7,4722	12,675
77975	-19,865	-3,0097	-7,1575	13,163
77976	-18,962	-3,0021	-8,3886	11,983
77977	-19,54	-3,0012	-8,024	12,412
77978	-18,596	-2,9975	-9,2979	11,364
77979	-19,279	-3,0312	-9,022	11,668
77980	-18,197	-3,0031	-10,193	10,828
77981	-18,867	-3,0015	-9,9688	11,045
77982	-17,764	-3,0277	-11,075	10,366
77983	-18,424	-3,0035	-10,851	10,536
77984	-17,312	-3,0271	-11,917	9,9856
77985	-17,981	-3,0467	-11,743	10,103
77986	-16,834	-3,0296	-12,752	9,6664
77987	-17,515	-3,0044	-12,545	9,7678
77988	-16,359	-3,0538	-13,605	9,4001
77989	-17,043	-3,027	-13,394	9,4761
77990	-15,897	-3,0504	-14,445	9,1926
77991	-16,578	-3,029	-14,237	9,2419
77992	-15,435	-3,0457	-15,283	9,036
77993	-16,118	-3,0272	-15,079	9,0604
77994	-14,973	-3,0413	-16,125	8,9266
77995	-15,644	-3,0399	-15,945	8,9244
77996	-14,512	-3,0382	-16,974	8,8622
77997	-15,184	-3,0368	-16,787	8,8389
77998	-14,063	-3,0208	-17,805	8,8409
77999	-14,718	-3,0349	-17,642	8,7962
78000	-13,603	-3,0187	-18,647	8,8604
78001	-14,269	-3,0182	-18,468	8,7944
78002	-13,125	-3,0312	-19,515	8,9206
78003	-13,795	-3,0314	-19,335	8,8326
78004	-12,675	-3,0164	-20,355	9,0138
78005	-13,34	-3,0164	-20,175	8,9052
78006	-1,3973	-3,0693	-38,736	24,062
78007	-1,5308	-2,871	-39,466	24,342
78008	-12,226	-3,005	-21,195	9,1409
78009	-12,895	-3,0027	-21,013	9,0099
78010	-2,137	-3,0587	-38,005	22,288
78011	-2,1357	-3,1622	-38,68	23,134
78012	-2,0334	-2,8879	-39,028	23,431
78013	-11,743	-3,019	-22,062	9,309
78014	-12,426	-3,0055	-21,872	9,1519
78015	-2,7233	-3,0328	-37,315	20,513
78016	-2,7374	-3,0399	-38,023	21,226
78017	-11,264	-3,0313	-22,923	9,5085
78018	-11,929	-3,029	-22,748	9,3343
78019	-3,4004	-3,0148	-36,549	18,799
78020	-3,4483	-3,0105	-37,263	19,292
78021	-10,801	-3,0316	-23,77	9,7348
78022	-11,464	-3,0294	-23,598	9,5387
78023	-4,0691	-2,9977	-35,741	17,363
78024	-4,2621	-2,852	-36,516	17,528
78025	-4,1998	-2,6495	-36,273	17,502
78026	-10,338	-3,0325	-24,62	9,9916
78027	-11,004	-3,0299	-24,45	9,7712
78028	-4,6606	-3,0102	-34,873	16,197
78029	-4,87	-2,9902	-35,586	16,282
78030	-4,5404	-2,6519	-35,835	16,821
78031	-9,8765	-3,0339	-25,467	10,277
78032	-10,539	-3,0309	-25,301	10,034
78033	-5,2026	-3,0157	-34,01	15,27
78034	-5,3699	-3,0033	-34,717	15,383
78035	-9,4115	-3,0354	-26,311	10,593
78036	-10,075	-3,0316	-26,147	10,325
78037	-5,7107	-3,0198	-33,133	14,48
78038	-5,9114	-3,005	-33,841	14,56
78039	-8,9456	-3,0371	-27,159	10,941
78040	-9,6058	-3,0327	-26,996	10,648
78041	-6,1725	-3,0289	-32,256	13,814
78042	-6,3413	-3,0201	-32,959	13,914
78043	-8,4857	-3,0381	-28,004	11,319
78044	-9,1437	-3,0342	-27,849	10,999
78045	-6,6485	-3,0311	-31,388	13,205
78046	-6,8313	-3,0243	-32,087	13,291
78047	-8,0264	-3,0382	-28,845	11,73
78048	-8,6855	-3,0348	-28,691	11,379
78049	-7,1092	-3,0345	-30,53	12,665
78050	-7,3017	-3,0293	-31,224	12,74
78051	-7,5672	-3,0372	-29,685	12,177
78052	-8,2228	-3,0347	-29,536	11,795
78053	-7,7644	-3,0333	-30,376	12,245
78054	6,409	-2,986	-40,5	14,457
78055	6,5802	-2,953	-41,121	13,894
78056	6,9088	-3,0162	-39,581	13,88
78057	7,0725	-3,0259	-40,311	13,391
78058	7,3799	-3,0068	-38,671	13,43
78059	7,5639	-3,0052	-39,365	13,004
78060	7,8355	-3,006	-37,803	13,021
78061	8,0295	-3,0157	-38,51	12,653
78062	8,3003	-2,9903	-36,912	12,623
78063	8,5007	-2,9931	-37,602	12,315
78064	8,7698	-2,9952	-36,051	12,227
78065	8,9653	-2,9908	-36,734	11,973
78066	10,772	-2,9773	34,352	11,687
78067	11,252	-2,9839	33,481	11,238
78068	11,462	-2,9847	34,17	11,239
78069	10,286	-2,9714	35,222	12,187
78070	10,977	-2,979	35,039	11,694
78071	9,2417	-2,9983	-35,193	11,838
78072	9,4467	-3,008	-35,883	11,614
78073	11,724	-2,9891	32,609	10,831
78074	11,935	-2,9897	33,296	10,827
78075	9,8082	-2,9835	36,105	12,743
78076	10,498	-2,9756	35,913	12,19
78077	9,7131	-2,9988	-34,331	11,46
78078	9,9065	-2,9978	-35,014	11,278
78079	12,197	-2,9924	31,737	10,456
78080	12,407	-2,993	32,423	10,446
78081	9,3451	-2,9954	36,981	13,356
78082	10,025	-2,9931	36,8	12,742
78083	10,183	-3,0044	-33,472	11,097
78084	10,378	-3,0028	-34,154	10,937
78085	12,67	-2,9943	30,864	10,108
78086	12,879	-2,9951	31,549	10,09
78087	8,8713	-3,0158	37,875	14,071
78088	9,562	-2,997	37,662	13,343
78089	10,65	-3,0088	-32,613	10,752
78090	10,845	-3,0078	-33,293	10,61
78091	13,143	-2,9954	29,991	9,7846
78092	13,352	-2,9962	30,675	9,7584
78093	8,3977	-3,0489	38,798	14,905
78094	9,0903	-3,03	38,568	14,044
78095	11,13	-3,0262	-31,753	10,415
78096	11,319	-3,0251	-32,433	10,291
78097	13,616	-2,9961	29,117	9,4844
78098	13,825	-2,9969	29,8	9,4485
78099	7,9758	-3,084	39,707	15,792
78100	8,653	-3,0518	39,47	14,8
78101	11,607	-3,0396	-30,89	10,099
78102	11,798	-3,0395	-31,57	9,9828
78103	14,089	-2,9963	28,243	9,2062
78104	14,298	-2,9971	28,925	9,1595
78105	7,6457	-3,1566	40,638	16,635
78106	8,2507	-3,087	40,377	15,591
78107	7,2098	-2,9388	40,412	17,297
78108	12,068	-3,0371	-30,027	9,8116
78109	12,26	-3,0378	-30,707	9,7015
78110	14,563	-2,9964	27,368	8,9496
78111	14,771	-2,997	28,05	8,8911
78112	7,2664	-3,1664	41,521	17,655
78113	7,9025	-3,1424	41,313	16,351
78114	7,0737	-2,9862	40,889	17,676
78115	12,529	-3,0346	-29,163	9,5431
78116	12,722	-3,0353	-29,842	9,4364
78117	15,037	-2,9968	26,493	8,7145
78118	15,244	-2,9971	27,174	8,6432
78119	6,7971	-3,1118	42,364	18,927
78120	7,4396	-3,1137	42,174	17,339
78121	6,8305	-2,9486	41,295	18,287
78122	12,99	-3,0327	-28,299	9,2937
78123	13,184	-3,0333	-28,978	9,1881
78124	15,51	-2,9979	25,618	8,5017
78125	15,718	-2,9978	26,298	8,4164
78126	6,3649	-3,0934	43,241	20,223
78127	6,973	-3,0749	43,022	18,41
78128	13,441	-3,021	-27,438	9,0687
78129	13,647	-3,0316	-28,113	8,9573
78130	6,0139	-3,1151	44,077	21,329
78131	6,531	-3,0711	43,883	19,45
78132	5,7889	-3,1005	43,602	22,404
78133	5,7503	-2,7105	43,888	22,825
78134	6,0244	-3,1308	44,643	20,948
78135	5,8561	-2,587	44,427	21,942
78136	5,6055	-2,7336	44,282	23,264
78137	5,4591	-3,1165	44,725	24,507
78138	15,984	-2,9993	24,743	8,3118
78139	16,191	-2,9989	25,422	8,2114
78140	13,902	-3,0198	-26,573	8,8583
78141	14,094	-3,0097	-27,254	8,7512
78142	16,458	-3,0007	23,868	8,1458
78143	16,664	-3,0001	24,546	8,0291
78144	14,365	-3,0183	-25,71	8,6679
78145	14,572	-3,0291	-26,383	8,5499
78146	16,932	-3,0021	22,994	8,0053
78147	17,138	-3,0012	23,67	7,8706
78148	14,817	-3,0074	-24,851	8,5032
78149	15,02	-3,0069	-25,526	8,3814
78150	17,408	-3,0011	22,117	7,8908
78151	17,611	-3,0025	22,795	7,7375
78152	15,281	-3,0078	-23,988	8,3556
78153	15,484	-3,0173	-24,658	8,2259
78154	6,5415	-3,0868	44,449	19,091
78155	6,6722	-3,0981	45,128	17,875
78156	6,1507	-2,9081	45,646	18,832
78157	17,882	-3,0027	21,243	7,8059
78158	18,087	-3,0012	21,918	7,6305
78159	7,1391	-3,0526	43,664	17,673
78160	7,2949	-3,0508	44,327	16,723
78161	15,747	-3,0082	-23,124	8,2309
78162	15,95	-3,0177	-23,793	8,0915
78163	7,6155	-3,0768	42,833	16,86
78164	7,7722	-3,0424	43,472	16,17
78165	18,353	-3,007	20,37	7,7527
78166	18,558	-3,0054	21,044	7,5541
78167	8,0758	-3,0896	41,965	16,065
78168	8,2444	-3,0621	42,624	15,559
78169	16,213	-3,0083	-22,261	8,1311
78170	16,416	-3,018	-22,928	7,98
78171	8,5076	-3,0728	41,052	15,332
78172	8,6871	-3,0475	41,731	14,974
78173	18,828	-3,0051	19,495	7,7319
78174	19,031	-3,007	20,169	7,508
78175	8,9279	-3,0548	40,14	14,626
78176	9,1168	-3,0411	40,833	14,379
78177	16,678	-3,0068	-21,397	8,0587
78178	16,882	-3,0178	-22,064	7,8931
78179	9,3456	-3,0329	39,24	13,962
78180	9,5571	-3,0402	39,93	13,777
78181	19,302	-3,0069	18,621	7,7475
78182	19,506	-3,005	19,292	7,4955
78183	9,781	-3,0112	38,355	13,335
78184	9,9925	-3,0199	39,042	13,211
78185	17,142	-3,0057	-20,531	8,0153
78186	17,347	-3,016	-21,199	7,833
78187	10,242	-2,9947	37,482	12,744
78188	10,449	-3,0023	38,166	12,665
78189	19,775	-3,0122	17,749	7,8027
78190	19,978	-3,0104	18,419	7,5201
78191	10,715	-2,9853	36,608	12,202
78192	10,918	-2,9918	37,295	12,152
78193	17,607	-3,0051	-19,665	8,003
78194	17,812	-3,0154	-20,333	7,8013
78195	11,189	-2,9832	35,73	11,708
78196	11,397	-2,9871	36,418	11,672
78197	20,249	-3,0063	16,873	7,9025
78198	20,451	-3,0118	17,544	7,5852
78199	11,667	-2,9864	34,856	11,255
78200	11,87	-2,9887	35,54	11,23
78201	18,072	-3,0035	-18,8	8,0243
78202	18,278	-3,0135	-19,468	7,8009
78203	12,145	-2,9905	33,985	10,836
78204	12,35	-2,9922	34,667	10,814
78205	20,723	-3,0068	16,	8,0499
78206	20,925	-3,	16,667	7,696
78207	12,617	-2,9936	33,109	10,449
78208	12,822	-2,9951	33,791	10,427
78209	18,543	-3,0124	-17,925	8,0831
78210	18,743	-3,0019	-18,606	7,8338
78211	13,089	-2,9957	32,235	10,086
78212	13,293	-2,997	32,915	10,061
78213	21,195	-3,0041	15,128	8,2518
78214	21,398	-3,0069	15,795	7,8561
78215	13,562	-2,997	31,359	9,7463
78216	13,764	-2,9983	32,039	9,7146
78217	19,012	-3,0229	-17,051	8,1831
78218	19,215	-3,0213	-17,728	7,9059
78219	14,034	-2,9976	30,484	9,427
78220	14,237	-2,9989	31,163	9,3868
78221	21,668	-3,0024	14,254	8,5164
78222	21,87	-2,9957	14,921	8,0751
78223	14,507	-2,9978	29,608	9,1275
78224	14,709	-2,9992	30,287	9,0768
78225	19,474	-3,0114	-16,201	8,322
78226	19,679	-3,0223	-16,863	8,0186
78227	14,979	-2,9977	28,732	8,8476
78228	15,184	-2,9979	29,41	8,7838
78229	22,14	-3,0075	13,38	8,8535
78230	22,343	-3,0104	14,047	8,3598
78231	15,452	-2,9977	27,855	8,5873
78232	15,659	-2,9995	28,535	8,5093
78233	19,935	-2,9984	-15,355	8,5066
78234	20,141	-2,9994	-16,018	8,1696
78235	15,925	-2,9981	26,978	8,347
78236	16,132	-2,9998	27,658	8,2547
78237	22,608	-3,0003	12,493	9,2854
78238	22,814	-3,0049	13,171	8,7243
78239	16,398	-2,9988	26,102	8,1274
78240	16,604	-3,0002	26,781	8,0197
78241	20,4	-2,998	-14,501	8,7465
78242	20,606	-2,9963	-15,16	8,3741
78243	16,871	-2,9997	25,225	7,9294
78244	17,077	-3,0008	25,903	7,805
78245	23,07	-2,9929	11,593	9,8341
78246	23,28	-2,9968	12,277	9,1971
78247	17,344	-3,0007	24,348	7,7541
78248	17,549	-2,9997	25,025	7,6122
78249	20,864	-2,9966	-13,647	9,0463
78250	21,071	-2,9974	-14,304	8,6337
78251	17,817	-3,0016	23,472	7,6027
78252	18,021	-3,0003	24,148	7,4416
78253	23,528	-2,9942	10,689	10,524
78254	23,742	-2,99	11,379	9,793
78255	18,289	-3,0026	22,595	7,4767
78256	18,493	-3,0008	23,271	7,2943
78257	21,323	-3,0122	-12,767	9,432
78258	21,535	-2,9983	-13,444	8,9599
78259	18,762	-3,0039	21,719	7,3778
78260	18,967	-3,0017	22,394	7,172
78261	23,987	-3,0041	9,7841	11,392
78262	24,201	-2,9937	10,475	10,545
78263	19,235	-3,0054	20,842	7,3082
78264	19,44	-3,0044	21,517	7,077
78265	21,773	-3,0235	-11,885	9,9065
78266	21,993	-3,0259	-12,55	9,386
78267	19,708	-3,0069	19,966	7,2702
78268	19,913	-3,0055	20,641	7,0115
78269	24,453	-3,0116	8,8859	12,487
78270	24,657	-3,0017	9,5691	11,493
78271	20,181	-3,0085	19,09	7,2667
78272	20,385	-3,0067	19,764	6,9779
78273	22,224	-2,9919	-11,046	10,451
78274	22,447	-3,0193	-11,686	9,887
78275	20,654	-3,01	18,214	7,3012
78276	20,858	-3,0078	18,887	6,9793
78277	24,912	-3,0123	7,991	13,909
78278	25,123	-3,0051	8,678	12,668
78279	21,127	-3,0055	17,338	7,3774
78280	21,33	-3,009	18,01	7,0193
78281	22,602	-2,87	-10,185	11,148
78282	22,907	-2,9807	-10,873	10,453
78283	21,601	-3,0001	16,462	7,501
78284	21,805	-3,0003	17,135	7,1012
78285	25,351	-3,0004	7,0797	15,843
78286	25,573	-3,0036	7,784	14,176
78287	22,073	-2,9985	15,588	7,6782
78288	22,277	-3,0001	16,259	7,2339
78289	21,329	-2,8776	-5,7586	15,65
78290	22,545	-3,0038	14,714	7,9174
78291	22,749	-2,9978	15,384	7,4224
78292	23,042	-3,0391	-9,2913	12,046
78293	23,289	-2,8813	-10,003	11,216
78294	23,017	-3,0078	13,838	8,2296
78295	23,22	-3,0089	14,506	7,6805
78296	23,487	-3,0014	12,955	8,6346
78297	23,691	-3,0047	13,63	8,0149
78298	23,543	-3,2869	-8,4692	13,095
78299	23,793	-3,1595	-9,1386	12,148
78300	23,953	-2,9939	12,062	9,1547
78301	24,161	-2,9977	12,746	8,4515
78302	22,195	-2,8525	-6,0893	16,187
78303	24,415	-2,9895	11,165	9,8133
78304	24,628	-2,9907	11,855	9,014
78305	24,87	-2,9912	10,26	10,647
78306	25,089	-2,9869	10,954	9,7354
78307	23,694	-3,1313	-7,4837	14,756
78308	24,22	-3,266	-8,2019	13,478
78309	24,447	-2,822	-8,1442	13,626
78310	23,711	-2,8542	-7,5669	14,561
78311	25,327	-2,9951	9,3613	11,68
78312	25,542	-2,9889	10,051	10,643
78313	23,116	-2,9882	-6,5771	16,11
78314	25,783	-2,9964	8,4711	12,951
78315	26,003	-2,9916	9,1585	11,751
78316	26,012	-2,9927	6,8806	16,144
78317	26,234	-2,9959	7,5849	14,508
78318	26,455	-2,9938	8,2698	13,099
78319	26,693	-3,0018	6,7287	16,281
78320	26,912	-3,0003	7,4026	14,661
78321	27,208	-3,0007	6,0087	17,82
78322	27,385	-3,0197	6,5787	16,316
78323	27,923	-2,9966	5,9257	17,554
78324	24,173	-3,0641	-7,1729	15,41
78325	24,387	-2,6841	-7,5393	14,68
78326	23,651	-2,7162	-6,962	15,72
78327	24,699	-3,1988	-7,8912	14,125
78328	24,47	-3,1386	-8,8714	12,53
78329	25,083	-3,2251	-8,6304	12,747
78330	24,913	-2,8188	-8,2576	13,459
78331	25,236	-3,1371	-7,5792	14,657
78332	24,926	-2,7548	-7,8335	14,274
78333	24,041	-3,0017	-9,8506	11,323
78334	24,69	-2,9976	-9,6303	11,429
78335	26,093	-2,9401	-6,6065	16,903
78336	25,704	-3,0096	-7,0409	16,013
78337	25,714	-2,4465	-6,2976	17,975
78338	26,767	-3,0285	-6,4816	16,974
78339	27,611	-3,0688	-6,2429	17,022
78340	27,26	-2,6522	-6,8128	15,967
78341	23,595	-2,992	-10,691	10,52
78342	24,265	-2,9877	-10,487	10,527
78343	26,46	-3,0646	-7,1921	15,333
78344	27,203	-3,0472	-6,9926	15,448
78345	27,034	-2,624	-7,1538	15,144
78346	23,13	-3,0081	-11,513	9,8884
78347	23,804	-2,9952	-11,331	9,8199
78348	26,071	-3,1342	-7,6265	14,443
78349	26,814	-3,0715	-7,8331	13,834
78350	26,954	-2,6884	-7,5233	14,331
78351	25,76	-2,7519	-7,8808	14,058
78352	22,666	-3,0217	-12,351	9,3644
78353	23,34	-3,021	-12,152	9,2671
78354	25,621	-3,1634	-8,3184	13,279
78355	26,372	-3,0524	-8,1149	13,41
78356	25,45	-2,7571	-7,9456	13,993
78357	22,205	-3,012	-13,227	8,9112
78358	22,877	-3,0203	-13,02	8,7844
78359	25,303	-3,0842	-9,3893	11,648
78360	25,961	-3,0976	-9,16	11,739
78361	25,31	-2,7811	-8,5727	12,899
78362	21,742	-2,9991	-14,101	8,5456
78363	22,415	-3,0019	-13,901	8,3872
78364	24,914	-2,9837	-10,267	10,634
78365	25,577	-2,9775	-10,051	10,638
78366	21,277	-2,9956	-14,963	8,2599
78367	21,95	-3,008	-14,761	8,082
78368	24,474	-2,9909	-11,126	9,8277
78369	25,141	-2,9979	-10,903	9,7697
78370	20,812	-2,9973	-15,822	8,0358
78371	21,484	-3,0073	-15,623	7,8402
78372	24,014	-3,0081	-11,97	9,1996
78373	24,687	-3,0053	-11,765	9,0618
78374	20,347	-3,0103	-16,679	7,8651
78375	21,018	-2,9997	-16,487	7,654
78376	23,551	-3,0196	-12,821	8,687
78377	24,228	-3,0187	-12,62	8,5015
78378	19,882	-3,0207	-17,54	7,74
78379	20,554	-3,0199	-17,346	7,5185
78380	23,088	-3,0102	-13,693	8,2599
78381	23,764	-3,0177	-13,488	8,0462
78382	19,415	-3,0108	-18,409	7,6551
78383	20,087	-3,0197	-18,212	7,4244
78384	22,622	-3,0108	-14,56	7,9233
78385	23,296	-3,0008	-14,365	7,6814
78386	18,948	-3,0119	-19,274	7,609
78387	19,619	-3,0016	-19,083	7,3687
78388	22,157	-3,0197	-15,421	7,6618
78389	22,832	-3,0188	-15,221	7,4066
78390	18,483	-3,0237	-20,136	7,5979
78391	19,154	-3,0211	-19,943	7,3494
78392	22,366	-3,0188	-16,087	7,1915
78393	21,69	-3,0097	-16,289	7,4578
78394	23,041	-3,0179	-15,886	6,9368
78395	23,505	-3,0088	-15,026	7,1657
78396	22,572	-3,0097	-16,757	6,7647
78397	21,897	-3,0005	-16,959	7,0309
78398	21,224	-3,0093	-17,154	7,3068
78399	18,017	-3,0256	-21,001	7,6178
78400	18,688	-3,0223	-20,809	7,361
78401	22,105	-3,0095	-17,624	6,6444
78402	23,972	-3,0084	-14,159	7,4691
78403	21,433	-3,0182	-17,819	6,9206
78404	20,759	-3,0189	-18,018	7,2021
78405	17,551	-3,027	-21,866	7,6664
78406	18,221	-3,0235	-21,674	7,4013
78407	21,641	-3,0175	-18,486	6,5685
78408	24,441	-3,0168	-13,286	7,8629
78409	20,966	-3,0181	-18,685	6,8505
78410	20,292	-3,0105	-18,886	7,1371
78411	24,901	-3,016	-12,416	8,3667
78412	21,173	-3,0173	-19,353	6,5298
78413	17,084	-3,0276	-22,731	7,7413
78414	17,754	-3,0241	-22,54	7,4678
78415	20,499	-3,0096	-19,553	6,8169
78416	19,825	-3,0108	-19,752	7,1082
78417	25,354	-3,0123	-11,542	9,0071
78418	20,706	-3,0171	-20,22	6,5243
78419	16,619	-3,0275	-23,597	7,8403
78420	17,288	-3,0243	-23,406	7,5581
78421	20,032	-3,0183	-20,418	6,8161
78422	19,359	-3,0197	-20,616	7,1116
78423	25,803	-2,9917	-10,686	9,7804
78424	20,238	-3,0101	-21,091	6,5478
78425	16,153	-3,0272	-24,463	7,9618
78426	16,822	-3,0245	-24,272	7,6704
78427	19,564	-3,0115	-21,289	6,8438
78428	18,892	-3,0202	-21,482	7,1438
78429	26,234	-2,9909	-9,8212	10,741
78430	19,769	-3,0021	-21,963	6,5977
78431	15,687	-3,0168	-25,333	8,1044
78432	16,356	-3,0249	-25,139	7,8031
78433	19,097	-3,0108	-22,156	6,8981
78434	18,425	-3,0205	-22,348	7,2021
78435	26,712	-2,9866	-8,9564	11,906
78436	25,79	-2,6912	-8,7872	12,397
78437	19,302	-3,0011	-22,831	6,6716
78438	15,227	-3,0177	-26,2	8,2642
78439	15,89	-3,0057	-26,011	7,9544
78440	18,63	-3,0109	-23,023	6,9758
78441	17,958	-3,0208	-23,215	7,2843
78442	27,116	-2,9898	-8,3214	12,861
78443	27,255	-2,6066	-8,0117	13,345
78444	26,062	-2,6701	-8,3691	13,029
78445	18,835	-3,0016	-23,698	6,7665
78446	14,764	-3,019	-27,064	8,444
78447	15,43	-3,0271	-26,872	8,1214
78448	18,163	-3,0116	-23,89	7,0749
78449	17,491	-3,0213	-24,081	7,3883
78450	27,557	-3,0541	-7,6335	14,001
78451	27,388	-2,6309	-7,7947	13,683
78452	26,194	-2,6944	-8,1522	13,369
78453	18,368	-3,0025	-24,565	6,8803
78454	14,3	-3,0203	-27,929	8,6415
78455	14,962	-3,0078	-27,742	8,3078
78456	17,696	-3,0123	-24,756	7,1933
78457	17,025	-3,0222	-24,948	7,5121
78458	28,046	-3,0875	-6,7539	15,561
78459	27,696	-2,671	-7,3238	14,487
78460	17,902	-3,0103	-25,427	7,0114
78461	13,841	-3,0322	-28,792	8,8537
78462	14,5	-3,0295	-28,603	8,5072
78463	17,23	-3,0202	-25,619	7,3295
78464	16,559	-3,0138	-25,817	7,6538
78465	27,877	-2,6643	-6,9151	15,236
78466	17,435	-3,0115	-26,293	7,1578
78467	13,377	-3,034	-29,657	9,0839
78468	14,035	-3,0309	-29,469	8,7224
78469	16,764	-3,0051	-26,492	7,481
78470	16,092	-3,0151	-26,683	7,8126
78471	16,968	-3,0125	-27,16	7,318
78472	12,914	-3,0359	-30,522	9,3292
78473	13,57	-3,0325	-30,335	8,9511
78474	16,297	-3,0225	-27,352	7,6482
78475	15,627	-3,0159	-27,55	7,9866
78476	16,501	-3,0122	-28,028	7,4903
78477	12,45	-3,0377	-31,387	9,589
78478	13,108	-3,0248	-31,201	9,191
78479	15,832	-3,0056	-28,225	7,827
78480	15,161	-3,017	-28,416	8,1753
78481	16,034	-3,0127	-28,895	7,6736
78482	11,986	-3,0384	-32,251	9,8624
78483	12,644	-3,0263	-32,065	9,4436
78484	15,364	-3,0242	-29,086	8,0199
78485	14,694	-3,0282	-29,281	8,378
78486	15,567	-3,0132	-29,762	7,8664
78487	11,514	-3,024	-33,113	10,153
78488	12,181	-3,0357	-32,928	9,7055
78489	14,897	-3,0172	-29,957	8,2222
78490	14,228	-3,0295	-30,147	8,592
78491	15,101	-3,014	-30,629	8,0671
78492	11,04	-3,0062	-33,974	10,455
78493	11,705	-3,0092	-33,791	9,9841
78494	14,431	-3,0262	-30,819	8,4344
78495	13,764	-3,0213	-31,013	8,8155
78496	14,634	-3,014	-31,496	8,2742
78497	10,572	-3,0019	-34,837	10,76
78498	11,236	-3,0036	-34,656	10,264
78499	13,967	-3,0091	-31,69	8,6527
78500	13,301	-3,0133	-31,879	9,0486
78501	14,169	-3,0067	-32,366	8,4855
78502	10,112	-3,0075	-35,705	11,06
78503	10,769	-3,002	-35,519	10,544
78504	13,503	-3,0109	-32,554	8,8786
78505	12,839	-3,0235	-32,742	9,2899
78506	13,702	-3,0162	-33,227	8,7019
78507	-2,7361	-3,1434	-38,698	22,108
78508	-2,692	-3,2432	-39,153	22,644
78509	-2,2692	-2,9639	-39,41	23,5
78510	13,038	-3,0289	-33,415	9,1102
78511	12,372	-3,0209	-33,606	9,5399
78512	13,235	-3,0155	-34,094	8,9191
78513	9,6422	-3,0036	-36,566	11,365
78514	10,311	-3,0159	-36,389	10,812
78515	-3,4079	-3,0571	-38,591	20,61
78516	-3,4624	-3,0177	-37,971	20,051
78517	12,569	-3,0075	-34,285	9,3458
78518	11,901	-3,0067	-34,473	9,797
78519	-3,3638	-3,1569	-39,046	21,168
78520	-3,4169	-3,2857	-39,558	21,307
78521	-2,5896	-2,9689	-39,501	22,923
78522	-3,3384	-3,0907	-39,382	21,47
78523	12,769	-3,0043	-34,963	9,1341
78524	-3,9127	-3,1263	-39,035	19,861
78525	-4,2751	-3,0029	-38,583	18,939
78526	-3,6898	-2,9994	-39,184	20,546
78527	-3,9659	-3,2551	-39,547	20,035
78528	-4,4077	-3,1193	-39,172	18,833
78529	-3,8874	-3,0601	-39,371	20,182
78530	-4,7185	-2,8852	-39,395	18,169
78531	12,101	-3,0035	-35,151	9,5822
78532	11,432	-3,0038	-35,339	10,052
78533	12,303	-3,0026	-35,828	9,3463
78534	-4,097	-3,2722	-40,008	19,853
78535	-3,743	-3,1281	-39,696	20,714
78536	-4,5742	-2,9532	-39,72	18,7
78537	9,1657	-2,9937	-37,424	11,669
78538	9,8328	-3,0038	-37,247	11,088
78539	11,634	-3,0028	-36,015	9,8134
78540	10,968	-3,0105	-36,204	10,3
78541	11,835	-3,0103	-36,691	9,5517
78542	11,368	-3,0163	-37,555	9,7454
78543	11,169	-3,0179	-36,879	10,036
78544	8,6946	-3,0028	-38,309	11,951
78545	9,3626	-3,0027	-38,114	11,342
78546	10,7	-3,0145	-37,746	10,246
78547	10,03	-3,0128	-37,937	10,764
78548	10,501	-3,0161	-37,07	10,539
78549	10,9	-3,0133	-38,422	9,9221
78550	8,2135	-3,0141	-39,204	12,23
78551	8,8881	-3,0101	-39,004	11,575
78552	-5,7002	-3,004	-41,502	15,641
78553	-5,8589	-2,9699	-42,208	14,984
78554	10,229	-3,0116	-38,613	10,438
78555	9,5561	-3,01	-38,809	10,968
78556	-4,7939	-3,1454	-40,341	18,112
78557	-4,5388	-3,1364	-39,633	18,663
78558	-4,0185	-3,0772	-39,832	19,991
78559	-4,8496	-2,9024	-39,856	18,022
78560	10,431	-3,0101	-39,287	10,079
78561	28,1	-3,0156	6,4957	16,063
78562	-5,5858	-3,0385	-40,787	16,119
78563	-5,4581	-3,0911	-40,112	16,565
78564	-5,2711	-2,8264	-40,053	16,995
78565	7,7275	-3,015	-40,094	12,517
78566	8,4026	-3,0117	-39,883	11,806
78567	27,603	-3,0181	7,2526	14,729
78568	9,7577	-3,0085	-39,484	10,607
78569	9,0773	-3,0077	-39,683	11,152
78570	9,958	-3,0062	-40,157	10,215
78571	-6,2276	-2,9963	-40,558	14,786
78572	-6,3891	-2,9825	-41,274	14,199
78573	27,133	-2,9982	8,0874	13,283
78574	-5,203	-3,0821	-39,404	17,083
78575	-4,7701	-2,9959	-38,72	17,916
78576	-4,9901	-2,6107	-38,373	17,399
78577	-5,016	-2,8175	-39,345	17,521
78578	7,9176	-3,007	-40,772	12,027
78579	7,2437	-2,9929	-40,932	12,829
78580	-6,1	-3,0488	-39,883	15,224
78581	-5,8165	-3,0411	-39,302	15,844
78582	-5,5138	-2,8481	-39,627	16,465
78583	26,675	-2,989	8,9572	11,919
78584	-4,3296	-2,9635	-37,963	18,344
78585	-4,31	-2,8476	-37,23	18,067
78586	-6,6918	-2,9665	-39,636	14,216
78587	-6,9048	-2,9715	-40,334	13,652
78588	-5,3836	-2,9549	-38,618	16,642
78589	-5,1207	-2,909	-37,849	17,004
78590	-5,055	-2,5551	-37,971	17,15
78591	-5,0809	-2,7619	-38,943	17,259
78592	9,2776	-3,0054	-40,356	10,76
78593	8,5927	-3,0037	-40,561	11,317
78594	26,218	-2,9854	9,8486	10,725
78595	9,4792	-3,0009	-41,027	10,336
78596	-6,4084	-2,9588	-39,055	14,83
78597	-6,1747	-2,9447	-38,359	15,272
78598	-5,6295	-2,7765	-39,243	16,277
78599	-5,1011	-2,7932	-37,117	16,691
78600	-5,063	-2,8445	-36,361	16,49
78601	-4,7335	-2,5062	-36,61	17,018
78602	-5,0354	-2,4393	-37,238	16,838
78603	25,761	-2,9845	10,745	9,7377
78604	-7,1335	-2,9426	-38,742	13,754
78605	-7,3474	-2,9482	-39,435	13,284
78606	-5,9118	-2,8989	-37,59	15,605
78607	-5,7312	-2,9105	-36,887	15,773
78608	-5,3407	-2,5239	-37,503	16,488
78609	8,7943	-2,9992	-41,232	10,892
78610	8,0988	-2,9919	-41,441	11,495
78611	7,425	-2,9778	-41,602	12,299
78612	6,5083	-3,0189	-41,803	13,738
78613	8,9943	-2,993	-41,896	10,435
78614	-6,8999	-2,9285	-38,046	14,188
78615	-6,6907	-2,929	-37,352	14,515
78616	25,303	-2,9881	11,644	8,9396
78617	-7,63	-2,9429	-37,848	13,261
78618	-7,8414	-2,9443	-38,54	12,873
78619	8,2987	-2,9857	-42,106	11,038
78620	7,6011	-3,0031	-42,313	11,646
78621	-5,6932	-2,9618	-36,131	15,554
78622	-5,5793	-2,9833	-35,43	15,495
78623	-5,0007	-2,6421	-36,118	16,449
78624	8,5079	-2,9843	-42,766	10,524
78625	-6,5101	-2,9407	-36,648	14,664
78626	-6,3244	-2,9554	-35,948	14,806
78627	-6,2106	-2,9769	-35,247	14,732
78628	-6,0787	-2,9926	-34,548	14,692
78629	-7,4208	-2,9434	-37,154	13,578
78630	-7,2237	-2,9483	-36,462	13,83
78631	-7,038	-2,963	-35,761	13,957
78632	-6,8513	-2,9763	-35,062	14,069
78633	24,837	-2,9945	12,538	8,313
78634	-8,1324	-2,956	-36,962	12,796
78635	-8,3376	-2,9546	-37,652	12,48
78636	-7,9352	-2,9608	-36,27	13,039
78637	-7,738	-2,9672	-35,579	13,242
78638	6,6845	-3,0443	-42,514	13,092
78639	6,0055	-2,8919	-43,193	13,97
78640	-6,7193	-2,9919	-34,363	14,016
78641	-6,542	-3,0053	-33,666	14,008
78642	7,8103	-3,0017	-42,973	11,133
78643	7,1571	-3,0528	-43,24	11,706
78644	6,6757	-2,8708	-43,424	12,565
78645	-7,5513	-2,9805	-34,879	13,341
78646	-7,3602	-2,992	-34,182	13,431
78647	8,0305	-2,9846	-43,638	10,581
78648	-8,6334	-2,9698	-36,087	12,355
78649	-8,8359	-2,967	-36,774	12,093
78650	-8,4362	-2,9763	-35,396	12,55
78651	-8,2405	-2,984	-34,702	12,714
78652	24,366	-3,001	13,422	7,833
78653	7,3772	-3,0356	-43,904	11,165
78654	6,6262	-3,0286	-44,175	12,009
78655	6,4781	-2,9004	-43,918	12,633
78656	-9,3291	-2,9789	-35,906	11,716
78657	-9,1278	-2,9832	-35,218	11,936
78658	7,5771	-3,0115	-44,508	10,542
78659	23,894	-3,0058	14,298	7,4664
78660	-9,5316	-2,976	-36,593	11,461
78661	-10,02	-2,986	-35,728	11,134
78662	-10,228	-2,985	-36,408	10,879
78663	23,424	-3,0029	15,176	7,1856
78664	-7,1829	-3,0053	-33,485	13,412
78665	-7,0002	-3,0155	-32,789	13,402
78666	-8,0494	-2,9955	-34,005	12,793
78667	-7,8548	-3,005	-33,312	12,867
78668	-8,9321	-2,9909	-34,525	12,093
78669	-8,7283	-2,9987	-33,835	12,236
78670	6,8261	-3,0045	-44,778	11,412
78671	6,1448	-2,8466	-44,359	12,981
78672	22,953	-2,9994	16,054	6,9779
78673	-9,819	-2,9904	-35,04	11,349
78674	-9,6082	-2,9957	-34,355	11,544
78675	-9,0411	-2,9656	-37,464	11,782
78676	-9,7374	-2,9755	-37,276	11,169
78677	22,48	-3,0003	16,931	6,8336
78678	-10,495	-2,9944	-34,866	10,818
78679	-10,713	-2,9937	-35,546	10,585
78680	22,007	-3,0038	17,807	6,7424
78681	-7,6721	-3,0151	-32,617	12,846
78682	-7,4845	-3,0226	-31,923	12,834
78683	-8,5337	-3,0082	-33,142	12,3
78684	-8,3397	-3,0155	-32,453	12,358
78685	21,534	-3,0068	18,683	6,6965
78686	-9,4044	-3,0035	-33,665	11,68
78687	-9,2013	-3,0099	-32,98	11,8
78688	-10,285	-2,9998	-34,181	11,008
78689	-10,073	-3,0045	-33,499	11,179
78690	21,062	-3,006	19,56	6,6895
78691	-8,549	-2,9559	-38,344	12,097
78692	-9,2533	-2,9658	-38,148	11,439
78693	20,59	-3,0052	20,438	6,7184
78694	-10,962	-3,	-34,006	10,511
78695	-11,18	-2,9997	-34,685	10,304
78696	-8,0553	-2,95	-39,233	12,407
78697	-8,7547	-2,9572	-39,032	11,705
78698	-8,1521	-3,023	-31,759	12,337
78699	-7,9569	-3,028	-31,07	12,327
78700	-9,0074	-3,0172	-32,291	11,85
78701	-8,8089	-3,0224	-31,601	11,9
78702	20,117	-3,0044	21,316	6,7796
78703	-9,8699	-3,0108	-32,815	11,293
78704	-9,6672	-3,016	-32,129	11,397
78705	-10,751	-3,0047	-33,324	10,677
78706	-10,54	-3,0087	-32,643	10,828
78707	-8,6136	-3,0274	-30,912	11,883
78708	-8,42	-3,0308	-30,226	11,87
78709	19,645	-3,0022	22,193	6,8708
78710	-9,4687	-3,0212	-31,438	11,44
78711	-9,2731	-3,0251	-30,753	11,481
78712	-7,5604	-2,9533	-40,134	12,723
78713	-8,2617	-2,9528	-39,924	11,953
78714	-10,337	-3,014	-31,956	10,926
78715	-10,133	-3,0183	-31,275	11,019
78716	19,171	-2,9999	23,07	6,9897
78717	-11,429	-3,0027	-33,146	10,21
78718	-11,646	-3,0029	-33,823	10,024
78719	-11,219	-3,0067	-32,464	10,357
78720	-11,007	-3,0103	-31,786	10,494
78721	-7,0663	-2,9577	-41,05	13,066
78722	-7,7912	-2,9643	-40,804	12,18
78723	18,697	-2,9995	23,947	7,1337
78724	-11,897	-3,004	-32,285	9,9194
78725	-12,114	-3,0042	-32,961	9,7485
78726	-6,5478	-2,9483	-41,979	13,534
78727	-7,2658	-2,9522	-41,74	12,472
78728	18,226	-2,9993	24,824	7,3006
78729	-11,812	-3,0217	32,636	10,791
78730	-11,321	-3,0154	33,507	11,205
78731	-12,	-3,0206	33,316	10,796
78732	17,755	-3,0008	25,703	7,4893
78733	-9,0795	-3,0285	-30,067	11,462
78734	-8,8819	-3,0313	-29,382	11,45
78735	-9,9379	-3,0222	-30,59	11,055
78736	-9,7382	-3,0256	-29,903	11,092
78737	-10,804	-3,0146	-31,104	10,582
78738	-10,6	-3,0187	-30,421	10,667
78739	-11,686	-3,0075	-31,606	10,052
78740	-11,475	-3,0107	-30,928	10,179
78741	-12,284	-3,0226	31,76	10,417
78742	-12,472	-3,0221	32,44	10,416
78743	17,283	-3,0022	26,582	7,6994
78744	-12,365	-3,0048	-31,423	9,6405
78745	-12,581	-3,005	-32,098	9,4816
78746	16,811	-3,0019	27,46	7,9302
78747	-10,828	-3,0083	34,382	11,661
78748	-11,501	-3,0093	34,187	11,22
78749	-12,752	-3,0213	30,882	10,072
78750	-12,941	-3,0217	31,562	10,063
78751	-6,7343	-2,9373	-42,665	12,873
78752	16,339	-3,0016	28,338	8,1801
78753	-10,343	-3,0043	35,262	12,16
78754	-11,02	-3,0061	35,065	11,673
78755	-13,219	-3,018	30,	9,7514
78756	-13,409	-3,0191	30,682	9,733
78757	15,864	-2,9997	29,213	8,4496
78758	-9,5406	-3,0284	-29,217	11,076
78759	-9,3436	-3,0309	-28,536	11,064
78760	-10,4	-3,0221	-29,734	10,7
78761	-10,203	-3,0252	-29,051	10,734
78762	-9,862	-2,9978	36,151	12,716
78763	-10,542	-3,0014	35,948	12,169
78764	-11,271	-3,0147	-30,244	10,26
78765	-11,067	-3,0184	-29,565	10,339
78766	15,387	-2,9993	30,089	8,7378
78767	-12,154	-3,008	-30,745	9,7632
78768	-11,946	-3,011	-30,067	9,881
78769	14,911	-3,0005	30,966	9,0419
78770	-13,687	-3,0133	29,113	9,4533
78771	-13,877	-3,0148	29,797	9,4248
78772	-12,833	-3,0057	-30,56	9,3754
78773	-13,049	-3,0054	-31,234	9,2252
78774	-9,3866	-2,9878	37,052	13,344
78775	-10,062	-2,9941	36,839	12,723
78776	14,439	-3,0001	31,843	9,361
78777	-14,154	-3,0087	28,215	9,1765
78778	-14,346	-3,0101	28,902	9,1366
78779	13,968	-2,9995	32,72	9,6957
78780	-10,006	-3,0276	-28,369	10,719
78781	-9,8039	-3,0298	-27,686	10,709
78782	-10,87	-3,0214	-28,882	10,369
78783	-10,668	-3,0242	-28,199	10,404
78784	-8,8896	-2,9764	37,978	14,091
78785	-9,5842	-2,9821	37,747	13,345
78786	-11,742	-3,0146	-29,387	9,957
78787	-11,534	-3,0179	-28,708	10,036
78788	13,498	-2,9985	33,597	10,046
78789	-12,625	-3,0087	-29,882	9,4901
78790	-12,415	-3,0114	-29,207	9,604
78791	13,026	-2,9968	34,473	10,413
78792	-13,301	-3,0067	-29,697	9,1252
78793	-13,516	-3,0064	-30,37	8,9806
78794	12,553	-2,9945	35,35	10,799
78795	-14,624	-3,0071	27,315	8,9213
78796	-14,816	-3,0066	27,999	8,8687
78797	12,079	-2,9926	36,228	11,204
78798	-8,3757	-2,9676	38,918	14,976
78799	-9,0713	-2,9722	38,675	14,093
78800	11,601	-2,9936	37,105	11,633
78801	-10,467	-3,0264	-27,515	10,392
78802	-10,27	-3,0289	-26,832	10,382
78803	-11,332	-3,0207	-28,025	10,067
78804	-11,133	-3,0239	-27,345	10,101
78805	11,126	-2,9994	37,979	12,084
78806	10,661	-3,011	38,853	12,554
78807	-12,207	-3,0147	-28,528	9,6797
78808	-12,001	-3,0182	-27,85	9,7555
78809	-15,096	-3,009	26,426	8,6879
78810	-15,29	-3,0077	27,108	8,6212
78811	10,204	-3,0272	39,732	13,041
78812	-13,092	-3,0094	-29,022	9,2364
78813	-12,882	-3,0121	-28,347	9,3479
78814	-7,8535	-2,9583	39,853	16,022
78815	-8,5611	-2,964	39,595	14,945
78816	-10,936	-3,0264	-26,662	10,09
78817	-10,738	-3,0287	-25,981	10,084
78818	9,746	-3,0266	40,623	13,545
78819	-11,802	-3,0214	-27,17	9,7871
78820	-11,599	-3,0244	-26,49	9,8245
78821	-13,769	-3,0076	-28,834	8,8907
78822	-13,983	-3,0072	-29,506	8,749
78823	9,2962	-3,0158	41,511	14,035
78824	-12,677	-3,0156	-27,669	9,4215
78825	-12,468	-3,019	-26,992	9,4994
78826	-15,573	-3,013	25,545	8,4756
78827	-15,765	-3,011	26,229	8,3952
78828	8,8557	-3,0199	42,389	14,48
78829	-13,56	-3,0104	-28,159	9,
78830	-13,351	-3,0131	-27,485	9,1115
78831	-7,3169	-2,9411	40,791	17,265
78832	-8,0366	-2,9516	40,527	15,946
78833	8,4012	-3,0277	43,263	14,882
78834	7,9281	-3,0406	44,135	15,232
78835	-14,237	-3,0087	-27,97	8,6725
78836	-14,451	-3,0081	-28,641	8,5312
78837	-16,055	-3,0187	24,675	8,2847
78838	-16,244	-3,0159	25,357	8,1896
78839	7,4257	-3,0621	45,005	15,521
78840	-6,6258	-2,9154	41,74	19,121
78841	-7,5024	-2,9321	41,462	17,099
78842	-11,401	-3,0267	-25,81	9,8173
78843	-11,205	-3,0283	-25,131	9,8146
78844	-12,265	-3,022	-26,313	9,5352
78845	-12,063	-3,0246	-25,638	9,575
78846	6,6433	-2,8828	45,959	16,611
78847	-13,142	-3,0165	-26,807	9,1877
78848	-12,936	-3,0194	-26,133	9,2665
78849	-16,535	-3,024	23,819	8,1178
78850	-16,728	-3,022	24,496	8,0044
78851	-14,027	-3,0114	-27,296	8,7823
78852	-13,814	-3,0139	-26,625	8,8976
78853	-6,8107	-2,9061	42,406	18,795
78854	-14,704	-3,0094	-27,106	8,4712
78855	-14,918	-3,009	-27,777	8,3282
78856	-16,989	-3,0182	22,966	7,9848
78857	-17,198	-3,0259	23,641	7,8475
78858	-11,868	-3,0262	-24,959	9,5714
78859	-11,668	-3,0276	-24,279	9,575
78860	-12,734	-3,022	-25,458	9,3054
78861	-12,531	-3,0242	-24,781	9,35
78862	-13,608	-3,0169	-25,95	8,9754
78863	-13,405	-3,0193	-25,273	9,0566
78864	-14,491	-3,0119	-26,435	8,5853
78865	-14,278	-3,0143	-25,765	8,7041
78866	-15,172	-3,0101	-26,242	8,2877
78867	-15,385	-3,0095	-26,912	8,1406
78868	-17,436	-3,007	22,106	7,8814
78869	-17,646	-3,0179	22,781	7,7243
78870	-12,33	-3,0256	-24,101	9,3534
78871	-12,13	-3,0271	-23,424	9,3637
78872	-13,202	-3,0215	-24,596	9,1008
78873	-12,997	-3,0234	-23,924	9,1519
78874	-14,076	-3,0168	-25,088	8,7847
78875	-13,874	-3,0192	-24,413	8,8716
78876	-14,959	-3,0125	-25,572	8,4056
78877	-14,763	-3,0071	-24,892	8,5241
78878	-15,64	-3,0109	-25,378	8,1226
78879	-15,853	-3,0103	-26,047	7,9694
78880	-17,898	-3,0032	21,237	7,8005
78881	-18,101	-3,0041	21,913	7,6253
78882	-12,796	-3,025	-23,247	9,1625
78883	-12,613	-3,0156	-22,558	9,1756
78884	-13,668	-3,0211	-23,741	8,9228
78885	-13,464	-3,0229	-23,065	8,9809
78886	-7,2391	-2,9572	-43,907	11,367
78887	-6,9901	-2,9409	-43,258	12,003
78888	-7,9274	-2,9622	-43,739	10,614
78889	-14,561	-3,0095	-24,217	8,6109
78890	-14,342	-3,0193	-23,554	8,7113
78891	-15,444	-3,0056	-24,698	8,2407
78892	-15,232	-3,0079	-24,03	8,3726
78893	-7,6784	-2,9459	-43,09	11,259
78894	-7,4523	-2,9411	-42,426	11,801
78895	-8,4048	-2,9564	-42,854	10,576
78896	-13,28	-3,0135	-22,377	8,9952
78897	-13,095	-3,0033	-21,69	9,0189
78898	-16,109	-3,0121	-24,514	7,9773
78899	-16,321	-3,0114	-25,182	7,8157
78900	-14,137	-3,0211	-22,878	8,7701
78901	-13,936	-3,023	-22,205	8,8367
78902	-15,013	-3,0177	-23,367	8,4732
78903	-14,823	-3,0113	-22,682	8,5739
78904	-8,1787	-2,9516	-42,19	11,121
78905	-7,9908	-2,9587	-41,495	11,584
78906	-8,8951	-2,9588	-41,966	10,498
78907	-15,897	-3,0144	-23,846	8,1091
78908	-15,698	-3,0092	-23,168	8,2464
78909	-18,371	-3,0109	20,361	7,7474
78910	-18,568	-3,0028	21,04	7,5503
78911	-8,7071	-2,966	-41,271	10,962
78912	-8,4925	-2,9638	-40,594	11,41
78913	-7,019	-2,8952	44,66	17,312
78914	-6,6967	-2,8688	44,051	18,771
78915	-9,3847	-2,9644	-41,08	10,395
78916	-7,7357	-2,951	44,3	15,502
78917	-16,577	-3,0136	-23,65	7,853
78918	-16,788	-3,0128	-24,317	7,6811
78919	-7,4135	-2,9246	43,691	16,951
78920	-7,1651	-2,9025	43,054	17,897
78921	-13,751	-3,0128	-21,518	8,862
78922	-13,56	-3,0028	-20,833	8,8989
78923	-8,1511	-2,9504	43,414	15,299
78924	-14,621	-3,0132	-22,009	8,6416
78925	-14,405	-3,0242	-21,348	8,723
78926	-7,9027	-2,9283	42,778	16,226
78927	-7,6873	-2,9228	42,128	16,841
78928	-15,507	-3,0028	-22,483	8,3478
78929	-15,291	-3,0126	-21,823	8,4672
78930	-8,6383	-2,9476	42,509	14,82
78931	-9,1701	-2,9622	-40,403	10,843
78932	-8,9611	-2,9601	-39,722	11,252
78933	-9,8747	-2,971	-40,199	10,271
78934	-8,4228	-2,9421	41,86	15,416
78935	-8,2221	-2,9426	41,197	15,816
78936	-9,1438	-2,9552	41,603	14,249
78937	-16,378	-3,0084	-22,971	7,9907
78938	-16,167	-3,0107	-22,307	8,1434
78939	-18,841	-3,0101	19,486	7,7285
78940	-19,044	-3,0173	20,161	7,5043
78941	-9,6656	-2,9688	-39,518	10,679
78942	-9,459	-2,9671	-38,836	11,05
78943	-8,9431	-2,9557	40,94	14,63
78944	-8,7442	-2,9573	40,268	14,897
78945	-10,368	-2,9787	-39,323	10,121
78946	-9,6496	-2,9656	40,697	13,662
78947	-17,045	-3,0152	-22,786	7,7513
78948	-17,256	-3,0141	-23,452	7,5668
78949	-9,4507	-2,9672	40,026	13,912
78950	-9,2567	-2,9686	39,351	14,085
78951	-14,214	-3,0142	-20,663	8,7619
78952	-14,009	-3,0166	-19,996	8,8142
78953	-10,151	-2,9751	39,797	13,098
78954	-15,075	-3,0236	-21,162	8,5501
78955	-14,869	-3,0259	-20,495	8,6413
78956	-9,9567	-2,9766	39,123	13,256
78957	-9,7659	-2,9779	38,444	13,366
78958	-15,951	-3,0205	-21,646	8,2638
78959	-15,747	-3,0227	-20,975	8,3926
78960	-10,65	-2,984	38,9	12,566
78961	-10,161	-2,977	-38,641	10,49
78962	-9,9496	-2,9757	-37,961	10,829
78963	-10,852	-2,9866	-38,451	9,9527
78964	-10,459	-2,9853	38,221	12,663
78965	-10,259	-2,9884	37,534	12,739
78966	-11,137	-2,9919	38,005	12,077
78967	-16,834	-3,0174	-22,121	7,9046
78968	-16,623	-3,0196	-21,457	8,0707
78969	-19,307	-2,9994	18,617	7,7468
78970	-19,51	-3,0016	19,29	7,4943
78971	-10,641	-2,9854	-37,77	10,289
78972	-10,434	-2,9845	-37,091	10,591
78973	-10,937	-2,995	37,318	12,142
78974	-10,741	-2,9977	36,636	12,188
78975	-11,332	-2,9942	-37,583	9,7672
78976	-11,613	-2,9979	37,116	11,625
78977	-17,513	-3,0167	-21,922	7,6737
78978	-17,723	-3,0152	-22,587	7,4746
78979	-11,418	-3,0006	36,435	11,661
78980	-11,219	-3,0031	35,752	11,692
78981	-14,664	-3,0283	-19,827	8,696
78982	-14,461	-3,0309	-19,156	8,763
78983	-12,091	-3,0022	36,235	11,197
78984	-15,541	-3,025	-20,308	8,4857
78985	-15,336	-3,0277	-19,639	8,592
78986	-11,892	-3,0048	35,553	11,219
78987	-11,693	-3,007	34,87	11,241
78988	-16,42	-3,0218	-20,786	8,2008
78989	-16,216	-3,0243	-20,116	8,3454
78990	-12,567	-3,0048	35,357	10,791
78991	-11,125	-2,9933	-36,904	10,066
78992	-10,921	-2,9927	-36,227	10,334
78993	-11,811	-3,0009	-36,717	9,5652
78994	-12,368	-3,007	34,674	10,805
78995	-12,18	-3,0145	33,995	10,818
78996	-13,042	-3,0111	34,479	10,405
78997	-17,302	-3,0188	-21,258	7,8408
78998	-17,093	-3,0212	-20,596	8,0226
78999	-19,777	-2,9979	17,744	7,8034
79000	-19,98	-2,9983	18,417	7,5197
79001	-11,607	-3,0003	-36,04	9,8303
79002	-11,398	-2,999	-35,365	10,075
79003	-12,854	-3,0186	33,799	10,411
79004	-12,66	-3,021	33,12	10,427
79005	-12,283	-3,0057	-35,851	9,357
79006	-13,516	-3,0165	33,602	10,037
79007	-17,981	-3,0186	-21,058	7,6224
79008	-18,191	-3,0167	-21,722	7,4062
79009	-13,322	-3,019	32,923	10,047
79010	-13,129	-3,0212	32,242	10,067
79011	-15,133	-3,0303	-18,967	8,6619
79012	-14,925	-3,0323	-18,305	8,7463
79013	-13,986	-3,0156	32,723	9,6867
79014	-16,011	-3,027	-19,447	8,4539
79015	-15,803	-3,0293	-18,785	8,5774
79016	-13,793	-3,0179	32,043	9,701
79017	-13,598	-3,0195	31,362	9,7287
79018	-16,889	-3,0237	-19,926	8,1687
79019	-16,684	-3,0264	-19,257	8,3313
79020	-14,455	-3,0099	31,843	9,3527
79021	-12,074	-3,0045	-35,176	9,5989
79022	-11,864	-3,0026	-34,502	9,8206
79023	-12,75	-3,0083	-34,986	9,1449
79024	-14,261	-3,0115	31,162	9,3748
79025	-14,067	-3,016	30,478	9,4107
79026	-14,925	-3,0062	30,958	9,0345
79027	-17,771	-3,0211	-20,396	7,8054
79028	-17,562	-3,0237	-19,736	8,0053
79029	-14,731	-3,0107	30,274	9,0653
79030	-14,536	-3,0117	29,585	9,1117
79031	-20,247	-3,0067	16,862	7,9072
79032	-20,451	-3,004	17,539	7,587
79033	-15,395	-3,0058	30,063	8,732
79034	-12,54	-3,0064	-34,311	9,3634
79035	-12,331	-3,0043	-33,638	9,5657
79036	-13,216	-3,0095	-34,12	8,9285
79037	-15,2	-3,0067	29,374	8,7739
79038	-15,007	-3,0079	28,686	8,8317
79039	-15,867	-3,0039	29,169	8,4457
79040	-18,449	-3,0211	-20,194	7,5995
79041	-18,659	-3,0188	-20,857	7,3637
79042	-15,595	-3,0313	-18,123	8,6649
79043	-15,39	-3,0335	-17,455	8,7688
79044	-15,674	-3,0051	28,481	8,4998
79045	-15,482	-3,0073	27,792	8,571
79046	-16,476	-3,0287	-18,595	8,4573
79047	-16,27	-3,0309	-17,932	8,6002
79048	-16,343	-3,0054	28,282	8,1765
79049	-13,007	-3,0074	-33,447	9,1277
79050	-12,798	-3,0052	-32,774	9,3144
79051	-13,683	-3,0101	-33,255	8,711
79052	-16,151	-3,0076	27,594	8,2445
79053	-15,959	-3,0098	26,91	8,3303
79054	-16,819	-3,009	27,403	7,9259
79055	-17,357	-3,0263	-19,067	8,1696
79056	-17,15	-3,0288	-18,405	8,3518
79057	-16,627	-3,0112	26,72	8,0091
79058	-16,436	-3,014	26,04	8,1104
79059	-18,24	-3,0237	-19,534	7,8007
79060	-18,031	-3,0264	-18,876	8,0211
79061	-17,298	-3,0133	26,536	7,6927
79062	-13,474	-3,0079	-32,582	8,8947
79063	-13,265	-3,0056	-31,909	9,0696
79064	-14,15	-3,0105	-32,389	8,4949
79065	-17,107	-3,016	25,857	7,792
79066	-16,917	-3,0193	25,177	7,91
79067	-17,778	-3,018	25,677	7,4788
79068	-13,941	-3,0082	-31,716	8,6669
79069	-13,731	-3,0061	-31,044	8,8333
79070	-14,622	-3,0111	-31,522	8,2794
79071	-17,587	-3,0212	24,997	7,5954
79072	-17,391	-3,0239	24,318	7,7343
79073	-18,248	-3,0208	24,816	7,2897
79074	-14,413	-3,0089	-30,85	8,4431
79075	-14,198	-3,0068	-30,179	8,607
79076	-15,093	-3,0118	-30,655	8,0694
79077	-18,052	-3,0235	24,137	7,4277
79078	-17,855	-3,0256	23,456	7,5868
79079	-18,712	-3,0209	23,948	7,126
79080	-14,879	-3,0097	-29,984	8,2307
79081	-14,665	-3,0076	-29,314	8,3918
79082	-15,559	-3,0124	-29,788	7,8689
79083	-18,515	-3,023	23,266	7,2846
79084	-18,311	-3,0151	22,588	7,4677
79085	-19,174	-3,0188	23,072	6,9878
79086	-15,346	-3,0103	-29,118	8,0277
79087	-15,132	-3,0084	-28,448	8,1888
79088	-16,026	-3,0127	-28,921	7,6764
79089	-20,715	-3,0141	15,979	8,061
79090	-20,92	-3,012	16,655	7,7024
79091	-18,917	-3,0236	-19,331	7,6076
79092	-19,126	-3,0211	-19,993	7,3497
79093	-15,812	-3,0108	-28,251	7,8354
79094	-15,599	-3,009	-27,582	7,999
79095	-18,97	-3,0109	22,394	7,1708
79096	-18,771	-3,0037	21,717	7,3742
79097	-16,492	-3,0129	-28,054	7,4932
79098	-19,642	-3,0101	22,195	6,8718
79099	-16,279	-3,0111	-27,385	7,655
79100	-16,066	-3,0097	-26,716	7,8234
79101	-16,065	-3,0331	-17,264	8,7076
79102	-15,855	-3,0354	-16,607	8,8326
79103	-16,958	-3,0132	-27,187	7,3207
79104	-16,944	-3,031	-17,742	8,4975
79105	-16,736	-3,0328	-17,082	8,6622
79106	-16,746	-3,0118	-26,518	7,4877
79107	-16,533	-3,0108	-25,85	7,6633
79108	-17,824	-3,0288	-18,215	8,2053
79109	-17,617	-3,0311	-17,556	8,4098
79110	-17,425	-3,0139	-26,32	7,1603
79111	-21,183	-3,0112	15,104	8,2675
79112	-21,39	-3,0101	15,78	7,8662
79113	-18,708	-3,0263	-18,673	7,8295
79114	-18,5	-3,029	-18,018	8,0729
79115	-19,443	-3,0029	21,518	7,0756
79116	-19,241	-3,0092	20,84	7,306
79117	-17,213	-3,0129	-25,652	7,3349
79118	-17,001	-3,0121	-24,984	7,5199
79119	-20,115	-3,0064	21,318	6,7803
79120	-17,892	-3,015	-25,453	7,0137
79121	-16,526	-3,035	-16,425	8,7905
79122	-16,326	-3,0213	-15,741	8,9439
79123	-19,385	-3,0262	-18,468	7,6498
79124	-19,594	-3,0232	-19,128	7,3671
79125	-17,409	-3,0329	-16,895	8,5772
79126	-17,209	-3,0184	-16,212	8,7708
79127	-19,913	-3,0127	20,64	7,0114
79128	-19,712	-3,0088	19,964	7,2688
79129	-17,68	-3,0141	-24,785	7,1981
79130	-17,468	-3,0133	-24,119	7,3949
79131	-20,587	-3,0054	20,441	6,7189
79132	-18,358	-3,0086	-24,583	6,8828
79133	-18,293	-3,0313	-17,358	8,2795
79134	-18,085	-3,0336	-16,702	8,5088
79135	-21,651	-3,0073	14,229	8,5362
79136	-21,859	-3,0071	14,904	8,088
79137	-18,147	-3,0077	-23,916	7,0792
79138	-17,935	-3,0141	-23,253	7,2898
79139	-19,177	-3,0289	-17,813	7,8947
79140	-18,974	-3,0187	-17,142	8,1674
79141	-18,825	-3,0012	-23,714	6,7691
79142	-20,386	-3,0015	19,765	6,9771
79143	-20,183	-3,0005	19,09	7,2658
79144	-21,061	-3,0003	19,564	6,6889
79145	-17,009	-3,0047	-15,527	8,9287
79146	-16,798	-3,0058	-14,871	9,1047
79147	-17,885	-3,0191	-16,019	8,7054
79148	-17,682	-3,006	-15,34	8,9273
79149	-19,859	-3,0148	-17,594	7,7314
79150	-20,062	-3,0255	-18,264	7,419
79151	-18,613	-3,0076	-23,051	6,9796
79152	-18,402	-3,0152	-22,387	7,2064
79153	-18,767	-3,021	-16,486	8,3991
79154	-18,551	-3,0369	-15,852	8,6519
79155	-19,291	-3,0009	-22,848	6,674
79156	-20,858	-2,9992	18,889	6,9785
79157	-20,654	-3,0043	18,211	7,3019
79158	-21,533	-3,0028	18,687	6,6959
79159	-19,656	-3,0046	-16,923	8,0059
79160	-19,448	-3,006	-16,266	8,307
79161	-19,08	-3,0085	-22,184	6,901
79162	-18,869	-3,0169	-21,521	7,1468
79163	-22,118	-3,0032	13,354	8,8769
79164	-22,329	-3,0039	14,028	8,376
79165	-19,758	-3,0013	-21,981	6,5996
79166	-21,329	-3,0079	18,009	7,0202
79167	-21,125	-3,0093	17,332	7,3809
79168	-22,005	-3,0059	17,809	6,7427
79169	-20,331	-3,0024	-16,721	7,8556
79170	-20,539	-3,0017	-17,384	7,5111
79171	-22,575	-2,9858	12,519	9,2764
79172	-22,798	-3,0009	13,153	8,7427
79173	-17,471	-3,0071	-14,684	9,107
79174	-17,262	-3,0022	-14,025	9,3126
79175	-21,801	-3,0072	17,132	7,1041
79176	-21,596	-3,008	16,456	7,5064
79177	-18,347	-3,0238	-15,174	8,8762
79178	-18,138	-3,0261	-14,52	9,1216
79179	-22,478	-3,0053	16,933	6,8344
79180	-19,547	-3,0097	-21,318	6,8457
79181	-19,336	-3,0189	-20,655	7,1131
79182	-20,225	-3,002	-21,115	6,5486
79183	-19,232	-3,0218	-15,632	8,5624
79184	-19,016	-3,0412	-15,006	8,8418
79185	-22,273	-3,0061	16,256	7,2372
79186	-22,067	-3,006	15,58	7,6856
79187	-20,123	-3,0037	-16,063	8,1582
79188	-19,912	-3,0059	-15,41	8,4913
79189	-22,951	-3,0046	16,056	6,9785
79190	-17,928	-3,0212	-13,861	9,3302
79191	-17,724	-3,0018	-13,187	9,572
79192	-18,806	-3,0435	-14,352	9,0895
79193	-18,599	-3,0243	-13,673	9,3763
79194	-23,041	-2,9762	11,691	9,7594
79195	-23,255	-2,9843	12,317	9,1762
79196	-22,744	-3,0046	15,38	7,4271
79197	-22,537	-3,0037	14,704	7,9269
79198	-19,697	-3,0253	-14,784	8,7734
79199	-19,478	-3,0457	-14,162	9,0841
79200	-23,423	-3,004	15,179	7,1841
79201	-20,797	-3,0054	-15,863	8,0241
79202	-21,005	-3,0027	-16,522	7,6452
79203	-20,586	-3,0075	-15,209	8,3585
79204	-20,373	-3,0117	-14,562	8,7255
79205	-20,014	-3,0113	-20,452	6,8165
79206	-19,803	-3,0208	-19,79	7,1082
79207	-23,564	-3,014	10,834	10,378
79208	-23,726	-2,9785	11,487	9,6998
79209	-23,314	-2,679	10,659	10,572
79210	-20,689	-3,0109	-20,254	6,524
79211	-18,394	-3,0048	-12,999	9,6222
79212	-18,184	-3,024	-12,37	9,8808
79213	-19,27	-3,0265	-13,482	9,3742
79214	-19,056	-3,0253	-12,832	9,6859
79215	-21,261	-3,0091	-15,01	8,2433
79216	-21,47	-3,0083	-15,665	7,8261
79217	-23,216	-3,0031	14,503	7,6836
79218	-23,008	-3,0016	13,828	8,241
79219	-20,154	-3,0321	-13,94	9,0391
79220	-19,931	-3,0513	-13,32	9,3848
79221	-23,895	-3,0033	14,303	7,4626
79222	-24,076	-2,9794	9,8902	11,267
79223	-24,244	-3,0174	10,574	10,438
79224	-23,593	-2,7111	10,232	10,931
79225	-21,048	-3,0133	-14,363	8,6117
79226	-20,828	-3,0365	-13,743	9,0052
79227	-18,846	-3,0444	-12,204	9,9476
79228	-18,641	-3,0224	-11,519	10,265
79229	-23,687	-3,0017	13,627	8,0191
79230	-23,478	-2,9994	12,951	8,6418
79231	-19,717	-3,0501	-12,67	9,6987
79232	-19,513	-3,0273	-11,981	10,068
79233	-24,367	-3,0018	13,426	7,8292
79234	-20,478	-3,0204	-19,592	6,8163
79235	-20,271	-3,0226	-18,924	7,1352
79236	-21,153	-3,0197	-19,393	6,5282
79237	-20,605	-3,0557	-13,123	9,3532
79238	-20,39	-3,0338	-12,443	9,7683
79239	-21,719	-3,0322	-14,181	8,5096
79240	-21,932	-3,0263	-14,822	8,0565
79241	-21,499	-3,0555	-13,562	8,9039
79242	-21,285	-3,039	-12,897	9,3648
79243	-24,497	-2,9584	8,9149	12,444
79244	-24,657	-2,9484	9,5276	11,536
79245	-23,826	-2,6444	9,7149	11,482
79246	-24,158	-2,9995	12,75	8,4503
79247	-23,939	-2,9866	12,113	9,1161
79248	-20,945	-3,0219	-18,726	6,8477
79249	-20,742	-3,0125	-18,054	7,1976
79250	-24,835	-2,9987	12,544	8,3089
79251	-21,624	-3,0111	-18,522	6,5647
79252	-22,179	-3,0356	-13,333	8,8529
79253	-22,391	-3,0518	-13,995	8,34
79254	-24,914	-2,999	7,9986	13,896
79255	-25,122	-2,9924	8,692	12,665
79256	-19,308	-3,0053	-11,296	10,392
79257	-19,094	-3,0018	-10,627	10,744
79258	-24,617	-2,9858	11,906	8,9725
79259	-24,405	-2,9819	11,227	9,7559
79260	-20,186	-3,011	-11,754	10,143
79261	-20,	-3,0136	-11,128	10,521
79262	-25,302	-2,9935	11,658	8,9212
79263	-21,42	-3,0018	-17,85	6,9151
79264	-21,213	-3,002	-17,185	7,2999
79265	-22,094	-3,0031	-17,652	6,6387
79266	-21,071	-3,0172	-12,216	9,7842
79267	-20,88	-3,026	-11,568	10,234
79268	-19,786	-3,0102	-10,459	10,878
79269	-19,55	-3,0351	-9,6929	11,335
79270	-21,965	-3,0192	-12,668	9,3166
79271	-21,748	-3,0209	-12,031	9,8107
79272	-20,694	-3,0286	-10,942	10,615
79273	-20,54	-3,0529	-10,194	11,139
79274	-25,091	-2,9896	10,979	9,7033
79275	-24,825	-2,9864	10,212	10,693
79276	-21,887	-3,0034	-16,987	7,0238
79277	-21,679	-3,0056	-16,324	7,4467
79278	-25,785	-2,9931	10,794	9,6527
79279	-22,562	-3,0055	-16,788	6,7558
79280	-21,558	-3,0297	-11,383	10,263
79281	-21,336	-3,0604	-10,836	10,678
79282	-25,519	-2,99	10,027	10,631
79283	-25,282	-2,9823	9,3047	11,76
79284	-22,639	-3,0182	-12,472	9,2843
79285	-22,858	-3,0146	-13,108	8,7305
79286	-26,268	-2,9874	9,9001	10,625
79287	-22,423	-3,0199	-11,835	9,7802
79288	-22,175	-3,0221	-11,251	10,289
79289	-25,531	-3,0491	7,7235	14,294
79290	-25,385	-3,0226	7,0251	15,987
79291	-26,032	-2,9798	9,1778	11,73
79292	-25,739	-3,0425	8,4169	13,069
79293	-22,354	-3,0078	-16,126	7,1786
79294	-22,142	-3,0256	-15,478	7,6391
79295	-26,744	-3,0442	9,0441	11,749
79296	-23,026	-3,021	-15,93	6,9216
79297	-23,075	-3,0508	-11,68	9,7645
79298	-23,314	-3,0181	-12,27	9,1829
79299	-26,452	-3,107	8,2832	13,054
79300	-26,16	-3,1238	7,4853	14,71
79301	-27,202	-3,1134	8,2459	12,96
79302	-21,953	-3,0528	-10,704	10,704
79303	-21,182	-3,0847	-10,088	11,2
79304	-21,717	-3,1413	-10,12	11,221
79305	-22,103	-2,8337	-9,9138	11,413
79306	-26,014	-3,0972	6,787	16,38
79307	-26,04	-2,8405	6,2976	17,737
79308	-22,827	-3,053	-11,096	10,273
79309	-22,658	-3,0822	-10,483	10,872
79310	-22,52	-2,8048	-10,097	11,224
79311	-26,911	-3,1302	7,4481	14,561
79312	-26,665	-3,078	6,693	16,359
79313	-26,428	-2,8863	6,5745	16,893
79314	-27,61	-3,0558	7,3926	14,488
79315	-22,814	-3,0389	-15,282	7,3817
79316	-22,604	-3,0459	-14,636	7,887
79317	-23,49	-3,0376	-15,075	7,1448
79318	-27,364	-3,0036	6,6375	16,242
79319	-27,038	-3,0347	6,0578	17,899
79320	-26,691	-2,8212	6,2036	17,711
79321	-28,042	-3,0009	6,5269	16,077
79322	-23,494	-3,0818	-10,894	10,346
79323	-23,743	-3,0703	-11,493	9,6921
79324	-23,28	-3,0447	-14,428	7,6494
79325	-23,071	-3,0308	-13,769	8,2165
79326	-20,304	-3,0779	-9,4277	11,609
79327	-19,857	-3,0303	-8,6574	12,069
79328	-20,34	-3,0971	-8,808	12,111
79329	-23,957	-3,0232	-14,208	7,4426
79330	-21,363	-3,1444	-9,6862	11,563
79331	-21,081	-3,1135	-9,1765	11,965
79332	-27,716	-3,032	5,9472	17,698
79333	-26,801	-2,843	5,9392	18,423
79334	-26,814	-3,0385	5,5057	20,255
79335	-20,418	-3,0593	-8,2638	12,524
79336	-20,12	-3,0065	-7,7093	12,874
79337	-22,422	-3,1706	-9,8985	11,395
79338	-22,037	-3,1616	-9,3979	11,878
79339	-22,284	-2,8933	-9,5122	11,778
79340	-21,117	-3,1327	-8,5568	12,48
79341	-20,956	-3,0749	-7,984	12,965
79342	-21,13	-2,8834	-8,2628	12,767
79343	-23,324	-3,111	-10,281	10,948
79344	-23,078	-3,1302	-9,7056	11,579
79345	-22,808	-2,8631	-9,6922	11,589
79346	-21,754	-3,1308	-8,8882	12,293
79347	-21,677	-3,0857	-8,3138	12,898
79348	-21,346	-2,89	-8,4051	12,685
79349	-20,658	-3,0221	-7,4294	13,339
79350	-20,485	-3,0302	-6,8507	13,773
79351	-23,956	-3,0442	-10,028	11,138
79352	-24,176	-3,0681	-10,661	10,364
79353	-22,692	-3,1212	-9,2051	12,065
79354	-22,441	-3,0743	-8,6433	12,724
79355	-22,422	-2,8541	-9,1916	12,082
79356	-21,516	-3,0279	-7,741	13,401
79357	-21,242	-3,0292	-7,1275	13,989
79358	-21,185	-2,8322	-7,8323	13,184
79359	-23,435	-3,0784	-8,8884	12,536
79360	-23,709	-3,0635	-9,4528	11,775
79361	-22,94	-2,8528	-9,3193	11,965
79362	-22,364	-3,0292	-8,0688	13,341
79363	-22,149	-3,0594	-7,4738	14,07
79364	-21,69	-2,8364	-8,0198	13,194
79365	-22,297	-2,7414	-7,8078	13,673
79366	-23,748	-3,0093	-13,549	8,0088
79367	-23,533	-3,0144	-12,906	8,6289
79368	-23,183	-3,0315	-8,3265	13,206
79369	-22,866	-3,0687	-7,7463	14,013
79370	-22,64	-2,7385	-7,9482	13,602
79371	-22,688	-2,806	-8,7575	12,607
79372	-24,424	-3,0069	-13,342	7,8264
79373	-24,122	-3,0251	-8,5856	12,917
79374	-23,841	-3,0291	-8,0185	13,848
79375	-23,165	-2,8113	-8,8749	12,553
79376	-24,209	-3,012	-12,699	8,4446
79377	-23,982	-3,0376	-12,083	9,1114
79378	-24,882	-3,0253	-12,501	8,2954
79379	-24,656	-3,0508	-11,886	8,959
79380	-24,426	-3,0566	-11,26	9,7098
79381	-25,337	-3,0398	-11,661	8,8863
79382	-24,396	-3,0102	-9,15	12,149
79383	-24,659	-3,0066	-9,7579	11,273
79384	-25,106	-3,0457	-11,036	9,6338
79385	-24,879	-3,0304	-10,39	10,497
79386	-25,061	-3,0114	-8,9	12,36
79387	-24,746	-3,0185	-8,3033	13,396
79388	-25,792	-3,03	-10,796	9,6512
79389	-25,565	-3,0148	-10,151	10,509
79390	-25,325	-3,0078	-9,5079	11,487
79391	-26,249	-3,0139	-9,9077	10,625
79392	-26,008	-3,0069	-9,2648	11,593
79393	-25,757	-3,0615	-8,5533	12,82
79394	-26,724	-2,9893	-9,0177	11,788
79395	-27,808	-2,99	-5,9006	17,782
79396	-27,995	-2,9611	-6,5367	15,997
79397	-27,158	-3,1231	-5,5837	19,17
79398	-27,222	-3,1568	-6,0905	17,688
79399	-27,239	-2,5687	-5,3162	20,116
79400	-26,872	-3,1805	-5,9727	18,244
79401	-26,573	-2,8615	-5,6033	19,804
79402	-26,854	-2,8575	-5,4857	19,972
79403	-20,812	-3,03	-5,9339	14,895
79404	-21,069	-3,0373	-6,5488	14,459
79405	-21,383	-3,0236	-5,6361	15,865
79406	-21,64	-3,0309	-6,251	15,371
79407	-21,875	-3,0607	-6,8604	14,684
79408	-22,231	-3,0355	-5,9676	16,425
79409	-22,467	-3,0653	-6,577	15,7
79410	-22,651	-3,0989	-7,1513	14,769
79411	-22,424	-2,7687	-7,3533	14,339
79412	-23,08	-3,0348	-6,2892	16,736
79413	-23,265	-3,0684	-6,8635	15,788
79414	-23,524	-3,0663	-7,4382	14,664
79415	-22,799	-2,7809	-7,4854	14,357
79416	-23,932	-3,0322	-6,6044	16,656
79417	-24,191	-3,0301	-7,1792	15,545
79418	-24,465	-3,0225	-7,7362	14,326
79419	-24,785	-3,0455	-6,9117	16,189
79420	-25,059	-3,0379	-7,4687	14,981
79421	-25,442	-3,0686	-7,9565	13,852
79422	-25,591	-3,0906	-7,173	15,534
79423	-25,392	-3,1099	-6,6697	16,965
79424	-25,974	-3,1214	-7,6608	14,416
79425	-26,14	-3,1707	-7,0187	15,8
79426	-26,473	-3,0439	-8,3062	12,992
79427	-26,395	-3,1747	-7,6294	14,35
79428	-27,196	-3,0108	-8,1573	13,108
79429	-27,568	-3,0421	-7,2744	14,677
79430	-27,118	-3,1415	-7,4805	14,436
79431	-27,409	-3,1279	-6,7266	15,891
79432	-26,959	-3,2273	-6,9327	15,671
79433	-26,562	-3,224	-6,9872	15,725
79434	-26,936	-3,2141	-6,4796	16,772
79435	-26,538	-3,2108	-6,5341	16,833
79436	-25,941	-3,19	-6,5154	17,205
79437	-26,239	-2,8918	-6,1647	18,41
79438	-26,452	-3,2001	-5,9773	18,637
79439	-26,47	-2,8903	-5,9494	18,86
79440	-25,855	-3,1792	-5,9586	19,031
79441	-25,873	-2,8694	-5,9306	19,252
79442	3,9073	-0,2536	48,426	19,624
79443	4,023	-0,2536	47,973	20,293
79444	4,1615	-0,2536	47,543	21,335
79445	3,4997	-0,2536	48,419	19,672
79446	3,6803	-0,2536	47,398	29,408
79447	3,4064	-0,2536	47,795	24,639
79448	3,6811	-0,7549	47,397	29,814
79449	3,4071	-0,75502	47,795	25,305
79450	-20,616	-2,4994	3,1531	16,399
79451	-20,564	-3,6411	3,0594	16,21
79452	-20,46	-3,0038	2,6946	15,975
79453	-20,57	-3,518	3,2128	16,33
79454	0,64904	-2,8767	39,97	16,244
79455	0,26648	-2,2904	39,918	15,707
79456	0,72924	-2,3586	40,02	16,398
79457	-0,26393	-2,232	39,8	15,492
79458	-0,9178	-2,3497	39,975	16,302
79459	1,9672e-002	-2,9161	39,812	15,498
79460	-0,50023	-2,8248	39,854	15,677
79461	-0,97543	-2,8148	40,004	16,416
79462	30,15	-1,8612	-2,1966	21,318
79463	30,39	-1,4025	-1,6845	21,308
79464	30,646	-1,8927	-1,2356	20,87
79465	29,952	-1,6896	-1,7489	21,747
79466	-5,3792e-002	-2,3751	-20,572	9,3476
79467	-26,153	-2,881	-5,6079	20,24
79468	-26,284	-3,5624	-5,137	22,618
79469	4,2684	-3,5884	48,252	18,979
79470	4,3762	-3,595	47,736	20,691
79471	4,0688	-3,5813	48,242	19,389
79472	4,0822	-4,5753	48,386	18,705
79473	4,4395	-4,5753	48,333	18,427
79474	4,4776	-4,5753	47,686	19,813
79475	3,7202	-4,5753	48,451	18,715
79476	3,9037	-4,5753	47,449	27,167
79477	3,6298	-4,5753	47,845	23,528
79478	3,6285	-4,0761	47,847	23,504
79479	3,9029	-4,0764	47,45	28,92
79480	29,569	-0,21168	-1,8071	23,003
79481	29,191	-0,21168	-2,1612	23,169
79482	28,904	-0,21168	-2,4985	22,956
79483	29,504	-0,21168	-1,5161	23,075
79484	28,852	-0,21168	-1,886	24,59
79485	28,578	-0,21168	-2,2828	26,478
79486	28,577	-0,71388	-2,2842	26,466
79487	28,851	-0,71415	-1,8876	24,148
79488	27,346	-2,5997	-4,7634	22,512
79489	27,931	-2,4252	-4,4736	21,619
79490	27,798	-2,9512	-4,5082	22,064
79491	27,205	-2,9302	-4,7451	23,235
79492	-26,427	-2,7823	5,1132	22,627
79493	-8,7975	-2,1837	4,0333	9,2558
79494	-6,6573	-2,1498	3,6973	8,7417
79495	-7,6039	-2,2078	4,0081	8,9202
79496	-26,452	-2,5673	-5,4624	20,577
79497	-26,654	-2,3071	-5,3358	20,708
79498	-26,376	-2,5494	-5,3737	21,343
79499	26,589	-0,76612	4,6176	25,071
79500	26,909	-0,24645	4,8608	22,698
79501	27,197	-0,24645	4,4202	24,123
79502	27,466	-0,24645	4,0791	24,44
79503	26,445	-0,24645	4,7359	23,768
79504	27,135	-0,24645	3,8195	29,559
79505	26,708	-0,24645	4,0436	30,349
79506	27,137	-0,7483	3,8185	29,522
79507	26,709	-0,74801	4,0432	31,086
79508	29,644	-2,0177	-2,0151	21,791
79509	29,351	-2,0318	-2,6799	22,353
79510	29,653	-2,6049	-2,2201	21,947
79511	29,349	-2,5896	-2,7642	22,137
79512	25,754	-1,9307	-5,8026	20,061
79513	0,14894	-2,1345	-19,004	8,6398
79514	12,957	-2,0849	1,0383	11,359
79515	-26,467	-2,825	5,6515	20,076
79516	-20,555	-1,985	2,6217	16,096
79517	-20,735	-1,4991	3,2575	16,59
79518	0,12808	-2,2851	-25,282	11,743
79519	5,6046	-2,5007	-6,4433	8,0285
79520	6,4975	-2,4188	-6,1197	8,2651
79521	26,333	-2,3112	-7,8425	13,867
79522	24,404	-2,4069	-7,6226	14,491
79523	5,5925	-2,1824	44,239	23,415
79524	5,4658	-2,0543	44,677	24,393
79525	5,3155	-2,0482	43,828	24,252
79526	-3,771	-2,8779	-2,8512	8,3586
79527	-2,8962	-2,2998	9,2883	7,1326
79528	4,7158	-2,8289	38,459	17,825
79529	-26,51	-4,467	-4,8063	23,63
79530	-26,895	-4,467	-4,5954	23,736
79531	-26,425	-4,467	-4,1891	30,573
79532	-25,957	-4,467	-4,3045	30,25
79533	-25,956	-3,9671	-4,3047	30,8
79534	-26,424	-3,9669	-4,1896	31,084
79535	-0,50803	-0,76803	40,201	15,775
79536	-0,71561	-0,71792	39,727	15,907
79537	-0,67039	-0,24936	39,85	15,764
79538	-1,0451	-0,24936	40,192	16,24
79539	-1,3788	-0,24936	40,431	17,09
79540	-0,28792	-0,24936	40,102	15,626
79541	-0,68476	-0,24936	40,681	16,042
79542	-1,1529	-0,24936	40,796	16,333
79543	-1,1544	-0,75004	40,797	16,439
79544	-0,68625	-0,75032	40,681	16,439
79545	-26,935	-2,3031	-5,2182	20,904
79546	-26,657	-2,5455	-5,2561	21,495
79547	19,908	-3,0114	1,5755	14,921
79548	20,168	-3,0203	2,3671	15,775
79549	10,995	-2,3783	0,96814	10,413
79550	4,2938	-2,6294	10,459	7,1635
79551	1,7695	-2,6551	0,91338	8,3731
79552	-7,9154	-2,463	-0,51671	9,3575
79553	-20,895	-0,24908	-2,9713	16,797
79554	-21,272	-0,24908	-3,1479	17,73
79555	-20,537	-0,24908	-2,2648	15,959
79556	-20,457	-0,24908	-2,7923	16,103
79557	-21,224	-0,24908	-2,2743	17,221
79558	-21,497	-0,24908	-2,6711	19,323
79559	-21,499	-0,75128	-2,6725	19,432
79560	-21,224	-0,75155	-2,2759	17,143
79561	25,352	-2,0425	5,687	20,448
79562	25,6	-1,9511	5,1999	23,144
79563	26,059	-1,8805	5,2468	22,713
79564	26,336	-2,521	5,1381	22,633
79565	25,681	-2,4332	5,2985	22,582
79566	-5,9935	-2,5599	-0,77471	8,872
79567	-7,0451	-2,5303	-0,29748	9,1335
79568	-4,5974	-2,2152	5,1755	8,1037
79569	27,017	-2,0969	4,7965	22,387
79570	27,293	-2,7374	4,6878	22,589
79571	27,864	-2,7366	4,1474	23,49
79572	27,857	-2,1815	4,2124	23,225
79573	25,576	-1,9042	-5,1754	23,557
79574	8,1145	-2,5494	5,202	8,8411
79575	-5,2204	-2,5653	44,849	25,747
79576	-5,1553	-2,061	45,016	26,209
79577	-4,9865	-2,0995	44,031	26,272
79578	-5,0995	-2,6405	44,087	25,774
79579	4,6167	-2,6931	48,829	17,291
79580	4,3791	-3,0329	47,95	20,002
79581	4,2855	-2,5282	47,927	20,672
79582	4,0083	-2,4761	48,402	19,019
79583	4,0717	-3,0191	48,455	18,786
79584	9,0097	-2,6196	-5,8743	9,0023
79585	-4,8923	-2,8101	-2,583	8,5416
79586	6,804	-2,3761	-1,0872	9,0469
79587	5,6523	-2,4388	-0,74157	8,8281
79588	7,537	-2,6274	-0,7462	9,2189
79589	9,8949	-2,7277	-5,3407	9,4031
79590	20,145	-2,9977	-2,5914	15,473
79591	-1,9288	-1,9411	49,875	16,309
79592	-2,382	-2,0302	49,67	16,95
79593	0,38838	-1,7597	50,219	15,611
79594	-0,18755	-1,7594	50,321	15,792
79595	6,8671	-2,3725	1,6249	9,0055
79596	8,0403	-2,7439	0,52453	9,4067
79597	-27,15	-1,7441	-4,8599	22,235
79598	-27,262	-1,834	-4,8335	22,157
79599	4,776	-2,5078	-1,5524	8,6295
79600	-1,9065	-2,1609	8,8456	7,1175
79601	-27,275	-1,5352	-4,6017	23,339
79602	0,90862	-2,6487	0,73657	8,3387
79603	-27,375	-1,9904	-4,4811	23,898
79604	-26,972	-2,4417	-4,7771	23,197
79605	0,56916	-2,4903	-28,809	13,803
79606	-27,175	-0,48908	-4,2664	25,732
79607	-27,639	-0,48908	-4,0258	25,125
79608	-27,147	-0,48908	-3,6449	31,065
79609	-26,72	-0,48908	-3,869	32,128
79610	-27,149	-0,98965	-3,6437	31,378
79611	-26,722	-0,98992	-3,8683	32,309
79612	-3,2534	-0,44607	-48,659	8,6642
79613	-3,5358	-0,44607	-48,265	9,3316
79614	-2,6155	-0,44607	-48,345	8,9357
79615	-2,9764	-0,44607	-48,025	11,341
79616	-2,9776	-0,94621	-48,024	11,207
79617	-2,6167	-0,94648	-48,344	8,9208
79618	-2,9157	-2,8114	-39,639	22,214
79619	5,3805	-2,719	43,807	24,397
79620	5,1035	-2,5848	43,396	25,383
79621	5,0284	-3,1197	43,435	25,883
79622	5,4236	-3,5782	43,488	23,792
79623	-26,984	-2,0763	-4,8713	22,651
79624	25,015	-1,999	5,4561	22,016
79625	25,095	-2,4811	5,5546	21,415
79626	29,883	-1,5589	-1,5031	21,964
79627	5,1955	-2,7119	44,536	25,993
79628	5,2152	-2,2009	44,531	25,727
79629	5,0649	-2,1948	43,683	25,754
79630	4,9898	-2,7296	43,722	26,243
79631	-3,58e-004	-2,6978	-28,145	13,403
79632	-1,1711	-2,4778	-28,231	13,361
79633	5,1303	-0,25103	-43,965	17,514
79634	4,9187	-0,25103	-44,414	18,432
79635	4,762	-0,25103	-44,798	18,836
79636	4,7588	-0,25103	-43,628	19,34
79637	4,3109	-0,25103	-44,175	25,545
79638	4,369	-0,25103	-44,653	23,715
79639	4,369	-0,75291	-44,655	22,95
79640	4,3111	-0,75261	-44,176	24,756
79641	-4,6571	-2,5121	1,8351	8,5945
79642	20,335	-4,75	2,3411	15,619
79643	20,422	-4,75	1,8446	15,54
79644	20,436	-4,75	1,4306	15,277
79645	20,754	-4,75	2,5185	16,375
79646	20,879	-4,75	1,4257	15,273
79647	21,05	-4,75	1,8765	16,861
79648	20,879	-4,249	1,4239	15,271
79649	21,049	-4,2493	1,875	17,026
79650	20,44	-4,7464	-2,8037	16,09
79651	20,88	-4,7464	-2,9801	16,768
79652	21,259	-4,7464	-3,1597	17,731
79653	20,518	-4,7464	-2,2774	15,941
79654	21,484	-4,7464	-2,6819	19,276
79655	21,21	-4,7464	-2,2851	17,175
79656	21,485	-4,2457	-2,6828	19,363
79657	21,211	-4,2454	-2,2863	17,109
79658	-5,5029	-2,5179	-2,407	8,6709
79659	1,7787	-2,6953	-27,49	12,898
79660	4,3537	-2,143	48,766	17,857
79661	4,4171	-2,686	48,819	17,665
79662	3,9115	-2,6903	48,99	16,457
79663	3,7442	-2,2327	49,08	15,698
79664	-4,4957	-2,7583	-39,544	18,834
79665	25,736	-4,1994	4,864	24,973
79666	26,058	-4,7461	5,1617	22,674
79667	25,583	-4,7461	4,9088	24,022
79668	26,347	-4,7461	4,8116	24,021
79669	26,613	-4,7461	4,5064	24,974
79670	25,808	-4,7461	4,3108	30,421
79671	26,277	-4,7461	4,1955	31,04
79672	25,807	-4,2474	4,3111	30,953
79673	26,275	-4,2476	4,1961	31,21
79674	1,278	-0,48833	-49,583	4,6832
79675	0,86344	-0,48833	-49,574	4,2428
79676	1,3508	-0,48833	-49,037	4,8203
79677	0,88269	-0,48833	-49,152	3,0173
79678	0,88087	-0,98956	-49,153	3,1772
79679	1,3492	-0,98983	-49,038	4,8159
79680	30,101	-3,3849	0,22703	21,858
79681	-5,1122	-4,7326	-43,383	17,82
79682	-4,9045	-4,7326	-43,878	18,502
79683	-4,7033	-4,7326	-43,114	19,613
79684	-4,3783	-4,7326	-42,867	21,408
79685	-4,0641	-4,7326	-43,245	27,502
79686	-4,2351	-4,7326	-43,695	25,884
79687	-4,2354	-4,2316	-43,697	25,016
79688	-4,065	-4,2319	-43,246	25,627
79689	5,2791	-4,7428	-43,729	16,797
79690	4,8617	-4,7428	-43,462	18,569
79691	5,0702	-4,7428	-44,234	17,511
79692	4,919	-4,7428	-44,661	17,935
79693	4,4111	-4,7428	-44,565	23,16
79694	4,353	-4,7428	-44,086	25,013
79695	4,3524	-4,2443	-44,084	24,507
79696	4,4111	-4,2446	-44,563	22,583
79697	30,027	-3,1656	1,1554	21,765
79698	30,207	-3,1583	0,65	21,558
79699	-4,9518	-4,2822	43,578	25,543
79700	-5,3945	-4,836	43,685	24,072
79701	-5,2135	-4,836	44,21	24,815
79702	-5,0615	-4,836	44,673	25,2
79703	-4,958	-4,836	43,426	25,17
79704	-4,4424	-4,836	44,088	30,499
79705	-4,5005	-4,836	44,567	33,341
79706	-4,4421	-4,3352	44,087	30,875
79707	-4,5005	-4,3352	44,565	33,86
79708	29,472	-4,0517	0,94162	22,404
79709	29,606	-3,637	0,91352	22,169
79710	29,786	-3,6297	0,40816	22,227
79711	29,751	-4,5705	0,55075	22,927
79712	29,677	-4,5705	0,19913	22,823
79713	29,326	-4,5705	0,27204	21,895
79714	29,267	-4,5705	0,75067	22,514
79715	29,267	-4,0728	0,75248	21,877
79716	29,326	-4,0725	0,2737	21,074
79717	-4,9378	-0,48965	44,459	27,073
79718	-4,8248	-0,48965	44,89	27,554
79719	-4,3498	-0,48965	44,26	32,159
79720	-4,4079	-0,48965	44,738	34,636
79721	-4,4079	-0,98897	44,74	35,238
79722	-4,3503	-0,98924	44,262	32,196
79723	-20,491	-3,6221	2,5562	15,954
79724	-20,6	-4,1364	3,0744	16,279
79725	-20,133	-4,1341	3,008	15,651
79726	-20,448	-4,1019	2,4551	15,795
79727	-20,255	-4,6297	2,9092	15,809
79728	-20,696	-4,6297	3,0822	16,429
79729	-21,071	-4,6297	3,2629	17,388
79730	-20,336	-4,6297	2,3773	15,602
79731	-21,3	-4,6297	2,7868	18,767
79732	-21,026	-4,6297	2,39	16,714
79733	-21,301	-4,1314	2,7879	18,868
79734	-21,027	-4,1317	2,3915	16,564
79735	0,24478	-0,25218	-39,802	24,564
79736	0,61529	-0,25218	-40,148	25,457
79737	-0,13754	-0,25218	-40,055	24,272
79738	-0,51209	-0,25218	-40,271	25,971
79739	-0,22788	-0,25218	-40,636	26,861
79740	0,25426	-0,25218	-40,636	26,628
79741	0,2559	-0,75273	-40,636	21,522
79742	-0,22655	-0,753	-40,636	21,381
79743	5,2556	-0,26272	43,777	25,019
79744	4,8676	-0,26272	43,487	26,081
79745	5,0153	-0,26272	44,276	26,265
79746	4,8657	-0,26272	44,694	26,981
79747	4,4095	-0,26272	44,575	34,346
79748	4,3514	-0,26272	44,097	31,576
79749	4,3509	-0,7649	44,095	31,895
79750	4,4095	-0,7646	44,573	34,967
79751	20,637	-0,79548	2,4246	16,196
79752	20,083	-0,74444	2,4613	15,353
79753	20,234	-0,77473	1,9544	15,498
79754	20,415	-0,73413	1,5061	15,332
79755	20,241	-0,25288	2,407	15,555
79756	20,675	-0,25288	2,5882	16,284
79757	20,324	-0,25288	1,8816	15,485
79758	20,343	-0,25288	1,4589	15,26
79759	20,833	-0,25288	1,4493	15,197
79760	21,004	-0,25288	1,9001	16,79
79761	20,834	-0,75237	1,4504	15,201
79762	21,005	-0,75268	1,9012	16,959
79763	26,509	-0,25653	-5,0098	22,873
79764	26,839	-0,25653	-4,5681	23,833
79765	26,067	-0,25653	-4,8588	24,233
79766	25,685	-0,25653	-4,7352	25,389
79767	26,311	-0,25653	-4,1913	30,48
79768	25,842	-0,25653	-4,3066	30,971
79769	25,841	-0,75791	-4,3069	30,98
79770	26,309	-0,75818	-4,1919	31,148
79771	1,2617	-4,2501	40,532	16,73
79772	0,46672	-4,2525	40,261	15,791
79773	0,70704	-4,3107	39,767	15,895
79774	1,0248	-4,2763	40,194	16,245
79775	0,65755	-4,7557	39,866	15,761
79776	1,0329	-4,7557	40,201	16,229
79777	1,3752	-4,7557	40,443	17,078
79778	0,28133	-4,7557	40,114	15,621
79779	1,1447	-4,7557	40,813	16,35
79780	0,67656	-4,7557	40,698	16,043
79781	1,1458	-4,2568	40,814	16,407
79782	0,67749	-4,2565	40,698	16,451
79783	0,227	-4,7507	-39,774	24,608
79784	0,60702	-4,7507	-40,129	25,495
79785	-0,14748	-4,7507	-40,018	24,257
79786	-0,48432	-4,7507	-40,237	25,968
79787	-0,23086	-4,7507	-40,627	26,782
79788	0,25129	-4,7507	-40,627	26,585
79789	-0,23265	-4,2504	-40,627	21,426
79790	0,24964	-4,2507	-40,626	21,578
79791	-20,691	-4,2053	-2,3624	16,282
79792	-20,527	-4,7518	-2,7282	16,205
79793	-20,615	-4,7518	-2,229	16,034
79794	-20,949	-4,7518	-2,908	16,911
79795	-21,324	-4,7518	-3,0739	17,977
79796	-21,515	-4,7518	-2,6548	19,377
79797	-21,241	-4,7518	-2,258	17,281
79798	-21,241	-4,2532	-2,2568	17,206
79799	-21,514	-4,253	-2,6538	19,464
79800	4,5513	-3,9927	43,812	29,564
79801	4,7753	-4,0517	44,347	29,115
79802	4,9286	-4,0343	43,916	27,769
79803	4,776	-4,5106	44,348	28,744
79804	4,7752	-4,5106	44,824	27,893
79805	4,1565	-4,5106	44,209	34,289
79806	4,2146	-4,5106	44,688	36,326
79807	4,2146	-4,0124	44,689	37,115
79808	4,1568	-4,0121	44,21	34,321
79809	-20,897	-0,76541	3,0454	16,776
79810	-20,415	-0,73871	2,8571	16,088
79811	-20,53	-0,25437	2,7454	16,242
79812	-20,618	-0,25437	2,2447	16,075
79813	-20,95	-0,25437	2,9248	16,953
79814	-21,324	-0,25437	3,0905	17,997
79815	-21,514	-0,25437	2,6683	19,418
79816	-21,24	-0,25437	2,2715	17,32
79817	-21,239	-0,7568	2,2704	17,245
79818	-21,513	-0,75651	2,6675	19,51
79819	-25,935	-4,2619	4,8194	24,593
79820	-26,27	-4,7964	5,1177	22,288
79821	-25,789	-4,7964	4,8565	23,779
79822	-26,616	-4,7964	4,7816	23,571
79823	-26,881	-4,7964	4,4556	24,544
79824	-26,469	-4,7964	4,1726	30,753
79825	-26,001	-4,7964	4,288	29,926
79826	-26,003	-4,2974	4,2878	30,439
79827	-26,471	-4,2966	4,1719	30,989
79828	-29,494	-4,588	-1,6774	23,123
79829	-29,272	-4,588	-1,9741	23,072
79830	-28,962	-4,588	-1,7593	24,437
79831	-29,132	-4,588	-1,3085	22,754
79832	-28,961	-4,087	-1,7605	23,883
79833	-29,132	-4,0867	-1,3097	21,873
79834	20,703	-0,79092	-2,3607	16,307
79835	20,529	-0,2501	-2,7236	16,213
79836	20,95	-0,2501	-2,9005	16,921
79837	21,323	-0,2501	-3,0697	17,964
79838	20,619	-0,2501	-2,2288	16,048
79839	21,521	-0,2501	-2,6538	19,396
79840	21,247	-0,2501	-2,257	17,3
79841	21,246	-0,75013	-2,2554	17,23
79842	21,52	-0,7504	-2,6523	19,475
79843	3,6261	-4,7696	-48,239	9,6681
79844	3,6417	-4,7696	-47,957	10,781
79845	3,3666	-4,7696	-48,403	9,3905
79846	3,0593	-4,7696	-48,762	8,4196
79847	3,1157	-4,7696	-47,971	11,738
79848	2,7548	-4,7696	-48,291	9,0932
79849	3,1166	-4,2706	-47,97	11,651
79850	2,7559	-4,2708	-48,29	9,0913
79851	4,9403	-3,0489	45,586	26,275
79852	4,6592	-3,0213	46,813	23,564
79853	4,8309	-2,503	46,191	25,684
79854	4,3576	-3,003	46,075	34,3
79855	5,0687	-2,5838	44,974	26,963
79856	4,8433	-3,1125	44,165	27,294
79857	4,5245	-3,0491	44,99	34,581
79858	4,3932	-2,5348	47,412	22,392
79859	4,1795	-3,0257	47,939	20,385
79860	4,014	-3,021	47,147	29,851
79861	4,9593	-2,0379	45,579	26,063
79862	4,9381	-2,0667	44,12	26,565
79863	4,5442	-2,0381	44,984	34,313
79864	4,5649	-2,0166	46,789	24,156
79865	4,0224	-1,978	47,864	21,294
79866	3,9209	-2,0164	47,124	30,865
79867	4,3572	-2,0031	46,073	34,306
79868	-20,337	-2,4941	-2,1341	15,616
79869	-20,236	-1,991	-1,5463	15,093
79870	-20,86	-1,9967	-1,9937	16,389
79871	-20,321	-3,0044	-1,5655	15,187
79872	-20,386	-3,453	-2,1045	15,649
79873	-20,936	-3,0013	-1,9999	16,565
79874	-20,219	-2,5014	-0,97765	14,748
79875	-20,185	-1,9902	-0,48445	14,562
79876	-20,663	-1,9988	-0,96216	14,679
79877	-20,197	-3,007	-0,49453	14,556
79878	-20,22	-3,5152	-1,0156	14,758
79879	-20,672	-3,007	-0,97314	14,692
79880	-20,162	-2,4959	-1,3231e-003	14,403
79881	-20,187	-3,0063	0,49417	14,572
79882	-20,166	-3,5088	4,5579e-003	14,403
79883	-20,583	-3,0044	7,0157e-004	13,995
79884	-20,191	-1,991	0,49197	14,567
79885	-20,58	-1,9963	-2,1802e-003	14,001
79886	-20,216	-2,5014	0,98746	14,769
79887	-20,298	-2,9967	1,5896	15,255
79888	-20,199	-3,5049	0,97297	14,767
79889	-20,663	-3,0065	0,97303	14,716
79890	-20,317	-1,9942	1,5611	15,223
79891	-20,669	-1,9996	0,97173	14,71
79892	-20,399	-2,4894	2,1632	15,801
79893	-20,345	-3,4646	2,0902	15,682
79894	-20,923	-2,9945	2,0256	16,642
79895	-20,934	-1,9992	1,9966	16,615
79896	20,33	-1,99	-1,5598	15,197
79897	20,421	-2,4918	-2,1425	15,745
79898	20,943	-1,9882	-2,7366	17,042
79899	20,404	-1,5357	-2,099	15,67
79900	20,947	-1,9946	-1,9945	16,589
79901	20,193	-1,9894	-0,48473	14,55
79902	20,166	-1,9937	0,60481	14,639
79903	20,159	-2,4989	1,171e-002	14,405
79904	20,167	-1,4862	1,8394e-002	14,401
79905	20,581	-1,9937	9,947e-003	13,985
79906	20,213	-2,4958	-0,98772	14,74
79907	20,222	-1,4855	-0,96441	14,722
79908	20,669	-1,9945	-0,97184	14,684
79909	20,304	-2,9977	-1,5705	15,203
79910	20,937	-2,9895	-2,7998	17,031
79911	20,932	-2,9963	-2,0063	16,576
79912	20,176	-2,4936	1,178	14,923
79913	20,426	-2,0032	1,9805	15,629
79914	20,224	-1,4807	1,131	14,902
79915	20,643	-1,9988	1,0747	14,81
79916	20,179	-3,0054	-0,49128	14,559
79917	20,66	-2,9999	-0,97262	14,681
79918	20,168	-2,9988	0,58487	14,633
79919	20,577	-3,0037	2,0667e-003	13,984
79920	20,442	-2,9974	1,9564	15,631
79921	20,649	-2,9935	1,0606	14,804
79922	3,8087	-2,4689	48,392	19,553
79923	3,1358	-2,0156	48,653	18,373
79924	3,37	-1,9641	47,995	24,535
79925	3,3665	-3,0162	48,616	18,586
79926	3,4326	-3,007	48,049	23,841
79927	2,6936	-2,5629	48,876	18,57
79928	2,2271	-3,011	49,159	16,652
79929	2,566	-3,0109	48,54	19,392
79930	2,0915	-2,0539	49,227	16,668
79931	2,3995	-2,0536	48,629	19,09
79932	1,625	-2,502	49,509	15,679
79933	1,0567	-3,0034	49,661	15,247
79934	1,5053	-3,0012	49,136	14,11
79935	1,1397	-2,007	49,628	15,158
79936	1,5379	-2,0019	49,113	14,058
79937	0,57134	-2,5083	49,779	15,41
79938	4,6699e-002	-2,0111	49,87	15,106
79939	0,55282	-2,0062	49,37	12,204
79940	-4,0489e-002	-3,0028	49,863	15,184
79941	0,50046	-3,0029	49,381	12,273
79942	-1,1833	-3,0003	49,793	15,744
79943	-0,56513	-2,5055	49,954	15,839
79944	-0,54223	-3,0003	49,454	12,473
79945	-2,4706	-3,0685	49,325	16,716
79946	-1,7772	-2,4471	49,625	16,47
79947	-1,5927	-3,0003	49,195	14,243
79948	-3,4018	-3,0374	48,669	19,027
79949	-2,9355	-2,6044	49,095	17,917
79950	-2,7245	-3,0685	48,646	18,576
79951	-1,159	-1,9523	49,786	15,479
79952	-0,50526	-2,0058	49,472	12,484
79953	-3,823	-2,8913	47,796	23,062
79954	-3,7426	-2,5304	48,207	20,211
79955	-3,3114	-2,9688	47,994	24,787
79956	-4,3318	-2,91	46,743	26,713
79957	-4,1157	-2,4217	47,238	25,785
79958	-3,7802	-2,9217	47,056	33,106
79959	-2,2421	-1,9829	49,394	16,652
79960	-1,6033	-1,9473	49,169	14,087
79961	-4,9288	-2,9315	45,562	26,538
79962	-4,737	-2,487	46,211	26,727
79963	-4,2648	-2,9869	46,094	35,543
79964	-3,2763	-2,0973	48,633	18,603
79965	-2,4835	-2,0362	48,741	18,427
79966	-5,147	-2,3835	45,061	26,14
79967	-5,0912	-2,9629	44,131	25,683
79968	-4,606	-2,9431	44,946	33,585
79969	-4,0352	-2,0608	47,649	22,793
79970	-3,4254	-2,0613	47,864	25,221
79971	-4,5208	-1,9988	46,707	25,16
79972	-3,8774	-1,999	47,041	32,061
79973	-4,9551	-1,939	45,71	26,071
79974	-4,9131	-1,9177	44,242	26,55
79975	-4,5409	-1,939	45,114	34,308
79976	-4,3559	-1,9987	46,075	34,298
79977	4,7128	-2,5954	43,311	27,437
79978	4,4649	-2,0433	42,84	26,117
79979	4,3357	-2,0322	43,657	31,794
79980	4,3721	-3,0807	42,898	26,733
79981	4,6555	-3,5472	43,299	27,587
79982	4,2608	-3,0667	43,697	32,542
79983	4,1243	-2,5286	42,427	25,691
79984	4,2203	-1,5199	42,41	25,529
79985	3,81	-2,0263	42,022	24,285
79986	3,8415	-2,0148	42,774	27,791
79987	3,77	-3,0329	42,051	24,314
79988	4,0675	-3,5299	42,415	25,678
79989	3,8243	-3,017	42,793	27,902
79990	3,0498	-3,0332	41,342	21,561
79991	3,4558	-2,5307	41,646	23,057
79992	3,4131	-3,5316	41,672	23,028
79993	3,2139	-3,0188	42,002	23,001
79994	2,6827	-2,5277	41,014	20,194
79995	2,099	-3,0831	40,768	18,668
79996	2,6581	-3,5295	41,043	20,14
79997	2,4692	-3,0171	41,368	19,23
79998	1,5922	-3,5616	40,604	17,307
79999	0,85743	-3,9912	40,427	16,467
80000	1,4155	-4,015	40,36	16,922
80001	2,0351	-4,0191	40,202	17,841
80002	2,1513	-4,0081	40,878	18,766
80003	1,7659	-4,4944	40,609	17,753
80004	1,5365	-3,9955	40,979	17,089
80005	2,1958	-2,061	40,805	18,872
80006	2,7022	-1,5195	40,996	20,272
80007	3,0887	-2,0251	41,318	21,628
80008	2,4851	-2,0134	41,354	19,296
80009	1,6121	-2,6163	40,559	17,36
80010	0,90255	-3,1739	40,351	16,459
80011	1,4753	-3,0684	40,885	17,008
80012	1,2296	-2,0301	40,507	16,823
80013	0,2364	-1,9035	40,286	15,914
80014	0,52	-2,5876	40,298	15,923
80015	0,85375	-1,48	40,341	16,098
80016	0,62364	-1,9821	40,717	16,623
80017	1,7622	-1,5548	40,591	17,661
80018	1,5545	-2,0504	40,934	17,163
80019	-0,94788	-1,9628	40,343	16,511
80020	-0,53031	-2,4378	40,222	15,885
80021	-0,21135	-1,4412	40,119	15,598
80022	-0,3889	-1,9234	40,599	16,422
80023	-2,1386	-2,032	40,767	18,739
80024	-1,6594	-2,5456	40,548	17,435
80025	-1,5108	-2,0408	40,89	17,07
80026	-4,4217	-1,9582	42,804	26,199
80027	-4,8573	-2,4972	43,313	26,609
80028	-4,3142	-1,9776	43,651	31,981
80029	-3,7521	-1,9631	41,996	24,117
80030	-4,1106	-2,4689	42,323	25,423
80031	-3,8208	-1,9798	42,746	27,722
80032	-3,0403	-1,9747	41,329	21,528
80033	-3,4137	-2,4688	41,63	22,936
80034	-3,2001	-1,983	41,995	22,943
80035	-2,6692	-2,4899	41,008	20,168
80036	-2,4745	-1,9919	41,362	19,255
80037	21,137	-2,0086	3,16	17,712
80038	20,692	-2,5069	2,7589	16,514
80039	20,702	-1,5463	2,8389	16,574
80040	21,07	-2,0034	2,3148	17,056
80041	22,004	-2,0047	3,8128	20,176
80042	21,6	-2,51	3,5355	19,093
80043	21,606	-1,5068	3,5667	19,057
80044	21,8	-2,0048	3,1015	20,342
80045	22,845	-1,9935	4,2737	22,461
80046	22,43	-2,5048	4,0631	21,584
80047	22,416	-1,4973	4,0764	21,421
80048	22,571	-2,0001	3,684	23,721
80049	23,743	-1,9836	4,6088	24,329
80050	23,278	-2,4934	4,4746	23,699
80051	23,28	-1,4849	4,4618	23,683
80052	23,429	-1,9942	4,1061	26,971
80053	24,736	-1,9437	4,8573	24,801
80054	25,721	-1,837	5,0159	24,142
80055	25,344	-2,3897	5,0675	24,117
80056	25,173	-1,4375	4,894	25,249
80057	25,373	-1,955	4,4699	30,579
80058	24,219	-2,4779	4,7579	25,202
80059	24,183	-1,4785	4,7187	25,3
80060	24,364	-1,9908	4,3583	29,656
80061	26,456	-2,407	4,954	23,72
80062	27,02	-1,8511	4,4787	23,626
80063	26,18	-1,4029	4,9754	24,256
80064	26,299	-1,8847	4,4013	29,698
80065	27,304	-3,0467	4,3049	24,115
80066	26,079	-2,9596	5,0057	23,449
80067	26,575	-3,0252	4,2929	29,801
80068	27,868	-2,4908	3,8296	25,13
80069	28,207	-3,051	3,3964	24,594
80070	27,573	-3,0245	3,5287	29,865
80071	27,566	-1,9696	3,5931	29,449
80072	21,919	-1,9796	-3,6838	19,932
80073	21,458	-2,4859	-3,3939	18,552
80074	21,726	-1,9932	-2,9964	20,117
80075	22,839	-1,9707	-4,2371	22,608
80076	22,393	-2,4833	-4,0506	21,515
80077	22,558	-1,9865	-3,6584	23,765
80078	28,778	-3,1128	2,6231	23,606
80079	28,266	-3,03	2,8408	27,09
80080	23,757	-1,9623	-4,5921	24,507
80081	23,291	-2,4751	-4,4729	23,775
80082	23,435	-1,9848	-4,0939	27,077
80083	28,937	-2,6579	2,1841	23,752
80084	29,29	-3,1512	1,7505	22,562
80085	28,78	-3,0868	2,039	24,08
80086	29,427	-3,5477	1,3111	22,453
80087	29,406	-4,4812	1,5008	23,086
80088	29,088	-3,9835	1,15	21,899
80089	29,071	-2,1814	1,7448	22,986
80090	28,699	-2,0755	2,0042	24,43
80091	29,423	-2,6747	1,3112	22,266
80092	29,741	-3,1257	0,7776	21,854
80093	29,222	-3,0688	1,1206	21,45
80094	24,825	-1,9581	-4,8432	25,097
80095	24,223	-2,465	-4,7553	25,238
80096	24,37	-1,9786	-4,3532	29,756
80097	29,477	-2,2254	1,053	22,141
80098	29,085	-2,1107	1,1479	21,414
80099	26,191	-2,2121	-4,7635	24,516
80100	25,429	-2,4787	-4,9614	25,091
80101	25,453	-1,9813	-4,4608	30,754
80102	29,688	-2,1064	1,5337e-002	21,529
80103	29,794	-2,6764	0,51937	22,034
80104	29,334	-2,1197	0,38268	20,571
80105	29,577	-1,9122	-1,1516	22,106
80106	29,768	-2,4918	-0,96031	22,135
80107	29,296	-1,9916	-0,84725	21,433
80108	27,543	-2,2893	-4,2866	23,532
80109	26,816	-2,7944	-4,5582	25,274
80110	26,687	-2,2332	-4,1586	30,49
80111	29,153	-1,8601	-2,2322	22,248
80112	29,454	-2,4333	-1,7724	22,378
80113	28,993	-1,9251	-1,7139	23,507
80114	28,494	-1,9945	-3,4468	22,716
80115	27,995	-2,6408	-4,0313	23,419
80116	27,699	-2,059	-3,6448	28,326
80117	28,858	-2,4321	-2,9813	23,138
80118	28,427	-1,939	-2,7754	26,444
80119	21,933	-2,9897	-3,7607	19,884
80120	21,737	-2,9922	-3,0494	20,097
80121	29,875	-3,0619	-0,45628	21,55
80122	29,461	-3,0615	0,13653	20,759
80123	22,845	-2,9877	-4,2863	22,404
80124	22,562	-2,9969	-3,6837	23,686
80125	29,646	-3,0129	-1,5811	22,154
80126	29,356	-3,0047	-1,0707	21,597
80127	23,757	-2,9778	-4,6361	24,172
80128	23,437	-2,9908	-4,1187	26,898
80129	29,16	-3,0053	-2,5215	22,296
80130	29,003	-3,0121	-1,918	23,471
80131	24,827	-2,9857	-4,8735	24,718
80132	24,369	-2,9876	-4,3728	29,541
80133	28,359	-3,0784	-3,5658	22,957
80134	28,425	-2,9965	-2,859	26,177
80135	26,054	-3,061	-4,756	25,181
80136	25,457	-2,9992	-4,4715	30,537
80137	27,268	-3,1459	-4,3029	24,657
80138	27,567	-3,0846	-3,6789	28,821
80139	26,547	-3,0635	-4,1399	31,396
80140	21,154	-3,0083	3,1345	17,76
80141	21,08	-3,0027	2,3029	17,078
80142	22,026	-3,0101	3,7858	20,325
80143	21,625	-3,5108	3,5151	19,18
80144	21,806	-3,0049	3,0863	20,393
80145	22,863	-3,0048	4,264	22,572
80146	22,449	-3,5119	4,0414	21,716
80147	22,586	-3,0051	3,6709	23,853
80148	24,826	-2,9239	4,9681	24,063
80149	25,381	-3,3892	5,1217	23,845
80150	25,453	-2,9371	4,5685	29,691
80151	23,754	-2,9877	4,6238	24,222
80152	23,297	-3,5018	4,4735	23,76
80153	23,43	-3,0002	4,1085	26,961
80154	24,225	-3,4854	4,7867	24,894
80155	24,372	-2,9888	4,3704	29,567
80156	-0,24671	-3,1219	40,235	15,89
80157	0,16782	-3,6034	40,174	15,622
80158	0,37778	-3,1075	40,611	16,422
80159	-1,2418	-3,0207	40,426	16,81
80160	-0,84694	-3,5309	40,283	16,06
80161	-0,62426	-3,0159	40,653	16,58
80162	-4,5463	-3,0079	42,832	25,467
80163	-4,9366	-3,4652	43,196	25,631
80164	-4,427	-3,0184	43,705	31,295
80165	-2,19	-3,0036	40,788	18,852
80166	-1,7552	-3,5165	40,577	17,615
80167	-1,5675	-3,0058	40,918	17,177
80168	-3,7722	-2,9746	41,957	24,087
80169	-4,1427	-3,478	42,284	25,248
80170	-3,8319	-2,9884	42,718	27,594
80171	-3,0426	-2,984	41,309	21,523
80172	-2,6909	-3,5	41,008	20,257
80173	-2,4675	-2,9984	41,354	19,244
80174	-3,4401	-3,4807	41,606	22,957
80175	-3,208	-2,9856	41,983	22,954
80176	-1,025	-4,0366	39,443	16,2
80177	-1,074	-4,0287	39,98	16,251
80178	-1,6759	-4,0364	39,588	17,065
80179	-1,3251	-4,5131	39,662	16,6
80180	-0,38339	-4,0202	39,685	15,737
80181	-0,43241	-4,0123	40,222	15,787
80182	0,30278	-4,0517	39,661	15,634
80183	0,6205	-4,0173	40,088	15,982
80184	-0,12293	-4,4968	40,008	15,362
80185	0,27323	-3,9976	40,592	16,196
80186	-1,1944	-4,0486	38,89	16,176
80187	-0,52569	-4,1018	38,927	15,794
80188	-0,89688	-4,5235	39,192	15,962
80189	-1,3603	-4,0267	40,434	16,865
80190	-0,99545	-4,5156	40,29	16,109
80191	-0,70327	-4,0161	40,659	16,455
80192	-1,9622	-4,0344	40,042	17,679
80193	-2,2561	-4,0129	40,797	19,005
80194	-1,7806	-4,5111	40,609	17,812
80195	-1,6047	-4,0114	40,919	17,176
80196	-2,6573	-4,0211	39,824	18,751
80197	-1,8454	-4,0484	39,035	17,046
80198	-2,5603	-4,0508	39,034	17,63
80199	-2,237	-4,5233	39,512	17,945
80200	-2,9513	-3,9996	40,58	20,089
80201	-3,474	-3,9972	39,68	19,319
80202	-3,5868	-3,9907	40,443	20,629
80203	-3,1836	-4,4979	40,144	20,099
80204	-1,9284	-4,0442	38,227	16,482
80205	-1,2423	-4,0469	38,218	16,112
80206	-1,6238	-4,5252	38,558	16,469
80207	-3,0885	-3,9966	41,305	21,631
80208	-2,694	-4,5017	41,043	20,646
80209	-2,4944	-4,0017	41,361	19,327
80210	-3,3769	-4,0268	38,89	18,197
80211	-4,2889	-3,964	39,469	19,047
80212	-4,0579	-4,0038	38,777	18,228
80213	-3,7721	-4,4993	39,239	18,968
80214	-2,6433	-4,0465	38,226	17,088
80215	-3,3092	-4,0505	38,153	17,288
80216	-3,0237	-4,5275	38,587	17,732
80217	-3,724	-3,9877	41,168	22,204
80218	-3,8107	-3,9841	41,933	23,949
80219	-3,4771	-4,4949	41,63	23,522
80220	-3,2254	-3,9945	41,97	22,973
80221	-2,6299	-4,0312	37,502	16,417
80222	-1,9461	-4,0364	37,536	16,204
80223	-2,3448	-4,519	37,895	16,63
80224	-4,4017	-3,9575	40,232	20,418
80225	-4,3927	-3,9765	41,012	21,71
80226	-3,99	-4,4928	40,742	21,747
80227	-4,9738	-3,9369	39,298	18,724
80228	-5,0873	-3,9542	40,039	19,595
80229	-4,6828	-4,4647	39,78	19,718
80230	-4,7428	-3,9767	38,606	17,843
80231	-4,619	-3,9996	37,9	17,142
80232	-3,9902	-4,0275	38,04	17,311
80233	-4,3621	-4,5045	38,361	17,781
80234	-4,4794	-3,9729	41,777	23,566
80235	-4,533	-3,9354	42,647	25,048
80236	-4,1938	-4,4892	42,244	25,274
80237	-3,8519	-3,9886	42,705	27,391
80238	-5,391	-3,9472	38,423	17,433
80239	-5,5258	-3,9511	39,139	18,059
80240	-5,1299	-4,4722	38,904	18,216
80241	-4,5375	-4,0179	37,188	16,429
80242	-5,2672	-3,9701	37,717	16,704
80243	-5,1288	-4,0003	37,036	16,181
80244	-4,9082	-4,4951	37,484	16,703
80245	-3,9087	-4,0458	37,328	16,609
80246	-3,2958	-4,0352	37,429	16,624
80247	-3,6507	-4,523	37,757	17,055
80248	-5,0783	-3,9731	40,819	20,954
80249	-5,1907	-3,9633	41,546	21,657
80250	-4,7955	-4,4837	41,281	22,318
80251	-4,4738	-4,0559	36,498	15,878
80252	-3,8707	-4,0462	36,616	16,01
80253	-4,2091	-4,5228	36,926	16,301
80254	-5,9137	-3,9779	37,501	16,263
80255	-6,0534	-3,9708	38,227	16,741
80256	-5,6649	-4,475	37,99	16,89
80257	-3,2578	-4,0356	36,717	16,025
80258	-2,5806	-4,0466	36,79	15,969
80259	-2,9626	-4,5122	37,116	16,312
80260	-5,0651	-4,0383	36,346	15,62
80261	-4,95	-4,0486	35,793	15,262
80262	-4,4432	-4,0642	35,795	15,353
80263	-4,7592	-4,5331	36,083	15,543
80264	-5,7753	-4,008	36,819	15,718
80265	-5,5442	-4,0189	36,158	15,35
80266	-5,4112	-4,5052	36,614	15,77
80267	-5,4291	-4,0292	35,605	14,984
80268	-5,0377	-4,0541	35,129	14,81
80269	-5,1483	-4,5155	35,485	15,031
80270	-6,3056	-4,0415	36,689	15,406
80271	-6,5723	-3,9978	37,273	15,623
80272	-6,1796	-4,5028	37,029	15,759
80273	-6,0746	-4,0524	36,028	15,019
80274	-5,7869	-4,0324	34,905	14,476
80275	-5,7396	-4,5137	35,591	14,91
80276	-5,6392	-3,9684	39,881	18,979
80277	-5,7669	-3,9675	40,593	19,541
80278	-5,3611	-4,4895	40,357	20,04
80279	-6,92	-4,026	36,471	14,868
80280	-6,7285	-4,0259	35,719	14,576
80281	-6,5159	-4,5387	36,191	14,983
80282	-3,8401	-4,0546	35,912	15,488
80283	-3,0498	-4,1169	36,026	15,549
80284	-3,5531	-4,5234	36,318	15,806
80285	-6,1881	-3,9746	38,944	17,411
80286	-6,3259	-3,9683	39,653	17,838
80287	-5,9193	-4,4789	39,415	18,232
80288	-4,5308	-4,0697	35,131	14,9
80289	-3,8211	-4,0546	35,22	15,049
80290	-4,1271	-4,5311	35,507	15,228
80291	-6,712	-3,9907	38,	16,132
80292	-6,8638	-3,9879	38,716	16,471
80293	-6,459	-4,4957	38,483	16,782
80294	-5,3955	-4,0573	34,43	14,296
80295	-4,5757	-4,0543	34,448	14,487
80296	-4,8817	-4,5386	34,789	14,659
80297	-7,1867	-3,9822	37,055	15,108
80298	-7,375	-3,9886	37,756	15,344
80299	-6,9651	-4,495	37,518	15,602
80300	-6,4409	-4,0059	34,596	14,011
80301	-6,2199	-4,0102	33,84	13,744
80302	-5,4771	-4,018	33,863	13,967
80303	-5,9121	-4,5187	34,292	14,103
80304	-7,6628	-3,976	36,118	14,255
80305	-7,8451	-3,9812	36,826	14,449
80306	-7,422	-4,4873	36,579	14,678
80307	-7,2525	-3,9775	34,635	13,731
80308	-7,4713	-3,976	35,367	13,943
80309	-7,0254	-4,4872	35,089	14,082
80310	-7,0316	-3,9818	33,879	13,445
80311	-7,9352	-3,9854	34,456	13,287
80312	-7,757	-3,982	33,759	13,111
80313	-7,4955	-4,4903	34,198	13,427
80314	-8,154	-3,9838	35,188	13,515
80315	-8,3443	-3,984	35,892	13,665
80316	-7,9172	-4,4888	35,644	13,872
80317	-6,8765	-3,9873	33,167	13,212
80318	-6,1759	-3,9832	33,279	13,474
80319	-6,5997	-4,4915	33,606	13,521
80320	-8,6452	-3,9905	34,293	12,885
80321	-8,8254	-3,9927	34,984	13,008
80322	-8,3941	-4,495	34,735	13,199
80323	-7,602	-3,9875	33,047	12,867
80324	-8,467	-3,9872	33,596	12,697
80325	-8,288	-3,9911	32,891	12,55
80326	-8,0344	-4,4917	33,337	12,831
80327	-7,438	-3,9941	32,34	12,676
80328	-6,7447	-3,994	32,459	12,936
80329	-7,1893	-4,4957	32,777	12,946
80330	-9,1463	-3,996	33,409	12,328
80331	-9,3237	-3,9957	34,098	12,43
80332	-8,8996	-4,4954	33,855	12,604
80333	-8,124	-3,9977	32,184	12,351
80334	-8,9673	-3,9999	32,703	12,172
80335	-8,7855	-4,0023	32,006	12,052
80336	-8,5488	-4,4994	32,452	12,298
80337	-7,9539	-4,0014	31,49	12,194
80338	-7,2901	-4,0002	31,642	12,448
80339	-7,7063	-4,4983	31,924	12,438
80340	-9,6339	-4,0038	32,522	11,837
80341	-9,8184	-4,0025	33,213	11,917
80342	-9,3961	-4,5005	32,965	12,079
80343	-8,6154	-4,006	31,313	11,889
80344	-9,2683	-4,0077	31,135	11,611
80345	-9,4521	-4,0062	31,825	11,71
80346	-9,0352	-4,5029	31,574	11,831
80347	-8,4339	-4,0085	30,618	11,756
80348	-7,7847	-4,0086	30,781	11,997
80349	-8,2014	-4,5031	31,057	11,977
80350	-9,0867	-4,0102	30,44	11,474
80351	-9,7379	-4,0099	30,261	11,213
80352	-9,9311	-4,0096	30,955	11,295
80353	-9,5071	-4,5047	30,701	11,414
80354	-8,896	-4,0117	29,745	11,36
80355	-8,2417	-4,0098	29,905	11,587
80356	-8,6664	-4,5055	30,179	11,561
80357	-9,5472	-4,0114	29,566	11,096
80358	-10,201	-4,0102	29,387	10,85
80359	-10,393	-4,0104	30,078	10,919
80360	-9,9693	-4,5052	29,822	11,035
80361	-9,3518	-4,011	28,87	10,996
80362	-8,6983	-4,01	29,038	11,212
80363	-9,1256	-4,5062	29,311	11,182
80364	-10,006	-4,0098	28,691	10,748
80365	-9,8086	-4,0097	27,996	10,66
80366	-9,1528	-4,0086	28,166	10,863
80367	-9,5814	-4,5048	28,433	10,832
80368	-10,115	-4,0082	31,645	11,399
80369	-10,303	-4,0075	32,333	11,463
80370	-9,8804	-4,5033	32,085	11,616
80371	-10,663	-4,0091	28,514	10,518
80372	-10,858	-4,0097	29,203	10,574
80373	-10,434	-4,505	28,952	10,687
80374	-10,465	-4,0091	27,818	10,428
80375	-10,27	-4,0088	27,121	10,35
80376	-9,6165	-4,0113	27,303	10,54
80377	-10,039	-4,5049	27,561	10,51
80378	-11,12	-4,0072	27,634	10,212
80379	-11,319	-4,0078	28,323	10,257
80380	-10,891	-4,5041	28,075	10,369
80381	-10,925	-4,0069	26,937	10,132
80382	-10,728	-4,0064	26,238	10,063
80383	-10,07	-4,0064	26,42	10,24
80384	-10,501	-4,5039	26,681	10,211
80385	-11,579	-4,005	26,75	9,93
80386	-11,779	-4,0056	27,439	9,9653
80387	-11,349	-4,5031	27,194	10,075
80388	-10,586	-4,0101	30,772	11,005
80389	-10,778	-4,0102	31,458	11,055
80390	-10,355	-4,5049	31,208	11,202
80391	-11,382	-4,0045	26,05	9,8605
80392	-11,188	-4,0055	25,351	9,8011
80393	-10,527	-4,0049	25,538	9,9642
80394	-10,957	-4,5025	25,797	9,9377
80395	-11,049	-4,0099	29,894	10,647
80396	-11,242	-4,0106	30,582	10,685
80397	-10,817	-4,5052	30,335	10,829
80398	-12,041	-4,0034	25,859	9,6717
80399	-12,24	-4,0035	26,551	9,6977
80400	-11,809	-4,502	26,306	9,8056
80401	-11,847	-4,0044	25,16	9,6119
80402	-11,652	-4,0056	24,464	9,5632
80403	-10,995	-4,0072	24,654	9,7107
80404	-11,422	-4,503	24,908	9,6867
80405	-12,508	-4,0032	24,965	9,4369
80406	-12,703	-4,0024	25,657	9,4536
80407	-12,273	-4,5014	25,413	9,5593
80408	-11,514	-4,0084	29,012	10,316
80409	-11,707	-4,0094	29,702	10,345
80410	-11,282	-4,5047	29,453	10,484
80411	-12,313	-4,0044	24,268	9,3885
80412	-12,118	-4,0066	23,579	9,3513
80413	-11,457	-4,0063	23,768	9,4839
80414	-11,882	-4,5026	24,02	9,4624
80415	-11,978	-4,0063	28,128	10,013
80416	-12,173	-4,0073	28,819	10,031
80417	-11,746	-4,5037	28,571	10,168
80418	-12,978	-4,005	24,076	9,228
80419	-13,173	-4,0033	24,763	9,2329
80420	-12,743	-4,5018	24,517	9,3369
80421	-12,588	-4,01	22,708	9,1677
80422	-12,783	-4,0073	23,387	9,1918
80423	-11,923	-4,0087	22,892	9,2841
80424	-12,353	-4,504	23,138	9,2639
80425	-12,44	-4,004	27,24	9,7345
80426	-12,637	-4,0049	27,933	9,7419
80427	-12,209	-4,5025	27,684	9,8774
80428	-13,053	-4,0102	21,853	9,0143
80429	-13,258	-4,011	22,523	9,0233
80430	-12,388	-4,01	22,032	9,1142
80431	-12,823	-4,5059	22,279	9,0959
80432	-13,453	-4,0083	23,201	9,046
80433	-13,646	-4,006	23,88	9,0382
80434	-13,213	-4,5032	23,636	9,1423
80435	-13,52	-4,0119	21,001	8,8903
80436	-13,724	-4,0107	21,672	8,8853
80437	-12,854	-4,0126	21,178	8,9737
80438	-13,288	-4,5043	21,426	8,9574
80439	-13,981	-4,013	20,144	8,7979
80440	-14,193	-4,0143	20,82	8,7765
80441	-13,315	-4,0112	20,327	8,8644
80442	-13,756	-4,5076	20,575	8,8492
80443	-14,435	-4,0126	19,282	8,7396
80444	-14,643	-4,0118	19,955	8,7017
80445	-13,77	-4,0108	19,467	8,7882
80446	-14,205	-4,5054	19,712	8,7749
80447	-13,929	-4,0116	22,342	8,8925
80448	-14,127	-4,0098	23,014	8,8694
80449	-13,694	-4,5051	22,767	8,9738
80450	-14,894	-4,0137	18,422	8,7173
80451	-15,101	-4,0124	19,095	8,66
80452	-14,229	-4,0128	18,608	8,7472
80453	-14,666	-4,5072	18,852	8,7345
80454	-15,352	-4,0128	17,563	8,7337
80455	-15,56	-4,0122	18,233	8,655
80456	-14,686	-4,0134	17,75	8,7445
80457	-15,121	-4,5065	17,994	8,7321
80458	-12,902	-4,0025	26,348	9,4805
80459	-13,1	-4,0028	27,041	9,4771
80460	-12,671	-4,5015	26,795	9,6119
80461	-14,397	-4,0132	21,491	8,7692
80462	-14,595	-4,0114	22,162	8,7314
80463	-14,164	-4,5065	21,916	8,8363
80464	-15,814	-4,0138	16,704	8,7919
80465	-16,023	-4,0122	17,373	8,6892
80466	-15,146	-4,0148	16,896	8,7826
80467	-15,582	-4,5063	17,133	8,7699
80468	-14,855	-4,0131	20,631	8,6775
80469	-15,059	-4,0113	21,308	8,6225
80470	-14,63	-4,5067	21,065	8,7285
80471	-16,283	-4,0155	15,848	8,8945
80472	-16,482	-4,0139	16,511	8,7668
80473	-15,608	-4,0164	16,037	8,8647
80474	-16,045	-4,5075	16,275	8,8509
80475	-15,309	-4,0116	19,768	8,6189
80476	-15,514	-4,0097	20,444	8,5459
80477	-15,081	-4,5064	20,197	8,6546
80478	-13,368	-4,0025	25,456	9,2498
80479	-13,565	-4,0021	26,141	9,2351
80480	-13,133	-4,501	25,902	9,37
80481	-15,768	-4,0109	18,905	8,5942
80482	-15,973	-4,0105	19,579	8,5012
80483	-15,536	-4,5052	19,336	8,6132
80484	-13,841	-4,0043	24,567	9,0426
80485	-14,036	-4,0032	25,251	9,0163
80486	-13,603	-4,5015	25,01	9,1512
80487	-16,231	-4,0116	18,042	8,6067
80488	-16,434	-4,0078	18,716	8,4918
80489	-15,999	-4,5057	18,472	8,6074
80490	-14,32	-4,0075	23,692	8,8606
80491	-14,512	-4,0057	24,372	8,8211
80492	-14,079	-4,5028	24,123	8,9566
80493	-16,753	-4,0159	14,994	9,0447
80494	-16,957	-4,015	15,659	8,8872
80495	-16,083	-4,0181	15,184	8,9934
80496	-16,52	-4,5081	15,422	8,9775
80497	-16,691	-4,0123	17,179	8,6601
80498	-16,898	-4,0099	17,85	8,5204
80499	-16,462	-4,5059	17,611	8,6403
80500	-14,793	-4,0096	22,834	8,707
80501	-14,995	-4,0093	23,506	8,6502
80502	-14,56	-4,5047	23,261	8,7881
80503	-17,424	-4,0144	14,798	9,0594
80504	-17,222	-4,0173	14,136	9,2474
80505	-16,553	-4,0192	14,335	9,1715
80506	-16,99	-4,5078	14,567	9,1543
80507	-17,156	-4,0134	16,322	8,7556
80508	-17,359	-4,0095	16,986	8,5905
80509	-16,919	-4,5065	16,747	8,7167
80510	-15,257	-4,0095	21,979	8,5829
80511	-15,464	-4,011	22,652	8,5095
80512	-15,032	-4,5049	22,406	8,649
80513	-17,628	-4,0135	15,464	8,8977
80514	-17,83	-4,0098	16,129	8,7027
80515	-17,393	-4,507	15,897	8,8339
80516	-15,718	-4,0079	21,12	8,4887
80517	-15,922	-4,0083	21,796	8,3989
80518	-15,494	-4,5046	21,549	8,5402
80519	-18,092	-4,0137	14,596	9,0938
80520	-18,303	-4,0127	15,263	8,8652
80521	-17,864	-4,5066	15,031	9,0039
80522	-17,89	-4,0166	13,934	9,2864
80523	-17,672	-4,0187	13,273	9,5069
80524	-17,011	-4,0197	13,481	9,403
80525	-17,458	-4,5094	13,707	9,3865
80526	-16,178	-4,0087	20,255	8,4257
80527	-16,382	-4,0076	20,933	8,3169
80528	-15,951	-4,5034	20,69	8,4625
80529	-18,552	-4,0139	13,723	9,3483
80530	-18,761	-4,0124	14,389	9,085
80531	-18,327	-4,5072	14,161	9,2293
80532	-16,64	-4,0074	19,389	8,396
80533	-16,846	-4,0097	20,064	8,2661
80534	-16,41	-4,5053	19,82	8,4173
80535	-18,333	-4,016	13,062	9,574
80536	-18,102	-4,019	12,404	9,8279
80537	-17,447	-4,0236	12,62	9,6928
80538	-17,891	-4,5093	12,838	9,6783
80539	-17,102	-4,0061	18,523	8,4024
80540	-17,305	-4,0039	19,2	8,25
80541	-16,872	-4,5021	18,958	8,4057
80542	-18,999	-4,0123	12,843	9,6681
80543	-19,22	-4,0113	13,51	9,3659
80544	-18,781	-4,5067	13,284	9,5174
80545	-18,768	-4,0153	12,185	9,928
80546	-19,429	-4,0078	11,977	10,051
80547	-19,664	-4,0088	12,63	9,7144
80548	-19,217	-4,5056	12,402	9,8735
80549	-18,525	-4,0179	11,537	10,213
80550	-17,869	-4,0164	11,761	10,041
80551	-18,318	-4,5097	11,969	10,033
80552	-19,187	-4,0105	11,329	10,341
80553	-18,936	-4,0116	10,676	10,665
80554	-18,281	-4,0166	10,899	10,454
80555	-18,732	-4,5083	11,105	10,452
80556	-19,857	-4,001	11,104	10,514
80557	-20,097	-4,0018	11,776	10,123
80558	-19,65	-4,5022	11,544	10,291
80559	-17,567	-4,007	17,656	8,4476
80560	-17,771	-4,0073	18,327	8,2703
80561	-17,339	-4,504	18,085	8,4321
80562	-19,605	-4,0022	10,45	10,845
80563	-20,279	-3,9933	10,214	11,078
80564	-20,534	-3,9926	10,887	10,635
80565	-20,071	-4,4989	10,654	10,806
80566	-18,033	-4,0058	16,793	8,5343
80567	-18,236	-4,0044	17,462	8,3297
80568	-17,799	-4,503	17,22	8,5002
80569	-19,333	-4,0039	9,8055	11,2
80570	-18,679	-4,0163	10,037	10,936
80571	-19,141	-4,5033	10,242	10,945
80572	-20,656	-3,9896	9,3154	11,755
80573	-20,006	-3,995	9,5688	11,442
80574	-20,965	-3,9859	9,9868	11,262
80575	-20,486	-4,4944	9,7731	11,417
80576	-20,351	-3,9967	8,6524	12,167
80577	-20,954	-3,9983	8,3847	12,579
80578	-21,367	-3,9899	9,0215	12,082
80579	-20,827	-4,4952	8,8577	12,168
80580	-19,701	-4,0021	8,9058	11,839
80581	-19,053	-4,0121	9,1608	11,501
80582	-19,522	-4,5005	9,362	11,529
80583	-18,505	-4,0089	15,928	8,6666
80584	-18,704	-4,0049	16,595	8,4323
80585	-18,269	-4,5028	16,361	8,6088
80586	-20,037	-4,0048	7,9801	12,599
80587	-19,414	-4,0079	8,2537	12,171
80588	-19,862	-4,5016	8,4544	12,222
80589	-18,972	-4,0114	15,056	8,8525
80590	-19,177	-4,0097	15,725	8,5828
80591	-18,744	-4,5061	15,495	8,7667
80592	-20,639	-4,0064	7,7124	13,033
80593	-20,347	-4,0126	7,0466	13,488
80594	-19,735	-4,014	7,3364	12,941
80595	-20,185	-4,5032	7,524	13,044
80596	-19,43	-4,0099	14,177	9,0982
80597	-19,641	-4,0095	14,845	8,7908
80598	-19,202	-4,5053	14,621	8,9829
80599	-21,217	-4,014	7,4063	13,618
80600	-21,521	-4,0082	8,0163	13,089
80601	-21,08	-4,5031	7,9116	13,071
80602	-20,924	-4,0202	6,7406	14,11
80603	-20,666	-4,018	6,0877	14,571
80604	-20,069	-4,0142	6,3958	13,849
80605	-20,495	-4,5094	6,5801	14,017
80606	-19,886	-4,0078	13,298	9,4074
80607	-20,098	-4,0078	13,963	9,0605
80608	-19,659	-4,5046	13,737	9,262
80609	-21,528	-4,0233	6,4192	14,981
80610	-21,794	-4,0174	7,0588	14,305
80611	-21,354	-4,5108	6,9011	14,256
80612	-21,27	-4,0211	5,7664	15,504
80613	-21,011	-4,009	5,0992	15,918
80614	-20,413	-4,0113	5,4221	14,938
80615	-20,838	-4,5086	5,5954	15,246
80616	-20,332	-4,0027	12,429	9,7827
80617	-20,555	-4,005	13,091	9,3921
80618	-20,112	-4,5032	12,858	9,6066
80619	-22,136	-4,0273	6,1048	15,986
80620	-21,87	-4,019	5,4614	16,808
80621	-21,702	-4,5125	5,9373	15,796
80622	-20,774	-3,9933	11,56	10,238
80623	-21,007	-3,9994	12,22	9,7988
80624	-20,557	-4,4996	11,99	10,02
80625	-21,611	-4,0069	4,7942	17,328
80626	-20,754	-4,0009	4,4388	16,188
80627	-21,192	-4,5004	4,6091	16,753
80628	-21,22	-3,9852	10,66	10,811
80629	-21,46	-3,9904	11,343	10,297
80630	-21,007	-4,4937	11,113	10,526
80631	-21,675	-3,9862	9,6929	11,574
80632	-21,915	-3,9852	10,445	10,92
80633	-21,444	-4,4914	10,201	11,166
80634	-21,934	-3,9998	8,653	12,562
80635	-22,098	-4,0116	7,6687	13,741
80636	-22,319	-4,011	8,2974	13,008
80637	-21,961	-4,505	8,1209	13,151
80638	-22,291	-4,0007	8,8295	12,455
80639	-22,401	-3,9851	9,486	11,75
80640	-21,909	-4,4948	9,2418	11,999
80641	-22,402	-4,0214	6,7444	15,264
80642	-22,642	-4,0197	7,3908	14,305
80643	-22,227	-4,5066	7,2075	14,396
80644	-22,864	-4,0191	8,0195	13,552
80645	-23,023	-4,0084	8,7027	12,643
80646	-22,677	-4,506	8,4739	12,9
80647	-22,758	-4,0163	5,8152	17,558
80648	-23,001	-4,0267	6,4596	16,163
80649	-22,57	-4,5148	6,2723	16,183
80650	-22,492	-4,008	5,1718	18,436
80651	-22,047	-4,5065	4,988	17,936
80652	-23,241	-4,025	7,106	15,183
80653	-23,446	-4,0196	7,778	13,992
80654	-23,051	-4,5131	7,5651	14,234
80655	-22,94	-4,5015	5,3595	18,916
80656	-23,865	-4,0147	6,8585	15,864
80657	-23,431	-4,5119	6,6469	16,123
80658	-5,2443	-3,9258	42,417	23,317
80659	-4,9089	-4,4461	42,87	24,878
80660	-4,393	-3,9453	43,532	30,892
80661	-5,8793	-3,9577	41,32	20,35
80662	-5,5926	-4,4796	41,806	21,597
80663	-25,042	-3,967	5,5702	21,47
80664	-25,205	-4,4655	5,0707	23,811
80665	-25,418	-3,9664	4,502	30,392
80666	-6,4536	-3,9674	40,365	18,469
80667	-6,1755	-4,4781	40,839	19,445
80668	-24,516	-4,0042	6,5884	17,025
80669	-24,728	-4,5015	6,1196	18,301
80670	-7,0016	-3,9815	39,426	16,945
80671	-6,7345	-4,4894	39,902	17,72
80672	-24,071	-4,0093	7,5305	14,675
80673	-24,299	-4,5028	7,0702	15,546
80674	-7,5268	-3,9858	38,473	15,716
80675	-7,2686	-4,4922	38,95	16,335
80676	-23,606	-4,0089	8,4612	13,074
80677	-23,842	-4,5065	7,9909	13,746
80678	-8,0334	-3,9875	37,528	14,71
80679	-7,783	-4,4936	37,998	15,208
80680	-23,133	-3,9928	9,3592	11,941
80681	-23,37	-4,5024	8,9316	12,417
80682	-8,5266	-3,9891	36,6	13,878
80683	-8,2786	-4,4939	37,066	14,292
80684	-22,641	-3,9841	10,239	11,09
80685	-22,877	-4,4904	9,7971	11,495
80686	-9,0157	-3,9929	35,687	13,173
80687	-8,7751	-4,4952	36,143	13,518
80688	-22,155	-3,9904	11,128	10,4
80689	-22,386	-4,4937	10,69	10,731
80690	-9,5039	-3,998	34,789	12,564
80691	-9,2624	-4,4977	35,239	12,864
80692	-21,693	-3,9965	12,003	9,853
80693	-21,924	-4,4967	11,566	10,129
80694	-9,9959	-4,0022	33,902	12,028
80695	-9,7514	-4,5003	34,347	12,293
80696	-21,23	-4,0016	12,883	9,4045
80697	-21,462	-4,4998	12,441	9,6364
80698	-10,488	-4,0061	33,025	11,55
80699	-10,244	-4,5019	33,465	11,787
80700	-20,767	-4,0049	13,757	9,0419
80701	-20,999	-4,5018	13,32	9,2315
80702	-10,965	-4,0095	32,147	11,125
80703	-10,731	-4,5042	32,586	11,335
80704	-20,309	-4,0073	14,632	8,7498
80705	-20,537	-4,5031	14,19	8,9072
80706	-11,434	-4,0108	31,268	10,74
80707	-11,2	-4,5054	31,707	10,933
80708	-19,846	-4,0078	15,514	8,518
80709	-20,081	-4,5042	15,073	8,6416
80710	-11,9	-4,0101	30,389	10,387
80711	-11,668	-4,5054	30,829	10,565
80712	-19,376	-4,0057	16,391	8,3457
80713	-19,613	-4,5036	15,953	8,4397
80714	-12,366	-4,0083	29,509	10,062
80715	-12,133	-4,5047	29,95	10,228
80716	-18,907	-4,0035	17,264	8,2251
80717	-19,142	-4,5021	16,822	8,2951
80718	-12,833	-4,006	28,625	9,7623
80719	-12,6	-4,5036	29,067	9,9153
80720	-18,441	-4,0047	18,132	8,1499
80721	-18,676	-4,5014	17,694	8,1957
80722	-13,297	-4,0037	27,735	9,4864
80723	-13,065	-4,5024	28,183	9,6281
80724	-17,974	-4,0051	19,003	8,1155
80725	-18,212	-4,5033	18,564	8,1395
80726	-13,762	-4,0025	26,833	9,2329
80727	-13,529	-4,5014	27,286	9,3639
80728	-17,511	-4,0062	19,874	8,118
80729	-17,747	-4,5018	19,437	8,1226
80730	-14,232	-4,0028	25,937	9,0021
80731	-13,996	-4,5011	26,38	9,1218
80732	-17,05	-4,0087	20,742	8,1554
80733	-17,286	-4,5044	20,306	8,1415
80734	-14,707	-4,0046	25,056	8,7948
80735	-14,468	-4,5017	25,493	8,9033
80736	-16,586	-4,008	21,608	8,2255
80737	-16,825	-4,5042	21,174	8,1946
80738	-15,187	-4,0076	24,185	8,6102
80739	-14,945	-4,5029	24,62	8,708
80740	-16,128	-4,0098	22,469	8,3242
80741	-16,364	-4,5037	22,037	8,2785
80742	-15,665	-4,0107	23,323	8,4519
80743	-15,429	-4,5046	23,75	8,5351
80744	-15,901	-4,5061	22,896	8,3923
80745	3,0995	-1,0132	41,302	21,681
80746	3,8964	-1,0125	42,012	24,154
80747	3,7646	-1,0159	41,181	22,279
80748	3,486	-1,5189	41,624	23,107
80749	3,4974	-0,50562	41,653	23,636
80750	3,2428	-1,0077	41,979	23,042
80751	2,2685	-1,0133	40,782	19,045
80752	2,9989	-1,0206	40,579	20,129
80753	2,6886	-0,5076	41,046	20,641
80754	2,4871	-1,0094	41,349	19,294
80755	1,3864	-1,0047	40,425	16,936
80756	2,1697	-1,0131	39,977	17,916
80757	1,812	-0,50569	40,623	17,911
80758	1,6236	-1,0072	40,915	17,246
80759	4,5601	-1,0299	41,913	23,836
80760	4,2721	-0,50685	42,343	25,516
80761	3,9196	-1,0088	42,775	27,599
80762	1,0942	-0,9955	39,978	16,275
80763	0,406	-1,0177	40,174	15,777
80764	1,0036	-0,49901	40,294	16,124
80765	0,70945	-1,0002	40,654	16,453
80766	3,6641	-1,0233	40,458	20,706
80767	4,4283	-1,0334	41,083	21,803
80768	4,3597	-1,0286	40,318	20,585
80769	4,0352	-0,51033	40,75	21,758
80770	3,6061	-1,025	39,726	19,439
80771	2,9001	-1,0204	39,774	19,013
80772	3,2772	-0,51302	40,166	20,242
80773	5,1083	-1,0415	40,935	21,119
80774	4,8205	-0,52305	41,378	22,454
80775	4,3018	-1,0303	39,586	19,277
80776	4,2507	-1,0299	38,872	18,327
80777	3,5316	-1,0263	38,957	18,306
80778	3,9115	-0,51199	39,287	19,058
80779	1,8776	-1,0039	39,53	17,255
80780	1,0091	-0,96881	39,44	16,185
80781	1,3385	-0,49648	39,68	16,62
80782	5,0247	-1,042	39,488	18,956
80783	5,0396	-1,0368	40,17	19,812
80784	4,6842	-0,51828	39,886	19,894
80785	4,9736	-1,0416	38,773	17,967
80786	4,9157	-1,0394	38,045	17,22
80787	4,196	-1,0394	38,137	17,412
80788	4,582	-0,51791	38,457	17,873
80789	5,8071	-1,0516	39,371	18,093
80790	5,7152	-1,0597	38,649	17,49
80791	5,3652	-0,52369	39,089	18,325
80792	5,8221	-1,0464	40,054	19,005
80793	5,3951	-0,51848	40,454	20,153
80794	2,8257	-1,0217	39,005	17,883
80795	2,1184	-1,003	38,985	17,311
80796	2,5001	-0,50739	39,471	18,265
80797	6,6075	-1,0539	39,223	17,264
80798	6,2361	-0,52792	39,679	18,196
80799	3,477	-1,0359	38,223	17,403
80800	2,7726	-1,0184	38,287	17,197
80801	3,1384	-0,51432	38,631	17,833
80802	5,57	-1,0338	37,227	16,188
80803	4,8578	-1,03	37,323	16,48
80804	5,6573	-1,0575	37,921	16,71
80805	5,2478	-0,52149	37,64	16,755
80806	4,1381	-1,03	37,415	16,688
80807	3,4372	-1,0253	37,487	16,703
80808	3,806	-0,52154	37,817	17,145
80809	5,4859	-1,0158	36,505	15,596
80810	6,3022	-1,0283	37,097	15,66
80811	6,1797	-1,0171	36,381	15,256
80812	5,8905	-0,51228	36,821	15,748
80813	4,7737	-1,012	36,601	15,906
80814	4,0853	-1,009	36,688	16,053
80815	4,4661	-0,50849	37,013	16,356
80816	6,3895	-1,052	37,791	16,208
80817	6,5156	-1,062	38,501	16,606
80818	6,0678	-0,53601	38,236	16,878
80819	5,3862	-1,0049	35,783	15,142
80820	4,7033	-1,0006	35,882	15,361
80821	5,0883	-0,50349	36,196	15,555
80822	7,0111	-1,0299	36,949	15,166
80823	7,1505	-1,0344	37,646	15,456
80824	6,7117	-0,51597	37,389	15,702
80825	7,2765	-1,0444	38,356	15,892
80826	6,9471	-0,52599	38,825	16,599
80827	6,8886	-1,0187	36,233	14,74
80828	6,08	-1,0062	35,659	14,785
80829	6,7558	-1,0091	35,514	14,428
80830	6,4784	-0,50482	35,953	14,847
80831	7,5886	-1,0228	36,081	14,28
80832	7,7327	-1,0316	36,793	14,512
80833	7,3083	-0,5139	36,525	14,723
80834	5,9646	-0,99974	34,953	14,431
80835	5,2935	-0,9913	35,07	14,686
80836	5,6911	-0,50137	35,378	14,802
80837	6,6403	-1,0026	34,807	14,06
80838	6,4902	-0,99431	34,092	13,779
80839	5,8398	-0,98933	34,227	14,046
80840	6,238	-0,49837	34,528	14,11
80841	7,4558	-1,0132	35,362	13,95
80842	7,2916	-1,0023	34,636	13,713
80843	7,0427	-0,50426	35,087	14,07
80844	7,872	-1,0361	37,49	14,828
80845	7,5749	-0,51846	37,939	15,368
80846	8,287	-1,0164	35,881	13,697
80847	8,1202	-1,0096	35,174	13,527
80848	7,8689	-0,50891	35,637	13,895
80849	8,4311	-1,0252	36,593	13,947
80850	8,157	-0,51767	37,06	14,386
80851	7,1415	-0,99398	33,921	13,421
80852	7,956	-0,99877	34,449	13,276
80853	7,7916	-0,99578	33,747	13,09
80854	7,5497	-0,49804	34,19	13,398
80855	8,9671	-1,0111	35,675	13,201
80856	8,7106	-0,50753	36,138	13,561
80857	6,9827	-0,98901	33,21	13,191
80858	6,3453	-0,98618	33,372	13,461
80859	6,7424	-0,49594	33,656	13,489
80860	8,8002	-1,0043	34,968	13,017
80861	8,627	-1,001	34,269	12,885
80862	8,3806	-0,50073	34,72	13,199
80863	7,6328	-0,9908	33,036	12,852
80864	8,4626	-0,99801	33,567	12,689
80865	8,2802	-0,99313	32,868	12,545
80866	8,0425	-0,49774	33,308	12,816
80867	9,4794	-1,0049	34,779	12,576
80868	9,2318	-0,50352	35,231	12,88
80869	7,4545	-0,98547	32,329	12,666
80870	6,823	-0,9825	32,49	12,925
80871	7,2218	-0,49306	32,768	12,93
80872	8,102	-0,9878	32,16	12,351
80873	7,9142	-0,98411	31,457	12,196
80874	7,2833	-0,98132	31,618	12,442
80875	7,686	-0,49241	31,893	12,434
80876	9,3062	-1,0016	34,079	12,433
80877	9,1222	-0,9975	33,383	12,332
80878	8,8826	-0,50027	33,825	12,603
80879	8,9398	-0,99262	32,684	12,179
80880	8,7463	-0,98958	31,989	12,063
80881	8,5179	-0,49539	32,427	12,303
80882	9,9687	-0,99943	33,89	12,039
80883	9,7298	-0,50134	34,333	12,301
80884	8,5586	-0,98589	31,286	11,902
80885	8,3701	-0,98347	30,587	11,768
80886	7,7356	-0,98042	30,749	12,002
80887	8,1425	-0,4917	31,021	11,985
80888	9,7847	-0,99532	33,194	11,929
80889	9,5935	-0,99299	32,504	11,851
80890	9,3617	-0,49723	32,941	12,089
80891	9,3999	-0,98995	31,808	11,728
80892	9,2067	-0,98817	31,113	11,629
80893	8,9747	-0,49419	31,551	11,849
80894	10,444	-0,99477	33,005	11,568
80895	10,208	-0,49809	33,446	11,801
80896	10,253	-0,99244	32,314	11,482
80897	10,057	-0,99113	31,626	11,419
80898	9,8252	-0,49576	32,066	11,636
80899	9,0183	-0,98575	30,415	11,49
80900	9,8637	-0,98934	30,931	11,315
80901	9,6706	-0,98832	30,241	11,233
80902	9,4387	-0,49397	30,676	11,433
80903	10,91	-0,99307	32,123	11,146
80904	10,68	-0,49668	32,563	11,355
80905	8,8303	-0,98425	29,719	11,373
80906	8,1912	-0,98081	29,881	11,595
80907	8,5978	-0,49177	30,153	11,575
80908	10,714	-0,99177	31,434	11,078
80909	10,522	-0,99097	30,747	11,026
80910	10,289	-0,49537	31,185	11,224
80911	10,329	-0,98994	30,057	10,939
80912	9,4826	-0,98682	29,546	11,112
80913	10,14	-0,98918	29,369	10,867
80914	9,9025	-0,49435	29,807	11,054
80915	11,374	-0,99291	31,247	10,763
80916	11,14	-0,49639	31,683	10,956
80917	11,182	-0,99212	30,559	10,706
80918	10,989	-0,99142	29,871	10,666
80919	10,752	-0,4956	30,31	10,85
80920	9,296	-0,98568	28,852	11,008
80921	8,6474	-0,98235	29,017	11,22
80922	9,0628	-0,49247	29,285	11,194
80923	11,845	-0,99327	30,373	10,408
80924	11,609	-0,49652	30,811	10,588
80925	9,9529	-0,98805	28,674	10,76
80926	10,8	-0,99066	29,182	10,59
80927	10,609	-0,98979	28,493	10,531
80928	10,377	-0,49484	28,93	10,701
80929	9,759	-0,98674	27,982	10,671
80930	9,1097	-0,98415	28,152	10,871
80931	9,5292	-0,49321	28,418	10,843
80932	11,653	-0,99257	29,685	10,364
80933	11,46	-0,99176	28,999	10,334
80934	11,225	-0,49582	29,438	10,503
80935	11,071	-0,9899	27,622	10,224
80936	10,415	-0,98848	27,801	10,439
80937	11,269	-0,9909	28,309	10,271
80938	10,841	-0,49496	28,056	10,381
80939	10,877	-0,98857	26,933	10,144
80940	11,732	-0,99096	27,441	9,9804
80941	11,534	-0,99012	26,754	9,9436
80942	11,301	-0,49495	27,188	10,089
80943	12,315	-0,99342	29,499	10,082
80944	12,083	-0,49675	29,936	10,247
80945	10,221	-0,98715	27,112	10,36
80946	9,567	-0,98522	27,284	10,548
80947	9,9888	-0,49353	27,546	10,52
80948	11,93	-0,99195	28,128	10,029
80949	12,122	-0,99261	28,813	10,049
80950	11,697	-0,49594	28,563	10,184
80951	10,685	-0,98769	26,244	10,075
80952	10,029	-0,98586	26,42	10,25
80953	10,454	-0,49362	26,678	10,222
80954	12,597	-0,99269	27,943	9,7575
80955	12,398	-0,99217	27,256	9,7507
80956	12,164	-0,49601	27,694	9,8944
80957	12,79	-0,99336	28,628	9,7796
80958	12,548	-0,49667	29,064	9,9357
80959	12,199	-0,99134	26,569	9,7125
80960	11,341	-0,98924	26,065	9,8734
80961	12,002	-0,99068	25,884	9,6856
80962	11,767	-0,49517	26,32	9,8197
80963	13,259	-0,99349	27,754	9,5026
80964	13,031	-0,49669	28,193	9,6423
80965	13,06	-0,99297	27,067	9,494
80966	12,864	-0,99251	26,384	9,4966
80967	12,632	-0,49617	26,818	9,6273
80968	11,147	-0,98854	25,378	9,8147
80969	10,494	-0,98689	25,555	9,9748
80970	10,915	-0,49407	25,811	9,9498
80971	13,728	-0,99373	26,88	9,2491
80972	13,487	-0,49681	27,316	9,3821
80973	12,667	-0,99186	25,699	9,4689
80974	11,808	-0,98998	25,198	9,6265
80975	12,47	-0,99139	25,013	9,4521
80976	12,238	-0,49552	25,448	9,5731
80977	13,532	-0,99327	26,196	9,2505
80978	13,332	-0,99281	25,512	9,2657
80979	13,095	-0,49635	25,949	9,3867
80980	11,612	-0,98947	24,512	9,5785
80981	10,955	-0,98784	24,691	9,725
80982	11,378	-0,49447	24,947	9,7022
80983	14,198	-0,99385	26,006	9,0182
80984	13,969	-0,49692	26,444	9,136
80985	13,998	-0,9934	25,321	9,0328
80986	13,136	-0,99234	24,826	9,2488
80987	13,806	-0,99298	24,64	9,0577
80988	13,569	-0,49647	25,076	9,1666
80989	14,667	-0,99383	25,131	8,811
80990	14,428	-0,49693	25,567	8,921
80991	12,941	-0,992	24,146	9,2436
80992	12,274	-0,99088	24,327	9,4043
80993	12,703	-0,49587	24,578	9,3534
80994	13,41	-0,9923	23,275	9,0611
80995	13,611	-0,99263	23,959	9,0529
80996	12,745	-0,99156	23,462	9,2072
80997	13,179	-0,49612	23,713	9,1568
80998	14,073	-0,99271	23,082	8,8856
80999	13,208	-0,9918	22,588	9,0376
81000	13,876	-0,99238	22,403	8,9063
81001	13,64	-0,49618	22,836	8,9894
81002	14,475	-0,99341	24,45	8,8359
81003	14,274	-0,99304	23,767	8,8764
81004	14,043	-0,49651	24,206	8,9715
81005	12,078	-0,99044	23,644	9,3671
81006	11,417	-0,98888	23,822	9,499
81007	11,846	-0,495	24,077	9,4774
81008	15,138	-0,99379	24,256	8,6277
81009	14,907	-0,4969	24,694	8,7226
81010	12,543	-0,99105	22,776	9,1823
81011	11,878	-0,98975	22,958	9,2996
81012	12,31	-0,49544	23,211	9,2802
81013	14,937	-0,99343	23,573	8,6686
81014	14,74	-0,99343	22,891	8,7221
81015	14,505	-0,49653	23,327	8,8048
81016	13,012	-0,99129	21,908	9,025
81017	12,344	-0,99025	22,09	9,1263
81018	12,777	-0,49562	22,34	9,1089
81019	13,68	-0,99188	21,723	8,8955
81020	14,343	-0,99247	21,531	8,7803
81021	14,543	-0,9931	22,212	8,7442
81022	14,112	-0,49621	21,969	8,8483
81023	13,477	-0,99143	21,039	8,8979
81024	12,817	-0,99051	21,228	8,9821
81025	13,248	-0,49568	21,476	8,9666
81026	15,608	-0,99388	23,381	8,4699
81027	15,368	-0,49689	23,818	8,5553
81028	14,14	-0,99202	20,847	8,7852
81029	15,009	-0,99299	21,337	8,6327
81030	14,81	-0,99261	20,658	8,6852
81031	14,573	-0,49627	21,092	8,7389
81032	15,21	-0,99362	22,018	8,5947
81033	15,41	-0,99388	22,699	8,5243
81034	14,976	-0,4969	22,456	8,6634
81035	13,942	-0,99156	20,169	8,8029
81036	13,274	-0,99073	20,355	8,87
81037	13,707	-0,49575	20,602	8,8562
81038	15,681	-0,99356	21,145	8,4967
81039	15,878	-0,99385	21,824	8,4102
81040	15,445	-0,49672	21,581	8,5514
81041	14,612	-0,99216	19,98	8,7058
81042	15,481	-0,99318	20,467	8,5515
81043	15,278	-0,99277	19,786	8,6231
81044	15,046	-0,49634	20,224	8,6596
81045	14,407	-0,99164	19,299	8,7422
81046	13,742	-0,99086	19,489	8,7909
81047	14,178	-0,49581	19,736	8,7779
81048	16,146	-0,99383	20,273	8,4319
81049	16,351	-0,99412	20,951	8,324
81050	15,916	-0,49684	20,709	8,4696
81051	16,078	-0,99411	22,505	8,3385
81052	15,847	-0,49698	22,943	8,4083
81053	15,073	-0,99225	19,106	8,6628
81054	15,942	-0,99341	19,593	8,5061
81055	15,742	-0,99313	18,914	8,5972
81056	15,509	-0,49642	19,349	8,6165
81057	16,548	-0,99441	21,63	8,2357
81058	16,31	-0,49713	22,068	8,2938
81059	14,87	-0,99213	18,429	8,7187
81060	14,203	-0,99086	18,62	8,7486
81061	14,637	-0,49583	18,863	8,7366
81062	16,612	-0,99428	19,399	8,4009
81063	16,815	-0,9947	20,077	8,2727
81064	16,375	-0,49699	19,837	8,4235
81065	16,412	-0,994	18,721	8,4949
81066	15,539	-0,993	18,237	8,6567
81067	16,21	-0,99298	18,044	8,6091
81068	15,978	-0,4967	18,479	8,6095
81069	17,021	-0,995	20,755	8,1628
81070	16,787	-0,49728	21,192	8,2044
81071	17,286	-0,99508	19,202	8,2543
81072	17,084	-0,99469	18,526	8,4058
81073	16,851	-0,4973	18,962	8,4095
81074	17,489	-0,9955	19,88	8,1238
81075	17,253	-0,49771	20,318	8,1501
81076	15,337	-0,99145	17,561	8,7347
81077	14,667	-0,99295	17,753	8,745
81078	15,106	-0,4963	17,995	8,7329
81079	17,959	-0,99548	19,005	8,1194
81080	17,725	-0,49779	19,442	8,1279
81081	17,757	-0,99509	18,329	8,2734
81082	16,882	-0,99368	17,849	8,5231
81083	17,554	-0,99384	17,652	8,4508
81084	17,317	-0,4974	18,091	8,4357
81085	18,43	-0,99517	18,132	8,1531
81086	18,194	-0,49769	18,569	8,1435
81087	16,008	-0,99143	17,367	8,691
81088	16,679	-0,99161	17,173	8,6624
81089	16,445	-0,49628	17,607	8,6428
81090	17,352	-0,99178	16,976	8,5935
81091	18,227	-0,99392	17,455	8,3332
81092	18,022	-0,99191	16,782	8,539
81093	17,79	-0,49645	17,215	8,5027
81094	15,802	-0,99008	16,695	8,7935
81095	15,133	-0,98948	16,886	8,7834
81096	15,571	-0,49515	17,127	8,771
81097	16,473	-0,99026	16,5	8,7689
81098	17,143	-0,98949	16,306	8,7599
81099	16,913	-0,49533	16,737	8,719
81100	18,9	-0,9943	17,259	8,2285
81101	18,666	-0,49748	17,694	8,1984
81102	16,265	-0,98861	15,833	8,8973
81103	15,594	-0,98979	16,023	8,8662
81104	16,035	-0,49493	16,26	8,8532
81105	16,935	-0,98784	15,639	8,8925
81106	16,73	-0,98522	14,977	9,0485
81107	16,057	-0,98657	15,165	8,996
81108	16,495	-0,49368	15,402	8,9816
81109	17,813	-0,98962	16,112	8,7088
81110	17,608	-0,98661	15,447	8,9032
81111	17,373	-0,49416	15,875	8,8406
81112	17,403	-0,98398	14,785	9,0634
81113	17,2	-0,98058	14,132	9,2483
81114	16,521	-0,98283	14,313	9,1749
81115	16,963	-0,49153	14,55	9,1584
81116	18,694	-0,99228	16,585	8,437
81117	18,488	-0,98939	15,916	8,6729
81118	18,254	-0,49546	16,349	8,6147
81119	18,283	-0,98637	15,252	8,8706
81120	18,08	-0,98266	14,594	9,0953
81121	17,844	-0,49245	15,02	9,0084
81122	19,37	-0,99245	16,384	8,3498
81123	19,134	-0,49682	16,822	8,2971
81124	19,164	-0,98955	15,714	8,5885
81125	18,961	-0,98574	15,056	8,8542
81126	18,723	-0,49392	15,483	8,7735
81127	17,877	-0,97926	13,941	9,2844
81128	18,758	-0,98203	14,398	9,0824
81129	18,56	-0,97797	13,751	9,3381
81130	18,317	-0,49021	14,167	9,2281
81131	19,842	-0,98886	15,517	8,518
81132	19,606	-0,49563	15,945	8,4444
81133	17,681	-0,97513	13,301	9,4988
81134	16,995	-0,97759	13,479	9,4025
81135	17,438	-0,48905	13,715	9,3837
81136	19,638	-0,98504	14,859	8,7864
81137	19,436	-0,98136	14,204	9,0869
81138	19,199	-0,49181	14,629	8,9805
81139	19,238	-0,9773	13,557	9,3461
81140	18,363	-0,97384	13,11	9,5567
81141	19,048	-0,97304	12,915	9,637
81142	18,803	-0,48776	13,334	9,4971
81143	20,314	-0,98499	14,656	8,7384
81144	20,077	-0,49322	15,088	8,6368
81145	20,112	-0,98131	14,001	9,0418
81146	19,916	-0,97689	13,354	9,3781
81147	19,674	-0,48954	13,779	9,2422
81148	18,174	-0,96917	12,472	9,8061
81149	17,482	-0,97036	12,661	9,6816
81150	17,924	-0,48608	12,887	9,6627
81151	20,788	-0,98145	13,799	9,0168
81152	20,549	-0,49176	14,224	8,8888
81153	19,725	-0,97263	12,712	9,6729
81154	20,592	-0,97704	13,152	9,3561
81155	20,399	-0,97261	12,504	9,7367
81156	20,157	-0,48735	12,929	9,5663
81157	18,858	-0,96837	12,277	9,8909
81158	19,541	-0,96823	12,076	10,002
81159	19,293	-0,48528	12,495	9,8297
81160	21,267	-0,97727	12,95	9,3591
81161	21,027	-0,48969	13,374	9,1965
81162	18,68	-0,96347	11,646	10,177
81163	17,993	-0,96261	11,847	10,02
81164	18,424	-0,48309	12,058	10,002
81165	20,215	-0,96821	11,867	10,071
81166	21,074	-0,97284	12,301	9,743
81167	20,885	-0,96858	11,654	10,173
81168	20,641	-0,48526	12,078	9,9629
81169	19,362	-0,96333	11,445	10,294
81170	20,04	-0,96409	11,233	10,445
81171	19,789	-0,48295	11,656	10,231
81172	21,747	-0,973	12,098	9,7814
81173	21,506	-0,48759	12,525	9,5764
81174	19,194	-0,95902	10,814	10,624
81175	18,516	-0,95694	11,031	10,425
81176	18,936	-0,48038	11,233	10,409
81177	20,71	-0,96447	11,02	10,553
81178	21,559	-0,96874	11,451	10,215
81179	21,377	-0,9656	10,807	10,703
81180	21,129	-0,48332	11,231	10,442
81181	19,871	-0,95978	10,603	10,782
81182	20,536	-0,9606	10,384	10,985
81183	20,292	-0,48115	10,81	10,72
81184	22,229	-0,96914	11,246	10,3
81185	21,988	-0,48542	11,672	10,043
81186	19,693	-0,95594	9,9734	11,157
81187	19,035	-0,95427	10,199	10,913
81188	19,451	-0,47864	10,396	10,899
81189	21,866	-0,96301	9,9557	11,357
81190	22,047	-0,96599	10,602	10,792
81191	21,202	-0,96173	10,171	11,141
81192	21,624	-0,48228	10,385	11,022
81193	22,53	-0,96203	9,7552	11,503
81194	22,348	-0,96058	9,1057	12,175
81195	21,693	-0,96113	9,315	11,868
81196	22,109	-0,48074	9,5284	11,748
81197	22,71	-0,96501	10,401	10,933
81198	22,467	-0,48372	10,819	10,615
81199	20,357	-0,95676	9,7544	11,369
81200	21,028	-0,95984	9,5298	11,645
81201	20,784	-0,47945	9,9558	11,315
81202	23,188	-0,96045	9,5649	11,716
81203	22,95	-0,48129	9,982	11,306
81204	20,191	-0,95685	9,12	11,808
81205	19,53	-0,95364	9,3555	11,491
81206	19,945	-0,47731	9,5513	11,484
81207	23,006	-0,959	8,9155	12,392
81208	22,821	-0,95596	8,2741	13,206
81209	22,167	-0,96096	8,464	12,78
81210	22,587	-0,47984	8,683	12,651
81211	23,67	-0,95483	8,7485	12,686
81212	23,425	-0,47916	9,1479	12,167
81213	20,862	-0,95993	8,8954	12,095
81214	21,512	-0,96151	8,6734	12,465
81215	21,277	-0,48039	9,1017	12,042
81216	23,486	-0,95179	8,1071	13,498
81217	24,171	-0,94537	7,9446	13,929
81218	23,916	-0,47567	8,3491	13,218
81219	20,678	-0,96199	8,2554	12,608
81220	20,022	-0,95808	8,4964	12,191
81221	20,447	-0,47955	8,689	12,206
81222	23,334	-0,94589	7,4852	14,55
81223	22,64	-0,95691	7,6135	13,964
81224	23,055	-0,47612	7,8652	13,79
81225	21,329	-0,96356	8,0334	12,991
81226	21,986	-0,96191	7,8035	13,532
81227	21,751	-0,48112	8,2415	12,955
81228	24,692	-0,94169	7,145	15,592
81229	24,02	-0,93947	7,3227	14,969
81230	24,423	-0,4697	7,5483	14,59
81231	25,204	-0,94952	6,3572	17,827
81232	24,542	-0,93953	6,5709	16,876
81233	24,95	-0,47199	6,7583	16,415
81234	23,87	-0,9373	6,7485	16,28
81235	23,212	-0,94438	6,7469	15,737
81236	23,586	-0,46976	7,1279	15,229
81237	25,816	-0,99719	5,4263	21,875
81238	25,013	-0,94582	5,8151	19,609
81239	25,451	-0,47753	5,9644	18,951
81240	23,866	-0,93659	6,2425	17,483
81241	24,351	-0,93583	6,0288	18,713
81242	24,125	-0,46754	6,4223	17,096
81243	21,134	-0,96848	7,3826	13,61
81244	20,486	-0,96441	7,63	13,038
81245	20,91	-0,48244	7,8218	13,086
81246	23,696	-0,94481	5,8005	18,858
81247	23,207	-0,94367	6,2409	16,983
81248	23,546	-0,46905	6,1329	17,51
81249	25,631	-1,0033	4,8535	25,086
81250	26,036	-0,51966	5,0064	23,57
81251	26,3	-1,0212	4,3137	30,458
81252	21,791	-0,96683	7,1526	14,169
81253	22,517	-0,95541	6,8752	15,167
81254	22,224	-0,48079	7,3619	14,174
81255	24,182	-0,94405	5,5868	20,059
81256	24,829	-0,95197	5,2423	22,979
81257	24,575	-0,46829	5,6658	20,037
81258	21,541	-0,97365	6,4888	14,914
81259	20,917	-0,97312	6,7449	14,093
81260	21,357	-0,48604	6,9434	14,213
81261	23,3	-0,94762	5,4278	19,321
81262	23,973	-0,96437	5,0998	22,616
81263	23,628	-0,47576	5,5634	19,418
81264	22,811	-0,94648	5,8682	17,401
81265	22,267	-0,96223	6,2114	15,94
81266	22,737	-0,47462	6,4481	16,024
81267	24,62	-0,97228	4,7553	25,392
81268	25,066	-0,48368	4,849	25,148
81269	25,284	-0,98494	4,3947	31,248
81270	22,432	-0,95939	5,2143	18,237
81271	23,047	-0,96309	4,8998	21,107
81272	22,811	-0,47186	5,3478	18,636
81273	21,888	-0,97515	5,5575	16,688
81274	21,289	-0,98188	5,8138	15,458
81275	21,724	-0,48761	6,0343	15,699
81276	23,72	-0,97984	4,5718	24,35
81277	24,166	-0,48861	4,6504	25,416
81278	24,339	-0,98957	4,3315	29,674
81279	22,235	-0,98495	4,579	19,43
81280	21,626	-0,98597	4,8346	17,272
81281	22,053	-0,48753	5,0808	17,776
81282	22,85	-0,98865	4,2645	22,411
81283	23,294	-0,49123	4,4026	23,856
81284	23,434	-0,99191	4,0963	26,939
81285	22,018	-0,99931	3,8303	20,144
81286	22,408	-0,49742	4,0382	21,36
81287	22,573	-0,9978	3,6853	23,644
81288	21,409	-1,0003	4,0859	17,773
81289	21,171	-1,0445	3,2456	17,801
81290	21,588	-0,50189	3,5891	18,868
81291	21,814	-1,002	3,1189	20,306
81292	21,026	-0,99271	5,0909	15,955
81293	20,784	-1,0054	4,42	16,27
81294	21,209	-0,49844	4,6151	16,792
81295	20,546	-1,0496	3,5797	16,01
81296	20,169	-1,0342	2,9446	15,863
81297	20,32	-1,0644	2,4377	15,902
81298	20,501	-1,0238	1,9894	15,612
81299	20,761	-0,5426	3,0715	16,805
81300	21,091	-1,0424	2,3845	17,122
81301	20,665	-0,98135	6,0699	14,589
81302	20,418	-0,98981	5,4031	14,955
81303	20,863	-0,49427	5,6158	15,249
81304	20,176	-1,0025	4,7322	15,159
81305	19,908	-1,006	4,0774	15,288
81306	20,37	-0,50698	4,2515	15,753
81307	20,269	-0,96905	6,9923	13,493
81308	20,04	-0,9738	6,3591	13,857
81309	20,476	-0,48708	6,5464	14,03
81310	19,793	-0,98226	5,6923	14,165
81311	19,549	-0,98927	5,0499	14,406
81312	19,99	-0,49554	5,2211	14,71
81313	19,83	-0,96051	7,8709	12,602
81314	19,625	-0,96353	7,2508	12,947
81315	20,062	-0,48197	7,4381	13,053
81316	19,396	-0,96827	6,6176	13,28
81317	19,165	-0,97279	5,9945	13,551
81318	19,604	-0,48672	6,1717	13,752
81319	19,361	-0,95487	8,7319	11,861
81320	19,164	-0,95459	8,1199	12,172
81321	19,598	-0,47853	8,3037	12,239
81322	18,959	-0,95762	7,4998	12,498
81323	18,75	-0,96247	6,8873	12,77
81324	19,188	-0,48155	7,0635	12,913
81325	18,872	-0,95196	9,5806	11,238
81326	18,702	-0,95062	8,9729	11,52
81327	19,125	-0,47633	9,1601	11,56
81328	18,504	-0,95035	8,3609	11,817
81329	18,3	-0,95612	7,7578	12,068
81330	18,736	-0,47606	7,9336	12,176
81331	18,358	-0,95218	10,415	10,707
81332	18,205	-0,94706	9,8094	10,956
81333	18,62	-0,47563	10,001	10,982
81334	18,034	-0,94572	9,2016	11,228
81335	17,847	-0,9503	8,6068	11,457
81336	18,278	-0,47429	8,7857	11,539
81337	17,677	-0,94716	10,633	10,472
81338	17,829	-0,95607	11,232	10,262
81339	18,096	-0,47656	10,828	10,494
81340	17,524	-0,94204	10,028	10,713
81341	17,362	-0,94508	9,4355	10,92
81342	17,789	-0,47144	9,6175	10,985
81343	16,977	-0,94497	10,823	10,273
81344	16,865	-0,93631	10,244	10,457
81345	17,259	-0,4706	10,438	10,501
81346	17,129	-0,95389	11,422	10,068
81347	17,302	-0,9638	12,035	9,8907
81348	17,563	-0,47952	11,635	10,087
81349	16,262	-0,94443	11,024	10,041
81350	16,426	-0,95684	11,595	9,9025
81351	16,696	-0,47437	11,208	10,098
81352	16,15	-0,93577	10,445	10,219
81353	15,615	-0,9448	10,607	10,021
81354	15,588	-0,95269	11,153	9,8606
81355	15,828	-0,47007	10,839	10,028
81356	16,703	-0,93936	9,6519	10,656
81357	16,058	-0,93843	9,9119	10,369
81358	16,471	-0,46571	10,05	10,461
81359	15,523	-0,94746	10,074	10,166
81360	14,9	-0,96255	10,529	9,8568
81361	15,35	-0,47474	10,395	10,036
81362	17,176	-0,94967	8,8407	11,138
81363	16,518	-0,95175	9,0924	10,814
81364	16,941	-0,47365	9,2507	10,912
81365	15,873	-0,95082	9,3525	10,518
81366	15,226	-0,95403	9,6471	10,211
81367	15,631	-0,47272	9,7468	10,327
81368	17,643	-0,95607	8,0038	11,693
81369	16,988	-0,95665	8,2599	11,326
81370	17,417	-0,47602	8,4256	11,437
81371	16,331	-0,95873	8,5116	10,99
81372	15,657	-0,95564	8,7774	10,645
81373	16,099	-0,4781	8,928	10,771
81374	18,091	-0,96097	7,1454	12,319
81375	17,438	-0,96425	7,4119	11,897
81376	17,872	-0,48005	7,5784	12,032
81377	16,784	-0,96483	7,668	11,516
81378	16,107	-0,95755	7,9337	11,132
81379	16,551	-0,48063	8,0902	11,272
81380	18,52	-0,96699	6,2642	13,011
81381	17,873	-0,97052	6,5447	12,53
81382	18,313	-0,48092	6,7112	12,699
81383	17,22	-0,9738	6,8111	12,089
81384	16,552	-0,96423	7,0861	11,666
81385	17,	-0,4842	7,2441	11,827
81386	18,922	-0,9798	5,3521	13,74
81387	18,28	-0,97037	5,657	13,208
81388	18,727	-0,48607	5,8173	13,427
81389	17,633	-0,9739	5,9374	12,701
81390	16,978	-0,96924	6,2245	12,241
81391	17,429	-0,4896	6,3795	12,432
81392	18,664	-0,98327	4,7356	13,902
81393	19,281	-0,99277	4,3952	14,451
81394	19,116	-0,49373	4,887	14,184
81395	18,022	-0,97383	5,0404	13,33
81396	17,374	-0,96627	5,3479	12,836
81397	17,832	-0,48429	5,4967	13,069
81398	17,745	-0,97435	4,4476	13,43
81399	18,397	-0,98534	4,1191	13,921
81400	18,211	-0,48954	4,5842	13,707
81401	19,014	-0,99485	3,7787	14,528
81402	19,53	-0,9906	3,4423	14,981
81403	19,474	-0,49904	3,9089	14,895
81404	17,097	-0,96678	4,755	12,907
81405	17,431	-0,97157	3,8612	13,419
81406	16,804	-0,96523	4,1802	12,96
81407	17,279	-0,48481	4,311	13,237
81408	18,679	-0,99111	3,1906	14,372
81409	18,083	-0,98256	3,5327	13,947
81410	18,582	-0,4958	3,654	14,281
81411	19,195	-0,98687	2,8542	14,876
81412	19,766	-1,0134	2,4744	15,131
81413	19,773	-0,49156	2,927	15,36
81414	16,719	-0,96161	5,635	12,354
81415	16,453	-0,96187	5,0591	12,444
81416	16,916	-0,48197	5,1991	12,683
81417	18,308	-0,98404	2,6187	14,305
81418	18,899	-0,98463	2,2713	14,625
81419	18,828	-0,49531	2,7279	14,634
81420	16,309	-0,95967	6,4994	11,8
81421	16,063	-0,95913	5,922	11,911
81422	16,523	-0,47964	6,0708	12,117
81423	17,712	-0,97549	2,9608	13,842
81424	17,113	-0,9679	3,2918	13,419
81425	17,598	-0,48676	3,4141	13,727
81426	15,641	-0,95927	6,774	11,385
81427	15,875	-0,95695	7,3518	11,268
81428	16,096	-0,48003	6,9277	11,563
81429	15,796	-0,95939	5,3461	11,983
81430	15,395	-0,95873	6,1966	11,482
81431	15,128	-0,96258	5,6197	11,554
81432	15,603	-0,47949	5,7731	11,769
81433	16,159	-0,96031	4,4843	12,475
81434	15,507	-0,9639	4,7735	12,031
81435	15,989	-0,4799	4,9191	12,278
81436	14,99	-0,96974	7,0431	11,
81437	14,723	-0,96323	6,4617	11,079
81438	15,186	-0,47924	6,62	11,265
81439	19,47	-1,0112	1,8914	14,946
81440	20,097	-1,0031	1,5192	14,967
81441	20,007	-0,52184	1,8947	15,172
81442	17,955	-0,97189	2,0724	14,152
81443	17,36	-0,97478	2,3919	13,779
81444	17,853	-0,48873	2,5173	14,102
81445	16,486	-0,96155	3,6108	12,934
81446	15,85	-0,96658	3,9178	12,488
81447	16,33	-0,48042	4,0494	12,764
81448	15,223	-0,96742	7,6209	10,895
81449	15,432	-0,95446	8,1995	10,775
81450	15,653	-0,47692	7,7756	11,043
81451	18,547	-0,97247	1,725	14,503
81452	19,12	-0,95597	1,3676	14,709
81453	19,055	-0,48931	1,8202	14,793
81454	14,554	-0,97371	7,9047	10,533
81455	14,334	-0,9825	7,3059	10,634
81456	14,773	-0,4905	7,4685	10,789
81457	17,577	-0,95803	1,5047	14,03
81458	18,163	-0,97347	1,2189	14,344
81459	18,077	-0,48316	1,6491	14,348
81460	14,763	-0,96075	8,4833	10,425
81461	15,009	-0,95885	9,072	10,327
81462	15,212	-0,47754	8,6234	10,568
81463	16,761	-0,96719	2,7228	13,328
81464	16,163	-0,95676	3,0532	12,907
81465	16,642	-0,48114	3,1722	13,211
81466	13,896	-0,98212	8,1736	10,194
81467	14,116	-0,97168	8,8032	10,094
81468	14,314	-0,48321	8,3432	10,325
81469	16,982	-0,96092	1,8241	13,633
81470	16,411	-0,96349	2,1549	13,252
81471	16,885	-0,48605	2,2747	13,567
81472	13,	-0,98487	7,8317	9,9474
81473	13,677	-0,99092	7,5748	10,284
81474	13,26	-0,99636	8,4531	9,8802
81475	13,449	-0,49891	8,0112	10,091
81476	17,249	-0,95284	0,96716	13,886
81477	16,611	-0,9543	1,2229	13,505
81478	17,084	-0,47487	1,3748	13,827
81479	12,729	-0,97965	7,2299	10,002
81480	12,337	-0,98821	8,0842	9,6351
81481	12,057	-0,98029	7,4555	9,6856
81482	12,521	-0,48596	7,6594	9,8284
81483	18,736	-0,95696	0,86145	14,561
81484	19,253	-0,92278	0,46694	14,68
81485	19,747	-0,9479	0,99531	14,731
81486	19,216	-0,46665	0,91977	14,762
81487	14,067	-0,97599	6,7245	10,702
81488	13,406	-0,98569	6,973	10,347
81489	13,858	-0,492	7,1501	10,507
81490	14,363	-0,96979	9,3919	10,009
81491	14,602	-0,96913	10,102	9,8876
81492	14,774	-0,48131	9,523	10,13
81493	13,785	-0,96823	6,1365	10,755
81494	14,456	-0,96708	5,8848	11,14
81495	14,261	-0,48399	6,3072	10,944
81496	17,835	-0,96828	0,68131	14,216
81497	18,298	-0,96976	0,41319	14,432
81498	18,267	-0,49031	0,827	14,482
81499	13,124	-0,97793	6,385	10,392
81500	12,454	-0,9874	6,6106	10,054
81501	12,926	-0,49369	6,8066	10,215
81502	17,543	-0,95571	0,28988	14,085
81503	16,9	-0,95376	0,26825	13,726
81504	17,363	-0,47797	0,58314	14,045
81505	13,48	-0,98592	9,0827	9,791
81506	13,71	-0,98659	9,7504	9,6999
81507	13,902	-0,48848	9,2539	9,9126
81508	13,506	-0,96938	5,5579	10,791
81509	12,827	-0,97198	5,7932	10,426
81510	13,313	-0,48425	5,9756	10,612
81511	18,006	-0,95719	2,1759e-002	14,308
81512	17,504	-0,93781	-0,25457	14,065
81513	17,659	-0,47774	2,33e-002	14,216
81514	12,826	-0,99227	9,3633	9,502
81515	12,597	-0,99969	8,7056	9,5761
81516	13,031	-0,49745	8,9086	9,6986
81517	18,815	-0,93558	1,8684e-002	14,544
81518	18,325	-0,9485	-0,37255	14,441
81519	18,375	-0,47946	3,5411e-002	14,524
81520	14,178	-0,96822	5,3062	11,185
81521	14,839	-0,96709	5,0471	11,588
81522	14,658	-0,48309	5,4697	11,398
81523	19,731	-0,94799	1,6181e-002	14,478
81524	19,274	-0,93178	-0,43898	14,674
81525	19,291	-0,45613	1,4114e-002	14,694
81526	20,225	-0,97311	0,54455	14,611
81527	20,207	-0,48125	1,0237	14,787
81528	20,698	-0,98074	1,0152	14,879
81529	13,886	-0,96209	4,7395	11,196
81530	13,219	-0,96797	4,9749	10,816
81531	13,703	-0,48513	5,1508	11,023
81532	20,196	-0,98227	-0,46128	14,541
81533	20,175	-0,49187	1,0058e-002	14,394
81534	20,585	-0,99134	1,0672e-002	14,016
81535	14,548	-0,96096	4,4803	11,61
81536	15,198	-0,97017	4,2069	12,028
81537	15,029	-0,48401	4,6314	11,851
81538	16,599	-0,96675	12,208	9,7294
81539	16,797	-0,97282	12,839	9,581
81540	17,041	-0,48428	12,435	9,7461
81541	13,59	-0,95442	4,1615	11,201
81542	14,241	-0,94944	3,9238	11,588
81543	14,069	-0,47696	4,3329	11,428
81544	15,752	-0,9651	11,724	9,7246
81545	15,908	-0,97231	12,374	9,5913
81546	16,157	-0,48247	11,981	9,757
81547	14,872	-0,97044	11,075	9,6906
81548	15,062	-0,97657	11,84	9,5633
81549	15,303	-0,48263	11,481	9,723
81550	19,74	-0,96606	-0,91644	14,659
81551	20,296	-1,0312	-1,5036	15,116
81552	20,225	-0,4904	-0,95966	14,715
81553	20,669	-0,99015	-0,94716	14,689
81554	12,54	-0,97058	5,2103	10,444
81555	12,157	-0,98145	6,0188	10,082
81556	11,854	-0,98065	5,4116	10,105
81557	12,344	-0,48774	5,6168	10,281
81558	18,784	-0,9447	-0,83021	14,562
81559	19,211	-0,95862	-1,341	14,712
81560	19,263	-0,47565	-0,88168	14,74
81561	12,924	-0,9603	4,3969	10,813
81562	12,256	-0,96892	4,6045	10,465
81563	12,736	-0,48284	4,8038	10,654
81564	13,95	-0,98593	10,461	9,5957
81565	14,162	-0,98777	11,181	9,4961
81566	14,398	-0,48781	10,684	9,6959
81567	13,287	-0,94911	3,5863	11,172
81568	12,66	-0,9647	3,7863	10,829
81569	13,112	-0,47746	3,9901	11,025
81570	13,056	-0,99294	10,031	9,4221
81571	13,278	-0,99284	10,71	9,3501
81572	13,501	-0,49811	10,238	9,5354
81573	16,106	-0,97838	13,005	9,4471
81574	16,316	-0,97984	13,66	9,3246
81575	16,552	-0,48854	13,244	9,4637
81576	12,176	-0,99693	9,6066	9,2317
81577	12,399	-0,99807	10,275	9,1722
81578	12,611	-0,49483	9,8243	9,3449
81579	15,43	-0,98249	13,177	9,3317
81580	15,218	-0,98378	12,49	9,4326
81581	15,659	-0,48984	12,766	9,4717
81582	11,947	-1,0043	8,949	9,2975
81583	11,684	-0,98927	8,3028	9,3492
81584	12,14	-0,50225	8,5157	9,4773
81585	15,64	-0,98395	13,831	9,214
81586	15,848	-0,98418	14,501	9,1176
81587	16,08	-0,4913	14,076	9,2306
81588	11,292	-0,99396	9,1693	9,0327
81589	11,525	-0,99707	9,8271	8,9836
81590	11,735	-0,5021	9,3937	9,1476
81591	17,823	-0,92912	-0,64888	14,204
81592	18,24	-0,94041	-1,19	14,381
81593	18,316	-0,46904	-0,77944	14,498
81594	14,766	-0,98837	13,341	9,1907
81595	14,972	-0,9857	14,012	9,1203
81596	15,201	-0,49265	13,587	9,2355
81597	11,781	-0,98804	6,8361	9,7317
81598	11,464	-0,99113	6,2161	9,7593
81599	11,961	-0,49371	6,426	9,9206
81600	16,86	-0,93586	-0,2762	13,708
81601	17,264	-0,92982	-0,94847	13,899
81602	17,334	-0,46008	-0,5294	14,032
81603	11,404	-0,98135	7,6741	9,3941
81604	11,095	-0,99122	7,0357	9,4298
81605	11,586	-0,49433	7,2537	9,5743
81606	14,554	-0,98966	12,655	9,2863
81607	14,351	-0,99391	11,946	9,3711
81608	14,777	-0,49395	12,214	9,4345
81609	11,029	-0,97889	8,5231	9,0784
81610	10,757	-0,97709	7,8797	9,1231
81611	11,215	-0,48703	8,0967	9,2472
81612	13,894	-0,99446	12,854	9,1132
81613	14,1	-0,99122	13,526	9,0644
81614	14,331	-0,49571	13,095	9,1824
81615	14,891	-0,95865	3,6504	12,019
81616	15,526	-0,96179	3,3602	12,441
81617	15,371	-0,48616	3,7886	12,285
81618	13,691	-0,9987	12,146	9,1905
81619	13,49	-0,99468	11,431	9,2609
81620	13,926	-0,49996	11,679	9,3468
81621	10,637	-0,98269	9,3733	8,7875
81622	10,394	-0,98436	8,7227	8,831
81623	10,843	-0,49186	8,9526	8,9434
81624	13,026	-0,99383	12,352	8,9955
81625	13,229	-0,99444	13,038	8,9608
81626	13,457	-0,49874	12,612	9,0786
81627	13,938	-0,94414	3,3486	11,569
81628	14,574	-0,94042	3,1043	11,958
81629	14,413	-0,47249	3,5147	11,816
81630	15,812	-0,95306	2,4853	12,807
81631	15,208	-0,94356	2,8142	12,396
81632	15,683	-0,47563	2,9343	12,687
81633	13,627	-0,93427	2,8008	11,504
81634	13,025	-0,94507	2,9501	11,169
81635	13,462	-0,47165	3,1826	11,376
81636	16,039	-0,95687	1,5537	13,1
81637	15,477	-0,94302	1,9334	12,722
81638	15,941	-0,47743	2,0363	13,03
81639	14,263	-0,93055	2,5565	11,904
81640	14,874	-0,93353	2,2622	12,292
81641	14,734	-0,46794	2,694	12,176
81642	15,666	-0,94153	0,98558	12,955
81643	16,262	-0,95522	0,52401	13,324
81644	16,137	-0,47943	1,071	13,282
81645	12,621	-0,99796	10,954	9,1095
81646	12,825	-0,98981	11,638	9,0578
81647	13,06	-0,49473	11,186	9,2117
81648	13,934	-0,91388	2,0353	11,794
81649	13,377	-0,92331	2,1669	11,479
81650	13,792	-0,46262	2,419	11,692
81651	11,748	-0,99821	10,495	8,9316
81652	11,957	-0,99831	11,169	8,8906
81653	12,188	-0,50324	10,726	9,0404
81654	12,161	-0,99016	11,853	8,8469
81655	12,366	-0,98884	12,53	8,8245
81656	12,6	-0,49509	12,093	8,9466
81657	10,87	-0,9858	10,031	8,7441
81658	11,087	-0,98447	10,702	8,7088
81659	11,307	-0,49497	10,273	8,8514
81660	14,544	-0,91685	1,741	12,196
81661	15,104	-0,92769	1,3653	12,554
81662	15,013	-0,46559	1,8304	12,491
81663	11,296	-0,98457	11,376	8,6749
81664	11,498	-0,98633	12,048	8,6582
81665	11,731	-0,49507	11,614	8,7797
81666	10,215	-0,97616	10,222	8,5236
81667	9,9978	-0,98061	9,5594	8,5599
81668	10,432	-0,49083	9,8015	8,6624
81669	15,18	-0,98593	14,682	9,0292
81670	15,386	-0,98774	15,355	8,9601
81671	15,616	-0,49288	14,926	9,0468
81672	14,222	-0,89923	1,2188	12,05
81673	13,664	-0,89973	1,4546	11,725
81674	14,075	-0,45126	1,6516	11,962
81675	10,637	-0,97745	11,562	8,4793
81676	10,432	-0,97483	10,892	8,494
81677	10,866	-0,4895	11,138	8,5988
81678	14,306	-0,98856	14,197	9,
81679	14,512	-0,98806	14,869	8,9573
81680	14,743	-0,49305	14,437	9,0465
81681	14,925	-0,98918	16,214	8,8514
81682	14,719	-0,98987	15,543	8,8938
81683	15,155	-0,49486	15,787	8,9125
81684	14,782	-0,91006	0,84304	12,427
81685	15,264	-0,93838	0,40869	12,717
81686	15,186	-0,4621	0,91654	12,702
81687	13,435	-0,9912	13,711	8,9184
81688	13,64	-0,98845	14,385	8,897
81689	13,87	-0,49551	13,958	8,9866
81690	14,462	-0,99097	17,078	8,789
81691	14,257	-0,99091	16,404	8,8072
81692	14,694	-0,49432	16,645	8,8267
81693	14,03	-0,8886	0,7359	11,99
81694	14,349	-0,90454	0,36951	12,172
81695	14,369	-0,44797	0,78596	12,213
81696	12,569	-0,98944	13,216	8,7964
81697	12,771	-0,99161	13,893	8,7904
81698	12,999	-0,49569	13,467	8,8812
81699	13,472	-0,8891	0,97171	11,654
81700	13,553	-0,88683	0,35006	11,726
81701	13,687	-0,44064	0,68537	11,82
81702	13,999	-0,99167	17,944	8,7706
81703	13,796	-0,9915	17,266	8,7664
81704	14,234	-0,49665	17,51	8,7857
81705	13,107	-0,90915	1,5862	11,404
81706	13,02	-0,90209	0,87784	11,41
81707	13,253	-0,44846	1,2576	11,541
81708	11,703	-0,98501	12,725	8,6429
81709	11,906	-0,98498	13,396	8,6486
81710	12,137	-0,49375	12,968	8,7407
81711	12,774	-0,93411	2,3162	11,139
81712	12,49	-0,92883	1,5434	11,094
81713	12,923	-0,46069	1,9393	11,297
81714	13,846	-0,98796	15,058	8,8604
81715	14,051	-0,9916	15,732	8,8441
81716	14,282	-0,49501	15,301	8,9069
81717	12,397	-0,96066	3,1501	10,819
81718	12,16	-0,9499	2,524	10,819
81719	12,573	-0,47342	2,7511	10,999
81720	10,839	-0,9792	12,234	8,4691
81721	11,04	-0,98026	12,906	8,4797
81722	11,27	-0,49126	12,482	8,5725
81723	12,975	-0,98887	14,568	8,7755
81724	13,18	-0,98949	15,243	8,781
81725	13,411	-0,49295	14,814	8,8447
81726	11,992	-0,97332	3,9939	10,475
81727	11,768	-0,97256	3,3379	10,504
81728	12,195	-0,48724	3,5898	10,669
81729	10,18	-0,97408	12,404	8,2979
81730	9,9796	-0,97286	11,733	8,2876
81731	10,407	-0,48795	11,986	8,3911
81732	11,57	-0,97899	4,8059	10,122
81733	11,329	-0,9771	4,159	10,158
81734	11,776	-0,48608	4,4052	10,316
81735	13,538	-0,99007	18,809	8,7934
81736	13,334	-0,98889	18,13	8,7689
81737	13,769	-0,49503	18,376	8,7876
81738	11,161	-0,99033	5,6089	9,7799
81739	10,876	-0,99322	4,9738	9,8131
81740	11,363	-0,49291	5,2065	9,9686
81741	12,872	-0,9913	18,993	8,8116
81742	13,074	-0,99002	19,675	8,8545
81743	13,306	-0,49504	19,241	8,8293
81744	12,108	-0,98715	14,073	8,6493
81745	12,311	-0,99262	14,75	8,6711
81746	12,541	-0,49592	14,322	8,7356
81747	10,777	-0,99431	6,4156	9,4543
81748	10,456	-1,0058	5,7822	9,4805
81749	10,958	-0,49742	6,0113	9,6286
81750	13,385	-0,99313	15,917	8,7707
81751	13,591	-0,99144	16,592	8,7793
81752	13,822	-0,49658	16,162	8,8176
81753	10,448	-0,98696	7,2413	9,1549
81754	10,078	-1,0066	6,614	9,1688
81755	10,596	-0,4969	6,8198	9,3142
81756	11,243	-0,98023	13,577	8,4921
81757	11,446	-0,98764	14,251	8,5252
81758	11,676	-0,49123	13,823	8,5906
81759	12,722	-0,98919	16,101	8,7141
81760	12,516	-0,99325	15,425	8,683
81761	12,952	-0,49655	15,671	8,7527
81762	10,381	-0,97514	13,077	8,3146
81763	10,583	-0,98615	13,753	8,3532
81764	10,81	-0,489	13,331	8,4189
81765	12,927	-0,98749	16,776	8,7285
81766	13,13	-0,98871	17,452	8,7598
81767	13,363	-0,49485	17,021	8,775
81768	10,122	-0,98257	8,0793	8,8716
81769	9,791	-0,98883	7,4258	8,9007
81770	10,299	-0,49007	7,6627	9,0282
81771	12,263	-0,98874	16,958	8,6936
81772	12,06	-0,98391	16,28	8,6394
81773	12,493	-0,49264	16,531	8,7087
81774	15,859	-0,95206	-5,2875e-002	13,116
81775	16,304	-0,95762	-0,5893	13,349
81776	16,387	-0,47578	-2,3e-002	13,492
81777	12,668	-0,99011	18,315	8,7826
81778	12,466	-0,98996	17,635	8,7304
81779	12,899	-0,49386	17,884	8,7763
81780	14,83	-0,93286	-6,4847e-002	12,483
81781	15,271	-0,93975	-0,53758	12,72
81782	15,332	-0,47628	-8,275e-002	12,826
81783	12,006	-0,99157	18,494	8,7741
81784	12,208	-0,99002	19,176	8,845
81785	12,436	-0,49625	18,746	8,8188
81786	9,5627	-0,96801	10,393	8,3135
81787	9,7748	-0,97024	11,063	8,2969
81788	9,9979	-0,48533	10,646	8,4143
81789	9,7279	-0,98316	13,243	8,1669
81790	9,5289	-0,96963	12,563	8,1296
81791	9,9516	-0,48613	12,822	8,2339
81792	9,7544	-0,98228	8,9088	8,5994
81793	9,4922	-0,9919	8,263	8,6398
81794	9,9555	-0,4925	8,4998	8,7475
81795	11,804	-0,99142	17,815	8,7168
81796	11,603	-0,99088	17,135	8,6409
81797	12,034	-0,4961	17,385	8,7096
81798	9,3456	-0,97246	9,7311	8,3458
81799	9,1351	-0,97128	9,0802	8,3879
81800	9,5627	-0,48978	9,3267	8,4804
81801	11,346	-0,9893	18,673	8,781
81802	11,146	-0,99036	17,99	8,6857
81803	11,578	-0,49531	18,243	8,7533
81804	8,9141	-0,96654	10,543	8,1222
81805	8,6946	-0,96747	9,8644	8,1466
81806	9,1276	-0,48268	10,14	8,236
81807	9,161	-0,99816	7,6094	8,6669
81808	9,421	-1,0085	6,7985	8,9132
81809	8,7707	-0,99467	7,0297	8,6714
81810	9,2828	-0,49876	7,1888	8,8004
81811	8,691	-0,9908	7,8618	8,4832
81812	8,8729	-0,98089	8,4344	8,4259
81813	9,0952	-0,4994	8,0256	8,5764
81814	13,872	-0,90277	-1,6331e-002	11,922
81815	14,285	-0,92123	-0,47898	12,131
81816	14,349	-0,45658	-6,9853e-002	12,222
81817	12,41	-0,98874	19,858	8,892
81818	12,614	-0,98981	20,544	8,9512
81819	12,842	-0,49498	20,109	8,9081
81820	13,102	-0,89982	0,2562	11,487
81821	13,308	-0,90177	-0,37853	11,591
81822	13,415	-0,44619	1,4281e-002	11,686
81823	11,548	-0,98776	19,355	8,8566
81824	11,748	-0,98736	20,041	8,9446
81825	11,978	-0,49377	19,607	8,8995
81826	8,1113	-0,98342	7,9459	8,3082
81827	8,3007	-0,9873	7,282	8,4833
81828	8,3427	-0,4914	7,6934	8,4265
81829	10,889	-0,98606	19,532	8,8835
81830	10,69	-0,98634	18,846	8,7704
81831	11,12	-0,49399	19,103	8,8368
81832	9,7561	-1,0181	5,9807	9,193
81833	9,0525	-1,0246	6,1435	8,9368
81834	9,5592	-0,50971	6,4083	9,0514
81835	11,952	-0,98843	20,727	9,0073
81836	12,149	-0,98946	21,409	9,081
81837	12,387	-0,49484	20,979	9,021
81838	10,171	-1,0087	5,1471	9,5121
81839	9,4603	-1,0289	5,3197	9,236
81840	9,953	-0,50839	5,5532	9,3644
81841	11,089	-0,98566	20,219	8,9756
81842	11,286	-0,9876	20,903	9,0778
81843	11,517	-0,49359	20,474	9,0164
81844	10,635	-0,99133	4,3269	9,8469
81845	9,9483	-1,0085	4,4587	9,5715
81846	10,389	-0,5003	4,7411	9,6899
81847	11,649	-0,99312	14,928	8,5536
81848	11,854	-0,98797	15,604	8,6021
81849	12,082	-0,4967	15,175	8,6407
81850	10,233	-0,98628	19,703	8,8922
81851	10,433	-0,98375	20,39	9,0207
81852	10,661	-0,49207	19,963	8,9568
81853	10,787	-0,99356	14,427	8,3929
81854	10,993	-0,9859	15,1	8,4536
81855	11,214	-0,49641	14,675	8,4915
81856	11,104	-0,97635	3,5029	10,184
81857	10,416	-0,98708	3,6527	9,8882
81858	10,86	-0,49103	3,9279	10,028
81859	9,9305	-0,99418	13,92	8,2118
81860	10,132	-0,99408	14,596	8,2778
81861	10,355	-0,49715	14,172	8,3171
81862	11,198	-0,98076	15,776	8,5084
81863	11,4	-0,98605	16,456	8,5808
81864	11,627	-0,49127	16,03	8,5953
81865	11,531	-0,96181	2,7118	10,498
81866	10,885	-0,96963	2,8623	10,202
81867	11,313	-0,48532	3,1344	10,356
81868	10,339	-0,98641	15,27	8,3449
81869	10,545	-0,97882	15,948	8,4309
81870	10,77	-0,48948	15,522	8,4453
81871	9,0832	-0,99452	13,402	8,021
81872	9,2813	-0,99362	14,082	8,0868
81873	9,5041	-0,49703	13,663	8,128
81874	9,1262	-0,96876	11,213	8,1092
81875	9,3289	-0,9684	11,892	8,1141
81876	9,5518	-0,48491	11,481	8,2074
81877	11,876	-0,94462	1,7512	10,765
81878	11,34	-0,95171	2,0334	10,505
81879	11,733	-0,47648	2,3305	10,666
81880	8,489	-0,96608	11,359	7,9394
81881	8,2689	-0,97077	10,664	7,9423
81882	8,7007	-0,48385	10,946	8,0328
81883	9,4828	-0,99351	14,758	8,159
81884	9,6879	-0,98413	15,435	8,2524
81885	9,9067	-0,49692	15,018	8,2666
81886	8,8842	-0,98099	12,722	7,978
81887	8,6917	-0,96572	12,038	7,9484
81888	9,1061	-0,48349	12,304	8,0471
81889	12,404	-0,92177	0,83503	11,105
81890	12,596	-0,91737	8,307e-002	11,215
81891	12,73	-0,45363	0,50129	11,309
81892	8,2481	-0,99337	12,871	7,8317
81893	8,4416	-0,99379	13,556	7,8909
81894	8,6678	-0,4975	13,141	7,9358
81895	11,629	-0,94187	1,1645	10,719
81896	11,82	-0,93408	0,61674	10,819
81897	12,019	-0,46814	1,1719	10,921
81898	8,0556	-0,9781	12,187	7,7972
81899	7,8638	-0,96639	11,488	7,7799
81900	8,2772	-0,48222	11,772	7,8698
81901	8,6398	-0,99288	14,235	7,9624
81902	8,8353	-0,98122	14,918	8,056
81903	9,0624	-0,49659	14,5	8,073
81904	8,4841	-0,96628	9,2136	8,1872
81905	8,2933	-0,97352	8,5186	8,2502
81906	8,7066	-0,4815	8,8388	8,3166
81907	7,6148	-0,99155	13,015	7,7006
81908	7,425	-0,99229	12,326	7,6534
81909	7,8421	-0,49588	12,601	7,7497
81910	7,8083	-0,99197	13,7	7,7649
81911	8,005	-0,9784	14,383	7,854
81912	8,2241	-0,49629	13,971	7,8725
81913	8,0493	-0,97171	9,985	7,9651
81914	7,8259	-0,98055	9,2926	8,0036
81915	8,2615	-0,48479	9,5884	8,0792
81916	6,9903	-0,99219	13,153	7,5766
81917	7,1821	-0,97561	13,839	7,6544
81918	7,4054	-0,49568	13,427	7,6777
81919	7,6438	-0,97108	10,793	7,7801
81920	7,4052	-0,98318	10,102	7,7938
81921	7,8371	-0,48692	10,382	7,8724
81922	10,945	-0,98983	17,31	8,6043
81923	10,746	-0,98411	16,628	8,5095
81924	11,175	-0,49478	16,882	8,5963
81925	7,2332	-0,98058	11,628	7,632
81926	7,0236	-0,97489	10,917	7,6278
81927	7,4505	-0,48416	11,204	7,7089
81928	10,296	-0,98436	17,48	8,555
81929	10,491	-0,9874	18,163	8,67
81930	10,719	-0,49505	17,738	8,641
81931	6,6613	-0,97778	11,78	7,5045
81932	6,8005	-0,99293	12,464	7,525
81933	7,0327	-0,49642	12,051	7,5802
81934	11,093	-0,94895	1,4467	10,449
81935	11,075	-0,94571	0,85871	10,476
81936	11,253	-0,47372	1,1674	10,555
81937	10,097	-0,97864	16,798	8,4544
81938	9,894	-0,97654	16,114	8,3447
81939	10,319	-0,48933	16,373	8,4452
81940	10,694	-0,95954	2,1839	10,206
81941	10,572	-0,95265	1,4521	10,233
81942	10,925	-0,47523	1,7876	10,368
81943	9,4471	-0,97665	16,964	8,39
81944	9,6444	-0,98014	17,647	8,5205
81945	9,8745	-0,48931	17,223	8,4907
81946	10,197	-0,98036	3,012	9,9044
81947	10,061	-0,97461	2,2938	9,9491
81948	10,442	-0,4843	2,6315	10,07
81949	7,6351	-0,98778	8,5975	8,0678
81950	7,5106	-0,99577	7,9132	8,1581
81951	7,8799	-0,49202	8,1983	8,2067
81952	9,2443	-0,97455	16,28	8,2743
81953	9,0405	-0,97184	15,595	8,1554
81954	9,4688	-0,48721	15,854	8,2651
81955	7,1818	-0,99203	9,4095	7,8317
81956	6,9734	-1,0026	8,7056	7,8921
81957	7,3902	-0,49576	8,9967	7,9488
81958	8,5987	-0,97223	16,439	8,1987
81959	8,7953	-0,97439	17,128	8,3405
81960	9,0197	-0,48734	16,706	8,3094
81961	9,7296	-1,0042	3,7844	9,6121
81962	9,5449	-1,0003	3,0709	9,6622
81963	9,9519	-0,49605	3,3925	9,7721
81964	6,7851	-0,98699	10,226	7,6402
81965	6,5144	-1,0004	9,5475	7,6644
81966	6,9632	-0,49627	9,8078	7,7336
81967	9,2374	-1,0287	4,6313	9,2939
81968	9,0747	-1,0224	3,8668	9,3812
81969	9,483	-0,50817	4,1888	9,4725
81970	10,034	-0,98657	19,016	8,7747
81971	9,8391	-0,98319	18,33	8,6408
81972	10,266	-0,49236	18,592	8,7267
81973	8,7567	-1,0355	5,4825	8,9796
81974	8,5157	-1,05	4,7525	9,0498
81975	8,9676	-0,52055	5,0863	9,1346
81976	9,3832	-0,98453	19,18	8,765
81977	9,5798	-0,98408	19,869	8,9155
81978	9,8044	-0,49422	19,443	8,849
81979	6,4518	-0,97209	11,069	7,4963
81980	6,1423	-0,99293	10,393	7,4894
81981	6,5968	-0,49073	10,629	7,565
81982	8,2006	-0,96673	15,066	7,9533
81983	8,3949	-0,96952	15,754	8,074
81984	8,6121	-0,48463	15,336	8,0652
81985	6,0443	-0,98422	11,913	7,3812
81986	5,8297	-0,97404	11,249	7,3638
81987	6,3067	-0,48136	11,509	7,4475
81988	6,1835	-0,99937	12,597	7,406
81989	6,369	-0,97464	13,283	7,4668
81990	6,5959	-0,49651	12,878	7,496
81991	7,3788	-0,96204	14,523	7,7486
81992	7,5685	-0,96462	15,211	7,8652
81993	7,7891	-0,48211	14,796	7,8595
81994	5,5672	-0,98013	12,721	7,3004
81995	5,3988	-1,0134	12,05	7,2624
81996	5,7962	-0,50286	12,316	7,336
81997	7,7628	-0,9674	15,899	7,9914
81998	7,9564	-0,96967	16,588	8,1374
81999	8,1778	-0,48489	16,172	8,1069
82000	6,5608	-0,95806	13,969	7,5489
82001	6,7444	-0,96047	14,659	7,6556
82002	6,9686	-0,47993	14,25	7,6546
82003	6,9341	-0,96304	15,347	7,7773
82004	7,1302	-0,965	16,038	7,9224
82005	7,3479	-0,48251	15,626	7,8935
82006	5,7528	-0,9554	13,406	7,3647
82007	5,9289	-0,95717	14,094	7,4552
82008	6,153	-0,47813	13,688	7,4592
82009	8,9926	-0,97789	17,81	8,4765
82010	9,1882	-0,98115	18,494	8,6264
82011	9,4182	-0,49084	18,072	8,5769
82012	5,1274	-0,9564	13,522	7,2742
82013	4,9465	-0,96908	12,833	7,2026
82014	5,3525	-0,47727	13,125	7,285
82015	8,4022	-1,0108	6,3747	8,6926
82016	8,0509	-1,0373	5,5683	8,7621
82017	8,5196	-0,51492	5,8879	8,8387
82018	8,3497	-0,97359	17,966	8,4473
82019	8,1529	-0,97183	17,277	8,2845
82020	8,5708	-0,48705	17,55	8,3963
82021	8,5454	-0,97685	18,65	8,602
82022	8,7359	-0,97825	19,341	8,7701
82023	8,9606	-0,49031	18,919	8,7017
82024	6,1125	-0,95958	14,785	7,5662
82025	6,3052	-0,96107	15,478	7,7037
82026	6,5202	-0,48053	15,068	7,6775
82027	7,7115	-0,97087	18,11	8,4101
82028	7,903	-0,97249	18,803	8,5915
82029	8,1286	-0,48654	18,383	8,5217
82030	5,3036	-0,95817	14,21	7,3683
82031	5,49	-0,95832	14,908	7,492
82032	5,7048	-0,47904	14,501	7,4704
82033	11,483	-0,98864	21,585	9,1544
82034	11,678	-0,98894	22,272	9,2417
82035	11,911	-0,49463	21,839	9,1665
82036	4,498	-0,96522	13,622	7,1906
82037	4,6852	-0,95858	14,322	7,2957
82038	4,9023	-0,47913	13,92	7,2807
82039	10,826	-0,98689	21,761	9,2418
82040	10,629	-0,9857	21,074	9,1263
82041	11,055	-0,49401	21,332	9,1647
82042	11,021	-0,98719	22,448	9,3315
82043	11,216	-0,98819	23,136	9,4303
82044	11,445	-0,49431	22,705	9,3414
82045	7,3237	-0,96727	16,728	8,0735
82046	7,5147	-0,9691	17,421	8,2425
82047	7,735	-0,48478	17,005	8,191
82048	7,6999	-0,99965	7,2494	8,3349
82049	7,6188	-1,0111	6,4886	8,4629
82050	8,1402	-0,4959	6,8287	8,5397
82051	6,691	-0,96435	16,865	8,0236
82052	6,5013	-0,96302	16,169	7,8535
82053	6,9125	-0,48249	16,451	7,9731
82054	10,169	-0,98411	21,936	9,3084
82055	10,365	-0,98687	22,622	9,4351
82056	10,596	-0,49288	22,192	9,3434
82057	10,759	-0,98725	24,001	9,6448
82058	10,56	-0,98786	23,31	9,5356
82059	10,987	-0,49387	23,568	9,5427
82060	9,7795	-0,98156	20,556	9,0476
82061	9,9732	-0,98292	21,249	9,19
82062	10,204	-0,49169	20,818	9,1095
82063	10,103	-0,98723	24,173	9,7653
82064	10,301	-0,98619	24,867	9,885
82065	10,531	-0,49337	24,434	9,7698
82066	8,9324	-0,97781	20,03	8,9246
82067	9,1302	-0,97922	20,72	9,0889
82068	9,3551	-0,48987	20,295	9,0065
82069	9,3239	-0,98058	21,413	9,2344
82070	9,5154	-0,98205	22,106	9,3885
82071	9,7425	-0,49124	21,68	9,2946
82072	8,2879	-0,97529	20,188	8,9474
82073	8,0935	-0,97389	19,494	8,7638
82074	8,5097	-0,48794	19,766	8,8626
82075	6,8489	-1,0106	8,0212	7,9822
82076	6,7468	-1,0196	7,288	8,0964
82077	7,1215	-0,50375	7,5868	8,1316
82078	8,4857	-0,9767	20,878	9,115
82079	8,6773	-0,97813	21,572	9,2921
82080	8,9052	-0,48935	21,146	9,1948
82081	6,306	-1,011	8,8436	7,724
82082	6,1373	-1,0234	8,1076	7,8142
82083	6,5422	-0,50684	8,4011	7,8528
82084	7,0724	-0,96781	18,254	8,3873
82085	6,882	-0,96619	17,558	8,1974
82086	7,2944	-0,48432	17,836	8,3163
82087	7,6493	-0,97257	20,336	8,958
82088	7,8447	-0,97401	21,032	9,1544
82089	8,0662	-0,48735	20,609	9,055
82090	5,8716	-1,0063	9,7149	7,5119
82091	5,6013	-1,0202	8,9811	7,5644
82092	6,0315	-0,50413	9,2508	7,6107
82093	7,2639	-0,96944	18,947	8,573
82094	7,4549	-0,97116	19,643	8,771
82095	7,6774	-0,48595	19,222	8,6839
82096	5,5203	-0,99488	10,573	7,3546
82097	5,1133	-1,0126	9,9788	7,3436
82098	5,6746	-0,50221	10,105	7,4323
82099	6,4394	-0,96413	18,391	8,3602
82100	6,6283	-0,96596	19,09	8,5683
82101	6,8503	-0,48349	18,672	8,48
82102	6,8193	-0,96769	19,785	8,7697
82103	7,0142	-0,96897	20,48	8,9811
82104	7,2323	-0,48521	20,063	8,8799
82105	6,249	-0,9625	17,695	8,1661
82106	6,0634	-0,96156	16,996	7,9735
82107	6,4696	-0,48186	17,28	8,0953
82108	9,7106	-0,98481	22,791	9,5173
82109	9,904	-0,98785	23,481	9,6551
82110	10,134	-0,49399	23,054	9,5507
82111	5,8144	-0,96661	18,519	8,345
82112	5,6266	-0,96647	17,818	8,1321
82113	6,0284	-0,48063	18,11	8,2574
82114	8,8688	-0,9796	22,265	9,4486
82115	9,0628	-0,98121	22,958	9,6128
82116	9,2882	-0,49082	22,532	9,5056
82117	5,8737	-0,96024	16,3	7,799
82118	5,6826	-0,95981	15,601	7,6336
82119	6,0901	-0,48054	15,887	7,7501
82120	6,0033	-0,96845	19,217	8,5563
82121	6,1938	-0,96388	19,919	8,78
82122	6,4062	-0,48247	19,507	8,6774
82123	5,2552	-0,95807	16,42	7,7467
82124	5,4409	-0,96553	17,119	7,9358
82125	5,6572	-0,4797	16,712	7,8676
82126	5,2013	-0,97196	18,636	8,3264
82127	5,3881	-0,96915	19,339	8,556
82128	5,6047	-0,48598	18,93	8,4533
82129	8,0363	-0,97544	21,726	9,3342
82130	8,222	-0,98071	22,42	9,5214
82131	8,4494	-0,48878	21,998	9,4121
82132	9,2562	-0,98425	23,648	9,752
82133	9,4462	-0,98724	24,34	9,8999
82134	9,6756	-0,49386	23,915	9,7837
82135	5,1842	-1,0032	11,386	7,2427
82136	5,0485	-1,0159	10,846	7,251
82137	5,4398	-0,49268	10,967	7,3132
82138	8,416	-0,98231	23,114	9,6873
82139	8,6052	-0,98421	23,81	9,8617
82140	8,8374	-0,49039	23,385	9,7426
82141	5,0642	-0,95765	15,721	7,5775
82142	4,8716	-0,95873	15,02	7,4229
82143	5,2751	-0,47928	15,314	7,5323
82144	4,7781	-1,0024	12,162	7,1621
82145	4,6116	-0,99846	11,477	7,147
82146	5,0207	-0,51054	11,782	7,2055
82147	4,6388	-0,96368	16,532	7,7062
82148	4,4488	-0,95658	15,832	7,5255
82149	4,8532	-0,47837	16,128	7,6409
82150	4,8246	-0,97114	17,231	7,8984
82151	5,0134	-0,97182	17,934	8,1106
82152	5,2297	-0,48583	17,527	8,0239
82153	4,3171	-0,9779	12,933	7,1168
82154	4,1638	-0,99969	12,237	7,0731
82155	4,5422	-0,49181	12,542	7,1348
82156	4,2156	-0,97375	17,342	7,8745
82157	4,0317	-0,9612	16,638	7,6698
82158	4,4291	-0,48531	16,94	7,7907
82159	4,4044	-0,97443	18,045	8,0892
82160	4,6005	-0,96127	18,754	8,3218
82161	4,8087	-0,48598	18,344	8,2175
82162	3,8765	-0,96872	13,723	7,122
82163	3,6849	-0,97824	13,021	7,0406
82164	4,0918	-0,48609	13,327	7,1145
82165	3,6229	-0,96121	17,444	7,8533
82166	3,8027	-0,9754	18,152	8,0793
82167	4,0183	-0,48844	17,748	7,9782
82168	7,4013	-0,97244	21,874	9,388
82169	7,2096	-0,97042	21,175	9,1802
82170	7,6232	-0,48666	21,454	9,276
82171	7,587	-0,97771	22,569	9,5773
82172	7,7688	-0,98434	23,266	9,7746
82173	7,9952	-0,49192	22,844	9,6535
82174	9,6444	-0,9862	25,035	10,02
82175	9,8379	-0,98505	25,732	10,15
82176	10,071	-0,49282	25,301	10,023
82177	6,768	-0,96926	22,018	9,4291
82178	6,9501	-0,97841	22,714	9,6448
82179	7,1794	-0,48579	22,295	9,5216
82180	4,0637	-0,96207	14,423	7,2294
82181	4,2562	-0,95766	15,131	7,3678
82182	4,4681	-0,47945	14,725	7,3279
82183	6,3887	-0,96517	20,614	8,9939
82184	6,5763	-0,96723	21,319	9,2192
82185	6,7966	-0,48376	20,898	9,1039
82186	3,4431	-0,97107	14,526	7,1776
82187	3,2502	-0,97293	13,818	7,0622
82188	3,6593	-0,48262	14,121	7,1451
82189	5,7621	-0,96719	20,745	9,0184
82190	5,5785	-0,96458	20,041	8,7822
82191	5,9771	-0,48141	20,336	8,9041
82192	5,9497	-0,96925	21,451	9,2458
82193	6,1331	-0,97532	22,153	9,4795
82194	6,3565	-0,48347	21,742	9,3559
82195	8,7952	-0,98721	24,502	10,01
82196	8,9914	-0,98398	25,2	10,168
82197	9,2181	-0,49339	24,77	10,04
82198	3,6356	-0,96665	15,234	7,3182
82199	3,8417	-0,95411	15,938	7,4865
82200	4,0444	-0,47821	15,536	7,4245
82201	8,1492	-0,98226	24,664	10,135
82202	7,958	-0,98623	23,962	9,95
82203	8,3752	-0,49382	24,239	10,004
82204	9,1849	-0,98284	25,897	10,298
82205	9,3748	-0,98392	26,592	10,438
82206	9,6044	-0,49224	26,163	10,3
82207	4,4759	-1,0111	10,937	7,1545
82208	4,6416	-1,0337	10,251	7,2358
82209	4,7282	-0,52322	10,662	7,2153
82210	8,3454	-0,97904	25,363	10,293
82211	8,5408	-0,98013	26,058	10,458
82212	8,7655	-0,4906	25,631	10,319
82213	3,9973	-0,9958	11,552	7,0576
82214	3,9214	-1,0026	10,844	7,0825
82215	4,2075	-0,48792	11,172	7,1034
82216	3,0299	-0,96404	15,332	7,2828
82217	2,8282	-0,96994	14,624	7,135
82218	3,2329	-0,48844	14,93	7,2262
82219	3,236	-0,95149	16,036	7,4527
82220	3,4391	-0,94866	16,74	7,6465
82221	3,639	-0,47589	16,34	7,5649
82222	3,5316	-1,	12,325	6,9953
82223	3,4009	-1,0228	11,616	6,982
82224	3,7699	-0,50787	11,929	7,0229
82225	2,6409	-0,9468	16,132	7,4317
82226	2,4157	-0,9644	15,44	7,2567
82227	2,833	-0,4756	15,733	7,3547
82228	3,0586	-0,98246	13,116	6,9795
82229	2,8536	-0,99263	12,413	6,9251
82230	3,2667	-0,49215	12,707	6,9789
82231	7,511	-0,97431	24,819	10,236
82232	7,7031	-0,97555	25,519	10,428
82233	7,9254	-0,48844	25,095	10,288
82234	7,1319	-0,98503	23,411	9,8435
82235	7,3198	-0,97828	24,117	10,051
82236	7,5457	-0,49241	23,695	9,9194
82237	2,844	-0,94397	16,836	7,6267
82238	3,0355	-0,95034	17,547	7,8443
82239	3,2392	-0,47276	17,141	7,7441
82240	6,5027	-0,9825	23,554	9,9234
82241	6,3152	-0,98447	22,849	9,6966
82242	6,7279	-0,49262	23,137	9,7907
82243	5,3244	-0,97715	21,571	9,2805
82244	5,1438	-0,97265	20,865	9,0338
82245	5,5439	-0,48578	21,163	9,1556
82246	6,6907	-0,97575	24,259	10,132
82247	6,879	-0,97049	24,968	10,348
82248	7,0967	-0,48587	24,544	10,207
82249	2,046	-0,94275	16,23	7,4188
82250	2,2564	-0,94285	16,949	7,6241
82251	2,4488	-0,47121	16,531	7,5236
82252	5,8822	-0,97986	23,687	9,9866
82253	6,0732	-0,97234	24,397	10,222
82254	6,2911	-0,48988	23,976	10,079
82255	5,5078	-0,98322	22,274	9,5155
82256	5,6946	-0,98183	22,982	9,759
82257	5,9154	-0,49185	22,569	9,6252
82258	2,6353	-0,97181	13,916	7,0182
82259	2,3935	-0,98743	13,236	6,9289
82260	2,8411	-0,49031	13,516	6,9931
82261	4,8945	-0,98041	22,397	9,5634
82262	4,7099	-0,98205	21,686	9,3064
82263	5,1104	-0,49137	21,989	9,4288
82264	4,9603	-0,97004	20,161	8,7956
82265	4,7873	-0,95845	19,458	8,5539
82266	5,1785	-0,48317	19,755	8,6806
82267	5,0814	-0,97901	23,105	9,8076
82268	5,2705	-0,97066	23,82	10,06
82269	5,4852	-0,48998	23,402	9,9158
82270	2,2139	-0,9703	14,731	7,1075
82271	2,0196	-0,96568	14,022	6,9859
82272	2,4295	-0,4815	14,316	7,0576
82273	4,2867	-0,98171	22,509	9,5992
82274	4,4775	-0,96839	23,229	9,8659
82275	4,6908	-0,48904	22,814	9,7209
82276	4,5293	-0,97755	20,98	9,0584
82277	4,3592	-0,9611	20,277	8,8057
82278	4,7486	-0,48687	20,576	8,9329
82279	3,9988	-0,96224	18,861	8,3138
82280	4,1862	-0,94951	19,574	8,562
82281	4,3989	-0,47529	19,166	8,445
82282	4,102	-0,98335	21,797	9,3416
82283	3,9248	-0,98042	21,084	9,0761
82284	4,3195	-0,49068	21,394	9,2069
82285	1,8208	-0,96035	15,537	7,2436
82286	1,5963	-0,9728	14,86	7,0945
82287	2,0083	-0,4888	15,135	7,1709
82288	3,4973	-0,99024	21,895	9,3664
82289	3,6846	-0,9817	22,615	9,6419
82290	3,8952	-0,49267	22,21	9,4991
82291	1,4832	-0,93403	16,383	7,4338
82292	1,1556	-0,94784	15,642	7,2381
82293	1,6432	-0,47154	15,928	7,328
82294	3,2152	-0,96453	18,255	8,0721
82295	3,3952	-0,97257	18,96	8,3145
82296	3,6116	-0,48695	18,559	8,2002
82297	3,5826	-0,95984	19,673	8,564
82298	3,7546	-0,96397	20,381	8,8222
82299	3,9735	-0,47423	19,982	8,697
82300	2,4479	-0,94923	17,66	7,8431
82301	2,6476	-0,9408	18,353	8,0752
82302	2,8385	-0,47758	17,952	7,9609
82303	2,8275	-0,94883	19,059	8,3186
82304	2,981	-0,97609	19,763	8,5729
82305	3,2032	-0,48561	19,368	8,4492
82306	1,6936	-0,93413	17,102	7,6412
82307	1,8976	-0,92467	17,766	7,852
82308	2,0662	-0,47164	17,348	7,7347
82309	2,0973	-0,91625	18,459	8,0846
82310	2,2469	-0,93713	19,141	8,3258
82311	2,4633	-0,46322	18,753	8,2051
82312	3,153	-0,98022	20,471	8,8318
82313	3,32	-0,98731	21,182	9,1005
82314	3,5444	-0,48974	20,787	8,9679
82315	1,1474	-0,91459	17,25	7,6688
82316	0,98443	-0,92615	16,625	7,4828
82317	1,3458	-0,46249	16,8	7,5452
82318	2,4003	-0,9644	19,845	8,5807
82319	2,554	-0,98703	20,554	8,8482
82320	2,7837	-0,49048	20,168	8,7185
82321	1,3514	-0,90513	17,913	7,8805
82322	1,5316	-0,9025	18,541	8,0959
82323	1,7312	-0,45303	18,165	7,9789
82324	2,721	-0,99412	21,265	9,117
82325	2,898	-0,99174	21,986	9,398
82326	3,1121	-0,49757	21,592	9,2575
82327	1,6812	-0,92338	19,223	8,3375
82328	1,8294	-0,93886	19,924	8,5961
82329	2,0495	-0,47392	19,538	8,4665
82330	0,76856	-0,91692	18,058	7,9147
82331	0,73225	-0,89816	17,477	7,7289
82332	1,0041	-0,4521	17,66	7,7955
82333	1,9831	-0,9615	20,633	8,8637
82334	2,1163	-0,99109	21,34	9,1384
82335	2,3484	-0,49655	20,957	9,0023
82336	0,94867	-0,91428	18,686	8,1304
82337	1,1211	-0,92275	19,29	8,3496
82338	1,3319	-0,44947	18,918	8,2268
82339	1,2694	-0,93823	19,99	8,6079
82340	1,3719	-0,96036	20,663	8,8668
82341	1,6284	-0,46495	20,319	8,7461
82342	0,37698	-0,93919	18,816	8,1694
82343	0,18064	-0,90994	18,211	7,9589
82344	0,54557	-0,46481	18,389	8,0268
82345	0,54943	-0,94766	19,42	8,3883
82346	0,67347	-0,96647	19,963	8,5916
82347	0,92632	-0,47328	19,651	8,4833
82348	8,1508e-002	-0,96736	19,449	8,3987
82349	-0,32281	-0,93463	18,991	8,2328
82350	0,19837	-0,47437	19,057	8,2604
82351	0,20555	-0,98617	19,992	8,6009
82352	-0,29728	-0,98132	19,834	8,5414
82353	-1,4435e-002	-0,49299	19,696	8,494
82354	0,77595	-0,9886	20,636	8,8489
82355	0,15555	-0,96618	20,515	8,7996
82356	0,46688	-0,49319	20,282	8,7178
82357	1,5051	-0,98995	21,37	9,1406
82358	0,8335	-0,97098	21,424	9,1584
82359	1,1265	-0,49542	21,029	9,0126
82360	2,2932	-0,98871	22,062	9,4188
82361	1,7128	-0,9808	22,16	9,4562
82362	1,8994	-0,49454	21,736	9,2971
82363	8,7307	-0,98122	26,753	10,598
82364	8,9177	-0,98263	27,453	10,75
82365	9,1452	-0,49169	27,021	10,599
82366	3,0854	-0,9832	22,706	9,6732
82367	2,5007	-0,97733	22,799	9,7118
82368	2,6982	-0,49417	22,394	9,562
82369	7,8985	-0,97664	26,215	10,593
82370	8,0889	-0,97787	26,915	10,771
82371	8,3162	-0,48953	26,485	10,619
82372	3,8754	-0,96837	23,335	9,9085
82373	3,2803	-0,96908	23,437	9,958
82374	3,4875	-0,48902	23,03	9,8081
82375	7,071	-0,97174	25,668	10,54
82376	7,2628	-0,97293	26,369	10,74
82377	7,4807	-0,48711	25,944	10,59
82378	4,6666	-0,96004	23,944	10,118
82379	4,0613	-0,95835	24,058	10,182
82380	4,2718	-0,47935	23,646	10,031
82381	6,2614	-0,96708	25,105	10,438
82382	6,4453	-0,96817	25,811	10,661
82383	6,6612	-0,48463	25,391	10,511
82384	5,4615	-0,96314	24,53	10,295
82385	4,8494	-0,96064	24,654	10,375
82386	5,0613	-0,48069	24,241	10,226
82387	5,6425	-0,96403	25,239	10,537
82388	5,8616	-0,48246	24,819	10,386
82389	8,2759	-0,97927	27,615	10,921
82390	8,4612	-0,98082	28,317	11,086
82391	8,6902	-0,49094	27,885	10,922
82392	7,6407	-0,97552	27,771	11,104
82393	7,4532	-0,97415	27,069	10,916
82394	7,8616	-0,48834	27,345	10,944
82395	7,826	-0,97706	28,474	11,267
82396	8,0083	-0,97891	29,179	11,446
82397	8,2321	-0,48988	28,749	11,272
82398	7,1982	-0,97363	28,625	11,459
82399	7,0145	-0,97204	27,918	11,257
82400	7,4198	-0,48719	28,198	11,287
82401	7,3805	-0,97547	29,331	11,635
82402	7,5567	-0,97775	30,043	11,834
82403	7,7846	-0,48903	29,609	11,644
82404	6,6371	-0,96935	26,512	10,86
82405	6,8271	-0,97066	27,216	11,07
82406	7,0448	-0,48581	26,793	10,912
82407	6,7562	-0,97251	29,481	11,837
82408	6,5762	-0,9708	28,768	11,619
82409	6,9765	-0,48644	29,052	11,654
82410	6,9323	-0,97478	30,193	12,033
82411	7,1047	-0,97763	30,909	12,253
82412	7,3288	-0,48872	30,477	12,049
82413	5,8264	-0,96511	25,945	10,759
82414	6,0173	-0,9664	26,649	10,988
82415	6,2294	-0,48354	26,231	10,832
82416	6,3147	-0,97169	30,342	12,242
82417	6,1402	-0,96998	29,622	12,003
82418	6,5359	-0,48606	29,91	12,045
82419	6,4871	-0,97454	31,058	12,458
82420	6,6518	-0,97834	31,779	12,707
82421	6,8806	-0,48891	31,342	12,484
82422	5,211	-0,96264	26,074	10,865
82423	5,0305	-0,96153	25,363	10,616
82424	5,4234	-0,48158	25,659	10,709
82425	5,8723	-0,97037	31,207	12,675
82426	5,698	-0,97037	30,477	12,412
82427	6,0936	-0,48563	30,773	12,465
82428	6,3926	-0,9692	28,061	11,419
82429	6,2072	-0,96771	27,353	11,197
82430	6,6093	-0,48485	27,638	11,251
82431	6,0371	-0,97418	31,928	12,919
82432	6,1856	-0,97967	32,651	13,202
82433	6,4231	-0,48943	32,216	12,959
82434	5,9602	-0,96827	28,909	11,788
82435	5,7737	-0,96692	28,196	11,553
82436	6,1759	-0,48435	28,484	11,61
82437	5,5883	-0,96542	27,488	11,333
82438	5,4019	-0,96392	26,779	11,093
82439	5,8052	-0,48286	27,068	11,167
82440	5,5234	-0,96866	29,757	12,177
82441	5,3485	-0,96611	29,038	11,925
82442	5,7445	-0,48392	29,334	11,989
82443	5,162	-0,96475	28,326	11,692
82444	4,9736	-0,96339	27,612	11,442
82445	5,3714	-0,48256	27,909	11,521
82446	5,2661	-0,96577	31,34	12,846
82447	5,4205	-0,96865	32,069	13,137
82448	5,6511	-0,48474	31,641	12,913
82449	5,0917	-0,96577	30,61	12,587
82450	4,9197	-0,96566	29,882	12,315
82451	5,3075	-0,48474	30,183	12,39
82452	4,7447	-0,96311	29,164	12,066
82453	4,5486	-0,96673	28,444	11,804
82454	4,9525	-0,48219	28,743	11,887
82455	4,7872	-0,9619	26,903	11,204
82456	4,6046	-0,9605	26,193	10,949
82457	4,9986	-0,48107	26,49	11,043
82458	4,5029	-0,95805	30,734	12,724
82459	4,6673	-0,95817	31,471	13,018
82460	4,8854	-0,48103	31,041	12,811
82461	4,2441	-0,95896	24,768	10,438
82462	4,424	-0,95939	25,481	10,701
82463	4,6375	-0,47996	25,067	10,545
82464	4,3308	-0,95795	30,006	12,455
82465	4,1317	-0,9641	29,282	12,18
82466	4,5369	-0,48092	29,584	12,27
82467	4,1787	-0,95993	27,017	11,293
82468	4,3602	-0,96537	27,73	11,556
82469	4,5758	-0,48083	27,316	11,388
82470	3,7442	-0,95747	30,141	12,574
82471	3,9521	-0,94787	30,876	12,865
82472	4,1248	-0,47703	30,428	12,666
82473	3,4662	-0,95906	24,16	10,231
82474	3,6402	-0,95908	24,882	10,508
82475	3,8508	-0,47901	24,47	10,352
82476	3,82	-0,95951	25,595	10,771
82477	3,996	-0,95853	26,307	11,039
82478	4,2105	-0,47943	25,896	10,879
82479	2,8759	-0,95933	24,271	10,29
82480	2,6957	-0,96321	23,53	9,9958
82481	3,0816	-0,48006	23,851	10,13
82482	3,0499	-0,95935	24,993	10,566
82483	3,214	-0,95789	25,708	10,846
82484	3,4284	-0,48008	25,295	10,685
82485	3,5752	-0,95752	27,128	11,385
82486	3,39	-0,95691	26,42	11,113
82487	3,7815	-0,4791	26,719	11,221
82488	3,7568	-0,96296	27,841	11,646
82489	3,9356	-0,96772	28,563	11,921
82490	4,1496	-0,48454	28,147	11,747
82491	2,4468	-0,96216	25,117	10,635
82492	2,3014	-0,95921	24,381	10,34
82493	2,6702	-0,47927	24,692	10,469
82494	3,1619	-0,95302	27,947	11,737
82495	2,9688	-0,95516	27,234	11,459
82496	3,3689	-0,47842	27,537	11,57
82497	3,3407	-0,95777	28,668	12,01
82498	3,545	-0,96362	29,417	12,302
82499	3,7323	-0,48318	28,978	12,116
82500	2,611	-0,9607	25,832	10,913
82501	2,7836	-0,95455	26,527	11,189
82502	2,9985	-0,47781	26,122	11,028
82503	2,5382	-0,94608	28,06	11,817
82504	2,748	-0,93446	28,767	12,099
82505	2,955	-0,47459	28,356	11,927
82506	2,9523	-0,94031	29,516	12,388
82507	3,234	-0,94434	30,279	12,69
82508	3,3714	-0,48044	29,836	12,502
82509	1,9883	-0,96594	25,968	10,99
82510	1,8734	-0,95948	25,264	10,703
82511	2,2304	-0,48289	25,545	10,822
82512	2,1609	-0,95979	26,663	11,264
82513	2,3451	-0,94823	27,348	11,541
82514	2,5688	-0,47674	26,932	11,371
82515	1,5082	-0,96002	26,799	11,343
82516	1,3791	-0,96338	26,129	11,066
82517	1,7607	-0,48305	26,397	11,181
82518	1,6924	-0,94846	27,483	11,617
82519	1,9476	-0,92519	28,092	11,863
82520	2,1524	-0,47149	27,734	11,718
82521	2,1574	-0,91356	28,799	12,142
82522	2,1535	-0,89904	29,394	12,394
82523	2,4433	-0,9218	29,729	12,518
82524	2,5411	-0,45987	29,177	12,292
82525	1,0986	-0,94032	27,628	11,696
82526	0,84463	-0,96623	26,995	11,433
82527	1,2633	-0,47697	27,203	11,526
82528	1,3539	-0,91705	28,237	11,939
82529	1,5339	-0,88981	28,737	12,145
82530	1,7738	-0,4537	28,421	12,016
82531	0,85238	-0,91373	28,342	11,999
82532	0,34247	-0,94973	27,93	11,826
82533	0,9093	-0,46335	27,987	11,86
82534	5,5689	-0,97414	32,792	13,415
82535	5,6948	-0,98119	33,507	13,737
82536	5,9481	-0,49023	33,087	13,479
82537	1,0324	-0,88649	28,841	12,202
82538	0,5056	-0,90808	28,77	12,182
82539	0,76301	-0,45037	28,623	12,128
82540	4,8217	-0,96105	32,199	13,305
82541	4,9395	-0,9681	32,919	13,626
82542	5,1898	-0,48391	32,497	13,39
82543	1,53	-0,87528	29,332	12,396
82544	1,0096	-0,87274	29,337	12,412
82545	1,294	-0,43611	29,052	12,296
82546	4,1165	-0,94798	31,613	13,157
82547	4,203	-0,95319	32,313	13,465
82548	4,4536	-0,47714	31,901	13,254
82549	2,0558	-0,90111	29,946	12,631
82550	1,5409	-0,87509	29,944	12,653
82551	1,766	-0,43917	29,611	12,517
82552	3,4419	-0,93473	31,014	12,978
82553	3,5228	-0,93813	31,719	13,281
82554	3,7794	-0,47084	31,324	13,091
82555	2,725	-0,92583	30,493	12,816
82556	2,1457	-0,90818	30,575	12,892
82557	2,3818	-0,46194	30,255	12,754
82558	2,8366	-0,92615	31,105	13,076
82559	3,1044	-0,46389	30,704	12,893
82560	-20,465	-4,0071	3,7511	15,938
82561	-20,139	-4,011	3,1613	15,782
82562	-20,702	-4,5067	3,2356	16,553
82563	-20,157	-4,0031	4,7616	15,099
82564	-19,89	-4,003	4,1203	15,226
82565	-20,336	-4,5005	4,2682	15,688
82566	-19,816	-4,0076	5,7301	14,155
82567	-19,548	-4,0081	5,0893	14,384
82568	-19,984	-4,5027	5,2541	14,683
82569	-19,458	-4,0156	6,6856	13,266
82570	-19,201	-4,0107	6,0435	13,543
82571	-19,635	-4,5049	6,2172	13,741
82572	-19,113	-4,0171	7,61	12,489
82573	-18,843	-4,0156	6,9746	12,761
82574	-19,273	-4,5107	7,1596	12,892
82575	-18,766	-4,0179	8,5087	11,816
82576	-18,484	-4,0241	7,8781	12,071
82577	-18,941	-4,5064	8,0655	12,172
82578	-18,399	-4,0246	9,3925	11,226
82579	-18,121	-4,03	8,7627	11,464
82580	-18,579	-4,5116	8,9569	11,535
82581	-18,024	-4,0213	10,26	10,717
82582	-17,765	-4,0228	9,6303	10,937
82583	-18,219	-4,513	9,8282	10,988
82584	-17,625	-4,015	11,122	10,275
82585	-17,376	-4,0288	10,484	10,475
82586	-17,827	-4,5083	10,688	10,512
82587	-16,976	-4,0271	11,335	10,074
82588	-17,214	-4,021	11,976	9,8994
82589	-17,421	-4,5067	11,546	10,101
82590	-16,086	-4,029	10,919	10,035
82591	-16,327	-4,0398	11,54	9,9009
82592	-16,726	-4,0409	10,696	10,266
82593	-16,531	-4,5204	11,118	10,097
82594	-16,565	-4,0336	12,181	9,733
82595	-16,786	-4,0245	12,828	9,5831
82596	-17,009	-4,5143	12,4	9,7538
82597	-15,437	-4,0267	11,133	9,8292
82598	-15,196	-4,016	10,521	9,9335
82599	-15,832	-4,0349	10,3	10,182
82600	-15,642	-4,5086	10,715	10,021
82601	-15,678	-4,0375	11,753	9,7019
82602	-15,909	-4,0367	12,383	9,5884
82603	-16,122	-4,5193	11,962	9,7561
82604	-16,131	-4,0276	13,029	9,4447
82605	-16,342	-4,0217	13,679	9,3218
82606	-16,571	-4,5103	13,25	9,4635
82607	-15,026	-4,0404	11,958	9,5267
82608	-14,793	-4,0409	11,338	9,6122
82609	-15,237	-4,5181	11,546	9,69
82610	-15,257	-4,0396	12,587	9,4197
82611	-15,472	-4,0323	13,224	9,3278
82612	-15,697	-4,5173	12,803	9,4682
82613	-14,309	-4,022	10,126	9,7873
82614	-14,553	-4,0302	10,726	9,7098
82615	-14,945	-4,0154	9,9126	10,046
82616	-14,755	-4,5074	10,323	9,8913
82617	-14,373	-4,0435	12,154	9,3359
82618	-14,593	-4,0415	12,783	9,2704
82619	-14,818	-4,5222	12,37	9,4094
82620	-13,418	-4,046	9,7406	9,6054
82621	-13,67	-4,0437	10,326	9,5509
82622	-14,049	-4,0247	9,5335	9,8685
82623	-13,869	-4,5146	9,9327	9,724
82624	-15,883	-4,0214	14,524	9,1154
82625	-15,684	-4,0264	13,874	9,2106
82626	-16,12	-4,5114	14,104	9,2274
82627	-14,14	-4,044	11,534	9,4152
82628	-13,914	-4,0519	10,926	9,4795
82629	-14,357	-4,5228	11,134	9,5747
82630	-15,408	-4,019	15,372	8,9589
82631	-15,212	-4,0229	14,713	9,0276
82632	-15,646	-4,51	14,945	9,0452
82633	-13,708	-4,0461	12,34	9,1633
82634	-13,492	-4,0454	11,721	9,2093
82635	-13,934	-4,5212	11,942	9,299
82636	-14,94	-4,0175	16,228	8,8506
82637	-14,735	-4,0202	15,56	8,8933
82638	-15,171	-4,509	15,798	8,9117
82639	-12,54	-4,0749	9,3589	9,4061
82640	-12,797	-4,079	9,9348	9,3671
82641	-13,146	-4,0458	9,1653	9,6585
82642	-12,981	-4,5314	9,5512	9,5266
82643	-11,799	-4,0892	9,0647	9,2252
82644	-11,945	-4,1016	9,5386	9,1748
82645	-12,247	-4,0929	8,8034	9,4344
82646	-12,096	-4,5435	9,1873	9,3114
82647	-14,48	-4,0153	17,082	8,7889
82648	-14,273	-4,0188	16,414	8,8075
82649	-14,709	-4,5085	16,657	8,8261
82650	-11,262	-4,1076	9,0775	9,0467
82651	-11,394	-4,0948	8,5692	9,1891
82652	-11,455	-4,5457	8,9404	9,149
82653	-14,021	-4,0125	17,936	8,7703
82654	-13,815	-4,0153	17,263	8,767
82655	-14,248	-4,5069	17,509	8,7858
82656	-13,05	-4,0766	10,52	9,3182
82657	-13,266	-4,0533	11,113	9,268
82658	-13,481	-4,5291	10,725	9,4218
82659	-13,564	-4,0111	18,792	8,7919
82660	-13,361	-4,0155	18,115	8,7686
82661	-13,792	-4,5056	18,362	8,7869
82662	-12,202	-4,1056	10,114	9,1403
82663	-12,41	-4,0865	10,698	9,0995
82664	-12,624	-4,5475	10,32	9,248
82665	-15,012	-4,0279	14,062	9,1174
82666	-14,808	-4,0342	13,42	9,1846
82667	-15,248	-4,515	13,644	9,2312
82668	-11,408	-4,12	9,5514	8,9942
82669	-11,563	-4,1034	10,242	8,9246
82670	-11,781	-4,5581	9,909	9,0622
82671	-14,538	-4,024	14,902	8,9565
82672	-14,341	-4,0292	14,249	8,9988
82673	-14,777	-4,5128	14,481	9,0443
82674	-13,928	-4,0441	12,969	9,1036
82675	-14,137	-4,0356	13,607	9,0601
82676	-14,369	-4,5192	13,197	9,1731
82677	-13,864	-4,0252	15,082	8,8608
82678	-14,068	-4,0215	15,746	8,8448
82679	-14,299	-4,5112	15,322	8,9068
82680	-13,261	-4,045	13,144	8,9558
82681	-13,051	-4,0468	12,515	8,9805
82682	-13,491	-4,5249	12,745	9,0676
82683	-10,799	-4,1107	9,6221	8,7948
82684	-10,698	-4,1148	9,0229	8,8722
82685	-11,036	-4,5619	9,1938	8,9594
82686	-13,47	-4,0365	13,781	8,9179
82687	-13,667	-4,0304	14,43	8,8974
82688	-13,906	-4,5164	14,017	8,9859
82689	-12,835	-4,0461	11,896	9,0211
82690	-12,626	-4,0631	11,29	9,0543
82691	-13,061	-4,5242	11,507	9,1548
82692	-12,801	-4,0375	13,958	8,7919
82693	-12,599	-4,0439	13,315	8,7948
82694	-13,034	-4,5202	13,545	8,8807
82695	-12,182	-4,0444	12,056	8,8277
82696	-12,388	-4,0457	12,687	8,8139
82697	-12,616	-4,5219	12,294	8,9246
82698	-12,998	-4,0314	14,606	8,7774
82699	-13,197	-4,0266	15,261	8,7825
82700	-13,429	-4,5141	14,842	8,8454
82701	-11,771	-4,0843	10,825	8,8862
82702	-11,973	-4,0613	11,45	8,8564
82703	-12,196	-4,5389	11,076	8,9855
82704	-12,333	-4,0325	14,781	8,6743
82705	-12,136	-4,0378	14,131	8,6526
82706	-12,568	-4,5173	14,37	8,738
82707	-11,124	-4,0807	10,958	8,6854
82708	-10,954	-4,0942	10,312	8,7254
82709	-11,346	-4,5453	10,574	8,8159
82710	-11,326	-4,0578	11,582	8,659
82711	-11,524	-4,042	12,216	8,6491
82712	-11,75	-4,5224	11,824	8,7593
82713	-13,401	-4,0228	15,925	8,7722
82714	-13,609	-4,0187	16,594	8,7805
82715	-13,837	-4,5103	16,17	8,8184
82716	-10,496	-4,0679	11,1	8,4873
82717	-10,676	-4,0657	11,733	8,4739
82718	-10,902	-4,5354	11,342	8,5849
82719	-13,105	-4,0091	19,65	8,8512
82720	-12,908	-4,0153	18,972	8,8097
82721	-13,339	-4,5054	19,22	8,8268
82722	-10,326	-4,0814	10,455	8,5233
82723	-10,187	-4,0948	9,8366	8,5725
82724	-10,562	-4,5488	10,05	8,6614
82725	-12,532	-4,0277	15,436	8,6855
82726	-12,737	-4,0241	16,1	8,7159
82727	-12,965	-4,5125	15,679	8,7542
82728	-9,854	-4,0584	11,247	8,3001
82729	-9,6894	-4,073	10,623	8,3207
82730	-10,09	-4,5325	10,86	8,4141
82731	-11,874	-4,0279	15,612	8,6052
82732	-11,67	-4,0331	14,947	8,5577
82733	-12,099	-4,5152	15,192	8,6434
82734	-12,65	-4,012	20,504	8,9449
82735	-12,445	-4,009	19,829	8,888
82736	-12,884	-4,5037	20,077	8,903
82737	-11,934	-4,0443	13,488	8,6495
82738	-11,731	-4,0433	12,847	8,6404
82739	-12,163	-4,5237	13,085	8,7374
82740	-12,189	-4,0124	21,357	9,0712
82741	-11,992	-4,0143	20,678	8,9992
82742	-12,425	-4,5083	20,929	9,0126
82743	-11,275	-4,0442	13,649	8,497
82744	-11,472	-4,0384	14,297	8,5301
82745	-11,704	-4,5205	13,891	8,5941
82746	-12,945	-4,02	16,769	8,7297
82747	-13,155	-4,0182	17,442	8,7605
82748	-13,382	-4,5084	17,014	8,776
82749	-11,722	-4,0088	22,216	9,2287
82750	-11,523	-4,0092	21,534	9,1437
82751	-11,957	-4,5041	21,781	9,1542
82752	-12,079	-4,0243	16,276	8,6415
82753	-12,288	-4,0227	16,946	8,6952
82754	-12,51	-4,5116	16,521	8,71
82755	-11,261	-4,0084	23,081	9,4152
82756	-11,065	-4,0108	22,393	9,3177
82757	-11,491	-4,5046	22,643	9,3265
82758	-11,072	-4,0432	13,008	8,4823
82759	-10,874	-4,05	12,366	8,4686
82760	-11,3	-4,5196	12,612	8,5703
82761	-10,604	-4,0098	23,262	9,5213
82762	-10,8	-4,0079	23,958	9,6307
82763	-11,031	-4,5037	23,517	9,5274
82764	-10,42	-4,0508	13,162	8,3216
82765	-10,616	-4,0445	13,81	8,3604
82766	-10,845	-4,5237	13,407	8,4247
82767	-12,705	-4,0197	18,294	8,782
82768	-12,498	-4,0209	17,619	8,7313
82769	-12,93	-4,5098	17,866	8,7764
82770	-11,218	-4,0225	15,784	8,5117
82771	-11,426	-4,0255	16,454	8,5838
82772	-11,645	-4,5127	16,03	8,5977
82773	-12,248	-4,0151	19,151	8,8425
82774	-12,051	-4,0209	18,473	8,7736
82775	-12,48	-4,5098	18,722	8,8172
82776	-10,222	-4,0575	12,52	8,3028
82777	-10,035	-4,0563	11,88	8,291
82778	-10,45	-4,5304	12,124	8,3919
82779	-10,814	-4,0387	14,458	8,3993
82780	-11,014	-4,0277	15,12	8,458
82781	-11,241	-4,5179	14,703	8,4969
82782	-9,7656	-4,0514	13,313	8,1756
82783	-9,5757	-4,0583	12,667	8,1379
82784	-9,9945	-4,5271	12,916	8,2415
82785	-11,635	-4,024	17,125	8,6433
82786	-11,844	-4,0222	17,798	8,7179
82787	-12,067	-4,5111	17,371	8,7111
82788	-9,9624	-4,045	13,961	8,2197
82789	-10,161	-4,0326	14,623	8,2848
82790	-10,388	-4,5208	14,213	8,3248
82791	-10,566	-4,0227	15,955	8,4345
82792	-10,361	-4,0216	15,286	8,3497
82793	-10,786	-4,5098	15,536	8,4486
82794	-10,773	-4,0258	16,626	8,5127
82795	-10,982	-4,0255	17,303	8,6073
82796	-11,204	-4,5128	16,878	8,5992
82797	-9,3881	-4,0571	12,027	8,1215
82798	-9,2097	-4,0555	11,392	8,1163
82799	-9,6154	-4,5259	11,635	8,2118
82800	-9,9175	-4,028	16,117	8,3486
82801	-10,125	-4,0276	16,795	8,4576
82802	-10,344	-4,5129	16,375	8,4488
82803	-11,787	-4,0114	20,003	8,9389
82804	-11,585	-4,0109	19,328	8,8535
82805	-12,025	-4,5053	19,581	8,8958
82806	-11,191	-4,0237	17,976	8,6873
82807	-11,389	-4,0167	18,651	8,7801
82808	-11,622	-4,5111	18,225	8,7537
82809	-11,327	-4,0111	20,855	9,0688
82810	-11,131	-4,0129	20,175	8,9684
82811	-11,565	-4,506	20,426	9,0081
82812	-10,334	-4,0273	17,473	8,5579
82813	-10,532	-4,0207	18,147	8,6709
82814	-10,761	-4,5127	17,728	8,6435
82815	-10,866	-4,0112	21,711	9,2303
82816	-10,672	-4,0142	21,025	9,1161
82817	-11,099	-4,5051	21,28	9,1539
82818	-9,3127	-4,0383	14,116	8,095
82819	-9,1192	-4,0525	13,456	8,0304
82820	-9,5367	-4,5242	13,709	8,1362
82821	-10,408	-4,0122	22,574	9,422
82822	-10,213	-4,0148	21,882	9,2952
82823	-10,638	-4,5062	22,14	9,3306
82824	-9,5115	-4,0259	14,778	8,1659
82825	-9,7131	-4,0269	15,448	8,2578
82826	-9,9322	-4,5118	15,032	8,2722
82827	-9,9493	-4,0119	23,447	9,6428
82828	-9,7538	-4,0139	22,749	9,5046
82829	-10,178	-4,5061	23,009	9,5372
82830	-10,145	-4,01	24,143	9,7533
82831	-10,335	-4,0066	24,84	9,8738
82832	-10,568	-4,5042	24,402	9,7574
82833	-8,6699	-4,0301	14,263	7,9703
82834	-8,8677	-4,0344	14,934	8,0634
82835	-9,086	-4,5141	14,52	8,079
82836	-8,9293	-4,0594	12,811	7,9879
82837	-8,7431	-4,0667	12,168	7,9558
82838	-9,157	-4,5312	12,419	8,0556
82839	-9,4834	-4,0072	24,322	9,8909
82840	-9,2908	-4,0085	23,623	9,7422
82841	-9,72	-4,5058	23,888	9,7723
82842	-8,4764	-4,0442	13,603	7,9003
82843	-8,2847	-4,0609	12,944	7,8408
82844	-8,7016	-4,5282	13,203	7,9443
82845	-9,2731	-4,0321	16,281	8,2786
82846	-9,0692	-4,0354	15,603	8,1611
82847	-9,4913	-4,515	15,864	8,2698
82848	-9,4804	-4,0317	16,959	8,3935
82849	-9,6782	-4,0231	17,635	8,5221
82850	-9,9066	-4,5146	17,217	8,4936
82851	-8,0329	-4,0397	14,409	7,8616
82852	-7,8381	-4,0336	13,739	7,7732
82853	-8,2522	-4,516	14,002	7,8802
82854	-8,6346	-4,0369	16,437	8,2037
82855	-8,8297	-4,0268	17,113	8,3423
82856	-9,0543	-4,517	16,7	8,3133
82857	-9,6731	-4,0037	25,02	10,012
82858	-9,8698	-4,0049	25,72	10,142
82859	-10,104	-4,5024	25,286	10,013
82860	-10,929	-4,0125	19,499	8,8791
82861	-10,729	-4,0136	18,822	8,7687
82862	-11,163	-4,5056	19,077	8,8344
82863	-9,0216	-4,0046	25,197	10,163
82864	-8,8276	-4,0045	24,495	10,005
82865	-9,2556	-4,5014	24,763	10,032
82866	-10,477	-4,016	20,345	9,0123
82867	-10,276	-4,0132	19,666	8,8868
82868	-10,708	-4,5069	19,92	8,95
82869	-10,075	-4,0144	18,988	8,772
82870	-9,8764	-4,0165	18,309	8,6403
82871	-10,308	-4,508	18,569	8,7257
82872	-10,02	-4,0178	21,196	9,1781
82873	-9,8268	-4,0201	20,51	9,0383
82874	-10,25	-4,5092	20,767	9,0993
82875	-9,2183	-4,0058	25,897	10,292
82876	-9,4166	-4,0089	26,602	10,432
82877	-9,645	-4,5025	26,164	10,292
82878	-9,4254	-4,0147	19,148	8,7611
82879	-9,6256	-4,0173	19,831	8,9091
82880	-9,8546	-4,5063	19,408	8,8445
82881	-9,367	-4,0193	21,363	9,2223
82882	-9,5594	-4,0164	22,057	9,3756
82883	-9,7869	-4,5086	21,623	9,281
82884	-8,4308	-4,0402	15,759	8,0805
82885	-8,2307	-4,0441	15,081	7,9602
82886	-8,6466	-4,5203	15,345	8,0721
82887	-9,0275	-4,0183	17,789	8,4762
82888	-9,2264	-4,0169	18,47	8,6249
82889	-9,4581	-4,5085	18,05	8,5767
82890	-7,9919	-4,031	16,582	8,1412
82891	-7,8031	-4,0427	15,902	7,9982
82892	-8,215	-4,5198	16,174	8,1127
82893	-8,187	-4,0209	17,259	8,285
82894	-8,3859	-4,0217	17,941	8,4457
82895	-8,6114	-4,5098	17,525	8,3962
82896	-8,7833	-4,0215	19,307	8,7653
82897	-8,5848	-4,0203	18,621	8,599
82898	-9,0086	-4,5084	18,888	8,6985
82899	-7,3563	-4,0238	16,718	8,0757
82900	-7,5519	-4,025	17,403	8,2429
82901	-7,7743	-4,5111	16,992	8,1935
82902	-7,6029	-4,0466	15,224	7,8727
82903	-7,4008	-4,0512	14,544	7,7547
82904	-7,8147	-4,5237	14,816	7,8664
82905	-8,3745	-4,0043	25,363	10,288
82906	-8,5682	-4,006	26,066	10,456
82907	-8,8036	-4,5033	25,638	10,315
82908	-7,1674	-4,0356	16,038	7,9278
82909	-6,9805	-4,049	15,358	7,7865
82910	-7,3912	-4,5229	15,631	7,9011
82911	-9,1741	-4,0217	20,676	9,0793
82912	-8,9835	-4,024	19,989	8,9171
82913	-9,4034	-4,5109	20,252	8,9981
82914	-6,7297	-4,0284	16,852	8,0256
82915	-6,5367	-4,0265	16,164	7,8573
82916	-6,9475	-4,5127	16,445	7,9767
82917	-8,7142	-4,0188	21,531	9,2814
82918	-8,5267	-4,0238	20,835	9,105
82919	-8,942	-4,5107	21,101	9,1841
82920	-8,9066	-4,0159	22,226	9,4372
82921	-9,0953	-4,0105	22,925	9,6024
82922	-9,3265	-4,5078	22,493	9,4943
82923	-8,3361	-4,0262	20,148	8,9394
82924	-8,1444	-4,0287	19,458	8,7581
82925	-8,5636	-4,5131	19,727	8,856
82926	-8,2518	-4,0106	22,393	9,513
82927	-8,071	-4,0208	21,692	9,3245
82928	-8,4818	-4,5081	21,962	9,402
82929	-8,4405	-4,0052	23,092	9,6801
82930	-8,635	-4,0058	23,795	9,8552
82931	-8,8662	-4,5027	23,363	9,7347
82932	-8,7665	-4,0091	26,772	10,595
82933	-8,9607	-4,0102	27,473	10,745
82934	-9,1936	-4,5064	27,045	10,594
82935	-7,7962	-4,0045	23,256	9,7701
82936	-7,6063	-4,0056	22,551	9,5712
82937	-8,0274	-4,5025	22,828	9,6475
82938	-7,8835	-4,0259	20,996	9,1453
82939	-7,6936	-4,0283	20,3	8,95
82940	-8,1075	-4,5131	20,57	9,0457
82941	-7,7508	-4,0258	18,085	8,4083
82942	-7,9459	-4,0276	18,773	8,5878
82943	-8,1688	-4,512	18,357	8,5195
82944	-7,9907	-4,0051	23,959	9,9464
82945	-8,1805	-4,0042	24,662	10,13
82946	-8,4187	-4,5031	24,233	9,9984
82947	-7,1173	-4,0323	18,23	8,3857
82948	-6,9254	-4,0296	17,537	8,1973
82949	-7,3407	-4,5139	17,816	8,3164
82950	-7,3124	-4,0341	18,918	8,5694
82951	-7,5018	-4,0308	19,611	8,7652
82952	-7,7251	-4,5156	19,19	8,6791
82953	-7,3625	-4,0135	24,122	10,05
82954	-7,1582	-4,002	23,409	9,8414
82955	-7,5824	-4,502	23,693	9,9165
82956	-6,6817	-4,0365	19,063	8,5649
82957	-6,4943	-4,0397	18,367	8,3588
82958	-6,8996	-4,5185	18,647	8,4774
82959	-7,7419	-4,0117	25,529	10,426
82960	-7,5523	-4,0126	24,825	10,234
82961	-7,9642	-4,5011	25,1	10,285
82962	-7,9357	-4,0134	26,232	10,593
82963	-8,1143	-4,0065	26,93	10,77
82964	-8,3511	-4,5028	26,504	10,618
82965	-7,4255	-4,0159	21,85	9,3806
82966	-7,2491	-4,0282	21,148	9,1729
82967	-7,6553	-4,5127	21,424	9,2678
82968	-7,1226	-4,0237	25,687	10,54
82969	-7,3122	-4,0224	26,391	10,74
82970	-7,532	-4,5106	25,964	10,59
82971	-6,8712	-4,0332	19,756	8,7643
82972	-7,0591	-4,0307	20,452	8,9747
82973	-7,2786	-4,5152	20,031	8,8733
82974	-6,3024	-4,037	17,674	8,1663
82975	-6,1123	-4,0333	16,976	7,9744
82976	-6,5194	-4,5158	17,263	8,0969
82977	-6,0602	-4,0347	19,192	8,5528
82978	-6,2463	-4,0357	19,897	8,7762
82979	-6,4638	-4,5181	19,48	8,6733
82980	-6,933	-4,0247	24,983	10,348
82981	-6,7289	-4,012	24,269	10,132
82982	-7,1527	-4,5116	24,557	10,206
82983	-6,9684	-4,0031	22,704	9,6412
82984	-6,7861	-4,0087	21,998	9,4224
82985	-7,2013	-4,5031	22,281	9,517
82986	-6,4954	-4,0274	25,83	10,662
82987	-6,2971	-4,0203	25,118	10,439
82988	-6,7133	-4,5131	25,409	10,512
82989	-6,5247	-4,0004	23,556	9,9229
82990	-6,3385	-4,0006	22,848	9,6955
82991	-6,76	-4,5	23,137	9,7892
82992	-6,6097	-4,0211	21,296	9,2124
82993	-6,4342	-4,0331	20,594	8,9894
82994	-6,8385	-4,5155	20,875	9,098
82995	-8,3084	-4,0075	27,632	10,919
82996	-8,4993	-4,0076	28,334	11,081
82997	-8,7323	-4,5038	27,908	10,919
82998	-5,9018	-4,0016	23,693	9,9876
82999	-6,093	-4,0077	24,404	10,223
83000	-6,323	-4,5004	23,987	10,08
83001	-7,4907	-4,0154	27,089	10,916
83002	-7,6744	-4,0138	27,8	11,106
83003	-7,8981	-4,5037	27,37	10,944
83004	-5,8728	-4,0378	18,495	8,3433
83005	-5,6906	-4,0449	17,797	8,1331
83006	-6,0891	-4,5212	18,087	8,2569
83007	-6,6849	-4,026	26,534	10,861
83008	-6,869	-4,0242	27,244	11,073
83009	-7,0923	-4,5117	26,817	10,912
83010	-5,4445	-4,0365	19,32	8,5538
83011	-5,2597	-4,0348	18,61	8,3232
83012	-5,66	-4,5166	18,906	8,4502
83013	-6,058	-4,0296	26,671	10,991
83014	-5,87	-4,0313	25,965	10,762
83015	-6,2775	-4,5143	26,251	10,833
83016	-6,1563	-4,0062	22,141	9,4753
83017	-5,978	-4,0125	21,433	9,2403
83018	-6,3874	-4,5056	21,724	9,3502
83019	-7,8653	-4,0138	28,503	11,267
83020	-8,044	-4,0081	29,199	11,443
83021	-8,2799	-4,5037	28,773	11,267
83022	-5,5455	-4,0183	22,283	9,5188
83023	-5,7156	-4,0018	22,985	9,7595
83024	-5,9492	-4,5006	22,57	9,6251
83025	-7,2371	-4,0204	28,665	11,463
83026	-7,0527	-4,0226	27,955	11,261
83027	-7,4596	-4,5101	28,239	11,292
83028	-7,4158	-4,0146	29,361	11,637
83029	-7,5925	-4,0099	30,068	11,833
83030	-7,8245	-4,5043	29,638	11,642
83031	-5,6306	-4,0375	20,025	8,78
83032	-5,8025	-4,0246	20,731	9,0151
83033	-6,0288	-4,5176	20,314	8,8995
83034	-6,7835	-4,0201	29,516	11,843
83035	-6,6063	-4,0237	28,808	11,626
83036	-7,0146	-4,5103	29,092	11,659
83037	-5,0087	-4,0284	20,149	8,794
83038	-4,8412	-4,0412	19,437	8,5503
83039	-5,2325	-4,5199	19,736	8,6777
83040	-5,1806	-4,0154	20,855	9,0313
83041	-5,3672	-4,0247	21,575	9,2822
83042	-5,5854	-4,507	21,153	9,1528
83043	-6,9602	-4,0153	30,223	12,036
83044	-7,1209	-4,0074	30,933	12,257
83045	-7,368	-4,5056	30,506	12,048
83046	-4,5661	-4,0122	20,98	9,0595
83047	-4,395	-4,018	20,262	8,8018
83048	-4,7955	-4,5085	20,567	8,9315
83049	-6,4219	-4,0259	28,098	11,427
83050	-6,2421	-4,0278	27,381	11,202
83051	-6,6457	-4,5125	27,671	11,256
83052	-6,1502	-4,0243	29,647	12,01
83053	-6,2873	-4,0135	30,34	12,247
83054	-6,5524	-4,5098	29,941	12,053
83055	-5,7989	-4,0301	28,221	11,558
83056	-5,973	-4,028	28,938	11,796
83057	-6,1981	-4,5134	28,524	11,62
83058	-5,6191	-4,032	27,505	11,335
83059	-5,4358	-4,0334	26,795	11,095
83060	-5,8385	-4,5153	27,09	11,171
83061	-4,9488	-4,0362	22,419	9,5712
83062	-4,7528	-4,0214	21,699	9,3117
83063	-5,1582	-4,5177	22,002	9,4335
83064	-5,1189	-4,0198	23,122	9,8129
83065	-5,2868	-4,0081	23,826	10,061
83066	-5,5128	-4,5012	23,417	9,9202
83067	-4,9985	-4,0366	27,615	11,441
83068	-5,1594	-4,0299	28,317	11,689
83069	-5,3998	-4,5167	27,919	11,522
83070	-4,3437	-4,0392	22,542	9,6115
83071	-4,511	-4,0268	23,247	9,8717
83072	-4,7393	-4,5186	22,837	9,7287
83073	-5,6717	-4,0242	25,254	10,54
83074	-5,478	-4,0141	24,537	10,296
83075	-5,8883	-4,5072	24,837	10,39
83076	-5,3334	-4,0277	29,033	11,924
83077	-5,5066	-4,0302	29,75	12,177
83078	-5,7479	-4,5145	29,352	11,996
83079	-5,2478	-4,0351	26,089	10,868
83080	-5,0556	-4,0288	25,377	10,619
83081	-5,4625	-4,517	25,679	10,713
83082	-4,1477	-4,0244	21,822	9,3515
83083	-3,9745	-4,0212	21,098	9,0826
83084	-4,3638	-4,5037	21,403	9,2111
83085	-4,8151	-4,0379	26,905	11,203
83086	-4,6297	-4,0386	26,204	10,951
83087	-5,0331	-4,5181	26,499	11,043
83088	-3,7262	-4,0328	22,654	9,6569
83089	-3,5643	-4,0431	21,946	9,3871
83090	-3,948	-4,5206	22,248	9,5134
83091	-4,1921	-4,0418	27,004	11,286
83092	-4,3816	-4,0433	27,704	11,544
83093	-4,5972	-4,5198	27,31	11,384
83094	-4,862	-4,0187	24,661	10,377
83095	-4,6789	-4,0152	23,951	10,12
83096	-5,0853	-4,5069	24,255	10,229
83097	-4,5425	-4,0366	28,406	11,791
83098	-4,6825	-4,0289	29,108	12,052
83099	-4,937	-4,5132	28,725	11,882
83100	-4,4375	-4,0323	25,492	10,705
83101	-4,252	-4,0241	24,777	10,441
83102	-4,6578	-4,5118	25,082	10,549
83103	-4,069	-4,0205	24,067	10,185
83104	-3,8935	-4,0205	23,358	9,9173
83105	-4,2951	-4,5083	23,664	10,037
83106	-4,0067	-4,0425	26,303	11,037
83107	-3,8324	-4,0436	25,606	10,774
83108	-4,2263	-4,5205	25,908	10,882
83109	-3,6469	-4,0353	24,891	10,511
83110	-3,4648	-4,0265	24,177	10,237
83111	-3,8644	-4,5123	24,488	10,359
83112	-3,2893	-4,0264	23,468	9,9698
83113	-3,1155	-4,0217	22,757	9,6926
83114	-3,5125	-4,5122	23,068	9,8222
83115	-3,378	-4,0421	26,389	11,101
83116	-3,5735	-4,0477	27,086	11,369
83117	-3,7871	-4,522	26,697	11,213
83118	-3,2037	-4,0432	25,693	10,84
83119	-3,0506	-4,0501	25,002	10,57
83120	-3,4385	-4,523	25,304	10,688
83121	-2,8685	-4,0412	24,288	10,296
83122	-2,6857	-4,0287	23,576	10,014
83123	-3,0838	-4,5142	23,884	10,142
83124	-3,763	-4,0491	27,786	11,624
83125	-3,9429	-4,0528	28,485	11,89
83126	-4,1661	-4,5234	28,098	11,727
83127	-2,5831	-4,0412	25,771	10,89
83128	-2,7366	-4,0481	26,475	11,171
83129	-2,9718	-4,5201	26,093	11,018
83130	-2,43	-4,0481	25,08	10,62
83131	-2,2793	-4,0576	24,387	10,342
83132	-2,6627	-4,527	24,7	10,473
83133	-2,932	-4,0537	27,172	11,436
83134	-3,1584	-4,0605	27,864	11,705
83135	-3,3598	-4,5257	27,474	11,547
83136	-1,9355	-4,0542	25,845	10,941
83137	-1,837	-4,035	25,162	10,662
83138	-2,2014	-4,5211	25,478	10,795
83139	-2,0889	-4,0611	26,55	11,221
83140	-2,3223	-4,06	27,254	11,504
83141	-2,5042	-4,528	26,869	11,349
83142	-1,3455	-4,0418	25,889	10,968
83143	-1,4123	-4,0681	26,66	11,288
83144	-1,6737	-4,5331	26,231	11,115
83145	-1,2469	-4,0226	25,205	10,691
83146	-0,80705	-4,0124	25,295	10,73
83147	-0,71399	-4,0404	25,838	10,957
83148	-1,0217	-4,5087	25,573	10,854
83149	-1,6863	-4,0445	24,469	10,385
83150	-1,1289	-4,0251	24,642	10,46
83151	-1,4877	-4,5139	24,857	10,555
83152	-0,68897	-4,0149	24,732	10,5
83153	-0,32075	-4,0052	25,166	10,679
83154	-0,55971	-4,5038	25,009	10,624
83155	-2,0965	-4,0452	23,675	10,061
83156	-1,4984	-4,0508	23,806	10,115
83157	-1,896	-4,5306	24,074	10,233
83158	-0,94093	-4,0313	23,979	10,19
83159	-0,48365	-4,0673	24,378	10,357
83160	-0,75423	-4,5111	24,356	10,355
83161	-2,5119	-4,024	22,864	9,7376
83162	-1,9155	-4,0312	22,978	9,7805
83163	-2,3046	-4,5145	23,28	9,9106
83164	-1,3174	-4,0369	23,109	9,8353
83165	-0,73646	-4,0369	23,275	9,9018
83166	-1,0955	-4,5202	23,524	10,013
83167	-2,9537	-4,0319	22,049	9,4227
83168	-2,3524	-4,0239	22,145	9,4524
83169	-2,7364	-4,5095	22,463	9,5885
83170	-1,7561	-4,0311	22,259	9,4956
83171	-1,1814	-4,0391	22,385	9,5421
83172	-1,5382	-4,5167	22,679	9,6705
83173	-3,3911	-4,0399	21,222	9,1173
83174	-2,8092	-4,0471	21,337	9,1468
83175	-3,1806	-4,5225	21,645	9,279
83176	-2,2079	-4,0391	21,433	9,1762
83177	-1,6268	-4,0463	21,528	9,2048
83178	-1,987	-4,5144	21,848	9,3425
83179	-3,8033	-4,027	20,38	8,8234
83180	-3,221	-4,0344	20,49	8,8411
83181	-3,6074	-4,5175	20,804	8,9759
83182	-2,639	-4,0417	20,605	8,8698
83183	-2,0667	-4,0469	20,697	8,8898
83184	-2,4377	-4,5247	21,029	9,0318
83185	-4,2274	-4,0308	19,55	8,556
83186	-3,621	-4,02	19,652	8,5583
83187	-4,0185	-4,5095	19,966	8,6931
83188	-3,0387	-4,0274	19,762	8,5749
83189	-2,4648	-4,0336	19,864	8,5897
83190	-2,8492	-4,517	20,185	8,7269
83191	-4,6564	-4,0394	18,727	8,3172
83192	-4,0566	-4,043	18,831	8,3077
83193	-4,4499	-4,5213	19,138	8,4392
83194	-3,4502	-4,0322	18,933	8,3084
83195	-2,858	-4,0214	19,027	8,3088
83196	-3,2539	-4,5105	19,346	8,444
83197	-5,0775	-4,0419	17,912	8,11
83198	-4,4715	-4,0369	18,011	8,0846
83199	-4,865	-4,5181	18,318	8,2142
83200	-3,8717	-4,0405	18,116	8,0731
83201	-3,2828	-4,043	18,199	8,0585
83202	-3,6633	-4,5217	18,524	8,1921
83203	-5,5005	-4,0413	17,099	7,9375
83204	-4,8972	-4,0495	17,207	7,8996
83205	-5,2922	-4,5237	17,508	8,0252
83206	-4,2912	-4,0445	17,307	7,8717
83207	-3,686	-4,0403	17,39	7,8427
83208	-4,081	-4,5188	17,709	7,9719
83209	-5,9193	-4,0313	16,287	7,802
83210	-5,3121	-4,0367	16,398	7,7485
83211	-5,7112	-4,5175	16,694	7,8699
83212	-4,7088	-4,0449	16,507	7,7076
83213	-4,1185	-4,0496	16,606	7,6701
83214	-4,5023	-4,5257	16,907	7,7892
83215	-6,3497	-4,0399	15,484	7,7115
83216	-5,7267	-4,0284	15,596	7,6387
83217	-6,1353	-4,5138	15,885	7,7559
83218	-5,1195	-4,0338	15,708	7,5818
83219	-4,5202	-4,0456	15,8	7,5265
83220	-4,9202	-4,5192	16,107	7,644
83221	-17,117	-4,0302	9,8534	10,686
83222	-16,473	-4,0467	10,077	10,421
83223	-16,922	-4,5204	10,274	10,491
83224	-6,1593	-4,0449	14,8	7,5757
83225	-6,7783	-4,0536	14,679	7,6638
83226	-6,5698	-4,5261	15,086	7,688
83227	-5,5363	-4,0334	14,912	7,4993
83228	-4,9374	-4,0428	15,017	7,4311
83229	-5,3369	-4,5146	15,312	7,5403
83230	-16,852	-4,0351	9,2375	10,858
83231	-17,487	-4,0282	9,0005	11,164
83232	-17,305	-4,5098	9,4291	10,943
83233	-16,208	-4,0516	9,461	10,583
83234	-15,581	-4,0342	9,6918	10,303
83235	-16,024	-4,5263	9,8795	10,4
83236	-5,961	-4,0338	14,12	7,463
83237	-5,34	-4,033	14,234	7,3765
83238	-5,7548	-4,5188	14,513	7,4796
83239	-15,945	-4,0386	8,8622	10,714
83240	-16,571	-4,0491	8,62	11,031
83241	-16,393	-4,5253	9,0425	10,826
83242	-7,206	-4,0451	13,874	7,6616
83243	-6,58	-4,0425	13,998	7,5549
83244	-6,9869	-4,5275	14,272	7,6601
83245	-15,317	-4,0212	9,093	10,424
83246	-14,685	-4,0181	9,3198	10,135
83247	-15,131	-4,5079	9,502	10,251
83248	-7,0175	-4,037	13,208	7,5842
83249	-7,6464	-4,0502	13,08	7,7091
83250	-7,4268	-4,5176	13,475	7,6844
83251	-6,3916	-4,0344	13,333	7,4737
83252	-5,7669	-4,027	13,447	7,3698
83253	-6,177	-4,5151	13,724	7,4662
83254	-15,032	-4,0412	8,5085	10,515
83255	-15,674	-4,032	8,2676	10,842
83256	-15,49	-4,5133	8,6796	10,651
83257	-6,8347	-4,0561	12,556	7,5329
83258	-6,2088	-4,0399	12,67	7,4122
83259	-6,612	-4,5194	12,942	7,5012
83260	-14,4	-4,0381	8,7352	10,217
83261	-13,777	-4,0245	8,9583	9,9275
83262	-14,23	-4,5101	9,1344	10,059
83263	-8,0985	-4,0682	12,301	7,8047
83264	-7,4636	-4,0693	12,428	7,6615
83265	-7,8678	-4,5326	12,684	7,7556
83266	-14,101	-4,0497	8,1695	10,274
83267	-14,734	-4,0582	7,9282	10,598
83268	-14,562	-4,528	8,3321	10,424
83269	-8,5647	-4,0651	11,533	7,9466
83270	-7,9241	-4,0748	11,664	7,7846
83271	-8,3292	-4,5355	11,917	7,8754
83272	-7,2892	-4,0759	11,791	7,6381
83273	-6,6627	-4,0761	11,909	7,5015
83274	-7,0594	-4,5367	12,172	7,5839
83275	-9,0451	-4,0701	10,768	8,1331
83276	-8,3896	-4,0707	10,904	7,95
83277	-8,7986	-4,5296	11,15	8,0397
83278	-13,479	-4,0361	8,3925	9,9777
83279	-12,852	-4,0639	8,6097	9,6914
83280	-13,313	-4,5144	8,7821	9,8313
83281	-7,749	-4,0803	11,035	7,7851
83282	-7,1233	-4,0808	11,15	7,6333
83283	-7,5191	-4,5392	11,411	7,7115
83284	-13,157	-4,0383	7,8491	10,003
83285	-13,801	-4,0488	7,6081	10,325
83286	-13,632	-4,5217	8,0005	10,165
83287	-9,5509	-4,0865	10,005	8,3653
83288	-8,8832	-4,0825	10,155	8,1593
83289	-9,2896	-4,5405	10,39	8,2486
83290	-12,53	-4,066	8,0663	9,7117
83291	-11,842	-4,0985	8,3079	9,405
83292	-12,383	-4,5495	8,4385	9,5836
83293	-8,2277	-4,0831	10,292	7,9736
83294	-7,5888	-4,0679	10,397	7,8043
83295	-7,979	-4,541	10,66	7,8783
83296	-12,155	-4,0458	7,5428	9,7017
83297	-12,851	-4,0259	7,299	10,032
83298	-12,663	-4,5165	7,69	9,8746
83299	-10,086	-4,0989	9,2374	8,6433
83300	-9,4197	-4,0789	9,4061	8,4159
83301	-9,7983	-4,546	9,6233	8,5019
83302	-8,752	-4,075	9,5566	8,2069
83303	-8,0839	-4,0829	9,6714	8,0149
83304	-8,4764	-4,5421	9,9239	8,0891
83305	-10,83	-4,1019	8,5146	9,0175
83306	-9,9954	-4,0918	8,6767	8,7157
83307	-10,361	-4,5529	8,8519	8,8071
83308	-9,3289	-4,0718	8,8454	8,4849
83309	-8,6261	-4,0728	8,9533	8,2661
83310	-9,0205	-4,5329	9,1932	8,3444
83311	-11,467	-4,0782	7,7843	9,3905
83312	-10,745	-4,0819	7,9927	9,0944
83313	-11,3	-4,549	8,1773	9,256
83314	-9,9104	-4,0718	8,1548	8,7906
83315	-9,199	-4,0784	8,2954	8,5464
83316	-9,6547	-4,5389	8,5087	8,6517
83317	-11,135	-4,0526	7,237	9,3989
83318	-11,833	-4,0393	6,9974	9,7124
83319	-11,634	-4,5292	7,3914	9,5585
83320	-10,413	-4,0562	7,4453	9,1004
83321	-9,7342	-4,0683	7,6379	8,8398
83322	-10,216	-4,5329	7,8281	8,9648
83323	-10,213	-4,0421	6,9371	9,145
83324	-10,828	-4,0358	6,6807	9,4134
83325	-10,636	-4,5233	7,0826	9,2685
83326	-9,5337	-4,0542	7,1297	8,8823
83327	-9,3521	-4,0308	6,5187	8,9503
83328	-9,8793	-4,0203	6,2432	9,1756
83329	-9,7705	-4,5187	6,8035	9,0374
83330	-9,0229	-4,075	7,7785	8,5953
83331	-8,8937	-4,0587	7,1547	8,6799
83332	-9,2778	-4,5355	7,4677	8,7417
83333	-8,4963	-4,0795	8,4033	8,3275
83334	-8,3735	-4,0614	7,7777	8,4096
83335	-8,7679	-4,5396	8,0893	8,4683
83336	-7,958	-4,0807	9,0681	8,0729
83337	-7,8383	-4,0519	8,4328	8,146
83338	-8,2246	-4,5399	8,7173	8,2056
83339	-7,4449	-4,0677	9,7765	7,8445
83340	-7,3099	-4,0638	9,1322	7,9033
83341	-7,6913	-4,5408	9,419	7,9586
83342	-6,963	-4,0685	10,512	7,6505
83343	-6,818	-4,0666	9,8606	7,6893
83344	-7,1955	-4,5269	10,142	7,7461
83345	-6,4968	-4,0809	11,268	7,4942
83346	-6,3436	-4,0733	10,613	7,5094
83347	-6,7275	-4,5416	10,89	7,5712
83348	-6,0368	-4,0598	12,023	7,3781
83349	-5,8733	-4,0576	11,365	7,3662
83350	-6,2661	-4,5394	11,646	7,4343
83351	-5,5841	-4,0324	12,785	7,3053
83352	-5,4125	-4,0394	12,122	7,2644
83353	-5,8099	-4,5205	12,403	7,3391
83354	-5,1459	-4,0262	13,562	7,2802
83355	-4,9622	-4,043	12,898	7,2079
83356	-5,3651	-4,512	13,173	7,2897
83357	-4,7412	-4,0424	14,339	7,3055
83358	-4,5233	-4,0268	13,679	7,1994
83359	-4,9349	-4,5142	13,95	7,2886
83360	-4,3381	-4,0546	15,109	7,3734
83361	-4,1286	-4,0482	14,451	7,2414
83362	-4,5511	-4,5282	14,725	7,3385
83363	-3,7933	-4,035	15,237	7,3349
83364	-3,93	-4,0503	15,899	7,4865
83365	-4,1252	-4,5264	15,494	7,4244
83366	-3,5838	-4,0286	14,578	7,2002
83367	-3,2262	-4,024	15,337	7,3004
83368	-2,9458	-4,0103	14,872	7,187
83369	-3,4365	-4,5086	14,957	7,2507
83370	-3,9108	-4,0326	13,792	7,1334
83371	-3,2852	-4,0232	13,942	7,0804
83372	-3,7062	-4,52	14,177	7,1578
83373	-4,3396	-4,0436	13,015	7,1244
83374	-3,7078	-4,017	13,128	7,0501
83375	-4,1119	-4,5126	13,396	7,1225
83376	-4,7906	-4,05	12,234	7,1645
83377	-4,1648	-4,041	12,335	7,0747
83378	-4,5639	-4,531	12,625	7,1404
83379	-5,2489	-4,0372	11,464	7,2508
83380	-4,6368	-4,0397	11,559	7,1485
83381	-5,0218	-4,519	11,852	7,2047
83382	-17,839	-4,0361	8,1322	11,704
83383	-17,206	-4,0422	8,383	11,349
83384	-17,662	-4,5184	8,5685	11,455
83385	-5,7201	-4,05	10,71	7,3801
83386	-5,1119	-4,0511	10,811	7,264
83387	-5,4859	-4,5183	11,093	7,3131
83388	-17,572	-4,0334	7,5185	11,902
83389	-18,215	-4,0226	7,2427	12,322
83390	-18,017	-4,5177	7,6959	12,032
83391	-16,939	-4,0395	7,7694	11,533
83392	-16,3	-4,0426	8,0254	11,17
83393	-16,75	-4,5238	8,1975	11,302
83394	-6,1986	-4,0714	9,9614	7,5471
83395	-5,5824	-4,0584	10,061	7,4165
83396	-5,9602	-4,5317	10,34	7,4622
83397	-16,675	-4,0292	7,1745	11,682
83398	-17,311	-4,0277	6,9021	12,089
83399	-17,12	-4,5157	7,3425	11,835
83400	-6,683	-4,0627	9,2163	7,748
83401	-6,0548	-4,0577	9,304	7,6036
83402	-6,4375	-4,5397	9,5872	7,6473
83403	-16,036	-4,0323	7,4305	11,306
83404	-15,376	-4,049	7,6874	10,935
83405	-15,843	-4,5188	7,8515	11,091
83406	-7,1902	-4,0351	8,4968	7,9775
83407	-6,5371	-4,0477	8,5482	7,8219
83408	-6,9233	-4,5231	8,8506	7,8626
83409	-15,755	-4,0281	6,852	11,407
83410	-16,405	-4,0237	6,5787	11,812
83411	-16,208	-4,5136	7,011	11,579
83412	-14,433	-4,0573	7,3668	10,657
83413	-15,095	-4,0447	7,1089	11,024
83414	-14,902	-4,5302	7,5215	10,826
83415	-7,7155	-4,0338	7,8071	8,2308
83416	-7,0461	-4,0329	7,8185	8,0644
83417	-7,4365	-4,512	8,1454	8,104
83418	-14,143	-4,054	6,8082	10,71
83419	-13,495	-4,0364	7,058	10,361
83420	-13,962	-4,5271	7,2113	10,533
83421	-14,805	-4,0415	6,5503	11,087
83422	-15,464	-4,0375	6,2822	11,484
83423	-15,279	-4,5146	6,7012	11,278
83424	-8,2444	-4,0451	7,1539	8,4982
83425	-7,5758	-4,04	7,1291	8,3244
83426	-7,9547	-4,5218	7,4886	8,3609
83427	-13,836	-4,0519	6,2635	10,742
83428	-14,503	-4,0445	5,9925	11,127
83429	-14,323	-4,527	6,4043	10,942
83430	-12,529	-4,0195	6,7536	10,048
83431	-13,188	-4,0343	6,5133	10,385
83432	-13,006	-4,5093	6,9062	10,221
83433	-8,7121	-4,0353	6,5438	8,7515
83434	-8,1207	-4,0324	6,5037	8,5916
83435	-8,4853	-4,5232	6,8755	8,628
83436	-11,527	-4,0226	6,441	9,7313
83437	-12,221	-4,0144	6,2104	10,059
83438	-12,013	-4,5101	6,6115	9,894
83439	-12,879	-4,0292	5,9702	10,402
83440	-13,533	-4,0402	5,7158	10,759
83441	-13,35	-4,5249	6,1226	10,587
83442	-10,495	-4,014	5,9868	9,4499
83443	-11,234	-4,0187	5,8841	9,7475
83444	-10,971	-4,5124	6,3024	9,5664
83445	-11,927	-4,0105	5,6535	10,08
83446	-12,579	-4,0107	5,4318	10,406
83447	-12,38	-4,5043	5,8355	10,24
83448	-17,954	-4,0169	6,6263	12,529
83449	-18,586	-4,0107	6,3325	13,005
83450	-18,395	-4,5049	6,7964	12,693
83451	-9,4418	-4,0136	5,9704	9,0994
83452	-8,6422	-3,9994	5,9216	8,8566
83453	-8,9146	-4,512	6,2458	8,8803
83454	-17,041	-4,0222	6,3063	12,236
83455	-17,675	-4,021	6,0135	12,686
83456	-17,487	-4,512	6,4655	12,42
83457	-10,31	-4,0013	5,2956	9,5346
83458	-9,5272	-3,9851	5,2131	9,2727
83459	-9,8419	-4,5016	5,7963	9,2775
83460	-11,049	-4,006	5,1929	9,8314
83461	-11,63	-4,0074	5,1097	10,08
83462	-11,389	-4,5063	5,5349	9,905
83463	-16,114	-4,0331	6,009	11,902
83464	-16,759	-4,0275	5,7155	12,341
83465	-16,577	-4,5102	6,1579	12,107
83466	-10,888	-3,998	4,686	9,8779
83467	-10,328	-3,9912	4,3497	9,7213
83468	-10,504	-4,4997	4,9647	9,6893
83469	-15,161	-4,0404	5,7245	11,535
83470	-15,816	-4,0336	5,4346	11,961
83471	-15,64	-4,5229	5,8682	11,754
83472	-11,468	-3,9994	4,6028	10,126
83473	-11,014	-4,0148	4,1514	10,027
83474	-11,052	-4,4983	4,5205	9,9877
83475	-14,199	-4,0328	5,4448	11,154
83476	-14,853	-4,0389	5,1622	11,559
83477	-14,682	-4,5175	5,5828	11,374
83478	-12,281	-4,0076	4,888	10,411
83479	-11,948	-4,0191	4,374	10,374
83480	-11,791	-4,5011	4,7795	10,239
83481	-13,233	-4,0218	5,1774	10,771
83482	-13,88	-4,0332	4,8991	11,148
83483	-13,713	-4,5153	5,3124	10,982
83484	-12,904	-4,025	4,6474	10,744
83485	-12,751	-4,5065	5,0607	10,598
83486	-18,306	-4,0147	5,7197	13,191
83487	-18,932	-4,0112	5,4027	13,72
83488	-18,751	-4,5058	5,8811	13,405
83489	-17,393	-4,0263	5,4226	12,814
83490	-18,033	-4,0107	5,1017	13,306
83491	-17,853	-4,5089	5,5685	13,046
83492	-18,659	-4,0072	4,7847	13,876
83493	-19,281	-4,0079	4,448	14,427
83494	-19,106	-4,5054	4,9299	14,156
83495	-16,461	-4,028	5,1411	12,418
83496	-17,103	-4,0307	4,8326	12,88
83497	-16,931	-4,5173	5,2813	12,658
83498	-17,744	-4,0152	4,5117	13,403
83499	-18,388	-4,0044	4,1682	13,897
83500	-18,211	-4,5018	4,6414	13,68
83501	-15,508	-4,0321	4,8722	12,
83502	-16,155	-4,0274	4,5685	12,444
83503	-15,992	-4,5107	5,0065	12,248
83504	-19,009	-4,0051	3,8316	14,505
83505	-19,563	-4,0069	3,5305	14,97
83506	-19,47	-4,5025	3,9566	14,859
83507	-16,797	-4,0301	4,26	12,929
83508	-17,43	-4,0241	3,9299	13,398
83509	-17,276	-4,5134	4,3839	13,209
83510	-15,181	-4,0343	4,314	11,987
83511	-14,534	-4,0392	4,6164	11,565
83512	-15,024	-4,5214	4,7435	11,813
83513	-18,074	-4,0133	3,5865	13,931
83514	-18,704	-4,0018	3,2398	14,384
83515	-18,563	-4,5026	3,697	14,256
83516	-15,828	-4,0296	4,0103	12,448
83517	-16,463	-4,0314	3,6912	12,897
83518	-16,319	-4,5167	4,1361	12,73
83519	-17,715	-4,0173	3,0192	13,827
83520	-17,096	-4,0254	3,3612	13,394
83521	-17,585	-4,5107	3,4759	13,705
83522	-19,259	-4,0035	2,9387	14,903
83523	-19,987	-3,9765	2,542	15,231
83524	-19,793	-4,5044	2,9962	15,332
83525	-14,852	-4,0197	3,763	11,968
83526	-15,483	-4,0249	3,4488	12,392
83527	-15,339	-4,5129	3,886	12,24
83528	-18,345	-4,0057	2,6725	14,32
83529	-18,955	-4,0002	2,3187	14,656
83530	-18,854	-4,4992	2,7721	14,658
83531	-14,206	-4,0246	4,0654	11,532
83532	-13,551	-4,0364	4,369	11,131
83533	-14,045	-4,5178	4,4891	11,373
83534	-17,352	-4,0157	2,4498	13,759
83535	-17,96	-4,0088	2,1162	14,146
83536	-17,847	-4,5065	2,5687	14,087
83537	-14,514	-4,0105	3,2124	11,898
83538	-13,865	-4,0224	3,5305	11,49
83539	-14,364	-4,5067	3,6452	11,757
83540	-16,117	-4,0267	3,1297	12,862
83541	-16,733	-4,0238	2,7918	13,296
83542	-16,607	-4,5147	3,2464	13,171
83543	-13,21	-4,0341	3,8341	11,077
83544	-12,57	-4,0365	4,1334	10,714
83545	-13,062	-4,5185	4,2497	10,94
83546	-15,144	-4,0157	2,8982	12,34
83547	-15,767	-4,0252	2,5736	12,762
83548	-15,629	-4,512	3,0143	12,636
83549	-16,383	-4,0224	2,2356	13,22
83550	-16,975	-4,0223	1,8803	13,618
83551	-16,863	-4,5092	2,3404	13,541
83552	-14,16	-4,0158	2,6743	11,824
83553	-14,8	-4,0167	2,35	12,232
83554	-14,658	-4,5037	2,7864	12,112
83555	-13,512	-4,0277	2,9924	11,401
83556	-12,853	-4,0288	3,3173	11,018
83557	-13,364	-4,5156	3,4181	11,275
83558	-15,423	-4,0262	2,0254	12,673
83559	-16,	-4,0247	1,6382	13,062
83560	-15,907	-4,5132	2,1341	12,99
83561	-13,809	-4,024	2,1283	11,703
83562	-13,161	-4,0243	2,4663	11,322
83563	-13,664	-4,5121	2,5705	11,594
83564	-14,449	-4,0249	1,804	12,127
83565	-15,044	-4,0202	1,4403	12,505
83566	-14,94	-4,513	1,9166	12,434
83567	-14,118	-4,0188	1,2963	11,98
83568	-13,476	-4,0205	1,5765	11,608
83569	-13,958	-4,5119	1,6913	11,885
83570	-14,714	-4,0141	0,93267	12,376
83571	-14,324	-4,0095	0,42935	12,15
83572	-13,786	-4,0206	0,64022	11,849
83573	-14,258	-4,5069	0,89286	12,138
83574	-15,621	-4,0187	1,0531	12,919
83575	-15,194	-4,0238	0,48089	12,667
83576	-15,149	-4,5072	0,96392	12,671
83577	-16,593	-4,0246	1,2828	13,487
83578	-16,216	-4,0295	0,57265	13,292
83579	-16,094	-4,5115	1,1422	13,249
83580	-17,584	-4,0154	1,5467	14,032
83581	-17,24	-4,0287	1,0111	13,874
83582	-17,072	-4,5131	1,4258	13,813
83583	-18,57	-4,0033	1,7625	14,512
83584	-18,167	-4,0041	1,2493	14,344
83585	-18,065	-4,5023	1,6852	14,339
83586	-17,823	-4,0174	0,71366	14,204
83587	-17,53	-4,0231	0,31174	14,075
83588	-16,863	-4,0337	0,30092	13,702
83589	-17,318	-4,5156	0,61701	14,015
83590	-19,126	-4,0313	1,3973	14,713
83591	-19,683	-3,9732	1,922	15,085
83592	-19,06	-4,5011	1,856	14,802
83593	-18,723	-4,032	0,88413	14,558
83594	-18,298	-4,0062	0,43058	14,424
83595	-18,255	-4,5018	0,85655	14,473
83596	-18,005	-4,0118	2,8654e-002	14,303
83597	-17,554	-4,0227	-0,24082	14,09
83598	-17,635	-4,5074	4,6959e-002	14,203
83599	-19,216	-4,0367	0,4803	14,68
83600	-19,689	-4,0309	0,94895	14,691
83601	-19,188	-4,5302	0,93973	14,752
83602	-18,791	-4,0109	2,6744e-002	14,54
83603	-18,319	-4,0068	-0,3658	14,433
83604	-18,362	-4,5044	5,2539e-002	14,514
83605	-20,246	-3,9728	1,4736	15,122
83606	-20,189	-4,4721	1,9113	15,317
83607	-20,881	-3,9741	1,9255	16,524
83608	-19,705	-4,0132	1,4702e-002	14,48
83609	-19,246	-4,0202	-0,43185	14,667
83610	-19,257	-4,5065	2,5789e-002	14,696
83611	-20,178	-4,0074	0,48336	14,568
83612	-20,155	-4,5007	0,96756	14,769
83613	-20,653	-4,003	0,9595	14,707
83614	-20,189	-4,0169	-0,51649	14,571
83615	-20,169	-4,5067	7,3828e-003	14,404
83616	-20,583	-4,0087	5,929e-003	14,043
83617	-19,73	-4,0239	-0,96304	14,689
83618	-20,285	-3,9637	-1,5546	15,147
83619	-20,221	-4,5102	-1,0056	14,741
83620	-20,663	-4,012	-0,99823	14,718
83621	-18,774	-4,016	-0,8244	14,551
83622	-19,213	-4,023	-1,3374	14,708
83623	-19,258	-4,5136	-0,87018	14,731
83624	-19,768	-3,9629	-1,929	15,121
83625	-20,282	-4,4535	-1,9343	15,347
83626	-20,908	-3,955	-1,9621	16,517
83627	-17,868	-4,0176	-0,63528	14,226
83628	-18,237	-4,0281	-1,178	14,379
83629	-18,31	-4,5024	-0,76845	14,494
83630	-18,675	-4,0351	-1,691	14,542
83631	-19,175	-4,5094	-1,7761	14,812
83632	-16,887	-4,0333	-0,25164	13,717
83633	-17,311	-4,0419	-0,92413	13,923
83634	-17,384	-4,5152	-0,49131	14,057
83635	-17,681	-4,0524	-1,4668	14,092
83636	-18,174	-4,5257	-1,5917	14,396
83637	-16,261	-4,03	-0,56089	13,322
83638	-15,789	-4,0346	4,5361e-004	13,071
83639	-16,339	-4,518	3,053e-003	13,463
83640	-16,686	-4,0387	-1,2334	13,552
83641	-17,183	-4,5267	-1,3435	13,892
83642	-11,493	-4,0345	3,9225	10,279
83643	-12,213	-4,0312	3,6165	10,645
83644	-12,083	-4,518	4,018	10,53
83645	-15,478	-4,0252	-1,0412	12,838
83646	-16,196	-4,512	-1,1185	13,319
83647	-11,137	-4,0187	3,3845	10,216
83648	-10,455	-4,0079	3,8151	9,882
83649	-10,927	-4,5165	3,8782	10,063
83650	-6,5968	-4,0001	31,761	12,715
83651	-6,448	-4,0056	31,05	12,464
83652	-6,8739	-4,5018	31,36	12,493
83653	-15,006	-4,0298	-0,47986	12,558
83654	-14,805	-4,0192	-2,2431e-002	12,464
83655	-15,262	-4,5166	-8,9423e-003	12,78
83656	-6,044	-3,9899	32,571	13,206
83657	-5,9035	-4,0011	31,847	12,917
83658	-6,3345	-4,4983	32,177	12,97
83659	-14,476	-4,0286	-0,89611	12,243
83660	-15,004	-4,5132	-0,97618	12,591
83661	-5,4331	-3,9909	33,301	13,702
83662	-5,3544	-3,9968	32,63	13,39
83663	-5,7684	-4,4916	32,98	13,48
83664	-11,856	-4,0153	3,0785	10,589
83665	-12,501	-4,0253	2,7912	10,927
83666	-12,329	-4,5131	3,2103	10,8
83667	-14,274	-4,018	-0,43868	12,13
83668	-13,831	-4,0163	0,16815	11,892
83669	-14,359	-4,5026	-5,7724e-002	12,227
83670	-11,568	-4,0078	2,4983	10,535
83671	-10,891	-4,0021	2,7529	10,223
83672	-11,302	-4,5022	2,9835	10,373
83673	-5,7547	-4,0065	31,136	12,671
83674	-5,6438	-4,0195	30,444	12,411
83675	-6,0421	-4,5038	30,754	12,469
83676	-13,716	-4,0396	-0,78409	11,815
83677	-14,198	-4,5154	-0,87467	12,109
83678	-4,6573	-4,015	33,881	14,158
83679	-4,6741	-4,0089	33,279	13,845
83680	-5,0978	-4,4992	33,623	13,965
83681	-5,1131	-4,0197	31,217	12,825
83682	-5,2139	-4,008	31,906	13,108
83683	-5,5068	-4,5028	31,546	12,906
83684	-12,213	-4,0178	2,211	10,883
83685	-12,827	-4,0208	1,9145	11,213
83686	-12,66	-4,5122	2,3674	11,1
83687	-5,0022	-4,0327	30,525	12,567
83688	-4,8557	-4,0314	29,825	12,302
83689	-5,2654	-4,5157	30,148	12,384
83690	-3,8888	-4,0345	33,862	14,266
83691	-3,8659	-4,0392	34,537	14,636
83692	-4,2168	-4,5157	34,139	14,397
83693	-4,4474	-4,0359	31,258	12,96
83694	-4,3365	-4,0315	30,581	12,684
83695	-4,739	-4,517	30,903	12,778
83696	-4,5481	-4,0241	31,948	13,24
83697	-4,5954	-4,0149	32,609	13,539
83698	-4,9405	-4,5052	32,281	13,343
83699	-11,929	-4,0349	1,6712	10,8
83700	-11,321	-4,0066	1,8666	10,513
83701	-11,721	-4,5056	2,0982	10,682
83702	-3,7859	-4,0487	31,289	13,059
83703	-3,8408	-4,041	31,952	13,348
83704	-4,1558	-4,5189	31,614	13,172
83705	-4,0829	-4,0451	29,187	12,149
83706	-4,19	-4,0302	29,88	12,421
83707	-4,466	-4,5157	29,505	12,247
83708	-13,143	-4,0223	0,92033	11,462
83709	-12,543	-4,0378	1,3747	11,14
83710	-12,992	-4,5086	1,4612	11,383
83711	-3,3384	-4,0641	28,563	11,969
83712	-3,4592	-4,0511	29,242	12,239
83713	-3,7197	-4,5294	28,873	12,076
83714	-12,827	-4,0522	0,37207	11,347
83715	-13,272	-4,038	-0,17725	11,559
83716	-13,297	-4,5137	0,37035	11,616
83717	-2,7397	-4,0802	28,617	12,038
83718	-2,5487	-4,0668	27,946	11,77
83719	-2,957	-4,5348	28,253	11,886
83720	-3,675	-4,0443	30,611	12,785
83721	-3,5663	-4,0363	29,935	12,509
83722	-3,9537	-4,5145	30,259	12,618
83723	-12,228	-4,0677	0,82643	11,006
83724	-11,725	-4,0422	1,0734	10,761
83725	-12,093	-4,5292	1,2877	10,94
83726	-3,0454	-4,0519	30,652	12,861
83727	-3,1068	-4,045	31,321	13,147
83728	-3,416	-4,5298	30,963	12,976
83729	-12,332	-4,2263	-0,14758	11,085
83730	-12,04	-4,0472	0,28824	10,948
83731	-12,363	-4,5385	0,36512	11,124
83732	-3,8881	-4,0317	32,613	13,644
83733	-3,9056	-4,0284	33,26	13,955
83734	-4,2503	-4,5097	32,936	13,77
83735	-2,8605	-4,0672	29,296	12,306
83736	-2,9367	-4,0439	29,976	12,587
83737	-3,2149	-4,5217	29,618	12,426
83738	-3,1617	-4,0373	31,984	13,434
83739	-3,1952	-4,0405	32,639	13,73
83740	-3,5258	-4,522	32,289	13,554
83741	-2,2657	-4,0952	29,321	12,357
83742	-2,1834	-4,0971	28,669	12,087
83743	-2,5224	-4,5454	28,981	12,212
83744	-2,3419	-4,0719	30,001	12,636
83745	-2,3944	-4,0551	30,667	12,919
83746	-2,6846	-4,5222	30,328	12,767
83747	-12,777	-4,2121	-0,6969	11,32
83748	-13,252	-4,5243	-0,73352	11,584
83749	-1,7353	-4,0966	29,99	12,665
83750	-1,6813	-4,1054	29,337	12,39
83751	-2,0091	-4,5497	29,661	12,525
83752	-11,875	-4,2143	-0,43449	10,871
83753	-12,316	-4,6878	-0,61456	11,101
83754	-2,4558	-4,0481	31,336	13,204
83755	-2,4917	-4,0367	32,019	13,503
83756	-2,8054	-4,5152	31,662	13,337
83757	-3,2128	-4,0372	33,287	14,04
83758	-3,2196	-4,0435	33,937	14,362
83759	-3,5609	-4,5188	33,584	14,176
83760	-11,536	-4,0217	0,53522	10,694
83761	-11,582	-4,0352	1,3325e-003	10,725
83762	-11,683	-4,5087	0,29141	10,791
83763	-2,5253	-4,04	32,674	13,798
83764	-2,518	-4,0437	33,34	14,099
83765	-2,862	-4,5185	32,976	13,93
83766	-1,7877	-4,0798	30,656	12,946
83767	-1,8164	-4,0711	31,324	13,234
83768	-2,1205	-4,5329	30,992	13,089
83769	-1,8523	-4,0596	32,007	13,532
83770	-1,8542	-4,0474	32,704	13,835
83771	-2,1834	-4,5215	32,339	13,677
83772	-1,1712	-4,0894	30,643	12,963
83773	-1,1439	-4,0888	29,966	12,674
83774	-1,4614	-4,5469	30,32	12,829
83775	-1,1998	-4,0807	31,311	13,25
83776	-1,2148	-4,0657	32,014	13,554
83777	-1,5187	-4,5381	31,655	13,403
83778	-1,9924	-4,0837	27,998	11,822
83779	-1,6457	-4,067	27,364	11,568
83780	-2,1505	-4,532	27,617	11,67
83781	-0,57777	-4,0818	30,607	12,958
83782	-0,59387	-4,073	31,322	13,267
83783	-0,88093	-4,5426	30,967	13,122
83784	-11,116	-4,0139	1,2688	10,469
83785	-11,053	-4,0408	0,61456	10,482
83786	-11,296	-4,513	0,93138	10,591
83787	-11,099	-4,0543	8,0668e-002	10,51
83788	-11,412	-4,5265	-0,23932	10,667
83789	-1,599	-4,1074	28,685	12,122
83790	-1,5467	-4,1035	28,135	11,89
83791	-1,8444	-4,5517	28,358	11,987
83792	-10,644	-4,0008	2,1212	10,194
83793	-10,517	-4,002	1,3944	10,215
83794	-10,823	-4,5009	1,7228	10,329
83795	-10,454	-4,029	0,74022	10,224
83796	-10,687	-4,5279	0,36491	10,351
83797	-10,208	-3,9913	3,1835	9,8769
83798	-9,9972	-3,9849	2,271	9,9316
83799	-10,339	-4,4999	2,6284	10,033
83800	-1,0816	-4,0952	28,65	12,121
83801	-1,09	-4,0975	29,312	12,4
83802	-1,3536	-4,5557	29,013	12,279
83803	-9,5453	-3,975	4,2673	9,469
83804	-9,4849	-3,9687	3,3485	9,5994
83805	-9,9019	-4,4915	3,8382	9,6844
83806	-1,1999	-4,0868	27,501	11,64
83807	-1,0294	-4,0913	28,1	11,89
83808	-1,249	-4,5518	27,912	11,819
83809	-9,8707	-3,9862	1,5442	9,9496
83810	-10,112	-4,5011	1,1423	10,089
83811	-3,1967	-4,0482	34,612	14,731
83812	-3,0308	-4,1169	35,334	15,111
83813	-3,5199	-4,5235	34,922	14,908
83814	-0,70749	-4,0635	27,293	11,559
83815	-0,78081	-4,0666	26,61	11,275
83816	-1,152	-4,535	27,046	11,464
83817	-0,5369	-4,0681	27,891	11,812
83818	-0,51073	-4,0836	28,548	12,088
83819	-0,77633	-4,5395	28,268	11,978
83820	-0,51907	-4,0859	29,211	12,367
83821	-0,55048	-4,0811	29,929	12,669
83822	-0,82185	-4,5419	29,606	12,541
83823	-2,5249	-4,05	33,99	14,421
83824	-2,5038	-4,0548	34,677	14,753
83825	-2,8766	-4,5248	34,29	14,58
83826	-8,7276	-3,9709	5,1644	9,0354
83827	-8,7038	-3,9532	4,2681	9,1919
83828	-9,0646	-4,4835	4,7429	9,2345
83829	6,7592e-002	-4,0451	27,782	11,768
83830	1,2087e-003	-4,0442	27,057	11,468
83831	-0,2535	-4,5285	27,444	11,64
83832	9,376e-002	-4,0606	28,439	12,045
83833	4,8948e-002	-4,0851	29,135	12,339
83834	-0,2118	-4,544	28,81	12,212
83835	-1,847	-4,0511	33,369	14,137
83836	-1,8298	-4,0524	34,042	14,439
83837	-2,1932	-4,5252	33,674	14,286
83838	0,65978	-4,0456	28,402	12,024
83839	0,70382	-4,0258	27,64	11,705
83840	0,39292	-4,5166	28,02	11,879
83841	-1,2168	-4,0535	32,71	13,857
83842	-1,2072	-4,0547	33,385	14,15
83843	-1,5341	-4,5259	33,026	14,001
83844	-8,0508	-3,9965	5,8815	8,701
83845	-8,0244	-3,9612	5,0978	8,8418
83846	-8,3698	-4,4874	5,5974	8,8555
83847	-0,60887	-4,058	32,024	13,571
83848	-0,59736	-4,0616	32,696	13,858
83849	-0,90723	-4,5276	32,352	13,719
83850	-2,3379	-4,1235	35,398	15,14
83851	-2,3726	-4,1279	36,099	15,499
83852	-2,713	-4,5935	35,701	15,343
83853	1,754e-002	-4,0803	29,854	12,642
83854	5,7901e-003	-4,0734	30,59	12,955
83855	-0,27147	-4,5393	30,241	12,818
83856	-1,8087	-4,0572	34,728	14,773
83857	-1,8589	-4,0511	35,42	15,082
83858	-2,1758	-4,53	35,046	14,948
83859	0,61496	-4,0701	29,097	12,317
83860	0,57869	-4,0642	29,825	12,623
83861	0,30969	-4,5411	29,461	12,486
83862	-1,0307e-002	-4,0645	31,305	13,264
83863	6,3257e-003	-4,0675	31,995	13,56
83864	-0,29707	-4,5304	31,655	13,426
83865	-1,19	-4,056	34,058	14,453
83866	-1,2089	-4,0522	34,746	14,74
83867	-1,5282	-4,5272	34,384	14,608
83868	1,1329	-4,0676	29,088	12,305
83869	1,3841	-4,057	28,388	12,
83870	0,90473	-4,529	28,694	12,155
83871	-0,2277	-4,0331	25,709	10,906
83872	-7,2111e-002	-4,0474	26,375	11,183
83873	-0,41077	-4,5317	26,129	11,09
83874	0,56694	-4,0572	30,561	12,937
83875	0,58914	-4,0719	31,258	13,237
83876	0,29681	-4,5341	30,92	13,109
83877	-0,58777	-4,0628	33,371	14,151
83878	-0,57996	-4,0532	34,061	14,441
83879	-0,90669	-4,5288	33,713	14,308
83880	1,0967	-4,0617	29,815	12,61
83881	1,1467	-4,0659	30,521	12,907
83882	0,84878	-4,5231	30,178	12,781
83883	-7,4521	-4,0274	6,4789	8,4226
83884	-7,3906	-3,9969	5,7333	8,5535
83885	-7,7318	-4,5092	6,1656	8,5651
83886	-9,274	-3,9622	2,4359	9,6508
83887	-9,5317	-4,4851	2,0122	9,8037
83888	-6,9064	-4,0391	7,1405	8,1618
83889	-6,8129	-4,0158	6,4166	8,2819
83890	-7,1724	-4,5182	6,7922	8,2988
83891	1,5699	-4,0698	29,149	12,317
83892	1,6556	-4,072	29,762	12,571
83893	1,3456	-4,5386	29,441	12,459
83894	-8,6433	-3,9468	3,3493	9,3272
83895	-8,9334	-4,4772	2,9153	9,4954
83896	1,821	-4,0591	28,45	12,015
83897	2,0763	-4,056	29,071	12,259
83898	1,8017	-4,5312	28,864	12,198
83899	-6,393	-4,0456	7,8699	7,9111
83900	-6,2955	-4,0194	7,1378	8,0292
83901	-6,6404	-4,5209	7,4888	8,041
83902	0,3568	-4,0092	25,496	10,816
83903	-0,11543	-4,0576	24,812	10,537
83904	2,8165e-002	-4,5014	25,227	10,717
83905	0,51238	-4,0234	26,162	11,094
83906	0,63743	-4,025	26,915	11,404
83907	0,28371	-4,5157	26,583	11,281
83908	1,7834e-002	-4,071	32,666	13,846
83909	2,7279e-002	-4,0652	33,366	14,148
83910	-0,28379	-4,5339	33,02	14,01
83911	1,1569	-4,0113	26,019	11,025
83912	0,97127	-4,0058	25,272	10,722
83913	0,80764	-4,5077	25,631	10,881
83914	1,282	-4,0129	26,773	11,336
83915	1,4281	-4,0372	27,627	11,682
83916	1,013	-4,5093	27,164	11,514
83917	-3,5134	-4,0454	16,689	7,6392
83918	-3,3629	-4,0393	16,	7,4548
83919	-3,7348	-4,5239	16,305	7,5651
83920	-5,9089	-4,0427	8,6359	7,6779
83921	-5,7655	-4,0295	7,9397	7,7713
83922	-6,1456	-4,5247	8,2509	7,7955
83923	-3,0971	-4,0427	17,474	7,8267
83924	-2,8947	-4,0372	16,706	7,5948
83925	-3,292	-4,5215	17,073	7,729
83926	-5,4387	-4,0447	9,4036	7,4724
83927	-5,2976	-4,0335	8,7694	7,5429
83928	-5,6842	-4,518	9,0165	7,5777
83929	1,9506	-4,0111	26,637	11,26
83930	1,7838	-4,0135	25,884	10,96
83931	1,577	-4,5036	26,282	11,138
83932	0,60577	-4,0748	31,948	13,533
83933	0,63281	-4,0709	32,64	13,834
83934	0,31946	-4,537	32,313	13,706
83935	-2,6906	-4,0321	18,293	8,0575
83936	-2,5147	-4,0314	17,553	7,8136
83937	-2,9023	-4,5212	17,874	7,9402
83938	-8,0005	-3,9435	4,2015	9,0049
83939	-8,3229	-4,4697	3,7975	9,1754
83940	1,1689	-4,0806	31,217	13,208
83941	1,2106	-4,0727	31,913	13,508
83942	0,89307	-4,5378	31,586	13,386
83943	-7,3642	-3,9615	4,9496	8,7027
83944	-7,6832	-4,4738	4,599	8,8584
83945	2,0967	-4,0354	27,49	11,608
83946	2,2635	-4,0439	28,195	11,886
83947	1,7539	-4,528	27,946	11,819
83948	-6,7514	-3,9853	5,671	8,4183
83949	-7,0494	-4,4877	5,3009	8,5665
83950	-2,284	-4,0276	19,129	8,3228
83951	-2,1106	-4,0289	18,392	8,0629
83952	-2,4955	-4,5109	18,713	8,1929
83953	-4,9742	-4,0595	10,162	7,2992
83954	-4,8209	-4,0438	9,5193	7,3514
83955	-5,2053	-4,5267	9,7874	7,384
83956	1,7056	-4,0763	30,468	12,868
83957	1,769	-4,0795	31,169	13,167
83958	1,4457	-4,5428	30,852	13,056
83959	-4,4997	-4,0535	10,906	7,1603
83960	-4,4143	-4,0788	10,252	7,203
83961	-4,7356	-4,5328	10,527	7,2278
83962	-1,8924	-4,0389	19,956	8,6096
83963	-1,7263	-4,0437	19,22	8,3366
83964	-2,105	-4,5167	19,549	8,472
83965	-4,011	-4,0307	11,659	7,0568
83966	-3,9054	-4,0373	10,983	7,0713
83967	-4,2599	-4,5208	11,287	7,1055
83968	-1,4855	-4,0541	20,792	8,9182
83969	-1,3542	-4,0628	20,039	8,6285
83970	-1,7106	-4,5222	20,38	8,7707
83971	2,7069	-4,0168	27,236	11,474
83972	2,5669	-4,015	26,508	11,19
83973	2,3511	-4,5075	26,91	11,371
83974	-1,0521	-4,0543	21,654	9,2511
83975	-0,94686	-4,0757	20,879	8,9451
83976	-1,2733	-4,5319	21,222	9,0894
83977	2,162	-4,0582	29,684	12,513
83978	2,2941	-4,0689	30,392	12,804
83979	1,9593	-4,5334	30,102	12,714
83980	-6,202	-3,9961	6,4139	8,1529
83981	-6,0901	-3,9759	5,6466	8,2796
83982	-6,4535	-4,4976	6,041	8,2857
83983	2,5187	-4,0408	28,816	12,133
83984	2,7126	-4,0524	29,569	12,428
83985	2,3921	-4,5248	29,303	12,352
83986	-0,60043	-4,0391	22,55	9,6087
83987	-0,44411	-4,0601	21,76	9,2899
83988	-0,82874	-4,5224	22,089	9,4312
83989	2,8737	-4,0253	27,941	11,754
83990	3,0775	-4,0328	28,664	12,028
83991	2,679	-4,516	28,348	11,942
83992	-0,27918	-4,0728	23,674	10,068
83993	-4,1348e-002	-4,0501	22,813	9,7142
83994	-0,35955	-4,5167	23,014	9,8055
83995	-3,533	-4,0144	12,447	6,9982
83996	-3,3794	-4,0305	11,75	6,9768
83997	-3,7646	-4,51	12,054	7,0219
83998	3,3158	-4,0183	27,113	11,395
83999	3,479	-4,0209	27,83	11,663
84000	3,0683	-4,5093	27,534	11,588
84001	-5,668	-4,0033	7,2076	7,8904
84002	-5,5777	-3,9742	6,4182	8,029
84003	-5,919	-4,4985	6,7938	8,0257
84004	0,49905	-4,0542	24,588	10,437
84005	0,37215	-4,0769	23,834	10,13
84006	3,8646e-002	-4,5561	24,198	10,293
84007	-5,1541	-4,0203	8,0732	7,6353
84008	-4,9992	-3,9863	7,2885	7,7568
84009	-5,3739	-4,5048	7,6204	7,7622
84010	-1,8936	-4,0555	36,12	15,443
84011	-1,8968	-4,0518	36,823	15,751
84012	-2,2387	-4,5344	36,455	15,684
84013	-4,6798	-4,0326	8,885	7,4213
84014	-4,4962	-4,0029	8,1842	7,5111
84015	-4,923	-4,5154	8,518	7,5233
84016	-1,2591	-4,0461	35,437	15,049
84017	-1,2716	-4,0398	36,138	15,321
84018	-1,5886	-4,5211	35,777	15,229
84019	-3,0823	-4,0076	13,278	6,994
84020	-2,8909	-4,0085	12,563	6,9332
84021	-3,2931	-4,5044	12,847	6,9883
84022	1,5982	-4,008	25,137	10,656
84023	1,4213	-4,0051	24,408	10,363
84024	1,1899	-4,4981	24,795	10,533
84025	-0,59895	-4,0494	34,749	14,728
84026	-0,61341	-4,0483	35,45	14,997
84027	-0,92974	-4,525	35,098	14,883
84028	2,4001	-4,0174	25,755	10,889
84029	2,2267	-4,0216	25,025	10,603
84030	2,0083	-4,5099	25,424	10,778
84031	3,5095e-002	-4,0556	34,057	14,438
84032	5,2634e-002	-4,0499	34,743	14,716
84033	-0,27879	-4,5244	34,405	14,589
84034	-2,6473	-4,0049	14,236	7,0615
84035	-2,4547	-3,9984	13,444	6,9518
84036	-2,8496	-4,5032	13,716	7,0145
84037	0,64226	-4,0651	33,34	14,135
84038	0,66857	-4,064	34,027	14,432
84039	0,33835	-4,5312	33,713	14,305
84040	-2,7442	-4,0311	16,017	7,4108
84041	-2,7107	-4,0171	15,23	7,2353
84042	-2,9911	-4,5154	15,694	7,358
84043	1,2376	-4,0688	32,605	13,809
84044	1,2768	-4,0689	33,273	14,106
84045	0,94467	-4,5339	32,976	13,99
84046	-2,1544	-4,0267	16,003	7,3687
84047	-2,3122	-4,0259	16,785	7,5811
84048	-2,4974	-4,5157	16,339	7,4768
84049	3,1758	-4,0166	26,385	11,11
84050	2,9978	-4,0249	25,662	10,836
84051	2,7758	-4,5075	26,069	11,015
84052	1,8107	-4,0716	31,865	13,468
84053	1,8668	-4,065	32,527	13,759
84054	1,5291	-4,5349	32,244	13,657
84055	2,3575	-4,0722	31,093	13,104
84056	2,4313	-4,0659	31,767	13,393
84057	2,0923	-4,5367	31,487	13,303
84058	0,60999	-4,0542	22,973	9,7794
84059	0,11497	-4,0711	22,024	9,3947
84060	0,50362	-4,0687	22,243	9,4844
84061	0,27422	-4,5335	22,559	9,6194
84062	2,8447	-4,0631	30,277	12,721
84063	2,9679	-4,0612	30,989	13,012
84064	2,6226	-4,5355	30,7	12,93
84065	3,9505	-4,0215	26,994	11,301
84066	3,7775	-4,0245	26,279	11,041
84067	3,5536	-4,509	26,694	11,226
84068	-4,261	-4,0631	9,609	7,2549
84069	-3,9114	-4,0058	9,0276	7,2892
84070	-4,4864	-4,5171	9,2517	7,3387
84071	3,2713	-4,0444	29,417	12,327
84072	3,4322	-4,0484	30,146	12,609
84073	3,0668	-4,5276	29,855	12,536
84074	1,2944	-4,0278	23,654	10,056
84075	1,1541	-4,0378	22,928	9,7628
84076	0,93054	-4,5208	23,332	9,9356
84077	-3,7971	-4,0845	9,7956	7,1683
84078	-3,8199	-4,0626	10,329	7,1129
84079	-4,0853	-4,546	9,9659	7,1885
84080	3,6828	-4,0284	28,553	11,94
84081	3,8642	-4,0313	29,281	12,209
84082	3,4759	-4,5168	28,98	12,141
84083	2,0499	-4,0187	24,297	10,309
84084	1,8735	-4,0326	23,584	10,026
84085	1,6431	-4,507	23,979	10,196
84086	-2,1208	-4,0128	15,217	7,1927
84087	-1,9899	-4,0029	14,45	7,0456
84088	-2,3796	-4,5017	14,75	7,124
84089	4,1137	-4,0241	27,71	11,57
84090	4,2933	-4,0231	28,429	11,826
84091	3,8897	-4,5116	28,126	11,763
84092	-1,623	-4,0309	16,139	7,3763
84093	-1,4764	-4,0254	15,357	7,1878
84094	-1,8114	-4,511	15,668	7,2741
84095	-3,2073	-4,0663	9,8068	7,0963
84096	-3,4475	-4,0272	9,2142	7,2017
84097	-3,5089	-4,5385	9,6253	7,1553
84098	2,8244	-4,0291	24,932	10,548
84099	2,6624	-4,0228	24,215	10,271
84100	2,432	-4,5117	24,617	10,444
84101	-1,9347	-4,0282	17,652	7,818
84102	-1,7808	-4,03	16,921	7,5921
84103	-2,1369	-4,5102	17,235	7,704
84104	-1,2749	-4,0361	36,841	15,632
84105	-1,2599	-4,0391	37,526	15,827
84106	-1,6206	-4,5174	37,185	15,856
84107	-1,5529	-4,045	18,482	8,0762
84108	-1,3717	-4,0476	17,758	7,8308
84109	-1,7528	-4,518	18,075	7,9506
84110	-0,62591	-4,042	36,15	15,27
84111	-0,62664	-4,0368	36,848	15,473
84112	-0,95474	-4,5187	36,499	15,413
84113	-3,2302	-4,0444	10,34	7,0405
84114	-3,2738	-4,0371	11,073	6,9896
84115	-3,5487	-4,5166	10,71	7,0465
84116	3,8169e-002	-4,0488	35,443	14,985
84117	2,9325e-002	-4,045	36,146	15,232
84118	-0,29709	-4,5233	35,802	15,114
84119	-2,6083	-4,0364	10,355	6,9775
84120	-2,6446	-4,015	9,6892	7,0549
84121	-2,9058	-4,5278	9,9884	7,0446
84122	0,68611	-4,0583	34,713	14,709
84123	0,6864	-4,0493	35,425	15,002
84124	0,35964	-4,5255	35,091	14,858
84125	-1,1882	-4,0676	19,303	8,3555
84126	-1,0422	-4,0582	18,461	8,0551
84127	-1,3696	-4,527	18,901	8,2208
84128	1,3031	-4,0678	33,96	14,403
84129	1,3233	-4,0648	34,665	14,721
84130	0,98746	-4,5328	34,359	14,582
84131	-1,2179	-4,0495	17,027	7,6036
84132	-1,0722	-4,044	16,285	7,3938
84133	-1,4347	-4,5198	16,61	7,4956
84134	-0,61171	-4,0398	37,533	15,671
84135	-0,57351	-4,1001	38,255	15,728
84136	-0,94831	-4,5217	37,874	15,799
84137	-0,68045	-4,0854	19,411	8,3868
84138	-0,81555	-4,0844	20,127	8,6553
84139	-1,0246	-4,5406	19,729	8,5143
84140	1,906	-4,0651	33,194	14,056
84141	1,9383	-4,0648	33,886	14,379
84142	1,6006	-4,5351	33,606	14,262
84143	2,8598e-002	-4,0397	36,844	15,436
84144	3,9981e-002	-4,0356	37,545	15,587
84145	-0,29854	-4,518	37,196	15,502
84146	-2,7373	-4,0245	11,865	6,9096
84147	-2,6519	-4,0291	11,088	6,9261
84148	-2,993	-4,5205	11,454	6,9437
84149	0,67756	-4,0455	36,128	15,248
84150	0,68717	-4,043	36,824	15,499
84151	0,35574	-4,5217	36,491	15,334
84152	2,4875	-4,0593	32,428	13,685
84153	2,5435	-4,0526	33,111	13,998
84154	2,1976	-4,5301	32,842	13,903
84155	-0,86099	-4,0609	17,736	7,8124
84156	-0,64075	-4,0601	17,125	7,6185
84157	-1,0036	-4,5296	17,453	7,7295
84158	1,3236	-4,0558	35,376	15,013
84159	1,3303	-4,0466	36,083	15,335
84160	0,99937	-4,5238	35,765	15,153
84161	-0,53451	-4,0761	18,569	8,0852
84162	-0,23007	-4,1509	17,832	7,8353
84163	-0,67127	-4,5312	18,131	7,9426
84164	1,9585	-4,0617	34,591	14,697
84165	1,9795	-4,0544	35,306	15,057
84166	1,6421	-4,532	35,003	14,891
84167	3,1218	-4,0474	32,342	13,599
84168	3,0417	-4,0549	31,663	13,303
84169	2,7692	-4,5292	32,07	13,52
84170	-0,19854	-4,0925	19,505	8,4189
84171	-8,117e-002	-4,1149	18,84	8,1783
84172	-0,36211	-4,5448	19,08	8,2695
84173	2,5758	-4,0522	33,804	14,322
84174	2,6151	-4,0474	34,529	14,69
84175	2,2684	-4,5297	34,226	14,549
84176	7,8177e-002	-4,096	38,267	15,645
84177	0,16048	-4,1333	38,903	15,69
84178	-0,23869	-4,5784	38,61	15,593
84179	-0,33365	-4,0915	20,22	8,6874
84180	-0,3389	-4,0814	20,986	8,9837
84181	-0,63782	-4,5438	20,533	8,8156
84182	3,1778	-4,0407	33,025	13,914
84183	3,2329	-4,0362	33,724	14,256
84184	2,8782	-4,5225	33,453	14,158
84185	0,69855	-4,0389	37,526	15,65
84186	0,73126	-4,0568	38,204	15,838
84187	0,37851	-4,5176	37,894	15,615
84188	3,7527	-4,0344	32,252	13,495
84189	3,8398	-4,0276	32,959	13,814
84190	3,4729	-4,5181	32,664	13,733
84191	4,5634	-4,0259	26,881	11,215
84192	4,7439	-4,0236	27,59	11,458
84193	4,3377	-4,5124	27,295	11,401
84194	3,5995	-4,0329	25,556	10,765
84195	3,4262	-4,0364	24,839	10,499
84196	3,2074	-4,5174	25,247	10,674
84197	0,81356	-4,0942	38,84	15,884
84198	0,86082	-4,0755	39,594	16,087
84199	0,49361	-4,555	39,266	15,607
84200	4,3904	-4,029	26,166	10,954
84201	4,217	-4,0318	25,453	10,702
84202	3,9917	-4,5155	25,865	10,879
84203	1,34	-4,0441	36,779	15,584
84204	1,3496	-4,0449	37,475	15,911
84205	1,0186	-4,5213	37,157	15,64
84206	5,1952	-4,0249	26,758	11,106
84207	5,0151	-4,0273	26,051	10,872
84208	4,7891	-4,5135	26,467	11,052
84209	3,5554	-4,0465	30,858	12,903
84210	3,6726	-4,042	31,573	13,196
84211	3,3131	-4,5257	31,278	13,122
84212	1,3823	-4,0628	38,153	16,096
84213	1,407	-4,0624	38,848	16,475
84214	1,0685	-4,5392	38,542	16,005
84215	4,0251	-4,0353	30,009	12,494
84216	4,1745	-4,0341	30,73	12,768
84217	3,7976	-4,5208	30,437	12,71
84218	1,9862	-4,0452	36,012	15,377
84219	1,9888	-4,048	36,702	15,766
84220	1,6613	-4,5228	36,401	15,524
84221	1,9984	-4,0488	37,398	16,088
84222	1,9995	-4,0546	38,09	16,556
84223	1,6806	-4,5235	37,793	16,172
84224	-2,2633	-3,9992	12,728	6,8869
84225	-2,0984	-3,9958	11,972	6,8566
84226	-2,4815	-4,504	12,275	6,8897
84227	4,4746	-4,026	29,157	12,097
84228	4,6455	-4,025	29,876	12,353
84229	4,2525	-4,5145	29,582	12,304
84230	2,6488	-4,0437	35,922	15,451
84231	2,6361	-4,0401	35,243	15,048
84232	2,3114	-4,5224	35,628	15,255
84233	4,9234	-4,0226	28,309	11,716
84234	5,102	-4,0204	29,024	11,955
84235	4,6968	-4,5115	28,731	11,915
84236	2,6513	-4,0465	36,612	15,836
84237	2,6397	-4,0547	37,29	16,328
84238	2,3163	-4,5252	37,004	16,032
84239	5,3756	-4,0226	27,467	11,351
84240	5,5562	-4,0201	28,175	11,576
84241	5,15	-4,5111	27,886	11,54
84242	-1,6179	-3,9924	12,9	6,8539
84243	-1,7974	-3,9963	13,658	6,9289
84244	-2,0452	-4,4952	13,181	6,9005
84245	3,3074	-4,046	36,5	15,895
84246	3,3314	-4,0337	35,836	15,428
84247	2,9863	-4,5213	36,22	15,689
84248	-2,013	-4,0004	11,195	6,8697
84249	-1,9729	-3,9984	10,437	6,9199
84250	-2,3107	-4,5086	10,721	6,9216
84251	6,0116	-4,0208	27,332	11,216
84252	5,8297	-4,023	26,63	11,003
84253	5,6012	-4,5114	27,048	11,184
84254	-1,453	-3,9891	12,143	6,8186
84255	-1,3453	-3,9734	11,366	6,8237
84256	-1,7153	-4,4918	11,668	6,8349
84257	0,14923	-4,0795	19,644	8,4705
84258	0,19354	-4,0876	20,227	8,6894
84259	-0,10678	-4,5477	19,879	8,5636
84260	4,2918	-4,0296	31,445	13,064
84261	4,4071	-4,018	32,148	13,352
84262	4,0322	-4,5163	31,867	13,3
84263	-0,95975	-4,0032	13,112	6,8408
84264	-0,7917	-3,979	12,339	6,7966
84265	-1,1763	-4,4973	12,619	6,8191
84266	-1,1392	-4,0071	13,87	6,9221
84267	-1,3454	-4,0155	14,591	7,0364
84268	-1,5585	-4,5012	14,111	6,9729
84269	4,9373	-4,0153	31,308	12,894
84270	4,7949	-4,0238	30,597	12,63
84271	4,5514	-4,5133	31,023	12,857
84272	3,2722	-4,0314	34,448	14,624
84273	3,3187	-4,0301	35,157	15,026
84274	2,961	-4,5177	34,863	14,879
84275	-0,56596	-4,0312	14,022	6,9273
84276	-0,18541	-4,0157	13,408	6,8506
84277	-0,7255	-4,506	13,56	6,8751
84278	3,8949	-4,0232	33,658	14,158
84279	3,9492	-4,0195	34,335	14,512
84280	3,5914	-4,5137	34,058	14,419
84281	0,32916	-4,0729	21,652	9,2468
84282	0,18828	-4,0776	20,993	8,9857
84283	-9,6944e-002	-4,5377	21,426	9,1645
84284	0,58027	-4,0693	19,602	8,4573
84285	0,26661	-4,102	18,979	8,2285
84286	0,33495	-4,5319	19,431	8,3963
84287	0,90124	-4,0722	21,515	9,1955
84288	1,0477	-4,0523	22,198	9,4671
84289	0,71781	-4,5353	21,871	9,3438
84290	1,4542	-4,0438	39,602	16,677
84291	1,1867	-4,5206	40,029	16,419
84292	4,4943	-4,0112	32,855	13,674
84293	4,5819	-4,0113	33,572	14,009
84294	4,2064	-4,5095	33,282	13,945
84295	2,0242	-4,0542	38,785	16,926
84296	2,0738	-4,0479	39,445	17,604
84297	1,7299	-4,5232	39,182	16,941
84298	0,62457	-4,0773	20,186	8,6761
84299	0,76036	-4,0769	20,856	8,9341
84300	0,40754	-4,5399	20,585	8,8341
84301	2,6409	-4,0605	37,981	16,787
84302	2,6524	-4,0666	38,665	17,475
84303	2,3185	-4,531	38,387	16,993
84304	1,1451	-4,0631	20,092	8,6454
84305	0,94812	-4,0884	19,394	8,3847
84306	0,77927	-4,5374	19,797	8,5366
84307	1,2809	-4,0627	20,762	8,9036
84308	1,4184	-4,0733	21,457	9,1751
84309	1,0701	-4,5369	21,154	9,0609
84310	5,0526	-4,0037	32,01	13,185
84311	5,17	-3,9988	32,734	13,479
84312	4,7791	-4,5017	32,444	13,446
84313	1,8378	-4,061	20,67	8,8755
84314	1,653	-4,0643	19,963	8,6071
84315	1,462	-4,5257	20,366	8,7605
84316	5,5756	-4,0068	31,165	12,721
84317	5,7187	-4,0001	31,886	12,978
84318	5,3213	-4,5019	31,6	12,966
84319	3,2958	-4,0542	37,177	16,382
84320	3,2602	-4,0722	37,865	17,013
84321	2,9571	-4,5295	37,584	16,692
84322	-0,7722	-4,0397	14,742	7,0442
84323	-0,92557	-4,0385	15,503	7,2014
84324	-1,1413	-4,5144	15,046	7,1137
84325	4,0022	-4,0363	36,412	15,834
84326	3,9058	-4,0711	37,084	16,396
84327	3,6254	-4,5247	36,785	16,173
84328	4,0262	-4,024	35,748	15,368
84329	3,9957	-4,0182	35,044	14,916
84330	3,6765	-4,5124	35,452	15,22
84331	-0,24159	-4,0606	14,909	7,0673
84332	-2,1219e-002	-4,0604	14,297	6,9609
84333	-0,40307	-4,5253	14,438	6,987
84334	-0,39496	-4,0595	15,67	7,2288
84335	-0,49511	-4,0546	16,384	7,4077
84336	-0,73321	-4,5241	15,975	7,3092
84337	4,7553	-4,0045	35,664	15,21
84338	4,6665	-4,0396	36,324	15,705
84339	4,376	-4,5116	36,044	15,58
84340	1,5649	-4,0533	22,14	9,4475
84341	1,7332	-4,0426	22,858	9,7325
84342	1,3684	-4,517	22,534	9,6114
84343	4,7247	-3,9987	34,959	14,754
84344	4,6362	-4,0077	34,249	14,367
84345	4,3156	-4,5059	34,666	14,68
84346	1,9754	-4,0716	21,365	9,147
84347	2,1396	-4,0645	22,072	9,4226
84348	1,7521	-4,5363	21,755	9,304
84349	5,4332	-4,0153	30,454	12,454
84350	5,2728	-4,0195	29,743	12,213
84351	5,0384	-4,5105	30,171	12,43
84352	5,4579	-3,9868	34,867	14,539
84353	5,5851	-3,9896	35,613	14,938
84354	5,1345	-4,4929	35,283	14,908
84355	2,397	-4,0649	20,571	8,8514
84356	2,5855	-4,0508	21,278	9,1204
84357	2,1986	-4,5353	20,975	9,0068
84358	6,0724	-4,0102	30,311	12,282
84359	6,2349	-4,0045	31,022	12,506
84360	5,8283	-4,5049	30,743	12,511
84361	0,13035	-4,0903	15,173	7,1172
84362	0,13974	-4,07	15,747	7,2447
84363	-0,11749	-4,5353	15,393	7,1665
84364	5,7348	-4,0179	28,89	11,818
84365	5,912	-4,0143	29,599	12,038
84366	5,5072	-4,509	29,316	12,023
84367	0,49015	-4,0978	15,129	7,1121
84368	0,35072	-4,0901	14,561	7,0045
84369	0,34082	-4,555	14,966	7,0788
84370	5,2577	-3,9989	33,451	13,819
84371	5,3693	-3,9958	34,157	14,145
84372	4,9598	-4,5018	33,869	14,118
84373	6,1922	-4,0183	28,04	11,443
84374	6,3785	-4,0152	28,741	11,645
84375	5,9624	-4,5089	28,464	11,638
84376	5,8362	-3,9953	32,609	13,277
84377	5,9694	-3,9833	33,323	13,554
84378	5,558	-4,4971	33,039	13,56
84379	3,959e-002	-4,0651	16,461	7,4245
84380	-9,8244e-003	-4,1501	17,221	7,6436
84381	-0,28042	-4,5305	16,808	7,5255
84382	6,6529	-4,0187	27,197	11,09
84383	6,841	-4,0165	27,893	11,279
84384	6,4219	-4,5093	27,615	11,272
84385	0,49954	-4,0775	15,703	7,2383
84386	0,66064	-4,0638	16,437	7,4246
84387	0,33771	-4,5347	16,139	7,3445
84388	0,22327	-4,1898	18,103	7,9261
84389	0,63446	-4,1211	18,77	8,1562
84390	0,25125	-4,5701	18,63	8,1092
84391	6,378	-3,9978	31,743	12,767
84392	6,529	-3,9892	32,454	13,001
84393	6,1144	-4,4982	32,179	13,029
84394	6,7308	-4,0067	30,157	12,068
84395	6,5557	-4,0116	29,45	11,869
84396	6,3168	-4,5053	29,883	12,083
84397	6,8932	-4,001	30,869	12,296
84398	7,0602	-3,9946	31,579	12,495
84399	6,6417	-4,4996	31,307	12,536
84400	0,61122	-4,1488	17,197	7,6415
84401	0,83661	-4,1382	17,92	7,8705
84402	0,29373	-4,6197	17,636	7,7782
84403	1,0495	-4,0756	15,619	7,2301
84404	0,87595	-4,0737	14,945	7,0849
84405	0,7195	-4,5428	15,308	7,1559
84406	1,2478	-4,0695	18,587	8,1042
84407	1,4561	-4,0896	19,265	8,3464
84408	1,0831	-4,551	18,969	8,2386
84409	1,2106	-4,0619	16,353	7,4158
84410	1,3806	-4,0429	17,064	7,6181
84411	0,96167	-4,5291	16,76	7,5231
84412	1,6059	-4,0323	17,786	7,8481
84413	1,8174	-4,0325	18,486	8,0837
84414	1,3755	-4,5185	18,175	7,9717
84415	2,4861	-4,0367	23,502	9,9864
84416	2,3079	-4,0538	22,79	9,7084
84417	2,0888	-4,5256	23,191	9,8759
84418	1,8335	-4,056	16,252	7,4135
84419	1,677	-4,0605	15,535	7,2358
84420	1,4596	-4,5328	15,946	7,3238
84421	3,2642	-4,0301	24,122	10,22
84422	3,0998	-4,025	23,409	9,9485
84423	2,8692	-4,5111	23,815	10,118
84424	2,0034	-4,0369	16,962	7,6149
84425	2,213	-4,0193	17,665	7,8329
84426	1,7642	-4,5138	17,362	7,7255
84427	2,0256	-4,0526	19,163	8,3264
84428	2,2122	-4,0682	19,864	8,5828
84429	1,829	-4,5386	19,561	8,4691
84430	2,6266	-4,0286	16,859	7,6189
84431	2,4295	-4,0461	16,156	7,4236
84432	2,2074	-4,5231	16,557	7,5167
84433	2,4244	-4,0195	18,364	8,0682
84434	2,6144	-4,0315	19,066	8,3116
84435	2,1989	-4,514	18,752	8,1937
84436	0,73652	-4,066	14,377	6,9815
84437	0,35933	-4,0449	13,684	6,8816
84438	0,36063	-4,5351	14,157	6,943
84439	2,8362	-4,011	17,562	7,8364
84440	3,0122	-4,0268	18,261	8,0627
84441	2,6009	-4,5055	17,956	7,9492
84442	1,5034	-4,0586	14,861	7,0905
84443	1,2833	-4,0513	14,174	6,9692
84444	1,1333	-4,5309	14,538	7,0205
84445	7,5678	-3,9997	30,704	12,036
84446	7,3872	-4,005	29,999	11,864
84447	7,1447	-4,5014	30,432	12,083
84448	3,2604	-4,012	16,76	7,6375
84449	3,4333	-4,0257	17,463	7,8448
84450	3,0239	-4,5055	17,162	7,7348
84451	2,2731	-4,0507	15,439	7,2475
84452	2,0864	-4,0478	14,72	7,0974
84453	1,8945	-4,5277	15,123	7,1629
84454	2,9217	-4,0421	22,697	9,6698
84455	2,7497	-4,0437	21,986	9,3963
84456	2,527	-4,5282	22,389	9,5593
84457	3,0633	-4,0295	16,057	7,4433
84458	2,8637	-4,0444	15,358	7,2741
84459	2,6517	-4,523	15,754	7,3457
84460	6,081	-3,9801	34,029	13,888
84461	6,2366	-3,97	34,732	14,177
84462	5,7533	-4,4939	34,462	14,241
84463	3,6856	-4,0189	15,962	7,4768
84464	3,8653	-4,026	16,665	7,6615
84465	3,4598	-4,5065	16,365	7,5554
84466	6,6621	-3,9773	33,168	13,285
84467	6,8193	-3,9662	33,87	13,523
84468	6,3808	-4,4862	33,608	13,595
84469	3,486	-4,0338	15,263	7,309
84470	2,677	-4,0414	14,638	7,1248
84471	3,2879	-4,0427	14,565	7,1682
84472	3,0756	-4,5214	14,961	7,2176
84473	4,3031	-4,023	15,861	7,5155
84474	4,1022	-4,0333	15,174	7,3579
84475	3,8864	-4,5124	15,571	7,4148
84476	7,2111	-3,986	32,29	12,735
84477	7,3784	-3,978	32,992	12,932
84478	6,9435	-4,4911	32,729	13,011
84479	1,8663	-4,0405	14,033	6,978
84480	2,4831	-4,0321	13,93	7,0077
84481	2,2783	-4,52	14,316	7,0461
84482	7,7348	-3,9932	31,413	12,241
84483	7,9088	-3,9873	32,117	12,407
84484	7,4787	-4,4949	31,851	12,489
84485	0,90614	-4,0302	13,48	6,8705
84486	1,6537	-4,0374	13,327	6,8883
84487	1,4462	-4,5204	13,692	6,9154
84488	8,2366	-3,9997	30,544	11,797
84489	8,42	-3,9949	31,243	11,937
84490	7,9908	-4,4983	30,976	12,02
84491	-1,7348e-002	-3,9914	12,635	6,7965
84492	0,69194	-4,0112	12,741	6,8099
84493	0,36621	-4,5097	13,137	6,8296
84494	2,801	-4,0471	19,766	8,5678
84495	2,9868	-4,0542	20,475	8,8286
84496	2,5954	-4,5296	20,167	8,7126
84497	-0,68405	-3,9633	11,561	6,7946
84498	-4,5445e-002	-3,9682	11,855	6,7812
84499	-0,39273	-4,4817	12,06	6,7844
84500	3,2023	-4,0388	18,963	8,3054
84501	3,3982	-4,04	19,669	8,5547
84502	2,9961	-4,5175	19,363	8,4385
84503	4,0436	-4,0352	24,736	10,434
84504	3,8626	-4,0381	24,026	10,175
84505	3,645	-4,5189	24,432	10,344
84506	3,6982	-4,033	23,313	9,9027
84507	3,533	-4,0271	22,6	9,6363
84508	3,3055	-4,5139	23,008	9,8005
84509	4,8417	-4,0301	25,337	10,618
84510	4,6604	-4,0327	24,63	10,375
84511	4,4422	-4,5163	25,041	10,545
84512	3,6093	-4,0415	18,163	8,0697
84513	3,802	-4,0419	18,865	8,3033
84514	3,398	-4,5213	18,56	8,1877
84515	5,6496	-4,0254	25,923	10,767
84516	5,4659	-4,0276	25,22	10,542
84517	5,2411	-4,5138	25,634	10,714
84518	4,0383	-4,0398	17,368	7,8669
84519	4,226	-4,0391	18,069	8,0826
84520	3,8207	-4,5202	17,766	7,9686
84521	-0,56176	-3,9798	10,734	6,8335
84522	-1,3052	-3,9714	10,608	6,8673
84523	-0,97538	-4,4816	11,063	6,823
84524	4,4828	-4,0302	16,565	7,6977
84525	4,6605	-4,0372	17,267	7,8924
84526	4,2558	-4,5196	16,971	7,7822
84527	6,2883	-4,0229	25,792	10,67
84528	6,471	-4,0209	26,495	10,875
84529	6,0581	-4,5115	26,211	10,843
84530	4,4793	-4,0356	23,92	10,115
84531	4,3033	-4,0382	23,212	9,862
84532	4,0802	-4,5191	23,621	10,026
84533	5,1121	-4,0276	16,453	7,7374
84534	4,9214	-4,0298	15,76	7,5676
84535	4,6991	-4,5107	16,164	7,6311
84536	5,2846	-4,0302	24,512	10,298
84537	5,1027	-4,0327	23,808	10,061
84538	4,8785	-4,5164	24,22	10,225
84539	7,0273	-4,0135	28,594	11,483
84540	7,2121	-4,0098	29,292	11,661
84541	6,7946	-4,5063	29,018	11,68
84542	6,1046	-4,0251	25,089	10,445
84543	5,9137	-4,0273	24,391	10,229
84544	5,6907	-4,5138	24,805	10,392
84545	3,1753	-4,0401	21,182	9,0977
84546	3,361	-4,0288	21,888	9,3628
84547	2,96	-4,5155	21,585	9,2528
84548	6,9335	-4,0205	25,652	10,55
84549	6,7438	-4,0223	24,955	10,356
84550	6,5185	-4,5113	25,373	10,519
84551	3,584	-4,0471	20,378	8,815
84552	3,7788	-4,0365	21,083	9,072
84553	3,3782	-4,5246	20,782	8,9615
84554	7,1162	-4,0185	26,355	10,756
84555	7,3055	-4,0168	27,051	10,934
84556	6,8839	-4,5094	26,779	10,93
84557	7,4935	-4,0146	27,746	11,125
84558	7,6836	-4,0123	28,445	11,289
84559	7,26	-4,5072	28,171	11,31
84560	7,7689	-4,0163	26,201	10,609
84561	7,5765	-4,0179	25,507	10,44
84562	7,3486	-4,5091	25,93	10,603
84563	7,9582	-4,0146	26,897	10,789
84564	8,1461	-4,013	27,593	10,942
84565	7,7271	-4,5074	27,322	10,962
84566	4,1381	-4,0323	22,499	9,5958
84567	3,9645	-4,0251	21,789	9,3369
84568	3,7397	-4,5132	22,199	9,4938
84569	8,423	-4,014	26,046	10,474
84570	8,6127	-4,0126	26,739	10,616
84571	8,1892	-4,5072	26,473	10,637
84572	4,9268	-4,0353	23,1	9,8082
84573	4,7431	-4,0377	22,395	9,5626
84574	4,5265	-4,519	22,804	9,7182
84575	5,7319	-4,0297	23,686	9,9919
84576	5,5485	-4,0321	22,983	9,7624
84577	5,327	-4,5162	23,396	9,9178
84578	0,12898	-4,0098	9,9574	6,9026
84579	-0,57572	-3,9891	9,9382	6,9106
84580	7,685e-002	-3,9847	11,027	6,8081
84581	0,37878	-4,0099	10,644	6,8376
84582	-0,17876	-4,4982	10,411	6,8556
84583	6,5529	-4,0244	24,257	10,14
84584	6,364	-4,0264	23,557	9,9304
84585	6,1368	-4,5135	23,976	10,087
84586	-2,1675e-002	-4,0305	9,121	7,016
84587	0,6989	-4,012	9,0801	7,03
84588	0,80969	-4,0305	9,8249	6,9299
84589	0,3961	-4,5116	9,5233	6,9604
84590	3,998	-4,043	19,572	8,5518
84591	4,1985	-4,0325	20,273	8,7977
84592	3,7899	-4,5225	19,973	8,6861
84593	7,3867	-4,0197	24,811	10,246
84594	7,1986	-4,0213	24,114	10,059
84595	6,969	-4,5109	24,537	10,215
84596	8,0561	-4,005	29,839	11,62
84597	7,8684	-4,0087	29,142	11,47
84598	7,6297	-4,5036	29,566	11,67
84599	8,2306	-4,0155	25,352	10,305
84600	8,0343	-4,0169	24,661	10,146
84601	7,8045	-4,5087	25,084	10,299
84602	8,7179	-4,0048	29,684	11,397
84603	8,9101	-4,0013	30,375	11,515
84604	8,4825	-4,5014	30,112	11,599
84605	8,8854	-4,013	25,197	10,183
84606	9,0825	-4,0118	25,886	10,314
84607	8,6568	-4,5068	25,62	10,333
84608	4,4187	-4,0394	18,771	8,3147
84609	4,6215	-4,0291	19,465	8,5464
84610	4,2061	-4,5205	19,17	8,4351
84611	4,5695	-4,0306	21,685	9,3043
84612	4,3933	-4,022	20,978	9,054
84613	4,1705	-4,5119	21,386	9,201
84614	8,3362	-4,0107	28,291	11,108
84615	8,5302	-4,0085	28,987	11,243
84616	8,1072	-4,5051	28,719	11,294
84617	5,3648	-4,0345	22,278	9,5174
84618	5,177	-4,0364	21,578	9,2804
84619	4,9596	-4,5187	21,986	9,4265
84620	4,8482	-4,0365	17,968	8,1059
84621	5,051	-4,0274	18,659	8,3219
84622	4,6312	-4,5189	18,372	8,2122
84623	6,1807	-4,0288	22,854	9,7016
84624	5,9878	-4,0308	22,16	9,4823
84625	5,7701	-4,5158	22,571	9,6274
84626	8,9929	-4,0094	28,128	10,894
84627	8,8006	-4,0109	27,434	10,77
84628	8,5651	-4,5056	27,863	10,945
84629	7,0097	-4,0234	23,415	9,8505
84630	6,8169	-4,0252	22,72	9,6504
84631	6,5912	-4,513	23,137	9,7955
84632	5,2898	-4,0345	17,155	7,9288
84633	5,4896	-4,0253	17,845	8,1263
84634	5,0652	-4,5176	17,564	8,0178
84635	7,8461	-4,0185	23,965	9,9599
84636	7,6534	-4,0201	23,271	9,7825
84637	7,4282	-4,5104	23,692	9,9261
84638	9,187	-4,0072	28,824	11,032
84639	9,3798	-4,0052	29,518	11,137
84640	8,9533	-4,5034	29,256	11,219
84641	8,689	-4,0143	24,506	10,024
84642	8,4969	-4,0156	23,812	9,872
84643	8,264	-4,5081	24,238	10,015
84644	9,6547	-4,0076	27,965	10,695
84645	9,8508	-4,0062	28,652	10,786
84646	9,4208	-4,5039	28,392	10,867
84647	5,7388	-4,0337	16,339	7,7903
84648	5,9282	-4,0316	17,029	7,9656
84649	5,5144	-4,5169	16,747	7,8589
84650	5,0008	-4,0278	20,871	9,0313
84651	4,8221	-4,0186	20,166	8,7911
84652	4,5945	-4,51	20,576	8,9273
84653	9,4623	-4,0091	27,271	10,569
84654	9,2721	-4,0104	26,579	10,456
84655	9,0361	-4,5054	27,004	10,618
84656	5,8	-4,0327	21,46	9,2465
84657	5,6107	-4,0339	20,761	9,0184
84658	5,3944	-4,5177	21,169	9,1539
84659	9,3476	-4,0118	24,344	9,9133
84660	9,5451	-4,0108	25,032	10,035
84661	9,1139	-4,5062	24,773	10,055
84662	10,124	-4,0072	27,103	10,383
84663	10,324	-4,006	27,796	10,463
84664	9,8886	-4,5037	27,538	10,544
84665	6,6241	-4,0272	22,027	9,4323
84666	6,432	-4,0285	21,333	9,2211
84667	6,2056	-4,5149	21,75	9,3575
84668	-1,3192	-3,9807	9,8129	6,9499
84669	-2,0092	-3,977	9,7719	6,9941
84670	-1,6252	-4,4898	10,154	6,9267
84671	7,4606	-4,022	22,577	9,5835
84672	7,2681	-4,0234	21,885	9,392
84673	7,0426	-4,5122	22,304	9,5266
84674	-0,72638	-4,0098	9,1019	7,0277
84675	-1,3932	-3,9697	9,09	7,0532
84676	-0,99738	-4,4909	9,4775	6,9811
84677	8,3042	-4,0172	23,119	9,6956
84678	8,1083	-4,0188	22,429	9,5279
84679	7,8786	-4,5097	22,851	9,6606
84680	-0,1956	-4,0257	8,5593	7,1075
84681	-0,65052	-3,9813	8,4223	7,1371
84682	-0,43578	-4,5189	8,7799	7,0741
84683	9,1556	-4,0131	23,651	9,7623
84684	8,96	-4,0144	22,962	9,6208
84685	8,7298	-4,5075	23,387	9,7515
84686	0,52498	-4,0072	8,5184	7,1192
84687	9,8753e-002	-3,9741	7,9204	7,2212
84688	9,3689e-002	-4,5068	8,3475	7,1454
84689	10,01	-4,0099	24,172	9,7784
84690	9,816	-4,0108	23,486	9,6657
84691	9,5814	-4,5056	23,915	9,7946
84692	1,0803	-4,0227	8,3136	7,1692
84693	1,3123	-4,0205	8,9981	7,0644
84694	0,97747	-4,5004	8,6741	7,1042
84695	0,66385	-3,988	11,961	6,7887
84696	0,60377	-3,9982	11,267	6,8025
84697	0,30184	-4,4865	11,649	6,7853
84698	9,7423	-4,0097	25,722	10,166
84699	9,9337	-4,0086	26,41	10,268
84700	9,5082	-4,505	26,153	10,317
84701	10,207	-4,0089	24,86	9,8997
84702	10,408	-4,0082	25,552	9,9913
84703	9,9764	-4,5046	25,291	10,038
84704	10,6	-4,0071	26,241	10,094
84705	10,793	-4,006	26,925	10,165
84706	10,359	-4,5036	26,668	10,243
84707	1,4395	-4,0184	12,588	6,8293
84708	1,2929	-4,0148	11,873	6,8107
84709	1,0259	-4,5015	12,272	6,803
84710	10,872	-4,0078	24,687	9,7393
84711	10,678	-4,0085	24,004	9,6578
84712	10,438	-4,5043	24,43	9,7842
84713	11,074	-4,0071	25,379	9,8309
84714	11,271	-4,0062	26,067	9,8911
84715	10,84	-4,5035	25,814	9,9673
84716	2,2706	-4,029	13,225	6,9186
84717	2,085	-4,0371	12,524	6,8654
84718	1,8505	-4,5169	12,902	6,8682
84719	11,544	-4,0071	24,514	9,5925
84720	11,738	-4,0063	25,196	9,6426
84721	11,307	-4,5035	24,945	9,7167
84722	3,094	-4,0333	13,857	7,0514
84723	2,8949	-4,0214	13,152	6,9664
84724	2,6839	-4,512	13,543	6,9821
84725	1,0595	-4,0306	10,512	6,8655
84726	1,2328	-4,0251	11,18	6,8268
84727	0,86898	-4,5117	10,868	6,8317
84728	1,3713	-4,0501	7,5718	7,3194
84729	1,5932	-4,0425	8,2719	7,2003
84730	0,65411	-3,9896	7,7155	7,2702
84731	1,1308	-4,5223	7,9231	7,2443
84732	1,6069	-4,0429	10,443	6,8968
84733	1,4231	-4,039	9,7429	6,9636
84734	1,2213	-4,5189	10,133	6,909
84735	1,8574	-4,0468	6,8126	7,4978
84736	1,9938	-4,0541	7,4896	7,3713
84737	1,1849	-4,0264	6,802	7,467
84738	1,5242	-4,5278	7,1463	7,4137
84739	2,3724	-4,0543	6,248	7,6481
84740	2,5028	-4,0585	6,7753	7,5514
84741	1,7973	-4,0462	6,0866	7,6416
84742	2,0815	-4,519	6,4536	7,5874
84743	3,9041	-4,0422	14,476	7,2185
84744	3,7142	-4,0433	13,78	7,1092
84745	3,5001	-4,5213	14,168	7,1339
84746	1,7801	-4,0373	11,11	6,8586
84747	1,9383	-4,0336	11,809	6,8466
84748	1,5599	-4,5134	11,475	6,8309
84749	4,7205	-4,0401	15,073	7,4124
84750	4,524	-4,0419	14,384	7,2826
84751	4,308	-4,5209	14,783	7,3173
84752	2,164	-4,071	10,487	6,9289
84753	2,3589	-4,0232	11,078	6,9012
84754	2,0004	-4,524	10,746	6,8965
84755	2,9069	-4,0752	6,1913	7,7051
84756	2,4852	-4,0657	5,5674	7,7902
84757	2,5957	-4,5353	6,0076	7,7172
84758	5,548	-4,0359	15,647	7,6239
84759	5,349	-4,0382	14,961	7,4801
84760	5,133	-4,5191	15,362	7,5218
84761	1,8251	-4,0402	8,9564	7,0976
84762	1,9802	-4,0671	9,7873	6,9905
84763	1,6408	-4,5201	9,347	7,0293
84764	6,3806	-4,0314	16,211	7,8452
84765	6,1832	-4,0337	15,526	7,6939
84766	5,9631	-4,5168	15,932	7,7412
84767	2,2156	-4,0465	8,1897	7,2539
84768	2,4161	-4,045	8,8864	7,1507
84769	2,0119	-4,5201	8,5654	7,1751
84770	2,5712	-4,0719	9,7173	7,044
84771	2,7439	-4,0643	10,422	6,9843
84772	2,369	-4,547	10,105	6,9831
84773	5,432	-4,0248	20,056	8,7799
84774	5,2539	-4,0171	19,353	8,5517
84775	5,0271	-4,5086	19,763	8,6749
84776	2,8217	-4,0511	8,1287	7,3171
84777	2,6391	-4,0658	7,4524	7,4269
84778	2,3933	-4,5263	7,8092	7,3401
84779	6,0521	-4,0306	19,941	8,7791
84780	6,2427	-4,0297	20,634	8,9949
84781	5,8271	-4,5162	20,352	8,9026
84782	5,6924	-4,0162	18,536	8,3396
84783	5,8739	-4,023	19,237	8,5534
84784	5,4604	-4,5085	18,953	8,4496
84785	3,0222	-4,0496	8,8254	7,2159
84786	3,2025	-4,042	9,5225	7,1327
84787	2,8149	-4,5249	9,2064	7,1382
84788	6,128	-4,0224	17,719	8,1596
84789	6,3228	-4,0209	18,412	8,3553
84790	5,9054	-4,5077	18,132	8,2516
84791	3,644	-4,0493	8,7435	7,3002
84792	3,4457	-4,0666	8,0482	7,3964
84793	3,2296	-4,5248	8,4444	7,3039
84794	6,5043	-4,0277	19,113	8,5658
84795	6,6967	-4,0267	19,805	8,7688
84796	6,2771	-4,5145	19,529	8,6758
84797	6,763	-4,0273	17,591	8,1919
84798	6,57	-4,0292	16,901	8,0163
84799	6,342	-4,5146	17,312	8,0882
84800	6,9578	-4,0259	18,284	8,3839
84801	7,1535	-4,0234	18,97	8,5704
84802	6,7316	-4,5132	18,697	8,4766
84803	3,2631	-4,0813	7,3719	7,5047
84804	3,0372	-4,0794	6,7186	7,6095
84805	2,8475	-4,5395	7,1065	7,5168
84806	2,517	-4,0195	11,777	6,8909
84807	2,7093	-4,0296	12,451	6,9129
84808	2,3167	-4,5202	12,142	6,8745
84809	7,4092	-4,0254	17,459	8,2385
84810	7,6054	-4,0238	18,143	8,4072
84811	7,184	-4,5127	17,871	8,3126
84812	2,9387	-4,0165	11,013	6,9581
84813	3,1214	-4,0053	11,706	6,9494
84814	2,7463	-4,4992	11,393	6,9215
84815	6,8874	-4,0258	20,498	8,9819
84816	7,076	-4,0248	21,19	9,1827
84817	6,6584	-4,5136	20,915	9,1054
84818	3,3137	-4,0154	12,38	6,972
84819	3,5152	-4,0313	13,076	7,0245
84820	3,1091	-4,5093	12,768	6,9649
84821	3,3752	-4,0344	10,227	7,0694
84822	3,5646	-4,0336	10,907	7,0338
84823	3,1812	-4,5173	10,608	7,0133
84824	7,2162	-4,0273	16,769	8,0673
84825	7,022	-4,0298	16,078	7,9137
84826	6,798	-4,5146	16,491	7,9654
84827	3,8242	-4,0417	9,4406	7,218
84828	3,9941	-4,0279	10,133	7,1556
84829	3,6067	-4,5171	9,8314	7,1416
84830	7,864	-4,026	16,626	8,1312
84831	8,0619	-4,0237	17,311	8,2801
84832	7,6343	-4,5127	17,047	8,1864
84833	3,7472	-4,0224	11,599	7,0242
84834	3,935	-4,0151	12,29	7,0437
84835	3,5439	-4,5061	11,998	6,9952
84836	4,2752	-4,0481	8,6577	7,3971
84837	4,465	-4,047	9,3341	7,3215
84838	4,0584	-4,5246	9,0426	7,3083
84839	4,0769	-4,0653	7,9624	7,4917
84840	3,8508	-4,0796	7,2665	7,5931
84841	3,6584	-4,5418	7,6746	7,4938
84842	3,2355	-2,0149	41,991	23,023
84843	4,9072	-4,0412	8,5462	7,5132
84844	4,6928	-4,0571	7,8473	7,6012
84845	4,492	-4,5235	8,2728	7,4974
84846	4,1835	-4,027	10,812	7,1203
84847	4,3749	-4,0245	11,49	7,1115
84848	3,9814	-4,5163	11,206	7,0704
84849	2,702	-4,0603	39,325	18,14
84850	2,7666	-4,0689	40,033	19,206
84851	2,4214	-4,5247	39,739	18,455
84852	7,3459	-4,0224	19,662	8,77
84853	7,5362	-4,0226	20,355	8,9591
84854	7,1163	-4,5122	20,081	8,8797
84855	3,2717	-4,0783	38,549	17,694
84856	3,3083	-4,0729	39,21	18,552
84857	2,9726	-4,5356	38,964	18,12
84858	7,8012	-4,0212	18,829	8,5898
84859	7,9946	-4,0199	19,516	8,7635
84860	7,5747	-4,5101	19,244	8,6825
84861	4,6349	-4,0332	10,026	7,2591
84862	4,8141	-4,0216	10,705	7,223
84863	4,4161	-4,5107	10,421	7,1883
84864	8,2582	-4,022	17,995	8,4441
84865	8,4527	-4,0206	18,678	8,6007
84866	8,0269	-4,511	18,415	8,5198
84867	3,8358	-4,0988	38,428	17,752
84868	3,8702	-4,0891	37,771	17,023
84869	3,5378	-4,5427	38,16	17,458
84870	5,0971	-4,0401	9,2226	7,4379
84871	5,275	-4,0326	9,8996	7,38
84872	4,8717	-4,5224	9,6257	7,348
84873	2,8828	-4,058	40,709	20,123
84874	3,0215	-4,0279	41,373	21,549
84875	2,6535	-4,5137	41,085	20,511
84876	2,4624	-4,0149	41,384	19,216
84877	7,9159	-4,0202	21,737	9,3382
84878	7,7248	-4,0215	21,047	9,1571
84879	7,4936	-4,5112	21,466	9,279
84880	5,5546	-4,0299	8,4233	7,6459
84881	5,7361	-4,0355	9,0994	7,5716
84882	5,3251	-4,5177	8,8242	7,5419
84883	3,3729	-4,0815	39,918	19,615
84884	3,4694	-4,088	40,658	20,971
84885	3,1155	-4,5442	40,359	20,389
84886	4,3342	-4,0429	13,688	7,175
84887	4,1364	-4,031	12,985	7,0955
84888	3,9284	-4,522	13,392	7,0992
84889	3,8723	-4,0934	39,09	18,614
84890	3,9389	-4,0881	39,798	19,664
84891	3,6071	-4,5373	39,52	19,324
84892	5,1525	-4,0401	14,271	7,3532
84893	4,9627	-4,0394	13,579	7,2542
84894	4,74	-4,521	13,984	7,2646
84895	4,3853	-4,1124	38,324	17,649
84896	4,4011	-4,1168	38,969	18,424
84897	4,0827	-4,5561	38,72	18,245
84898	8,7641	-4,016	22,272	9,4548
84899	8,5678	-4,0175	21,584	9,2967
84900	8,3381	-4,509	22,007	9,4174
84901	8,3768	-4,0188	20,894	9,1182
84902	8,1849	-4,0201	20,209	8,9492
84903	7,956	-4,5103	20,628	9,0573
84904	9,4218	-4,0136	22,111	9,3944
84905	9,6204	-4,0122	22,797	9,5256
84906	9,1901	-4,507	22,537	9,5128
84907	4,5701	-4,0744	36,996	16,264
84908	4,4198	-4,1027	37,668	16,919
84909	4,1834	-4,5464	37,383	16,719
84910	5,9841	-4,036	14,839	7,5538
84911	5,7824	-4,038	14,156	7,4379
84912	5,565	-4,5191	14,559	7,4565
84913	4,765	-4,0274	12,877	7,177
84914	4,5627	-4,0172	12,18	7,1295
84915	4,3516	-4,509	12,592	7,1089
84916	6,8247	-4,0321	15,393	7,7669
84917	6,6205	-4,0338	14,714	7,6416
84918	6,4033	-4,5169	15,12	7,6665
84919	5,5926	-4,0374	13,464	7,3422
84920	5,4084	-4,0339	12,771	7,2754
84921	5,1827	-4,5184	13,179	7,261
84922	7,6699	-4,0286	15,936	7,9828
84923	7,4717	-4,0282	15,254	7,8547
84924	7,2457	-4,5152	15,668	7,8839
84925	6,4188	-4,0359	14,031	7,5297
84926	6,2207	-4,0379	13,349	7,4439
84927	5,9997	-4,5189	13,753	7,4381
84928	8,519	-4,025	16,47	8,1921
84929	8,321	-4,0247	15,789	8,0668
84930	8,0928	-4,5133	16,207	8,0997
84931	8,7169	-4,0226	17,155	8,3355
84932	8,9171	-4,0204	17,839	8,4741
84933	8,4894	-4,511	17,575	8,392
84934	7,2676	-4,0299	14,575	7,7341
84935	7,0638	-4,0346	13,901	7,637
84936	6,8378	-4,517	14,309	7,6371
84937	9,1731	-4,0214	16,314	8,2684
84938	9,3729	-4,0217	16,994	8,3851
84939	8,9422	-4,5116	16,736	8,3035
84940	5,1069	-4,0879	36,918	16,09
84941	5,4964	-4,0248	36,274	15,435
84942	4,9571	-4,528	36,605	15,912
84943	4,9565	-4,1162	37,589	16,741
84944	4,8399	-4,1357	38,18	17,383
84945	4,6347	-4,5563	37,951	17,254
84946	9,2255	-4,0152	21,422	9,2387
84947	9,034	-4,0156	20,734	9,0916
84948	8,7976	-4,5085	21,16	9,1988
84949	8,8421	-4,0169	20,049	8,9259
84950	8,6461	-4,0193	19,365	8,7704
84951	8,4137	-4,5098	19,789	8,8637
84952	9,8883	-4,0133	21,257	9,1943
84953	10,084	-4,0118	21,941	9,3145
84954	9,6534	-4,5067	21,685	9,2993
84955	8,1228	-4,0243	15,107	7,9441
84956	7,9189	-4,0302	14,434	7,8423
84957	7,6992	-4,513	14,847	7,8491
84958	5,348	-4,1237	37,593	16,611
84959	5,6808	-4,0942	37,143	16,036
84960	5,2567	-4,5599	37,231	16,362
84961	9,6968	-4,0137	20,569	9,0503
84962	9,5039	-4,0141	19,885	8,9167
84963	9,2698	-4,5071	20,31	9,0083
84964	10,282	-4,0103	22,627	9,4436
84965	10,484	-4,0094	23,317	9,5461
84966	10,051	-4,5052	23,057	9,5597
84967	10,552	-4,0118	21,087	9,1315
84968	10,36	-4,0122	20,402	9,0234
84969	10,123	-4,5066	20,83	9,1134
84970	10,748	-4,0103	21,771	9,249
84971	10,948	-4,0096	22,454	9,3397
84972	10,514	-4,5051	22,197	9,3511
84973	8,9751	-4,0211	15,633	8,1489
84974	8,7707	-4,0266	14,961	8,0483
84975	8,5493	-4,5113	15,376	8,0589
84976	11,22	-4,0097	20,914	9,0828
84977	11,416	-4,0091	21,596	9,1615
84978	10,981	-4,5052	21,345	9,1713
84979	5,0056	-4,019	11,382	7,2133
84980	5,2061	-4,0236	12,074	7,2297
84981	4,79	-4,5082	11,79	7,1688
84982	9,8275	-4,0197	16,155	8,3393
84983	9,6303	-4,0183	15,476	8,2463
84984	9,4019	-4,5098	15,897	8,2593
84985	5,2314	-4,1432	38,184	17,255
84986	5,6863	-4,1203	38,014	16,821
84987	5,4469	-4,5638	37,932	16,953
84988	3,6249	-4,0778	6,6133	7,6965
84989	3,3544	-4,0697	5,945	7,7967
84990	3,2541	-4,5399	6,3406	7,712
84991	4,8558	-4,1401	38,825	18,171
84992	5,3402	-4,1435	38,661	17,685
84993	5,0236	-4,5794	38,414	17,678
84994	4,4668	-4,0714	7,1513	7,7015
84995	4,2119	-4,0625	6,4772	7,7967
84996	4,0537	-4,5379	6,9143	7,6925
84997	5,4543	-4,021	10,579	7,3426
84998	5,6522	-4,0215	11,269	7,3301
84999	5,2376	-4,5108	10,99	7,2758
85000	4,4678	-4,1115	39,678	19,5
85001	4,9931	-4,1194	39,488	18,897
85002	4,6483	-4,5607	39,227	18,875
85003	5,9141	-4,028	9,7763	7,513
85004	6,0892	-4,0293	10,467	7,4716
85005	5,68	-4,5101	10,183	7,425
85006	6,0365	-4,0344	12,657	7,3803
85007	5,8528	-4,0262	11,961	7,3448
85008	5,6254	-4,5155	12,372	7,306
85009	5,3401	-4,0458	7,7244	7,7332
85010	5,1069	-4,0426	7,0395	7,8228
85011	4,9082	-4,5336	7,4533	7,7141
85012	4,0354	-4,0945	40,538	21,057
85013	4,5887	-4,0958	40,376	20,486
85014	4,2475	-4,5508	40,119	20,456
85015	6,2195	-4,0204	8,2877	7,7999
85016	5,9983	-4,0246	7,6049	7,8776
85017	5,7867	-4,5122	8,0271	7,7637
85018	3,608	-4,0579	41,323	22,416
85019	4,1694	-4,0743	41,24	22,294
85020	3,8233	-4,5437	40,957	22,162
85021	6,8658	-4,0366	13,219	7,5553
85022	6,6637	-4,0384	12,541	7,4986
85023	6,4417	-4,519	12,946	7,469
85024	3,7106	-4,0286	42,036	24,248
85025	3,3907	-4,5142	41,729	23,499
85026	3,1941	-4,0153	42,019	22,99
85027	9,1116	-4,0189	18,522	8,6259
85028	9,308	-4,0165	19,201	8,7652
85029	8,8786	-4,5095	18,941	8,7007
85030	7,7152	-4,0348	13,76	7,75
85031	7,5084	-4,0365	13,092	7,6809
85032	7,2899	-4,5176	13,493	7,6582
85033	9,573	-4,0194	17,678	8,5183
85034	9,7731	-4,0175	18,36	8,641
85035	9,3447	-4,5094	18,103	8,5757
85036	11,349	-4,0078	23,831	9,5116
85037	11,149	-4,0087	23,144	9,4405
85038	10,918	-4,5042	23,578	9,5544
85039	8,5667	-4,0325	14,288	7,9518
85040	8,3667	-4,0287	13,617	7,8779
85041	8,1403	-4,5172	14,028	7,8596
85042	10,027	-4,02	16,834	8,4502
85043	10,232	-4,0185	17,509	8,5525
85044	9,8006	-4,51	17,255	8,4869
85045	9,4259	-4,0238	14,804	8,1516
85046	9,2178	-4,0329	14,14	8,0768
85047	8,993	-4,5153	14,55	8,0631
85048	10,167	-4,0125	19,718	8,8936
85049	9,9695	-4,015	19,04	8,7757
85050	9,7356	-4,507	19,465	8,8505
85051	10,487	-4,0169	15,989	8,4259
85052	10,69	-4,0182	16,666	8,5063
85053	10,253	-4,51	16,415	8,4405
85054	10,829	-4,0124	19,551	8,8854
85055	11,027	-4,0101	20,229	8,9781
85056	10,594	-4,5056	19,977	8,9588
85057	10,29	-4,0155	15,31	8,3392
85058	10,084	-4,0242	14,645	8,271
85059	9,8541	-4,5086	15,059	8,2599
85060	6,4011	-4,026	8,9637	7,7251
85061	6,5448	-4,034	9,6586	7,6561
85062	6,149	-4,5178	9,3764	7,6164
85063	11,153	-4,0159	15,816	8,5039
85064	10,947	-4,02	15,146	8,4475
85065	10,719	-4,5069	15,562	8,4395
85066	7,0531	-4,0222	8,8221	7,8914
85067	6,9032	-4,01	8,1445	7,9722
85068	6,6524	-4,5082	8,5482	7,8517
85069	6,4799	-4,0301	11,845	7,466
85070	6,2871	-4,0299	11,158	7,4579
85071	6,0627	-4,5107	11,564	7,3976
85072	10,632	-4,0148	18,872	8,7718
85073	10,432	-4,0166	18,191	8,6699
85074	10,202	-4,5081	18,618	8,7269
85075	12,013	-4,0073	23,65	9,3798
85076	12,213	-4,006	24,332	9,4182
85077	11,78	-4,5036	24,084	9,491
85078	11,494	-4,0115	19,376	8,859
85079	11,292	-4,0136	18,698	8,7822
85080	11,063	-4,5068	19,127	8,8385
85081	7,1125	-4,0334	11,728	7,6019
85082	7,3062	-4,0383	12,414	7,6278
85083	6,8856	-4,5194	12,136	7,5481
85084	11,813	-4,0082	22,963	9,31
85085	11,616	-4,0084	22,279	9,2499
85086	11,382	-4,5045	22,711	9,3504
85087	11,692	-4,0092	20,054	8,9477
85088	11,891	-4,0077	20,735	9,0121
85089	11,455	-4,5045	20,482	9,0199
85090	12,478	-4,0074	22,786	9,1943
85091	12,681	-4,0061	23,464	9,2201
85092	12,245	-4,5037	23,215	9,292
85093	12,158	-4,0103	19,195	8,8472
85094	12,359	-4,0085	19,874	8,8956
85095	11,927	-4,5047	19,627	8,9025
85096	6,9198	-4,0332	11,041	7,5961
85097	6,72	-4,0354	10,35	7,6134
85098	6,5001	-4,5192	10,761	7,5334
85099	12,281	-4,0077	22,102	9,136
85100	12,087	-4,0071	21,417	9,0878
85101	11,853	-4,5039	21,85	9,1741
85102	7,7529	-4,035	11,602	7,7481
85103	7,5488	-4,0347	10,929	7,7465
85104	7,328	-4,514	11,327	7,6733
85105	7,9466	-4,04	12,288	7,7706
85106	8,1599	-4,0304	12,949	7,8134
85107	7,7268	-4,5189	12,692	7,725
85108	12,951	-4,0066	21,921	9,0351
85109	13,15	-4,006	22,601	9,0494
85110	12,711	-4,5037	22,357	9,1208
85111	8,5968	-4,0426	12,152	7,9215
85112	8,3868	-4,0457	11,501	7,9053
85113	8,1664	-4,521	11,884	7,8386
85114	8,8101	-4,033	12,814	7,9604
85115	9,0178	-4,0291	13,469	8,0083
85116	8,5887	-4,5115	13,212	7,9195
85117	7,349	-4,0369	10,238	7,7653
85118	7,1968	-4,0302	9,517	7,8204
85119	6,9399	-4,5162	9,9381	7,7124
85120	9,2519	-4,0473	12,035	8,0874
85121	9,4647	-4,0375	12,671	8,1114
85122	9,0272	-4,5215	12,42	8,0245
85123	8,1827	-4,0453	10,828	7,9052
85124	7,9673	-4,0465	10,161	7,9236
85125	7,7582	-4,5207	10,538	7,8369
85126	4,2719	-4,0449	41,954	24,207
85127	4,3508	-3,9965	42,816	26,286
85128	4,0517	-4,5144	42,405	25,931
85129	3,7857	-4,0156	42,764	27,752
85130	11,092	-4,0153	18,017	8,6852
85131	10,894	-4,0168	17,341	8,6029
85132	10,661	-4,5085	17,765	8,6395
85133	9,0419	-4,0504	11,383	8,0737
85134	8,83	-4,057	10,753	8,0782
85135	8,6073	-4,5246	11,117	7,9939
85136	11,955	-4,0124	18,518	8,7749
85137	11,757	-4,0137	17,843	8,7166
85138	11,521	-4,5068	18,269	8,7534
85139	7,8151	-4,0398	9,4399	7,9788
85140	7,8033	-4,0334	8,6782	8,0967
85141	7,4538	-4,514	9,0959	7,9483
85142	9,92	-4,0406	11,888	8,2608
85143	9,7085	-4,0583	11,284	8,2582
85144	9,4765	-4,5258	11,649	8,175
85145	8,4293	-4,0456	9,453	8,1368
85146	8,6145	-4,0582	10,086	8,0962
85147	8,1764	-4,5258	9,784	8,0303
85148	12,626	-4,0114	18,338	8,7835
85149	12,825	-4,0104	19,015	8,814
85150	12,389	-4,5056	18,766	8,8202
85151	9,0001	-4,0731	8,951	8,3734
85152	9,1351	-4,0619	9,4168	8,3328
85153	8,4176	-4,0392	8,6913	8,2518
85154	8,7021	-4,5198	9,1277	8,2669
85155	9,6725	-4,0336	13,326	8,1545
85156	9,8758	-4,0332	13,981	8,202
85157	9,4427	-4,5176	13,73	8,1164
85158	9,6828	-4,1096	8,9541	8,57
85159	9,3701	-4,0874	8,5283	8,5534
85160	9,3179	-4,5533	8,78	8,5016
85161	10,133	-4,0308	12,524	8,2805
85162	10,339	-4,0237	13,165	8,3027
85163	9,8986	-4,516	12,923	8,2187
85164	12,558	-4,007	20,555	8,9565
85165	12,758	-4,0061	21,236	8,9894
85166	12,322	-4,5032	20,987	9,0275
85167	10,596	-4,0358	11,742	8,4515
85168	10,8	-4,0287	12,368	8,4497
85169	10,358	-4,5149	12,137	8,3673
85170	13,026	-4,0086	19,694	8,8584
85171	13,228	-4,0062	20,371	8,8752
85172	12,793	-4,5038	20,126	8,9127
85173	9,4965	-4,0649	10,653	8,2638
85174	9,3203	-4,0745	10,05	8,2948
85175	9,0527	-4,5324	10,388	8,1845
85176	10,542	-4,0233	13,82	8,3444
85177	10,74	-4,0287	14,48	8,3854
85178	10,309	-4,5156	14,232	8,3092
85179	10,181	-4,0724	10,545	8,4704
85180	10,384	-4,0534	11,137	8,4524
85181	9,9404	-4,5325	10,918	8,3661
85182	4,7226	-4,0755	41,079	21,809
85183	4,8518	-4,0633	41,791	22,694
85184	4,5068	-4,5306	41,514	23,104
85185	10,005	-4,082	9,9421	8,5026
85186	9,8178	-4,0984	9,4198	8,5326
85187	9,5617	-4,5421	9,7296	8,4166
85188	11,006	-4,0216	13,008	8,4667
85189	11,21	-4,0138	13,651	8,4829
85190	10,77	-4,5077	13,414	8,4077
85191	10,857	-4,0709	10,39	8,685
85192	10,653	-4,0896	9,8341	8,7144
85193	10,419	-4,5399	10,19	8,5979
85194	11,06	-4,0519	10,982	8,6635
85195	11,268	-4,0329	11,58	8,6432
85196	10,827	-4,5209	11,375	8,5601
85197	5,114	-4,1037	40,186	19,936
85198	5,2727	-4,0819	40,88	20,642
85199	4,9298	-4,5449	40,634	20,979
85200	11,734	-4,0598	10,833	8,8739
85201	11,511	-4,0729	10,242	8,9079
85202	11,296	-4,531	10,622	8,7929
85203	11,56	-4,0152	17,166	8,6397
85204	11,356	-4,0172	16,493	8,5781
85205	11,127	-4,5083	16,917	8,5943
85206	11,472	-4,0258	12,205	8,6364
85207	11,675	-4,0197	12,839	8,6275
85208	11,235	-4,5139	12,619	8,5538
85209	12,428	-4,0127	17,663	8,7302
85210	12,224	-4,0142	16,988	8,692
85211	11,993	-4,5069	17,416	8,7088
85212	11,942	-4,0408	11,431	8,8499
85213	12,145	-4,0235	12,031	8,8206
85214	11,706	-4,512	11,821	8,7476
85215	13,297	-4,0099	18,156	8,7697
85216	13,095	-4,0118	17,481	8,7592
85217	12,862	-4,5058	17,911	8,7765
85218	5,4775	-4,1228	39,323	18,445
85219	5,6454	-4,1147	39,966	18,975
85220	5,3009	-4,5587	39,752	19,249
85221	12,411	-4,06	10,674	9,1035
85222	12,617	-4,052	11,271	9,0546
85223	12,176	-4,5288	11,059	8,9819
85224	11,814	-4,0196	15,645	8,5975
85225	12,02	-4,0163	16,315	8,6362
85226	11,585	-4,509	16,069	8,5916
85227	5,795	-4,1205	38,49	17,27
85228	6,0324	-4,1071	39,105	17,635
85229	5,6658	-4,5641	38,922	17,898
85230	13,496	-4,0089	18,832	8,7957
85231	13,697	-4,0076	19,509	8,7949
85232	13,26	-4,5047	19,264	8,8325
85233	13,428	-4,0053	21,052	8,9051
85234	13,626	-4,0056	21,732	8,9051
85235	13,189	-4,5029	21,486	8,9755
85236	11,408	-4,0192	14,311	8,5175
85237	11,607	-4,0237	14,975	8,5473
85238	11,172	-4,5131	14,729	8,4848
85239	14,168	-4,0074	18,645	8,7505
85240	13,966	-4,0091	17,972	8,7711
85241	13,733	-4,5042	18,401	8,7889
85242	13,899	-4,0053	20,186	8,8082
85243	14,1	-4,0039	20,864	8,7917
85244	13,66	-4,5023	20,623	8,8629
85245	11,879	-4,0119	13,481	8,6377
85246	12,076	-4,0188	14,136	8,6411
85247	11,642	-4,5061	13,901	8,5809
85248	14,369	-4,0061	19,322	8,7457
85249	14,568	-4,0057	20,	8,7117
85250	14,129	-4,5029	19,757	8,7833
85251	10,466	-4,106	9,3118	8,745
85252	10,184	-4,0914	8,7931	8,7523
85253	10,048	-4,5563	9,1281	8,6594
85254	14,84	-4,0062	18,458	8,72
85255	15,042	-4,0055	19,133	8,6656
85256	14,602	-4,5032	18,894	8,7391
85257	11,306	-4,0916	9,6864	8,9399
85258	11,048	-4,0829	9,14	8,9615
85259	10,884	-4,5497	9,4954	8,8539
85260	12,545	-4,0207	13,31	8,7834
85261	12,347	-4,0174	12,664	8,806
85262	12,11	-4,5058	13,08	8,7254
85263	12,188	-4,073	10,083	9,1411
85264	11,935	-4,0786	9,5096	9,1777
85265	11,746	-4,5419	9,8861	9,0554
85266	12,275	-4,0233	14,8	8,6644
85267	12,48	-4,0189	15,464	8,6783
85268	12,042	-4,5106	15,221	8,6348
85269	13,09	-4,056	10,49	9,3357
85270	12,841	-4,0669	9,9007	9,3884
85271	12,646	-4,5312	10,289	9,2602
85272	12,686	-4,0157	16,134	8,7108
85273	12,891	-4,0133	16,806	8,7265
85274	12,454	-4,5073	16,561	8,7059
85275	12,945	-4,0226	14,618	8,7684
85276	12,742	-4,0276	13,965	8,7806
85277	12,507	-4,5127	14,378	8,7272
85278	13,151	-4,0182	15,283	8,7759
85279	13,355	-4,0148	15,95	8,7673
85280	12,919	-4,5083	15,708	8,7484
85281	6,0191	-4,0908	37,564	16,258
85282	6,3048	-4,0905	38,192	16,549
85283	5,9606	-4,5565	38,05	16,762
85284	13,821	-4,0175	15,099	8,8548
85285	13,619	-4,0216	14,442	8,8894
85286	13,383	-4,5099	14,858	8,8382
85287	6,0703	-4,0311	36,499	15,397
85288	6,5312	-4,0459	37,184	15,595
85289	6,1049	-4,5343	37,056	15,823
85290	13,56	-4,0125	16,622	8,7772
85291	13,764	-4,0109	17,297	8,7656
85292	13,328	-4,506	17,051	8,7736
85293	6,3639	-3,9728	35,478	14,591
85294	6,63	-3,9844	36,146	14,819
85295	6,0357	-4,4968	35,943	15,052
85296	14,025	-4,0141	15,766	8,8402
85297	14,229	-4,0116	16,44	8,8042
85298	13,792	-4,5065	16,193	8,8145
85299	14,638	-4,008	17,785	8,7449
85300	14,433	-4,01	17,115	8,7874
85301	14,2	-4,5049	17,544	8,7853
85302	14,495	-4,0164	14,917	8,9506
85303	14,698	-4,0136	15,582	8,8889
85304	14,259	-4,5075	15,339	8,9019
85305	15,312	-4,0059	17,594	8,7338
85306	15,513	-4,0062	18,27	8,6571
85307	15,074	-4,503	18,03	8,7332
85308	13,417	-4,0266	13,789	8,9076
85309	13,217	-4,0234	13,135	8,9476
85310	12,977	-4,5149	13,552	8,8689
85311	6,975	-3,9561	34,572	13,824
85312	7,174	-3,9541	35,258	14,042
85313	6,6921	-4,4761	35,013	14,193
85314	14,294	-4,0206	14,261	8,9909
85315	14,093	-4,025	13,608	9,0525
85316	13,856	-4,5117	14,026	8,9773
85317	7,5355	-3,967	33,694	13,18
85318	7,7196	-3,9614	34,385	13,363
85319	7,2579	-4,48	34,131	13,502
85320	14,969	-4,0185	14,073	9,1105
85321	15,17	-4,0154	14,733	9,0211
85322	14,732	-4,5089	14,496	9,0375
85323	8,076	-3,9794	32,819	12,613
85324	8,2619	-3,9742	33,512	12,761
85325	7,8132	-4,487	33,256	12,895
85326	12,82	-4,0348	11,872	9,0209
85327	13,02	-4,02	12,489	8,9763
85328	12,579	-4,5115	12,27	8,918
85329	8,594	-3,9889	31,947	12,11
85330	8,7802	-3,9844	32,642	12,234
85331	8,3388	-4,4924	32,383	12,361
85332	13,296	-4,048	11,087	9,2815
85333	13,497	-4,0416	11,701	9,2138
85334	13,058	-4,5233	11,484	9,1579
85335	9,0935	-3,9964	31,074	11,66
85336	9,2839	-3,9923	31,77	11,764
85337	8,8492	-4,4965	31,51	11,885
85338	15,107	-4,0079	16,924	8,7809
85339	14,902	-4,0111	16,256	8,8475
85340	14,666	-4,5051	16,686	8,8237
85341	9,572	-4,0017	30,209	11,259
85342	9,7693	-3,9986	30,898	11,343
85343	9,3377	-4,4999	30,638	11,46
85344	13,979	-4,0443	10,897	9,5037
85345	13,741	-4,0537	10,292	9,581
85346	13,533	-4,5248	10,691	9,4442
85347	10,044	-4,0041	29,346	10,894
85348	10,241	-4,002	30,038	10,966
85349	9,8063	-4,5018	29,78	11,081
85350	15,783	-4,0065	16,732	8,7899
85351	15,987	-4,0047	17,402	8,689
85352	15,546	-4,5029	17,167	8,7684
85353	10,52	-4,0046	28,482	10,557
85354	10,713	-4,003	29,167	10,618
85355	10,281	-4,5023	28,911	10,729
85356	13,894	-4,0217	12,953	9,0987
85357	13,697	-4,0269	12,318	9,164
85358	13,455	-4,5085	12,723	9,0625
85359	10,993	-4,0047	27,618	10,247
85360	11,19	-4,0032	28,306	10,297
85361	10,759	-4,5023	28,054	10,406
85362	14,768	-4,0229	13,42	9,1781
85363	14,572	-4,0277	12,776	9,2675
85364	14,329	-4,5133	13,189	9,1672
85365	15,373	-4,0125	15,398	8,954
85366	15,578	-4,0096	16,063	8,8613
85367	15,138	-4,506	15,824	8,9079
85368	11,465	-4,0051	26,751	9,9627
85369	11,661	-4,0036	27,435	10,002
85370	11,227	-4,5024	27,182	10,109
85371	15,644	-4,017	13,881	9,2051
85372	15,446	-4,0208	13,23	9,3227
85373	15,205	-4,5096	13,65	9,2243
85374	15,845	-4,0139	14,541	9,11
85375	16,048	-4,0113	15,21	8,9882
85376	15,608	-4,5065	14,971	9,0393
85377	11,935	-4,0055	25,883	9,7032
85378	12,135	-4,0041	26,57	9,7316
85379	11,702	-4,5027	26,32	9,8373
85380	16,322	-4,0156	13,688	9,3182
85381	16,522	-4,0126	14,351	9,1664
85382	16,081	-4,5074	14,112	9,223
85383	12,407	-4,0052	25,013	9,4681
85384	12,6	-4,0044	25,698	9,4876
85385	12,168	-4,5028	25,447	9,5908
85386	16,253	-4,0084	15,875	8,8907
85387	16,459	-4,0066	16,54	8,7637
85388	16,018	-4,5036	16,306	8,8474
85389	12,881	-4,0048	24,146	9,2576
85390	13,08	-4,0037	24,828	9,264
85391	12,646	-4,5024	24,582	9,3677
85392	16,726	-4,01	15,019	9,0397
85393	16,93	-4,0087	15,683	8,8837
85394	16,488	-4,5048	15,449	8,973
85395	13,353	-4,0047	23,279	9,0738
85396	13,554	-4,0038	23,959	9,0673
85397	13,116	-4,5024	23,712	9,1712
85398	14,179	-4,0379	11,511	9,4301
85399	14,375	-4,0328	12,141	9,3384
85400	13,935	-4,5184	11,919	9,3034
85401	13,824	-4,0049	22,412	8,9173
85402	14,025	-4,0035	23,09	8,8973
85403	13,59	-4,5022	22,846	9,0008
85404	14,862	-4,0348	11,316	9,6338
85405	14,658	-4,04	10,692	9,7483
85406	14,424	-4,5195	11,102	9,5996
85407	15,057	-4,0297	11,947	9,5359
85408	15,25	-4,0256	12,586	9,418
85409	14,815	-4,5145	12,363	9,4098
85410	14,298	-4,0043	21,543	8,7892
85411	14,495	-4,0045	22,223	8,7552
85412	14,056	-4,5027	21,979	8,8597
85413	15,735	-4,027	11,747	9,7144
85414	15,53	-4,0275	11,113	9,857
85415	15,3	-4,5153	11,53	9,7078
85416	14,768	-4,0044	20,677	8,6924
85417	14,973	-4,0035	21,353	8,6404
85418	14,536	-4,5016	21,109	8,746
85419	16,123	-4,0193	13,037	9,4414
85420	15,928	-4,0229	12,386	9,5901
85421	15,684	-4,5112	12,809	9,4648
85422	15,24	-4,0051	19,811	8,6283
85423	15,442	-4,0047	20,486	8,5585
85424	15,001	-4,5028	20,246	8,6668
85425	16,997	-4,0138	13,493	9,3988
85426	16,799	-4,0166	12,833	9,5826
85427	16,562	-4,5082	13,265	9,4587
85428	15,715	-4,0055	18,944	8,5991
85429	15,918	-4,0044	19,616	8,5089
85430	15,481	-4,5023	19,374	8,6196
85431	17,197	-4,0109	14,156	9,2419
85432	17,405	-4,0092	14,822	9,054
85433	16,964	-4,5052	14,589	9,1491
85434	16,188	-4,0051	18,077	8,6084
85435	16,39	-4,0058	18,752	8,4956
85436	15,95	-4,5032	18,513	8,6104
85437	16,604	-4,0201	12,182	9,7375
85438	16,414	-4,0237	11,533	9,919
85439	16,171	-4,5117	11,963	9,7635
85440	16,662	-4,0049	17,209	8,6588
85441	16,866	-4,0041	17,88	8,5212
85442	16,426	-4,5019	17,64	8,6409
85443	17,671	-4,0113	13,289	9,5018
85444	17,873	-4,0096	13,948	9,2817
85445	17,431	-4,5056	13,722	9,3811
85446	17,135	-4,0069	16,348	8,7526
85447	17,339	-4,0055	17,013	8,5884
85448	16,899	-4,503	16,78	8,7131
85449	17,474	-4,0141	12,628	9,6913
85450	17,282	-4,0168	11,968	9,9107
85451	17,036	-4,5084	12,401	9,756
85452	17,61	-4,0078	15,486	8,8937
85453	17,813	-4,0074	16,149	8,7004
85454	17,372	-4,5039	15,918	8,8312
85455	18,149	-4,0114	12,417	9,8254
85456	18,35	-4,0093	13,083	9,5662
85457	17,911	-4,5056	12,855	9,6728
85458	18,081	-4,0079	14,614	9,089
85459	18,288	-4,0073	15,286	8,8602
85460	17,847	-4,5039	15,054	8,999
85461	18,622	-4,0111	11,535	10,222
85462	18,827	-4,0082	12,206	9,9199
85463	17,957	-4,0141	11,757	10,051
85464	18,389	-4,5058	11,98	10,032
85465	18,552	-4,0076	13,743	9,3411
85466	18,757	-4,0072	14,408	9,0787
85467	18,315	-4,5039	14,175	9,2257
85468	19,08	-4,0119	10,636	10,704
85469	19,293	-4,0075	11,316	10,354
85470	18,425	-4,0132	10,876	10,485
85471	18,862	-4,5053	11,093	10,47
85472	19,028	-4,0061	12,872	9,6552
85473	19,232	-4,0064	13,543	9,3509
85474	18,789	-4,5036	13,31	9,5068
85475	19,503	-4,0147	9,7191	11,281
85476	19,743	-4,0111	10,407	10,884
85477	18,869	-4,0144	9,9742	11,005
85478	19,316	-4,5066	10,185	11,002
85479	19,498	-4,0047	11,987	10,045
85480	19,703	-4,0038	12,664	9,6955
85481	19,267	-4,5024	12,433	9,8581
85482	19,852	-4,031	8,7425	11,985
85483	20,178	-4,0186	9,4222	11,572
85484	19,268	-4,0189	9,0527	11,62
85485	19,704	-4,5081	9,2573	11,634
85486	19,957	-4,0067	11,087	10,526
85487	20,169	-4,0027	11,771	10,123
85488	19,733	-4,5022	11,541	10,292
85489	4,9307	-4,0149	42,654	24,93
85490	5,0507	-4,0057	43,352	25,244
85491	4,692	-4,4821	43,08	26,313
85492	4,2788	-3,9836	43,647	32,093
85493	20,418	-4,0149	10,11	11,159
85494	20,625	-4,0012	10,865	10,65
85495	20,189	-4,5045	10,629	10,827
85496	5,4018	-4,0698	41,593	21,632
85497	5,5262	-4,0619	42,279	22,051
85498	5,1859	-4,5328	42,045	22,889
85499	20,34	-4,0437	8,3376	12,417
85500	20,181	-4,0525	7,7379	12,841
85501	20,002	-4,5229	8,2453	12,414
85502	20,666	-4,0313	9,0174	11,971
85503	21,004	-4,0264	9,1945	11,91
85504	21,108	-4,013	9,8869	11,343
85505	20,652	-4,5104	9,6143	11,55
85506	5,8041	-4,093	40,66	19,751
85507	5,9685	-4,0822	41,346	20,093
85508	5,6155	-4,537	41,126	20,742
85509	21,017	-4,0368	8,6247	12,362
85510	20,88	-4,0526	7,9888	12,91
85511	20,679	-4,5209	8,4476	12,464
85512	20,514	-4,0621	6,7767	13,819
85513	20,721	-4,0614	7,3891	13,366
85514	20,361	-4,5296	7,2481	13,351
85515	20,84	-4,0631	5,8424	14,972
85516	21,09	-4,067	6,461	14,523
85517	20,668	-4,5325	6,3053	14,39
85518	21,584	-4,0356	8,3795	12,765
85519	21,702	-4,0233	9,0488	12,109
85520	21,354	-4,516	8,8018	12,313
85521	6,2004	-4,0989	39,748	18,213
85522	6,3638	-4,1047	40,413	18,541
85523	6,0052	-4,556	40,208	19,042
85524	21,148	-4,0445	4,9009	16,327
85525	21,412	-4,053	5,5752	15,913
85526	21,013	-4,5306	5,3795	15,666
85527	21,447	-4,0514	7,7436	13,332
85528	21,297	-4,0663	7,0733	14,028
85529	21,081	-4,5318	7,53	13,435
85530	6,5422	-4,077	38,807	16,945
85531	6,7533	-4,0866	39,501	17,238
85532	6,4081	-4,543	39,302	17,594
85533	22,03	-4,049	7,4846	13,952
85534	22,179	-4,0354	8,1693	13,115
85535	21,82	-4,5196	7,9467	13,293
85536	6,8169	-4,0456	37,812	15,908
85537	7,0911	-4,0518	38,522	16,116
85538	6,6762	-4,534	38,312	16,448
85539	21,88	-4,064	6,8143	14,677
85540	21,662	-4,0569	6,1937	15,41
85541	21,512	-4,5345	6,6166	14,704
85542	21,463	-4,0195	3,9657	18,038
85543	21,72	-4,0451	4,6373	17,805
85544	21,308	-4,5138	4,4389	17,164
85545	22,452	-4,058	6,5877	15,582
85546	22,639	-4,0461	7,262	14,487
85547	22,248	-4,5295	7,0119	14,685
85548	22,048	-4,0126	3,7707	20,392
85549	21,626	-4,5057	3,4963	19,098
85550	21,824	-4,0053	3,0794	20,419
85551	21,984	-4,0537	5,3115	17,29
85552	22,234	-4,0509	5,9671	16,343
85553	21,823	-4,5224	5,7535	16,233
85554	7,091	-3,9992	36,831	15,043
85555	7,3903	-4,0238	37,565	15,221
85556	6,9576	-4,5116	37,313	15,473
85557	22,581	-4,0599	5,0692	18,892
85558	22,304	-4,0382	4,4423	20,011
85559	22,156	-4,5313	4,8522	18,493
85560	22,831	-4,0571	5,7248	17,905
85561	23,06	-4,04	6,3903	16,367
85562	22,656	-4,5285	6,1634	16,499
85563	7,4401	-3,9656	35,927	14,295
85564	7,7157	-3,9781	36,609	14,43
85565	7,2243	-4,4876	36,35	14,687
85566	23,159	-4,0305	4,8779	21,514
85567	23,427	-4,0457	5,5023	19,25
85568	23,005	-4,5286	5,2861	19,293
85569	7,9186	-3,9594	35,071	13,597
85570	8,1458	-3,9634	35,752	13,729
85571	7,656	-4,478	35,504	13,961
85572	22,883	-4,0088	4,251	22,632
85573	22,446	-4,5069	3,9962	21,735
85574	22,589	-4,0068	3,6611	23,846
85575	8,4459	-3,9686	34,203	12,956
85576	8,65	-3,9679	34,89	13,074
85577	8,1813	-4,4814	34,638	13,276
85578	23,767	-3,9994	4,6365	24,075
85579	23,32	-4,502	4,4509	23,85
85580	23,445	-4,0022	4,1043	26,991
85581	8,9662	-3,9792	33,334	12,393
85582	9,161	-3,9769	34,023	12,492
85583	8,7106	-4,4872	33,767	12,67
85584	9,4701	-3,9878	32,465	11,896
85585	9,6694	-3,9848	33,156	11,975
85586	9,2217	-4,492	32,9	12,143
85587	24,036	-4,0145	5,2609	21,931
85588	24,78	-3,9507	4,9402	24,219
85589	24,229	-4,4974	4,8189	24,307
85590	24,368	-3,9984	4,3868	29,332
85591	9,9597	-3,9945	31,594	11,453
85592	10,161	-3,9915	32,285	11,516
85593	9,7185	-4,4958	32,03	11,674
85594	23,657	-4,0286	6,1678	17,732
85595	24,297	-4,0133	5,9314	18,741
85596	23,85	-4,5171	5,7186	19,157
85597	10,438	-3,9989	30,726	11,055
85598	10,638	-3,9965	31,414	11,106
85599	10,201	-4,4987	31,158	11,255
85600	23,247	-4,0282	7,0646	15,27
85601	23,88	-4,0193	6,8424	15,913
85602	23,466	-4,5115	6,6153	16,219
85603	10,91	-4,001	29,859	10,693
85604	11,114	-3,9991	30,547	10,732
85605	10,676	-4,5002	30,295	10,877
85606	22,788	-4,0325	7,9467	13,637
85607	23,443	-4,0257	7,7455	14,039
85608	23,038	-4,5167	7,5123	14,314
85609	11,383	-4,0017	28,991	10,36
85610	11,585	-4,0001	29,677	10,389
85611	11,145	-4,5007	29,422	10,53
85612	22,297	-4,0231	8,8386	12,448
85613	22,961	-4,0222	8,6288	12,723
85614	22,545	-4,5158	8,3814	12,989
85615	11,859	-4,0021	28,124	10,053
85616	12,061	-4,0005	28,809	10,071
85617	11,622	-4,5009	28,559	10,211
85618	21,806	-4,0099	9,7412	11,539
85619	22,46	-4,0086	9,5282	11,718
85620	22,05	-4,5073	9,2959	11,959
85621	12,332	-4,0027	27,254	9,7721
85622	12,534	-4,0011	27,938	9,7793
85623	12,095	-4,5012	27,688	9,9166
85624	21,315	-3,9993	10,642	10,824
85625	21,991	-4,0032	10,428	10,934
85626	21,54	-4,5026	10,201	11,168
85627	12,8	-4,0031	26,384	9,5167
85628	13,003	-4,0015	27,067	9,5134
85629	12,568	-4,5015	26,82	9,6481
85630	20,837	-3,9972	11,549	10,24
85631	21,509	-3,9957	11,336	10,297
85632	21,066	-4,4967	11,097	10,533
85633	13,273	-4,0029	25,512	9,2836
85634	13,472	-4,0016	26,195	9,2705
85635	13,031	-4,5016	25,949	9,4064
85636	20,374	-4,0018	12,449	9,768
85637	21,049	-4,0006	12,234	9,7846
85638	20,609	-4,5005	12,004	10,008
85639	13,752	-4,0027	24,641	9,0733
85640	13,951	-4,0014	25,322	9,048
85641	13,515	-4,5013	25,077	9,1826
85642	19,907	-4,0041	13,336	9,3868
85643	20,583	-4,003	13,126	9,3693
85644	20,139	-4,5014	12,896	9,5845
85645	14,226	-4,0027	23,771	8,8899
85646	14,425	-4,0017	24,451	8,8512
85647	13,985	-4,5014	24,207	8,9878
85648	19,437	-4,0059	14,209	9,0847
85649	20,114	-4,0044	14,004	9,0396
85650	19,675	-4,5027	13,777	9,2432
85651	14,696	-4,003	22,902	8,7339
85652	14,899	-4,0018	23,58	8,68
85653	14,462	-4,5013	23,336	8,8168
85654	18,964	-4,0066	15,079	8,8459
85655	19,641	-4,0065	14,875	8,7793
85656	19,199	-4,5032	14,641	8,976
85657	15,17	-4,0036	22,032	8,6046
85658	15,372	-4,0027	22,709	8,5353
85659	14,93	-4,5018	22,468	8,6755
85660	18,491	-4,0069	15,949	8,6633
85661	19,169	-4,0068	15,749	8,5763
85662	18,729	-4,5034	15,518	8,7621
85663	15,647	-4,0037	21,161	8,5043
85664	15,848	-4,003	21,838	8,4179
85665	15,41	-4,5019	21,596	8,5597
85666	18,017	-4,0059	16,814	8,5327
85667	18,694	-4,0068	16,616	8,429
85668	18,253	-4,5035	16,379	8,607
85669	16,12	-4,0041	20,291	8,4365
85670	16,323	-4,0032	20,965	8,3306
85671	15,882	-4,5019	20,727	8,4768
85672	17,542	-4,0047	17,683	8,4475
85673	18,22	-4,0055	17,486	8,3282
85674	17,78	-4,5025	17,251	8,4972
85675	16,593	-4,0048	19,423	8,4026
85676	16,796	-4,004	20,096	8,2758
85677	16,357	-4,5022	19,856	8,4259
85678	17,067	-4,0048	18,554	8,4052
85679	17,745	-4,0048	18,356	8,2715
85680	17,305	-4,5022	18,117	8,4337
85681	17,27	-4,0048	19,228	8,255
85682	16,83	-4,5026	18,991	8,4106
85683	25,041	-3,9495	5,6107	21,221
85684	25,185	-4,4533	5,1219	23,286
85685	25,408	-3,9545	4,5243	30,152
85686	24,519	-4,0041	6,6059	16,956
85687	24,728	-4,4962	6,1478	18,191
85688	24,075	-4,0169	7,5233	14,689
85689	24,295	-4,5079	7,0677	15,549
85690	23,616	-4,0154	8,4276	13,122
85691	23,855	-4,509	7,979	13,768
85692	23,124	-4,0077	9,3184	11,987
85693	23,376	-4,5064	8,8763	12,488
85694	22,646	-4,002	10,215	11,107
85695	22,871	-4,5013	9,7606	11,526
85696	22,186	-3,9996	11,121	10,401
85697	22,415	-4,5007	10,672	10,743
85698	21,721	-3,9991	12,021	9,8366
85699	21,954	-4,499	11,577	10,116
85700	21,258	-4,0018	12,912	9,3817
85701	21,492	-4,5002	12,471	9,6121
85702	20,79	-4,0033	13,794	9,0186
85703	21,027	-4,5016	13,357	9,2058
85704	5,2747	-4,0647	43,887	24,991
85705	5,1221	-4,541	44,319	26,088
85706	4,5028	-4,0425	44,182	31,119
85707	20,318	-4,005	14,67	8,7312
85708	20,554	-4,5017	14,233	8,8831
85709	5,6461	-4,0527	42,977	22,55
85710	5,4272	-4,5236	43,463	23,742
85711	19,846	-4,0067	15,545	8,5067
85712	20,083	-4,5033	15,108	8,6272
85713	6,0928	-4,0743	42,032	20,597
85714	5,8642	-4,5291	42,499	21,592
85715	19,372	-4,0067	16,416	8,3392
85716	19,609	-4,5034	15,981	8,4314
85717	6,5281	-4,0939	41,099	18,947
85718	6,3263	-4,5452	41,568	19,795
85719	18,897	-4,0063	17,287	8,2219
85720	19,135	-4,5033	16,852	8,2887
85721	6,9166	-4,0923	40,166	17,61
85722	6,7484	-4,5487	40,637	18,295
85723	18,422	-4,0056	18,158	8,1497
85724	18,66	-4,503	17,723	8,1934
85725	7,3022	-4,0614	39,216	16,441
85726	7,1228	-4,5436	39,696	17,041
85727	17,947	-4,0047	19,029	8,1189
85728	18,185	-4,5026	18,594	8,1415
85729	7,6645	-4,03	38,275	15,459
85730	7,506	-4,5178	38,731	15,935
85731	17,472	-4,0039	19,9	8,126
85732	17,71	-4,5022	19,465	8,1291
85733	8,015	-4,0027	37,343	14,635
85734	7,8274	-4,5122	37,799	15,063
85735	16,999	-4,0031	20,77	8,1679
85736	17,235	-4,5018	20,336	8,1534
85737	8,4213	-3,9759	36,434	13,887
85738	8,2071	-4,4905	36,869	14,261
85739	16,524	-4,0024	21,642	8,2425
85740	16,761	-4,5013	21,206	8,2112
85741	8,8772	-3,9719	35,571	13,223
85742	8,6355	-4,4854	35,999	13,563
85743	16,049	-4,0021	22,515	8,3473
85744	16,285	-4,5011	22,08	8,3009
85745	9,365	-3,9762	34,71	12,623
85746	9,1188	-4,4866	35,142	12,922
85747	15,575	-4,0015	23,387	8,4805
85748	15,812	-4,501	22,951	8,4193
85749	9,8642	-3,9825	33,845	12,085
85750	9,6113	-4,4897	34,279	12,354
85751	15,099	-4,0009	24,261	8,6409
85752	15,336	-4,5006	23,824	8,5661
85753	10,36	-3,9885	32,975	11,603
85754	10,117	-4,4928	33,411	11,84
85755	14,624	-4,0004	25,133	8,8261
85756	14,861	-4,5003	24,697	8,7384
85757	10,839	-3,9935	32,105	11,176
85758	10,603	-4,4957	32,539	11,388
85759	14,149	-4,0001	26,006	9,0356
85760	14,387	-4,5001	25,569	8,9355
85761	11,314	-3,9967	31,235	10,788
85762	11,075	-4,4978	31,67	10,983
85763	13,675	-3,9999	26,878	9,2685
85764	13,912	-4,5	26,442	9,1564
85765	11,789	-3,9982	30,365	10,431
85766	11,553	-4,4989	30,799	10,61
85767	13,205	-3,9998	27,751	9,5226
85768	13,438	-4,5	27,314	9,4006
85769	12,262	-3,9989	29,495	10,103
85770	12,025	-4,4993	29,931	10,27
85771	12,736	-3,9994	28,623	9,7998
85772	12,973	-4,4998	28,187	9,664
85773	12,499	-4,4996	29,059	9,9545
85774	5,1687	-0,98088	34,344	14,311
85775	5,0654	-0,97516	33,634	13,943
85776	5,4466	-0,49096	33,934	14,037
85777	4,6107	-0,98703	35,168	14,915
85778	4,5241	-0,97599	34,456	14,495
85779	4,904	-0,48992	34,766	14,635
85780	4,0149	-0,99759	35,969	15,516
85781	3,9453	-0,9906	35,268	15,058
85782	4,3254	-0,4971	35,575	15,251
85783	3,3844	-1,0042	36,761	16,072
85784	3,3387	-0,99214	36,04	15,578
85785	3,7044	-0,50048	36,364	15,848
85786	2,7329	-1,0078	37,552	16,493
85787	2,6918	-1,0064	36,825	16,022
85788	3,0645	-0,50376	37,157	16,375
85789	2,0653	-0,99967	38,267	16,613
85790	2,0317	-0,99915	37,582	16,274
85791	2,4013	-0,50407	37,946	16,699
85792	0,32093	-0,99099	39,636	15,688
85793	-0,33627	-0,98723	39,595	15,628
85794	9,142e-002	-0,51867	39,97	15,35
85795	-0,30692	-1,0196	40,55	16,165
85796	1,2499	-0,96793	38,895	16,228
85797	1,3595	-0,98715	38,242	16,2
85798	1,7293	-0,4956	38,588	16,579
85799	0,43665	-0,92716	38,889	15,757
85800	0,87542	-0,47232	39,181	15,935
85801	17,092	-4,0203	11,319	10,099
85802	17,761	-4,0162	11,098	10,306
85803	17,527	-4,5083	11,535	10,119
85804	16,878	-4,0218	10,675	10,307
85805	16,209	-4,0242	10,9	10,069
85806	16,657	-4,512	11,103	10,127
85807	17,547	-4,0176	10,454	10,522
85808	18,215	-4,0156	10,214	10,776
85809	17,995	-4,5078	10,66	10,553
85810	17,309	-4,0164	9,8094	10,753
85811	16,662	-4,0264	10,045	10,482
85812	17,109	-4,5098	10,244	10,547
85813	17,978	-4,0144	9,5695	11,018
85814	18,634	-4,0186	9,3077	11,331
85815	18,436	-4,5078	9,7674	11,066
85816	17,084	-4,0237	9,1786	10,952
85817	17,732	-4,0207	8,9227	11,275
85818	17,533	-4,5066	9,3684	11,034
85819	15,993	-4,0289	10,269	10,236
85820	15,326	-4,0327	10,489	9,9782
85821	15,768	-4,5122	10,693	10,059
85822	18,388	-4,0249	8,6609	11,602
85823	18,833	-4,5108	8,848	11,669
85824	16,437	-4,0338	9,4139	10,67
85825	15,756	-4,0278	9,6517	10,368
85826	16,226	-4,5167	9,8421	10,471
85827	15,089	-4,0316	9,8716	10,103
85828	14,421	-4,0494	10,087	9,8319
85829	14,893	-4,5205	10,282	9,9434
85830	16,168	-4,0249	8,807	10,809
85831	16,834	-4,0325	8,5479	11,152
85832	16,647	-4,5171	8,9856	10,932
85833	15,487	-4,0189	9,0448	10,498
85834	14,857	-4,0372	9,2696	10,208
85835	15,309	-4,5112	9,457	10,323
85836	17,482	-4,0294	8,292	11,489
85837	17,943	-4,5141	8,4738	11,596
85838	13,492	-4,0647	9,7026	9,6392
85839	14,189	-4,055	9,4851	9,9292
85840	13,971	-4,5289	9,8927	9,7669
85841	15,234	-4,0227	8,45	10,608
85842	15,916	-4,0294	8,195	10,961
85843	15,717	-4,5078	8,6222	10,752
85844	13,264	-4,0668	9,1175	9,7125
85845	12,588	-4,0725	9,3273	9,4291
85846	13,066	-4,5358	9,5102	9,5652
85847	14,604	-4,041	8,6748	10,309
85848	13,961	-4,0571	8,9001	10,009
85849	14,429	-4,5261	9,0779	10,145
85850	16,582	-4,037	7,9359	11,316
85851	17,035	-4,5153	8,1102	11,448
85852	14,306	-4,0311	8,1036	10,372
85853	14,983	-4,035	7,8537	10,721
85854	14,806	-4,515	8,2667	10,537
85855	13,663	-4,0472	8,3289	10,064
85856	13,04	-4,0674	8,5469	9,7748
85857	13,506	-4,531	8,7185	9,9183
85858	15,665	-4,0417	7,5987	11,084
85859	16,143	-4,5217	7,7617	11,247
85860	14,057	-4,0446	7,5266	10,453
85861	13,39	-4,0498	7,7698	10,116
85862	13,872	-4,5162	7,9268	10,28
85863	11,676	-4,0699	8,9632	9,2025
85864	12,364	-4,0731	8,7567	9,4859
85865	12,171	-4,5368	9,1386	9,3469
85866	14,733	-4,0485	7,2767	10,811
85867	15,204	-4,5201	7,4334	10,983
85868	11,384	-4,0531	8,418	9,221
85869	10,766	-4,0682	8,6213	8,9713
85870	11,251	-4,5331	8,7806	9,1119
85871	12,072	-4,0563	8,2115	9,5083
85872	12,767	-4,0699	7,9878	9,8199
85873	12,588	-4,5363	8,3716	9,6732
85874	13,764	-4,0431	6,9665	10,5
85875	14,28	-4,5284	7,1178	10,696
85876	11,727	-4,0331	7,6696	9,5114
85877	11,071	-4,0385	7,9025	9,2256
85878	11,596	-4,52	8,0482	9,3912
85879	12,422	-4,0467	7,4459	9,8273
85880	13,097	-4,0483	7,2097	10,155
85881	12,951	-4,5336	7,6024	10,01
85882	10,453	-4,0536	8,1058	8,9728
85883	9,8713	-4,0691	8,3673	8,7369
85884	10,349	-4,5351	8,4488	8,8814
85885	11,417	-4,0352	7,1493	9,5214
85886	12,084	-4,0287	6,9015	9,8324
85887	11,944	-4,5131	7,2931	9,6984
85888	12,759	-4,0302	6,6653	10,165
85889	13,285	-4,5147	6,8165	10,362
85890	10,76	-4,0407	7,3822	9,2316
85891	10,095	-4,0455	7,6347	8,9559
85892	10,615	-4,5185	7,7446	9,1153
85893	9,5132	-4,061	7,8962	8,7163
85894	8,7875	-4,0535	8,2685	8,4356
85895	9,3846	-4,534	8,2373	8,6208
85896	10,436	-4,043	6,8765	9,234
85897	11,102	-4,0388	6,6132	9,5272
85898	10,95	-4,5221	7,0081	9,3965
85899	9,771	-4,0479	7,129	8,9548
85900	9,0735	-4,0374	7,4009	8,6859
85901	9,5908	-4,527	7,5149	8,8281
85902	11,769	-4,0322	6,3655	9,8432
85903	12,301	-4,5156	6,526	10,031
85904	10,104	-4,0387	6,3303	9,235
85905	9,439	-4,0302	6,6056	8,9625
85906	9,9378	-4,5209	6,7422	9,1037
85907	8,3479	-4,0298	7,7732	8,4008
85908	7,6535	-4,0213	8,0006	8,1783
85909	8,1529	-4,5194	8,2604	8,2668
85910	10,769	-4,0345	6,067	9,5326
85911	11,293	-4,5167	6,238	9,7026
85912	-2,0832	-3,966	9,0489	7,0997
85913	-2,8848	-3,9758	9,0966	7,1608
85914	-2,4001	-4,4872	9,3679	7,078
85915	9,7761	-4,0289	5,7702	9,2479
85916	10,282	-4,5178	5,9436	9,3954
85917	8,7416	-4,0197	6,8775	8,6906
85918	8,059	-4,0254	7,0722	8,4632
85919	8,5429	-4,5104	7,286	8,5612
85920	-1,3174	-3,9412	8,4104	7,1614
85921	-2,1481	-3,9465	8,3131	7,2274
85922	-1,863	-4,4788	8,6775	7,1462
85923	9,111	-4,0204	6,0455	8,9715
85924	8,4418	-4,0105	6,2522	8,7344
85925	8,9402	-4,5093	6,469	8,8437
85926	6,682	-4,0142	7,4617	8,0496
85927	7,3646	-4,0169	7,2997	8,2382
85928	7,1541	-4,5018	7,7408	8,1104
85929	8,7858	-4,0146	5,4141	9,0052
85930	9,2818	-4,5111	5,622	9,1256
85931	6,4145	-4,0111	6,7812	8,1225
85932	5,765	-4,0214	6,92	7,9658
85933	6,2052	-4,5124	7,203	8,0024
85934	7,7593	-4,0162	6,447	8,5063
85935	7,0971	-4,0137	6,6191	8,3107
85936	7,5771	-4,515	6,8844	8,3811
85937	-0,35617	-3,9297	7,7833	7,251
85938	-1,2964	-3,9123	7,6512	7,3004
85939	-0,97754	-4,4624	8,0527	7,2138
85940	8,1166	-4,0047	5,6208	8,7669
85941	7,4584	-3,9981	5,7876	8,5638
85942	7,9434	-4,5012	6,0355	8,6472
85943	6,7962	-3,9956	5,9597	8,3685
85944	6,1453	-3,9971	6,1021	8,203
85945	6,6191	-4,4987	6,3798	8,2536
85946	0,46766	-3,9659	6,9457	7,4176
85947	-0,20361	-3,9508	6,7889	7,4441
85948	3,4667e-002	-4,4673	7,4031	7,3244
85949	4,852	-4,0337	6,3654	7,9161
85950	5,4958	-4,0074	6,2409	8,0476
85951	5,3201	-4,509	6,6573	7,94
85952	7,802	-4,0167	4,9363	8,818
85953	8,2898	-4,5036	5,2061	8,9084
85954	-2,9496	-3,9564	8,3607	7,2871
85955	-3,7278	-3,9761	8,3268	7,3795
85956	-3,4459	-4,4887	8,7763	7,2718
85957	3,9414	-4,0544	5,8089	7,8959
85958	4,547	-4,0361	5,6649	8,0053
85959	4,4036	-4,5246	6,1197	7,9002
85960	-2,1271	-3,9176	7,5539	7,3677
85961	-2,8657	-3,9327	7,5107	7,4368
85962	-2,583	-4,4677	7,9383	7,332
85963	7,1438	-4,0101	5,103	8,6152
85964	6,4974	-4,0086	5,2638	8,4409
85965	6,9733	-4,4969	5,5397	8,501
85966	1,1248	-4,0257	6,076	7,6124
85967	0,38884	-3,9779	6,0196	7,6057
85968	0,70362	-4,4986	6,4368	7,5292
85969	6,8327	-3,9997	4,413	8,6728
85970	7,3122	-4,5132	4,6784	8,746
85971	3,645	-4,0432	5,1059	7,993
85972	2,9328	-4,0601	5,3211	7,8824
85973	3,5132	-4,5298	5,5654	7,895
85974	-3,6439	-3,9524	7,4768	7,527
85975	-4,3412	-3,9689	7,3995	7,6331
85976	-4,0693	-4,4875	7,8505	7,5137
85977	-1,1438	-3,9334	6,6568	7,4941
85978	-2,0729	-3,8944	6,7579	7,521
85979	-1,7412	-4,4499	7,1895	7,4167
85980	5,8464	-4,0101	5,4062	8,2766
85981	5,1908	-4,0098	5,5405	8,1348
85982	5,6715	-4,4984	5,8245	8,1696
85983	-2,8115	-3,9095	6,7147	7,5891
85984	-3,5369	-3,9289	6,6563	7,6755
85985	-3,2508	-4,465	7,1414	7,5508
85986	6,1863	-3,9982	4,5738	8,4991
85987	5,5498	-4,012	4,6955	8,358
85988	6,021	-4,5117	4,9933	8,3978
85989	-0,28243	-3,9628	5,8628	7,6364
85990	-1,0667	-3,9167	5,8096	7,6657
85991	-0,72479	-4,4835	6,2712	7,5632
85992	1,0687	-4,0267	5,2783	7,7694
85993	1,91	-4,0575	5,406	7,786
85994	1,3951	-4,5272	5,6798	7,7055
85995	0,33274	-3,9788	5,2219	7,7644
85996	-0,41777	-3,9373	5,1258	7,7828
85997	-9,0266e-002	-4,4793	5,6109	7,6891
85998	5,8819	-3,9881	3,8378	8,5664
85999	6,3511	-4,4865	4,1596	8,6154
86000	4,2506	-4,0248	4,9619	8,1012
86001	4,8942	-4,0117	4,8298	8,2177
86002	4,7252	-4,5114	5,2634	8,1167
86003	-1,9958	-3,8777	5,9106	7,6881
86004	-2,7775	-3,906	5,9929	7,7327
86005	-2,4072	-4,4445	6,3267	7,6366
86006	3,3103	-4,034	4,333	8,1024
86007	3,9518	-3,9783	4,2089	8,1928
86008	3,7974	-4,5134	4,7014	8,0947
86009	1,022	-4,0114	4,4523	7,9241
86010	0,29198	-3,9802	4,3667	7,9234
86011	0,6624	-4,4995	4,8428	7,8467
86012	-1,2021	-3,8912	5,0726	7,8137
86013	-1,9349	-3,8581	5,0338	7,8575
86014	-1,5994	-4,4332	5,5095	7,7501
86015	5,2454	-4,0019	3,9595	8,4268
86016	4,5954	-3,9652	4,0768	8,3078
86017	5,0714	-4,5003	4,3912	8,3335
86018	1,8634	-4,0423	4,5799	7,9379
86019	2,5981	-4,051	4,5482	7,9927
86020	2,432	-4,5304	5,0921	7,8849
86021	4,9495	-3,9999	3,1758	8,5001
86022	5,4094	-4,5016	3,5066	8,5359
86023	0,94032	-3,9823	3,6265	8,06
86024	1,6349	-4,0441	3,6517	8,0827
86025	1,3609	-4,512	4,1055	8,0012
86026	3,0237	-4,0269	3,5161	8,2031
86027	2,3697	-4,0528	3,6199	8,1355
86028	2,813	-4,5207	4,0309	8,1096
86029	-0,45853	-3,9386	4,2707	7,9431
86030	-1,203	-3,8994	4,162	7,9798
86031	-0,85158	-4,4579	4,6618	7,885
86032	-4,2343	-3,9453	6,579	7,7803
86033	-4,909	-3,9572	6,499	7,8964
86034	-4,6088	-4,4814	6,9629	7,7628
86035	4,2995	-3,9633	3,2931	8,3825
86036	3,6653	-3,9712	3,392	8,2922
86037	4,1126	-4,4649	3,7504	8,2972
86038	-3,5029	-3,9254	5,9346	7,8184
86039	-4,125	-3,9247	5,7691	7,9258
86040	-3,8279	-4,4639	6,209	7,8052
86041	4,0479	-3,9869	2,4498	8,4599
86042	4,4825	-4,4984	2,8387	8,4793
86043	0,21032	-3,9511	3,5409	8,0607
86044	-0,51584	-3,9059	3,2534	8,1025
86045	-0,15237	-4,4807	3,9122	8,0062
86046	-2,7166	-3,8863	5,1161	7,8986
86047	-3,4191	-3,9162	5,0859	7,9711
86048	-3,0936	-4,4615	5,5396	7,8569
86049	0,27845	-3,9472	2,8382	8,157
86050	0,79736	-3,9178	2,8339	8,1679
86051	0,51428	-4,4703	3,2277	8,115
86052	3,4137	-3,9948	2,5488	8,3706
86053	2,7435	-4,0423	2,675	8,297
86054	3,2017	-4,5063	3,0918	8,29
86055	2,0894	-4,0681	2,7787	8,2304
86056	1,492	-3,9796	2,8591	8,1897
86057	1,9032	-4,5322	3,2769	8,16
86058	3,1731	-4,0025	1,6633	8,4345
86059	3,5995	-4,4885	2,0726	8,4511
86060	-2,6199	-3,8499	4,0936	8,0766
86061	-1,9358	-3,8663	4,1232	8,0232
86062	-2,2829	-4,4248	4,5727	7,9728
86063	-4,7998	-3,9366	5,6891	8,0406
86064	-5,4658	-3,9541	5,6509	8,159
86065	-5,1716	-4,4758	6,0692	8,0317
86066	-0,44771	-3,9021	2,5507	8,1997
86067	0,13465	-3,9238	2,0847	8,2382
86068	-2,4535e-002	-4,4769	2,4845	8,2029
86069	-4,0412	-3,9156	4,9204	8,0794
86070	-4,6993	-3,9221	4,8951	8,1768
86071	-4,3946	-4,4608	5,3287	8,0557
86072	2,5029	-4,0499	1,7895	8,3614
86073	1,9342	-4,1031	1,8867	8,319
86074	2,2992	-4,536	2,3066	8,3085
86075	-3,3224	-3,8799	4,0633	8,1472
86076	-4,0221	-3,9227	4,0647	8,2286
86077	-3,6715	-4,4548	4,5149	8,1144
86078	2,3168	-4,0204	0,85753	8,4089
86079	2,7391	-4,514	1,2724	8,4278
86080	-2,6501	-3,8563	3,1388	8,2248
86081	-3,2974	-3,8547	3,1591	8,2831
86082	-2,9569	-4,4251	3,6144	8,1902
86083	-1,2603	-3,8666	3,1447	8,1399
86084	-1,966	-3,8727	3,1685	8,1721
86085	-1,5795	-4,4414	3,6818	8,0826
86086	1,3368	-4,0145	1,967	8,2787
86087	0,65357	-3,8943	2,0803	8,2489
86088	1,0742	-4,4474	2,477	8,2239
86089	-0,7208	-3,8672	1,8514	8,2628
86090	-1,3339	-3,8312	2,1177	8,2669
86091	-0,93178	-4,4252	2,6157	8,2069
86092	1,7481	-4,0736	0,9548	8,3667
86093	1,1362	-4,0548	1,0818	8,3385
86094	1,5457	-4,5671	1,466	8,3382
86095	-0,13844	-3,8889	1,3854	8,3017
86096	0,45293	-3,9345	1,195	8,3088
86097	0,23294	-4,4469	1,6837	8,2834
86098	1,4878	-3,9841	3,4151e-002	8,3754
86099	1,8977	-4,5064	0,44644	8,4003
86100	-2,0396	-3,8372	2,1414	8,2985
86101	-2,6904	-3,8463	2,1915	8,3421
86102	-2,3182	-4,4312	2,6714	8,2684
86103	-0,31302	-3,8908	0,52701	8,3345
86104	-0,90093	-3,8749	0,73584	8,3457
86105	-0,53272	-4,442	1,1056	8,3282
86106	0,87591	-3,9653	0,16111	8,3472
86107	0,27835	-3,9365	0,33666	8,3416
86108	0,66205	-4,4876	0,72097	8,3435
86109	-1,514	-3,8389	1,0021	8,3493
86110	-2,1123	-3,8148	1,1415	8,3806
86111	-1,736	-4,406	1,6196	8,3371
86112	0,69253	-3,9333	-0,74955	8,334
86113	1,0852	-4,4777	-0,39538	8,361
86114	9,4961e-002	-3,9044	-0,574	8,3283
86115	-0,4885	-3,8851	-0,41066	8,3399
86116	-0,11396	-4,4489	-3,4448e-002	8,3486
86117	-1,0764	-3,8692	-0,20183	8,3511
86118	-1,6759	-3,8474	-3,0018e-002	8,3847
86119	-1,2927	-4,4329	0,40851	8,3718
86120	-5,0734e-002	-3,8965	-1,4649	8,2851
86121	0,3131	-4,4556	-1,1291	8,316
86122	-0,63419	-3,8771	-1,3015	8,2967
86123	-1,2307	-3,8663	-1,1811	8,3258
86124	-0,86419	-4,4362	-0,77593	8,342
86125	-0,22076	-3,8896	-2,1253	8,2231
86126	-0,76262	-3,8858	-2,1778	8,2274
86127	-0,42532	-4,4409	-1,8473	8,2602
86128	-0,30047	-3,9052	-2,7544	8,1516
86129	-8,8823e-002	-4,4487	-2,5161	8,1834
86130	-0,84233	-3,9014	-2,8069	8,1563
86131	-0,62936	-4,4565	-3,2272	8,0975
86132	-1,3591	-3,875	-2,0574	8,2567
86133	-1,1424	-4,4449	-2,6289	8,1927
86134	-1,8302	-3,8445	-1,0093	8,3594
86135	-1,6006	-4,4301	-1,5739	8,3219
86136	-2,2742	-3,8232	0,10938	8,4158
86137	-2,0598	-4,4144	-0,44462	8,4079
86138	-5,3654	-3,9396	4,8568	8,2928
86139	-5,7268	-4,4783	5,2521	8,2916
86140	-2,7631	-3,824	1,1915	8,4235
86141	-2,4885	-4,4088	0,66338	8,4348
86142	-4,6802	-3,9292	4,0393	8,3244
86143	-5,004	-4,4613	4,4615	8,3106
86144	-3,3377	-3,8447	2,2118	8,3994
86145	-3,0377	-4,4151	1,7197	8,4243
86146	-3,9971	-3,8976	3,1605	8,3628
86147	-4,3298	-4,4679	3,6102	8,3502
86148	-3,6378	-4,4296	2,7038	8,3871
86149	19,767	-1,0238	-1,9281	15,122
86150	20,286	-0,54081	-1,9345	15,35
86151	20,913	-1,0408	-1,9611	16,531
86152	18,667	-0,95433	-1,7007	14,539
86153	19,172	-0,48296	-1,7785	14,81
86154	17,681	-0,94111	-1,4896	14,092
86155	18,169	-0,47136	-1,6116	14,395
86156	16,708	-0,95159	-1,2616	13,565
86157	17,19	-0,46975	-1,3718	13,893
86158	15,716	-0,94531	-1,074	12,982
86159	16,222	-0,48184	-1,1556	13,335
86160	14,726	-0,92812	-0,95171	12,388
86161	15,234	-0,46347	-1,0041	12,728
86162	13,722	-0,92023	-0,84117	11,815
86163	14,242	-0,46465	-0,91102	12,132
86164	4,3208	-0,96025	33,033	13,782
86165	4,4208	-0,97027	33,746	14,132
86166	4,6893	-0,4842	33,341	13,896
86167	12,802	-0,91932	-0,55165	11,327
86168	13,201	-0,45558	-0,77133	11,551
86169	3,6092	-0,94334	32,419	13,587
86170	3,686	-0,95627	33,13	13,918
86171	3,9551	-0,47605	32,728	13,708
86172	3,786	-0,96628	33,842	14,265
86173	3,8588	-0,97957	34,556	14,644
86174	4,1523	-0,48607	34,15	14,407
86175	12,012	-0,92968	-0,13522	10,94
86176	12,368	-0,46374	-0,38323	11,129
86177	2,9175	-0,92955	31,81	13,377
86178	2,9926	-0,94465	32,506	13,687
86179	3,2661	-0,46729	32,114	13,499
86180	3,1345	-0,96059	33,913	14,353
86181	3,0694	-0,95757	33,217	14,017
86182	3,4215	-0,48021	33,528	14,158
86183	11,265	-0,93793	0,31093	10,587
86184	11,613	-0,46594	2,9674e-002	10,769
86185	3,2073	-0,97388	34,627	14,729
86186	3,2691	-0,98516	35,339	15,123
86187	3,5693	-0,4935	34,948	14,915
86188	2,2573	-0,90851	31,188	13,151
86189	2,3134	-0,92187	31,878	13,45
86190	2,5816	-0,46226	31,506	13,282
86191	2,5485	-0,97563	34,69	14,758
86192	2,5034	-0,95266	33,968	14,409
86193	2,8494	-0,48038	34,292	14,577
86194	2,6102	-0,98691	35,402	15,151
86195	2,646	-0,99431	36,105	15,527
86196	2,973	-0,49166	35,716	15,368
86197	1,6309	-0,88216	30,573	12,913
86198	1,6731	-0,90674	31,238	13,201
86199	1,9459	-0,44625	30,869	13,043
86200	1,9075	-0,97073	34,739	14,779
86201	1,9305	-0,99337	35,454	15,101
86202	2,2547	-0,49525	35,072	14,963
86203	2,3886	-0,93697	32,574	13,758
86204	2,4383	-0,94964	33,272	14,075
86205	2,7243	-0,47736	32,896	13,902
86206	10,554	-0,94941	0,86411	10,261
86207	10,881	-0,47199	0,50907	10,429
86208	1,7767	-0,92404	32,617	13,8
86209	1,7292	-0,9201	31,929	13,498
86210	2,0581	-0,45961	32,25	13,641
86211	1,8264	-0,9367	33,314	14,116
86212	1,8625	-0,94776	34,017	14,431
86213	2,1574	-0,47228	33,644	14,273
86214	9,9386	-0,96772	1,562	9,9738
86215	10,198	-0,47742	1,1679	10,119
86216	1,1694	-0,93332	32,655	13,835
86217	1,1987	-0,93677	33,348	14,135
86218	1,4953	-0,46442	32,983	13,985
86219	1,9905	-0,99774	36,856	15,797
86220	1,9662	-1,0008	36,157	15,478
86221	2,3299	-0,50266	36,486	15,724
86222	1,0206	-0,87254	29,949	12,668
86223	1,058	-0,88569	30,597	12,943
86224	1,3158	-0,43592	30,276	12,812
86225	1,3258	-0,98663	37,557	15,855
86226	1,3222	-0,98149	36,867	15,659
86227	1,6722	-0,49508	37,211	15,893
86228	1,2611	-0,95369	34,753	14,744
86229	1,2348	-0,94782	34,051	14,449
86230	1,5675	-0,47548	34,39	14,611
86231	1,2841	-0,97634	35,468	15,067
86232	1,298	-0,98453	36,168	15,336
86233	1,6247	-0,49812	35,809	15,249
86234	0,47213	-0,89093	29,91	12,664
86235	0,48281	-0,89434	29,266	12,392
86236	0,7253	-0,43663	29,623	12,551
86237	0,62416	-0,96112	35,461	15,002
86238	0,62873	-0,95102	34,772	14,739
86239	0,9547	-0,47821	35,116	14,892
86240	9,4086	-0,99453	2,3527	9,7077
86241	9,6793	-0,4903	1,9561	9,8622
86242	0,6273	-0,98286	37,555	15,672
86243	0,5462	-0,94639	38,236	15,727
86244	0,98966	-0,49154	37,896	15,811
86245	0,63804	-0,96932	36,161	15,273
86246	0,62369	-0,97772	36,865	15,473
86247	0,98246	-0,48641	36,515	15,422
86248	1,1218	-0,92939	31,967	13,534
86249	1,1001	-0,91026	31,262	13,23
86250	1,4101	-0,46049	31,601	13,38
86251	-5,9676e-002	-0,97414	36,152	15,236
86252	-3,0358e-002	-0,96191	35,452	14,987
86253	0,30185	-0,48291	35,816	15,119
86254	-7,402e-002	-0,98254	36,856	15,437
86255	-9,8817e-002	-0,96936	37,544	15,595
86256	0,28472	-0,49131	37,215	15,5
86257	-0,17991	-0,93289	38,225	15,65
86258	-0,22056	-0,9234	38,848	15,696
86259	0,18217	-0,45484	38,583	15,586
86260	0,54474	-0,93203	31,963	13,542
86261	0,55642	-0,93904	32,675	13,849
86262	0,85474	-0,4689	32,323	13,706
86263	-0,72662	-0,97529	36,84	15,508
86264	-0,72438	-0,97403	36,131	15,254
86265	-0,38407	-0,49123	36,507	15,341
86266	0,50952	-0,90408	30,557	12,938
86267	0,52303	-0,9129	31,258	13,239
86268	0,80337	-0,44977	30,929	13,106
86269	0,60245	-0,94515	34,07	14,444
86270	0,58574	-0,94249	33,368	14,149
86271	0,90452	-0,47235	33,714	14,307
86272	-4,8185e-002	-0,92173	30,524	12,928
86273	-7,6219e-002	-0,91647	29,794	12,616
86274	0,21768	-0,45431	30,206	12,803
86275	-3,4678e-002	-0,93056	31,225	13,228
86276	-3,0612e-002	-0,92216	31,957	13,543
86277	0,25525	-0,46313	31,613	13,406
86278	8,89	-1,0184	3,1534	9,4321
86279	9,1379	-0,50422	2,7493	9,5823
86280	-0,60154	-0,94664	31,184	13,207
86281	-0,59981	-0,94572	30,486	12,906
86282	-0,30354	-0,46742	30,871	13,088
86283	-2,5787e-002	-0,9518	34,762	14,724
86284	-2,6594e-002	-0,94435	34,055	14,436
86285	0,30276	-0,4728	34,427	14,598
86286	8,353	-1,0436	3,988	9,1373
86287	8,6208	-0,51422	3,5649	9,2996
86288	-0,75142	-0,9621	37,529	15,665
86289	-0,79844	-0,95635	38,211	15,867
86290	-0,42867	-0,47804	37,894	15,627
86291	7,8099	-1,0518	4,8383	8,8348
86292	8,0639	-0,52942	4,4187	8,9922
86293	-1,3583	-0,96612	36,807	15,597
86294	-1,4109	-0,96016	37,478	15,932
86295	-1,0403	-0,48406	37,183	15,651
86296	-4,3307e-002	-0,94168	33,353	14,142
86297	-1,8935e-002	-0,92917	32,669	13,85
86298	0,27593	-0,47014	33,024	14,012
86299	-0,69507	-0,96179	35,43	15,006
86300	-0,67985	-0,95424	34,712	14,709
86301	-0,34484	-0,479	35,11	14,865
86302	-0,64403	-0,93785	33,336	14,133
86303	-0,68066	-0,94678	34,005	14,422
86304	-0,34089	-0,47154	33,7	14,298
86305	-1,3561	-0,96486	36,097	15,346
86306	-1,3457	-0,96135	35,376	15,015
86307	-1,0165	-0,4828	35,777	15,159
86308	7,2675	-1,0376	5,6822	8,5358
86309	7,5262	-0,52234	5,2907	8,6857
86310	-2,0374	-0,96472	36,716	15,787
86311	-1,995	-0,96415	36,038	15,393
86312	-1,6764	-0,48207	36,431	15,541
86313	-0,59748	-0,93824	31,916	13,523
86314	-0,61965	-0,92534	32,652	13,841
86315	-0,3072	-0,45903	32,315	13,709
86316	-0,83909	-0,94686	38,834	15,912
86317	-0,49864	-0,46856	39,244	15,619
86318	-1,1999	-0,95389	31,858	13,487
86319	-1,1532	-0,96845	31,148	13,18
86320	-0,87794	-0,47921	31,558	13,376
86321	-1,222	-0,94099	32,593	13,805
86322	-1,2694	-0,94278	33,273	14,104
86323	-0,93211	-0,46631	32,989	13,995
86324	-1,4579	-0,95441	38,16	16,13
86325	-1,1147	-0,4783	38,569	16,04
86326	-1,848	-0,94793	32,53	13,762
86327	-1,7822	-0,95721	31,805	13,444
86328	-1,514	-0,47468	32,221	13,649
86329	-1,3061	-0,95171	33,942	14,393
86330	-1,3305	-0,9538	34,657	14,719
86331	-0,9851	-0,47524	34,358	14,582
86332	6,6657	-1,0311	6,5272	8,2286
86333	6,9633	-0,51521	6,1212	8,3837
86334	-1,8953	-0,94972	33,21	14,062
86335	-1,9406	-0,95639	33,874	14,372
86336	-1,5947	-0,47647	33,596	14,256
86337	-2,09	-0,95876	37,387	16,118
86338	-1,7588	-0,47611	37,796	16,214
86339	-2,5307	-0,95421	33,164	14,022
86340	-2,4691	-0,94788	32,465	13,703
86341	-2,1839	-0,47325	32,863	13,912
86342	-1,9651	-0,95847	34,589	14,697
86343	-1,9846	-0,96064	35,316	15,063
86344	-1,643	-0,47856	35,009	14,893
86345	6,0352	-1,0324	7,3743	7,9295
86346	6,334	-0,51585	6,9374	8,0818
86347	-2,576	-0,96088	33,828	14,333
86348	-2,6148	-0,96371	34,521	14,689
86349	-2,2668	-0,47991	34,223	14,548
86350	-2,6963	-0,96439	36,625	15,861
86351	-2,3844	-0,48266	37,025	16,067
86352	-3,2365	-0,96854	33,76	14,272
86353	-3,1742	-0,96427	33,063	13,931
86354	-2,8774	-0,48096	33,466	14,163
86355	5,4325	-1,0326	8,2451	7,6541
86356	5,6953	-0,51654	7,7929	7,7889
86357	-2,6343	-0,96587	35,248	15,055
86358	-2,6538	-0,96382	35,946	15,469
86359	-2,3135	-0,48208	35,645	15,264
86360	2,1212	-0,96309	23,639	10,047
86361	1,9203	-0,96942	22,897	9,7481
86362	2,3098	-0,48316	23,208	9,8817
86363	-3,3022	-0,96669	35,14	15,019
86364	-3,2753	-0,97137	34,453	14,629
86365	-2,9551	-0,48379	34,851	14,876
86366	-3,3217	-0,96463	35,838	15,432
86367	-2,9941	-0,48174	36,248	15,708
86368	4,8429	-1,0265	9,245	7,3919
86369	5,1119	-0,51604	8,6896	7,5266
86370	1,7279	-0,95652	24,528	10,409
86371	1,5711	-0,95368	23,736	10,087
86372	1,9325	-0,47994	24,07	10,231
86373	1,2641	-0,95691	25,424	10,78
86374	1,1656	-0,94472	24,703	10,484
86375	1,5233	-0,47659	24,985	10,607
86376	-3,9837	-0,97173	35,029	14,907
86377	-3,6494	-0,4829	35,427	15,206
86378	0,66797	-0,95287	25,588	10,853
86379	0,71549	-0,96958	26,324	11,158
86380	1,0098	-0,48032	25,879	10,981
86381	1,3702	-0,96001	22,994	9,79
86382	1,0412	-0,96183	22,214	9,4718
86383	1,5181	-0,48627	22,555	9,6214
86384	-3,9568	-0,97641	34,342	14,516
86385	-3,9059	-0,9796	33,653	14,154
86386	-3,5956	-0,48758	34,054	14,417
86387	4,087	-1,0251	10,159	7,1655
86388	4,5094	-0,51043	9,7383	7,2764
86389	-4,6488	-0,99001	34,24	14,359
86390	-4,3235	-0,48883	34,632	14,66
86391	1,0088	-0,94188	23,911	10,163
86392	0,87414	-0,93086	23,182	9,8654
86393	1,2097	-0,47375	23,402	9,9631
86394	3,325	-1,0297	10,908	7,0056
86395	3,6051	-0,51471	10,475	7,0733
86396	0,56943	-0,94068	24,867	10,557
86397	0,51466	-0,92185	24,186	10,277
86398	0,86566	-0,46813	24,461	10,398
86399	-6,5539e-002	-0,91987	29,151	12,344
86400	-4,3115e-003	-0,94408	28,358	12,013
86401	0,19007	-0,45771	28,871	12,238
86402	2,7229	-1,0154	11,704	6,9103
86403	2,6297	-1,0336	10,958	6,9315
86404	3,0085	-0,51495	11,284	6,9519
86405	-0,62785	-0,94046	29,756	12,596
86406	-0,79301	-0,94898	29,01	12,276
86407	-0,3714	-0,46216	29,391	12,457
86408	5,7935e-002	-0,9257	25,052	10,634
86409	3,2634e-002	-0,95491	25,74	10,92
86410	0,34062	-0,47255	25,339	10,763
86411	-1,1515	-0,96753	30,45	12,88
86412	-1,1062	-0,96433	29,901	12,646
86413	-0,84521	-0,4783	30,15	12,771
86414	3,1655e-003	-0,90687	24,371	10,353
86415	8,3378e-003	-0,90653	23,812	10,125
86416	0,38002	-0,91083	23,457	9,9783
86417	0,27313	-0,45372	23,938	10,184
86418	2,1885	-0,9976	12,532	6,8732
86419	2,0129	-1,007	11,783	6,8517
86420	2,4112	-0,50049	12,099	6,8815
86421	-0,47275	-0,89344	24,406	10,368
86422	-0,52633	-0,92791	25,152	10,674
86423	-0,21508	-0,45315	24,79	10,535
86424	1,7779	-0,9813	13,342	6,8966
86425	1,369	-1,0089	12,674	6,8297
86426	1,9414	-0,49712	12,926	6,8759
86427	-0,46758	-0,89311	23,848	10,139
86428	-0,23824	-0,91713	23,361	9,9388
86429	-0,16225	-0,45282	23,632	10,059
86430	-1,6298	-0,9837	30,396	12,841
86431	-1,7355	-0,97177	31,095	13,137
86432	-1,414	-0,48923	30,832	13,049
86433	-1,0185	-0,9022	24,364	10,348
86434	-0,86234	-0,88778	23,653	10,059
86435	-0,73042	-0,44029	24,023	10,219
86436	0,54518	-0,93267	22,401	9,5492
86437	0,13344	-0,92143	23,005	9,7919
86438	0,53863	-0,45711	22,961	9,7847
86439	1,402	-0,96819	14,151	6,9709
86440	1,1554	-0,97079	13,548	6,8855
86441	1,6097	-0,48419	13,728	6,9271
86442	2,0074e-002	-0,94454	22,005	9,3867
86443	0,2131	-0,94856	21,303	9,1066
86444	0,55174	-0,47556	21,841	9,3316
86445	8,8519e-002	-0,97564	27,296	11,567
86446	8,0153e-002	-0,97162	26,476	11,225
86447	0,42599	-0,48926	26,786	11,364
86448	0,93118	-0,9603	14,964	7,0897
86449	0,91569	-0,97501	14,397	6,9897
86450	1,2224	-0,484	14,585	7,0323
86451	-1,5845	-0,98049	29,847	12,607
86452	-1,2713	-0,97285	29,155	12,328
86453	-1,3148	-0,48603	29,666	12,552
86454	0,65681	-0,93996	15,884	7,2835
86455	0,56923	-0,90972	16,852	7,5388
86456	0,17698	-0,93927	16,294	7,3809
86457	0,64564	-0,46366	16,412	7,4205
86458	0,37021	-0,95998	14,981	7,0821
86459	0,18815	-0,95191	15,765	7,2487
86460	0,66798	-0,4763	15,355	7,1644
86461	0,13553	-0,91267	17,129	7,6146
86462	0,14434	-0,89117	17,631	7,7704
86463	0,49282	-0,44605	17,292	7,6712
86464	-0,62355	-0,98965	27,428	11,618
86465	-0,73178	-0,97319	28,218	11,944
86466	-0,24895	-0,48638	27,807	11,793
86467	-2,0351	-0,99105	29,609	12,489
86468	-2,1923	-0,97989	30,314	12,776
86469	-1,8542	-0,49446	30,041	12,692
86470	-0,63192	-0,98564	26,608	11,276
86471	-0,55163	-0,95712	25,84	10,96
86472	-0,26813	-0,48236	26,203	11,122
86473	0,35472	-0,97469	14,414	6,9816
86474	0,66904	-0,97761	13,795	6,8994
86475	0,6344	-0,49101	14,199	6,9533
86476	-1,3836	-0,99449	27,373	11,579
86477	-1,2675	-0,99448	26,624	11,275
86478	-0,99816	-0,50328	27,049	11,467
86479	-0,10499	-0,97182	14,17	6,9431
86480	-0,32122	-0,96262	14,905	7,0668
86481	-7,7728e-003	-0,48369	14,561	7,0052
86482	-1,0721	-0,93668	25,11	10,654
86483	-1,1872	-0,96597	25,856	10,958
86484	-0,83758	-0,47476	25,514	10,833
86485	-0,39167	-0,93329	22,609	9,632
86486	-0,633	-0,91181	23,167	9,8575
86487	-0,18662	-0,46432	22,991	9,7936
86488	-1,6738	-0,95103	25,051	10,62
86489	-1,5231	-0,93474	24,331	10,331
86490	-1,3065	-0,46191	24,706	10,495
86491	-0,92531	-0,95563	22,395	9,5456
86492	-0,72234	-0,96407	21,723	9,2771
86493	-0,48617	-0,46898	22,121	9,4438
86494	-0,52931	-0,96809	21,021	8,9966
86495	-0,34729	-0,96133	20,357	8,7389
86496	-0,12553	-0,473	20,765	8,9031
86497	-1,7219	-0,98341	28,917	12,208
86498	-1,4918	-0,97803	28,162	11,906
86499	-1,2146	-0,48682	28,628	12,122
86500	-0,25672	-0,94222	16,571	7,4557
86501	-0,48177	-0,92242	17,186	7,6347
86502	-0,20229	-0,46661	16,925	7,5585
86503	-2,4236	-0,99015	28,777	12,122
86504	-2,6125	-0,98665	29,499	12,406
86505	-2,2203	-0,49659	29,187	12,315
86506	0,20933	-0,97474	13,551	6,8647
86507	0,74648	-0,99842	12,88	6,8188
86508	0,70107	-0,4866	13,369	6,8551
86509	-2,1936	-0,98477	28,022	11,817
86510	-2,0343	-0,98701	27,272	11,52
86511	-1,7582	-0,49121	27,708	11,721
86512	-0,70567	-0,97358	14,054	6,9335
86513	-0,38303	-0,99184	13,315	6,8448
86514	-0,28241	-0,48813	13,733	6,887
86515	-1,1666	-0,93415	22,953	9,7727
86516	-1,3669	-0,92032	23,62	10,041
86517	-0,99425	-0,44749	23,284	9,9158
86518	-0,50328	-0,95454	15,69	7,2349
86519	-0,71065	-0,94339	16,396	7,4144
86520	-0,28478	-0,47561	16,097	7,3337
86521	-1,5396	-0,97857	22,211	9,4755
86522	-1,7413	-0,97709	22,906	9,7513
86523	-1,3219	-0,48666	22,589	9,6336
86524	-0,92191	-0,96438	14,789	7,0567
86525	-1,1084	-0,95538	15,529	7,2113
86526	-0,76137	-0,47893	15,206	7,1349
86527	-2,8413	-0,98674	27,932	11,752
86528	-3,0299	-0,9889	28,653	12,027
86529	-2,6163	-0,49356	28,348	11,945
86530	-1,2898	-0,97869	13,978	6,9424
86531	-1,5245	-0,96415	14,715	7,0654
86532	-1,1289	-0,48544	14,375	6,9943
86533	-1,3367	-0,98701	21,539	9,2062
86534	-1,1374	-0,97629	20,828	8,9273
86535	-0,89595	-0,49509	21,248	9,0969
86536	-2,4033	-0,95716	31,739	13,383
86537	-2,298	-0,96796	31,013	13,073
86538	-2,0562	-0,48254	31,443	13,287
86539	-1,9373	-0,97394	21,384	9,1536
86540	-2,1407	-0,98333	22,098	9,432
86541	-1,7159	-0,49191	21,78	9,3135
86542	-1,789	-0,98032	25,797	10,924
86543	-1,9182	-0,987	26,523	11,214
86544	-1,5369	-0,4912	26,198	11,104
86545	-3,1127	-0,95794	32,364	13,61
86546	-3,0132	-0,95375	31,657	13,304
86547	-2,7543	-0,47462	32,066	13,52
86548	-2,4054	-0,9744	25,727	10,877
86549	-2,2565	-0,96314	25,003	10,593
86550	-2,0275	-0,48912	25,4	10,768
86551	-3,8436	-0,97533	32,956	13,812
86552	-3,7434	-0,96994	32,255	13,498
86553	-3,4711	-0,48331	32,661	13,732
86554	-2,682	-0,98897	27,181	11,452
86555	-2,5347	-0,98108	26,452	11,169
86556	-2,2996	-0,49579	26,847	11,348
86557	-4,5979	-0,99319	33,551	13,994
86558	-4,4997	-0,98586	32,838	13,665
86559	-4,2162	-0,49201	33,251	13,928
86560	-3,3037	-0,98058	27,101	11,391
86561	-3,4716	-0,98344	27,824	11,661
86562	-3,0645	-0,49318	27,515	11,581
86563	-5,2899	-1,0064	33,438	13,804
86564	-4,9796	-0,50118	33,85	14,105
86565	-2,9079	-0,96455	30,931	12,992
86566	-2,7697	-0,97549	30,203	12,695
86567	-2,5409	-0,48543	30,635	12,908
86568	-3,1563	-0,97269	26,373	11,106
86569	-2,9985	-0,96586	25,653	10,832
86570	-2,7698	-0,48529	26,058	11,011
86571	-1,9416	-0,96326	23,574	10,022
86572	-2,1058	-0,94685	24,283	10,303
86573	-1,7443	-0,47283	23,954	10,185
86574	-3,6439	-0,96576	31,548	13,188
86575	-3,5122	-0,96445	30,832	12,896
86576	-3,2721	-0,47913	31,248	13,113
86577	-2,5175	-0,96596	23,496	9,9842
86578	-2,3424	-0,98186	22,792	9,7089
86579	-2,1331	-0,49043	23,175	9,8693
86580	-4,3995	-0,98048	32,136	13,348
86581	-4,2714	-0,97593	31,426	13,059
86582	-4,0157	-0,48663	31,848	13,294
86583	-3,7862	-0,98203	26,275	11,039
86584	-3,9462	-0,97958	26,992	11,3
86585	-3,5429	-0,48741	26,688	11,224
86586	-0,7016	-0,94858	19,376	8,3755
86587	-0,95539	-0,96953	20,163	8,6695
86588	-0,60839	-0,48833	19,859	8,5583
86589	-5,1917	-0,99908	32,726	13,47
86590	-5,0549	-0,98936	32,006	13,183
86591	-4,786	-0,49385	32,433	13,44
86592	-2,6816	-0,94955	24,205	10,267
86593	-2,8496	-0,95459	24,929	10,546
86594	-2,4719	-0,47402	24,61	10,44
86595	-5,872	-1,0065	32,595	13,263
86596	-5,6002	-0,50523	33,026	13,544
86597	-0,51915	-0,90537	18,387	8,0233
86598	-0,47296	-0,90093	17,687	7,7914
86599	-0,20414	-0,44512	17,969	7,8846
86600	-3,2809	-0,95545	24,116	10,217
86601	-3,1069	-0,96288	23,401	9,9454
86602	-2,8913	-0,47552	23,801	10,112
86603	-3,4489	-0,9605	24,84	10,498
86604	-3,6284	-0,9752	25,555	10,764
86605	-3,2273	-0,48057	25,248	10,674
86606	-1,1362	-0,93398	18,42	8,0447
86607	-1,2973	-0,93876	19,149	8,3017
86608	-0,83415	-0,46025	18,804	8,1778
86609	-1,738	-0,96323	20,673	8,8743
86610	-1,5511	-0,9597	19,936	8,5949
86611	-1,3738	-0,4812	20,358	8,756
86612	-0,9357	-0,92359	17,011	7,592
86613	-1,09	-0,92954	17,72	7,8115
86614	-0,74178	-0,45581	17,405	7,7098
86615	-3,8825	-0,96059	24,024	10,173
86616	-4,0733	-0,97299	24,736	10,432
86617	-3,6705	-0,47993	24,431	10,343
86618	-1,3158	-0,94423	16,235	7,3891
86619	-1,5	-0,94115	16,954	7,591
86620	-1,1296	-0,46778	16,617	7,4875
86621	-2,5281	-0,96126	21,271	9,1166
86622	-2,3424	-0,96297	20,562	8,8467
86623	-2,1271	-0,48203	20,965	9,0016
86624	-0,96713	-0,99695	13,24	6,8504
86625	-1,642	-0,98394	13,209	6,8776
86626	-1,8822	-0,978	13,926	6,9648
86627	-1,4506	-0,49325	13,582	6,903
86628	-1,711	-0,95516	15,454	7,2201
86629	-1,8958	-0,95308	16,175	7,3972
86630	-1,5019	-0,47645	15,854	7,3034
86631	0,15413	-1,0155	12,645	6,7971
86632	-0,68069	-1,0099	12,531	6,8003
86633	-0,48364	-0,5037	12,897	6,8146
86634	-2,7315	-0,97065	21,984	9,3957
86635	-2,9318	-0,97878	22,697	9,6694
86636	-2,521	-0,49142	22,382	9,556
86637	-3,2187	-0,9854	29,375	12,314
86638	-3,374	-0,97538	30,103	12,597
86639	-2,9925	-0,49006	29,796	12,519
86640	-3,3207	-0,95916	21,884	9,3608
86641	-3,1347	-0,95972	21,177	9,0952
86642	-2,9219	-0,47923	21,576	9,2486
86643	-3,521	-0,9673	22,597	9,6351
86644	-3,7084	-0,96802	23,308	9,9007
86645	-3,3093	-0,48736	23,	9,7975
86646	-3,6603	-0,9856	28,545	11,939
86647	-3,8323	-0,98449	29,265	12,206
86648	-3,4324	-0,49534	28,96	12,137
86649	-4,1203	-0,96169	22,498	9,5952
86650	-3,9334	-0,96115	21,791	9,3373
86651	-3,7196	-0,47994	22,192	9,4914
86652	-1,6544	-0,9471	17,663	7,811
86653	-1,8167	-0,95225	18,374	8,046
86654	-1,4449	-0,47373	18,063	7,9368
86655	1,1934	-1,0183	11,924	6,8062
86656	0,39354	-1,0136	11,954	6,784
86657	0,7919	-0,51181	12,392	6,7987
86658	-4,3077	-0,96242	23,209	9,8609
86659	-4,505	-0,97279	23,916	10,113
86660	-4,0944	-0,48066	23,616	10,024
86661	-2,117	-0,96346	14,663	7,0897
86662	-2,3114	-0,95764	15,376	7,2368
86663	-1,9204	-0,47871	15,053	7,1504
86664	-4,9268	-0,96583	23,1	9,8081
86665	-4,7374	-0,96467	22,396	9,563
86666	-4,5211	-0,48176	22,803	9,7179
86667	1,2044	-1,0147	11,112	6,829
86668	1,9197	-1,0252	11,037	6,8714
86669	1,5883	-0,50653	11,476	6,8324
86670	-4,2528	-0,98768	25,452	10,699
86671	-4,4225	-0,98802	26,165	10,951
86672	-4,0156	-0,49463	25,866	10,878
86673	0,40459	-1,0099	11,142	6,805
86674	0,47558	-1,0083	10,399	6,8597
86675	1,1635	-1,0311	10,353	6,8844
86676	0,82541	-0,50813	10,801	6,8351
86677	-4,6959	-0,98519	24,629	10,372
86678	-4,8732	-0,98654	25,339	10,617
86679	-4,4652	-0,49306	25,042	10,544
86680	-0,44129	-1,008	11,84	6,7848
86681	-0,3017	-1,0037	11,16	6,8029
86682	2,2376e-002	-0,50181	11,535	6,7867
86683	-5,1241	-0,97621	23,807	10,06
86684	-5,3163	-0,98454	24,511	10,296
86685	-4,9042	-0,49213	24,22	10,224
86686	-4,1141	-0,98244	27,715	11,572
86687	-4,2798	-0,98034	28,437	11,83
86688	-3,8787	-0,49026	28,132	11,767
86689	-1,3556	-0,99692	12,501	6,822
86690	-1,1412	-1,0009	11,803	6,8047
86691	-0,87774	-0,50623	12,164	6,7961
86692	-4,5825	-0,98557	26,882	11,214
86693	-4,7447	-0,98179	27,6	11,462
86694	-4,341	-0,49217	27,303	11,404
86695	-2,2729	-0,98028	13,162	6,914
86696	-2,0469	-0,97811	12,456	6,8606
86697	-1,8241	-0,49069	12,824	6,8625
86698	-2,5132	-0,97434	13,879	7,0037
86699	-2,7246	-0,97171	14,588	7,1205
86700	-2,3078	-0,48475	14,26	7,0402
86701	-2,0801	-0,95	16,895	7,5997
86702	-2,2549	-0,95112	17,613	7,8191
86703	-1,8705	-0,47337	17,292	7,709
86704	-5,043	-0,98687	26,052	10,87
86705	-5,2087	-0,98228	26,765	11,108
86706	-4,8062	-0,49339	26,471	11,052
86707	-2,4962	-0,95556	16,097	7,4134
86708	-2,6798	-0,95463	16,813	7,6096
86709	-2,2897	-0,47663	16,497	7,5053
86710	-5,4936	-0,98589	25,222	10,541
86711	-5,6647	-0,98205	25,932	10,769
86712	-5,2575	-0,49348	25,643	10,716
86713	-2,919	-0,96589	15,302	7,2673
86714	-3,1034	-0,96288	16,011	7,4358
86715	-2,7027	-0,47893	15,697	7,3366
86716	-2,9187	-0,97097	13,096	6,9645
86717	-3,1321	-0,97981	13,802	7,0488
86718	-2,7046	-0,48958	13,478	6,9774
86719	-3,3435	-0,97719	14,512	7,1655
86720	-3,5354	-0,9731	15,217	7,305
86721	-3,1249	-0,48696	14,906	7,212
86722	-5,7405	-0,97121	23,685	9,9913
86723	-5,551	-0,96923	22,985	9,7631
86724	-5,3326	-0,48408	23,397	9,9181
86725	-5,9326	-0,97954	24,389	10,227
86726	-6,114	-0,98135	25,097	10,447
86727	-5,7075	-0,49241	24,809	10,392
86728	-1,8326	-0,98213	11,759	6,8402
86729	-2,6927	-0,9688	12,39	6,9096
86730	-2,501	-0,966	11,702	6,8907
86731	-2,2605	-0,48742	12,075	6,8694
86732	-1,0016	-0,99662	11,123	6,8209
86733	-1,6653	-0,97559	11,075	6,8538
86734	-1,4046	-0,49471	11,442	6,8241
86735	-4,1397	-0,97462	30,709	12,764
86736	-3,9876	-0,97447	29,994	12,492
86737	-3,7523	-0,48532	30,415	12,706
86738	-6,5593	-0,9769	24,258	10,14
86739	-6,3774	-0,978	23,555	9,9291
86740	-6,1412	-0,48713	23,979	10,087
86741	-0,2307	-1,0021	10,417	6,8552
86742	-0,87164	-0,98491	10,43	6,8668
86743	-0,59856	-0,50191	10,804	6,8293
86744	-4,9268	-0,98481	31,295	12,89
86745	-4,7723	-0,98132	30,589	12,63
86746	-4,5279	-0,4893	31,01	12,855
86747	1,8788	-1,0416	10,278	6,9289
86748	2,244	-0,51865	10,615	6,9245
86749	0,46253	-1,0056	9,6059	6,9494
86750	-0,1465	-0,98716	9,6865	6,9357
86751	0,15264	-0,50021	10,047	6,8926
86752	1,1505	-1,0283	9,5601	6,9756
86753	1,513	-0,52292	9,939	6,9449
86754	-3,5413	-0,96155	13,022	7,024
86755	-3,3452	-0,95851	12,329	6,9743
86756	-3,1261	-0,48139	12,706	6,9639
86757	0,42226	-0,99149	8,8189	7,067
86758	0,80385	-0,50539	9,2044	7,0148
86759	-3,7547	-0,97039	13,729	7,1084
86760	-3,9589	-0,97883	14,425	7,2175
86761	-3,5406	-0,49023	14,114	7,1312
86762	-0,18677	-0,97305	8,8996	7,051
86763	-0,78744	-0,96996	9,6989	6,9451
86764	-0,72545	-0,94655	8,9921	7,0449
86765	-0,43015	-0,48695	9,3424	6,9865
86766	-5,7352	-0,9968	31,875	12,97
86767	-5,578	-0,99223	31,169	12,722
86768	-5,3227	-0,49551	31,596	12,964
86769	-0,22696	-0,96114	8,16	7,1799
86770	0,11686	-0,4861	8,4666	7,1248
86771	-1,5353	-0,96388	10,382	6,8987
86772	-1,4241	-0,94497	9,6839	6,9708
86773	-1,1447	-0,48301	10,055	6,9145
86774	-1,9779	-0,95702	19,104	8,3041
86775	-2,1555	-0,95944	19,826	8,5671
86776	-1,7605	-0,4785	19,494	8,4432
86777	-2,1727	-0,94993	10,336	6,9438
86778	-2,3337	-0,95946	11,019	6,9029
86779	-1,9259	-0,48087	10,708	6,8944
86780	-1,3621	-0,92156	8,9771	7,0697
86781	-0,76564	-0,93465	8,2526	7,1712
86782	-1,2244	-0,91226	8,2843	7,18
86783	-1,0063	-0,4596	8,6458	7,1107
86784	-2,4173	-0,95626	18,324	8,0546
86785	-2,5884	-0,95892	19,035	8,3002
86786	-2,188	-0,47851	18,721	8,1829
86787	-2,0615	-0,93102	9,6377	7,0152
86788	-1,9425	-0,92131	8,959	7,1049
86789	-1,6877	-0,46196	9,319	7,0354
86790	-0,67604	-0,93311	7,6544	7,282
86791	-0,44799	-0,47505	7,8779	7,2362
86792	-2,8112	-0,93902	10,282	7,0036
86793	-2,6678	-0,93656	9,6105	7,0669
86794	-2,4195	-0,46906	9,963	7,0034
86795	-6,4049	-1,0026	31,738	12,759
86796	-6,1435	-0,5013	32,17	13,018
86797	-1,1348	-0,91072	7,6861	7,2889
86798	-0,83582	-0,93116	7,0898	7,3961
86799	-0,84154	-0,45806	7,4455	7,3277
86800	-4,1777	-0,95677	12,948	7,0989
86801	-4,3697	-0,95986	13,639	7,1749
86802	-3,9577	-0,48017	13,34	7,0986
86803	-1,8048	-0,91201	8,2662	7,2132
86804	-1,6364	-0,9082	7,55	7,3368
86805	-1,4281	-0,45266	7,9267	7,2564
86806	-4,6202	-0,98118	29,873	12,355
86807	-4,4519	-0,97924	29,157	12,1
86808	-4,2229	-0,48916	29,573	12,304
86809	-2,5488	-0,92686	8,9318	7,1549
86810	-2,3795	-0,91081	8,2414	7,2581
86811	-2,1525	-0,45935	8,5802	7,1828
86812	-5,4235	-0,98874	30,463	12,459
86813	-5,2528	-0,98444	29,75	12,219
86814	-5,0175	-0,49202	30,174	12,434
86815	-2,8546	-0,95575	17,531	7,8283
86816	-3,0339	-0,96037	18,241	8,0572
86817	-2,6394	-0,47775	17,934	7,9442
86818	-2,9722	-0,94855	10,965	6,9641
86819	-3,1536	-0,9557	11,642	6,9541
86820	-2,7416	-0,47858	11,329	6,9237
86821	-3,2869	-0,96195	16,727	7,6308
86822	-3,4579	-0,95754	17,441	7,8402
86823	-3,0698	-0,478	17,128	7,7285
86824	-3,6093	-0,94033	10,901	7,0392
86825	-3,431	-0,93141	10,238	7,0738
86826	-3,2028	-0,46997	10,601	7,0157
86827	-4,9103	-0,9797	28,322	11,722
86828	-5,0844	-0,9825	29,034	11,961
86829	-4,6808	-0,49008	28,741	11,921
86830	-3,7907	-0,94748	11,578	7,0303
86831	-3,9816	-0,95373	12,255	7,0492
86832	-3,5655	-0,47712	11,954	6,9978
86833	-6,2477	-0,998	31,032	12,506
86834	-6,0748	-0,9924	30,322	12,286
86835	-5,8295	-0,49672	30,751	12,514
86836	-5,3709	-0,9785	27,483	11,357
86837	-5,5489	-0,98135	28,188	11,582
86838	-5,1399	-0,48962	27,902	11,547
86839	-3,7198	-0,97009	15,927	7,4721
86840	-3,8971	-0,96424	16,636	7,657
86841	-3,4984	-0,48395	16,33	7,55
86842	-5,8304	-0,97746	26,645	11,008
86843	-6,0141	-0,97987	27,348	11,221
86844	-5,6019	-0,48889	27,064	11,189
86845	-4,2386	-0,93346	10,835	7,1271
86846	-4,4256	-0,94186	11,496	7,119
86847	-4,0158	-0,47036	11,202	7,0757
86848	-6,285	-0,97752	25,807	10,676
86849	-6,473	-0,97947	26,509	10,879
86850	-6,0589	-0,48857	26,226	10,848
86851	-6,9123	-0,99978	30,881	12,295
86852	-6,6659	-0,50128	31,313	12,532
86853	-4,6165	-0,94811	12,173	7,1379
86854	-4,8052	-0,95403	12,852	7,182
86855	-4,3977	-0,47661	12,556	7,1144
86856	-5,9041	-0,98811	29,609	12,043
86857	-5,723	-0,98416	28,9	11,824
86858	-5,4881	-0,49242	29,326	12,029
86859	-3,2877	-0,92895	9,5664	7,1356
86860	-3,1475	-0,93712	8,9095	7,2155
86861	-2,8953	-0,46751	9,2505	7,1395
86862	-6,7395	-0,99418	30,171	12,07
86863	-6,5558	-0,98977	29,465	11,874
86864	-6,3202	-0,49568	29,892	12,085
86865	-4,0602	-0,92455	10,171	7,1606
86866	-3,9069	-0,93669	9,5248	7,2171
86867	-3,6592	-0,46144	9,8748	7,1426
86868	-7,3964	-0,99456	30,016	11,867
86869	-7,1588	-0,4985	30,449	12,085
86870	-4,8692	-0,92879	10,752	7,2286
86871	-4,6827	-0,9192	10,108	7,2583
86872	-4,4613	-0,4631	10,467	7,1909
86873	-5,0562	-0,93719	11,414	7,2207
86874	-5,2464	-0,94507	12,078	7,2366
86875	-4,8354	-0,4715	11,791	7,176
86876	-4,1508	-0,97474	15,13	7,3554
86877	-4,3313	-0,96693	15,833	7,5126
86878	-3,9278	-0,48614	15,531	7,4109
86879	-2,766	-0,96135	19,757	8,5634
86880	-2,9489	-0,96143	20,469	8,8251
86881	-2,5504	-0,48094	20,159	8,7079
86882	-6,3746	-0,98582	28,756	11,651
86883	-6,1921	-0,98272	28,053	11,448
86884	-5,9578	-0,49174	28,475	11,642
86885	-4,5739	-0,9683	14,336	7,2826
86886	-4,761	-0,96966	15,034	7,411
86887	-4,357	-0,4886	14,734	7,3154
86888	-7,2127	-0,99015	29,311	11,667
86889	-7,0226	-0,98706	28,615	11,491
86890	-6,7914	-0,49409	29,038	11,687
86891	-3,3832	-0,96123	19,663	8,5521
86892	-3,205	-0,96302	18,952	8,3021
86893	-2,9815	-0,48041	19,356	8,4357
86894	-3,5662	-0,96131	20,375	8,8133
86895	-3,7474	-0,9617	21,084	9,0718
86896	-3,3474	-0,48049	20,779	8,9594
86897	-6,7407	-0,97871	24,966	10,36
86898	-6,9294	-0,9803	25,666	10,555
86899	-6,5111	-0,48894	25,389	10,525
86900	-4,1875	-0,96295	20,273	8,7974
86901	-4,0015	-0,96175	19,569	8,551
86902	-3,7849	-0,48082	19,971	8,685
86903	-7,3876	-0,98186	24,823	10,249
86904	-7,1964	-0,98033	24,123	10,062
86905	-6,9702	-0,48977	24,544	10,217
86906	-7,8671	-0,99071	29,16	11,476
86907	-7,634	-0,49606	29,583	11,674
86908	-5,6903	-0,93446	11,32	7,3345
86909	-5,4983	-0,9258	10,672	7,3426
86910	-5,2771	-0,46569	11,036	7,2798
86911	-4,3687	-0,96334	20,982	9,055
86912	-4,5505	-0,96413	21,689	9,3055
86913	-4,1473	-0,48121	21,389	9,2018
86914	-4,9972	-0,95712	13,543	7,2563
86915	-5,2013	-0,97147	14,23	7,3552
86916	-4,7817	-0,4797	13,939	7,2655
86917	-5,0007	-0,97025	20,867	9,0298
86918	-4,8076	-0,96484	20,169	8,7914
86919	-4,5901	-0,48213	20,575	8,9269
86920	-3,6372	-0,96216	18,15	8,0677
86921	-3,8233	-0,96355	18,857	8,3021
86922	-3,4223	-0,48262	18,552	8,1865
86923	-5,1826	-0,97104	21,574	9,2792
86924	-5,3616	-0,96807	22,281	9,5185
86925	-4,9537	-0,48292	21,989	9,4276
86926	-6,6567	-0,98188	27,212	11,094
86927	-6,8401	-0,98396	27,911	11,285
86928	-6,4263	-0,49099	27,632	11,277
86929	-5,8193	-0,9773	21,447	9,2426
86930	-5,6284	-0,97287	20,751	9,0158
86931	-5,4027	-0,48812	21,164	9,1524
86932	-5,9983	-0,97432	22,155	9,4805
86933	-6,188	-0,97602	22,855	9,7015
86934	-5,7694	-0,48515	22,574	9,6285
86935	-4,5294	-0,93135	9,4619	7,3136
86936	-5,3119	-0,91621	10,028	7,3716
86937	-5,1219	-0,90664	9,3987	7,4177
86938	-4,9041	-0,4561	9,749	7,3379
86939	-7,1174	-0,98226	26,368	10,76
86940	-7,3056	-0,98372	27,068	10,939
86941	-6,8871	-0,49089	26,793	10,934
86942	-3,7667	-0,94486	8,868	7,2953
86943	-4,3679	-0,93382	8,8295	7,3829
86944	-4,1301	-0,47525	9,1741	7,2983
86945	-7,7672	-0,98462	26,218	10,614
86946	-7,5764	-0,98346	25,523	10,445
86947	-7,3477	-0,49136	25,944	10,608
86948	-4,2469	-0,96096	18,058	8,0809
86949	-4,0681	-0,95983	17,351	7,8644
86950	-3,846	-0,47954	17,753	7,9668
86951	-3,5779	-0,90966	8,2367	7,3777
86952	-2,9781	-0,92107	8,2192	7,316
86953	-3,3533	-0,46961	8,5613	7,2976
86954	-7,677	-0,98763	28,464	11,296
86955	-7,489	-0,9858	27,767	11,132
86956	-7,2539	-0,49298	28,191	11,318
86957	-5,4352	-0,95099	12,757	7,2793
86958	-5,6259	-0,95691	13,435	7,3456
86959	-5,2128	-0,47742	13,148	7,2639
86960	-8,3333	-0,98907	28,31	11,114
86961	-8,1001	-0,49465	28,737	11,3
86962	-5,8806	-0,94234	11,985	7,3496
86963	-6,0735	-0,94985	12,651	7,3869
86964	-5,6575	-0,47357	12,366	7,3116
86965	-8,1453	-0,98725	27,613	10,947
86966	-7,9554	-0,98609	26,918	10,795
86967	-7,7242	-0,49283	27,342	10,969
86968	-4,4329	-0,96236	18,765	8,3137
86969	-4,6217	-0,96364	19,465	8,5464
86970	-4,2181	-0,48093	19,167	8,4347
86971	-8,8033	-0,98915	27,454	10,775
86972	-8,5664	-0,49442	27,883	10,95
86973	-5,0565	-0,96487	18,655	8,3213
86974	-4,8678	-0,96352	17,955	8,1039
86975	-4,6477	-0,48142	18,362	8,2106
86976	-6,3311	-0,94279	11,225	7,4631
86977	-6,519	-0,94003	11,875	7,4732
86978	-6,1036	-0,46877	11,605	7,404
86979	-6,4515	-0,97914	21,321	9,2176
86980	-6,6353	-0,97785	22,022	9,4307
86981	-6,2193	-0,48917	21,741	9,3548
86982	-6,1391	-0,93414	10,576	7,4716
86983	-5,9501	-0,93614	9,9449	7,4997
86984	-5,7196	-0,46012	10,307	7,4195
86985	-8,6134	-0,98799	26,759	10,621
86986	-8,4198	-0,98707	26,064	10,479
86987	-8,1866	-0,49326	26,493	10,643
86988	-6,7713	-0,93478	10,473	7,6125
86989	-6,9663	-0,94192	11,112	7,6016
86990	-6,5517	-0,47402	10,846	7,5373
86991	-9,2702	-0,98985	26,595	10,461
86992	-9,0402	-0,49473	27,025	10,622
86993	-5,4353	-0,96746	20,053	8,779
86994	-5,2452	-0,96615	19,355	8,552
86995	-5,0252	-0,48271	19,762	8,6747
86996	-5,7601	-0,92656	9,3157	7,5447
86997	-4,9604	-0,90911	8,7663	7,4856
86998	-5,5584	-0,91196	8,6936	7,602
86999	-5,3397	-0,45054	9,0485	7,5096
87000	-6,5823	-0,93679	9,8417	7,6409
87001	-6,3855	-0,94759	9,2154	7,6844
87002	-6,1667	-0,47603	9,5837	7,5915
87003	-6,066	-0,97038	19,932	8,7771
87004	-6,2606	-0,97471	20,624	8,9927
87005	-5,8453	-0,48475	20,343	8,9007
87006	-7,2002	-0,9205	9,7291	7,7928
87007	-7,3983	-0,9258	10,354	7,7646
87008	-6,984	-0,46076	10,101	7,703
87009	-5,8759	-0,96907	19,234	8,5525
87010	-5,685	-0,96774	18,538	8,3397
87011	-5,4652	-0,48344	18,948	8,4484
87012	-4,1791	-0,89862	8,1982	7,4627
87013	-4,7864	-0,9158	8,1406	7,563
87014	-4,5647	-0,45857	8,4885	7,4711
87015	-6,7033	-0,97359	19,799	8,7672
87016	-6,514	-0,97221	19,104	8,5639
87017	-6,2867	-0,48563	19,52	8,6737
87018	-7,0034	-0,9313	9,1028	7,8364
87019	-7,8372	-0,92455	9,601	7,9619
87020	-7,6185	-0,93085	8,9775	8,0011
87021	-7,4163	-0,45974	9,3576	7,9001
87022	-8,229	-0,98591	25,368	10,309
87023	-8,0375	-0,98477	24,674	10,149
87024	-7,805	-0,4921	25,101	10,304
87025	-6,8978	-0,97792	20,491	8,9802
87026	-7,0864	-0,97941	21,188	9,182
87027	-6,6703	-0,48996	20,91	9,104
87028	-3,4013	-0,87978	7,5839	7,4779
87029	-4,0013	-0,87735	7,5795	7,5525
87030	-3,7771	-0,44005	7,9123	7,4633
87031	-7,3469	-0,97678	19,66	8,7694
87032	-7,5355	-0,97823	20,353	8,9585
87033	-7,1199	-0,48796	20,077	8,8787
87034	-4,5087	-0,96107	16,543	7,6952
87035	-4,689	-0,96239	17,248	7,8899
87036	-4,2902	-0,48029	16,948	7,7794
87037	-2,8015	-0,89119	7,5663	7,4201
87038	-2,2111	-0,90699	7,5252	7,3795
87039	-2,5775	-0,45146	7,8772	7,3431
87040	-4,9415	-0,96184	15,737	7,5655
87041	-5,1312	-0,96334	16,433	7,7352
87042	-4,7271	-0,48078	16,138	7,6286
87043	-3,2588	-0,86193	6,9771	7,5818
87044	-2,686	-0,89092	6,862	7,547
87045	-3,0255	-0,43973	7,2555	7,5046
87046	-9,0765	-0,98893	25,9	10,318
87047	-8,8852	-0,98802	25,208	10,186
87048	-8,653	-0,49381	25,634	10,337
87049	-5,4963	-0,9664	17,838	8,1251
87050	-5,3116	-0,96465	17,138	7,9268
87051	-5,0878	-0,4821	17,547	8,0156
87052	-5,3884	-0,97283	14,928	7,4806
87053	-5,5749	-0,97061	15,621	7,6225
87054	-5,156	-0,48106	15,336	7,5202
87055	-6,3231	-0,97088	18,408	8,3543
87056	-6,1299	-0,96918	17,715	8,1587
87057	-5,9047	-0,4843	18,128	8,2506
87058	-5,8299	-0,97126	14,122	7,4418
87059	-6,0337	-0,98498	14,806	7,5566
87060	-5,6094	-0,49178	14,526	7,4588
87061	-7,1576	-0,9754	18,965	8,5695
87062	-6,9631	-0,97384	18,274	8,3819
87063	-6,7414	-0,48658	18,688	8,4749
87064	-6,1837	-0,93299	8,5933	7,7408
87065	-6,7917	-0,92842	8,4887	7,8875
87066	-6,5861	-0,47157	8,8536	7,7872
87067	-7,9986	-0,98036	19,511	8,7625
87068	-7,8019	-0,97829	18,824	8,5887
87069	-7,5739	-0,48882	19,242	8,682
87070	-5,3844	-0,91865	8,0679	7,6779
87071	-5,9607	-0,92726	7,9691	7,8037
87072	-5,7714	-0,46142	8,3374	7,7059
87073	-6,2642	-0,95576	13,329	7,4506
87074	-6,4657	-0,96895	14,002	7,5351
87075	-6,0391	-0,47948	13,723	7,4423
87076	-4,6087	-0,89453	7,5219	7,6507
87077	-5,1632	-0,89964	7,4469	7,7538
87078	-4,983	-0,45723	7,8037	7,6598
87079	-9,7366	-0,99052	25,735	10,17
87080	-9,5001	-0,49512	26,165	10,321
87081	-3,8589	-0,8595	6,9727	7,6537
87082	-4,4035	-0,86711	6,9218	7,7364
87083	-4,2199	-0,4373	7,26	7,6472
87084	-6,7119	-0,94754	12,541	7,5083
87085	-6,9081	-0,95546	13,21	7,5631
87086	-6,4894	-0,47628	12,935	7,4776
87087	-7,0146	-0,98143	23,419	9,8517
87088	-6,825	-0,97955	22,721	9,6504
87089	-6,5992	-0,49087	23,139	9,7958
87090	-3,2225	-0,86837	6,3664	7,7009
87091	-3,677	-0,85489	6,3669	7,7511
87092	-3,4922	-0,4222	6,6988	7,6662
87093	-7,6551	-0,98165	23,279	9,7846
87094	-7,8462	-0,98324	23,974	9,9623
87095	-7,4226	-0,49057	23,702	9,9296
87096	-7,1542	-0,93916	11,762	7,6098
87097	-7,3544	-0,94999	12,414	7,6381
87098	-6,9323	-0,47126	12,148	7,5577
87099	-5,7646	-0,97211	16,317	7,7887
87100	-5,9451	-0,96744	17,015	7,9641
87101	-5,5353	-0,48255	16,728	7,857
87102	-7,2703	-0,97813	21,888	9,3931
87103	-7,4656	-0,97976	22,581	9,5844
87104	-7,0435	-0,48868	22,307	9,5276
87105	-6,2203	-0,98276	15,498	7,6944
87106	-6,4071	-0,98032	16,188	7,8441
87107	-5,9848	-0,48955	15,909	7,7396
87108	-2,0955	-0,90673	6,8208	7,5096
87109	-1,3374	-0,92864	6,9537	7,4435
87110	-1,8447	-0,45554	7,1733	7,4258
87111	-6,6695	-0,98268	14,686	7,6461
87112	-6,8546	-0,97858	15,376	7,7689
87113	-6,4366	-0,49321	15,096	7,6681
87114	-2,6496	-0,89736	6,2512	7,6694
87115	-2,0366	-0,9227	6,2521	7,6219
87116	-2,3464	-0,45119	6,4684	7,6024
87117	-7,3068	-0,97391	14,559	7,7393
87118	-7,1096	-0,96865	13,883	7,6441
87119	-6,886	-0,48947	14,286	7,6433
87120	-3,1572	-0,89111	5,8793	7,7927
87121	-2,7176	-0,91923	5,7062	7,7843
87122	-2,9268	-0,44617	6,0179	7,7445
87123	-7,9195	-0,98103	21,741	9,3393
87124	-7,7241	-0,97973	21,049	9,1577
87125	-7,497	-0,48945	21,47	9,2802
87126	-8,1148	-0,98266	22,434	9,5289
87127	-8,3097	-0,98399	23,124	9,6968
87128	-7,8877	-0,49108	22,855	9,6616
87129	-3,6117	-0,87763	5,8798	7,8418
87130	-3,3478	-0,90397	5,3074	7,9218
87131	-3,3561	-0,44494	5,6988	7,852
87132	-8,5713	-0,98383	21,59	9,2982
87133	-8,7681	-0,98482	22,279	9,4563
87134	-8,3419	-0,49158	22,012	9,4184
87135	-8,1872	-0,98181	20,204	8,9481
87136	-8,3759	-0,98253	20,898	9,1191
87137	-7,9512	-0,49028	20,629	9,0572
87138	-4,2216	-0,86251	6,316	7,832
87139	-3,9761	-0,88138	5,687	7,923
87140	-3,882	-0,43269	6,0655	7,8403
87141	-8,8482	-0,98484	20,045	8,9253
87142	-8,6545	-0,98277	19,363	8,7704
87143	-8,4184	-0,49153	19,781	8,862
87144	-9,0369	-0,98556	20,74	9,0929
87145	-9,2326	-0,986	21,433	9,241
87146	-8,8007	-0,49225	21,168	9,2008
87147	-7,5933	-0,93293	10,993	7,752
87148	-7,7914	-0,93946	11,638	7,7553
87149	-7,3741	-0,4679	11,379	7,6806
87150	-9,5057	-0,98584	19,89	8,9177
87151	-9,7013	-0,9879	20,572	9,0507
87152	-9,2717	-0,49331	20,314	9,0091
87153	-8,0353	-0,92985	10,226	7,9325
87154	-8,2287	-0,93448	10,858	7,9144
87155	-7,8125	-0,46504	10,607	7,843
87156	-6,77	-0,97215	17,581	8,1903
87157	-6,5876	-0,97565	16,886	8,0151
87158	-6,355	-0,48488	17,301	8,0871
87159	-4,958	-0,87223	6,8468	7,8377
87160	-4,7836	-0,8067	6,1301	7,95
87161	-4,5814	-0,42982	6,597	7,8311
87162	-8,4768	-0,94023	9,4542	8,1482
87163	-8,6751	-0,93499	10,084	8,1124
87164	-8,2581	-0,46482	9,8443	8,0426
87165	-8,5008	-0,98559	23,819	9,8735
87166	-8,6936	-0,98689	24,513	10,025
87167	-8,2699	-0,49268	24,246	10,016
87168	-5,7395	-0,90824	7,3481	7,8782
87169	-5,4827	-0,88889	6,713	7,9533
87170	-5,3417	-0,44241	7,0968	7,8573
87171	-8,963	-0,98615	22,97	9,6225
87172	-9,158	-0,98726	23,658	9,7639
87173	-8,7317	-0,49291	23,393	9,7528
87174	-7,6074	-0,97674	18,133	8,4052
87175	-7,4133	-0,97489	17,445	8,2359
87176	-7,1849	-0,48727	17,86	8,3103
87177	-6,5687	-0,92269	7,8646	7,9493
87178	-6,3275	-0,9248	7,2316	8,0167
87179	-6,1515	-0,46583	7,6058	7,9142
87180	-7,0414	-0,97615	16,066	7,9141
87181	-7,231	-0,97839	16,75	8,0655
87182	-6,8101	-0,49077	16,474	7,9637
87183	-7,4069	-0,92797	8,3635	8,0524
87184	-7,1626	-0,92775	7,7442	8,1054
87185	-6,9929	-0,45685	8,1296	8,0014
87186	-8,4578	-0,9807	18,676	8,6006
87187	-8,2609	-0,97921	17,985	8,4423
87188	-8,0298	-0,48947	18,406	8,518
87189	-8,2582	-0,94653	8,8307	8,1888
87190	-8,0183	-0,94559	8,212	8,2335
87191	-7,8335	-0,47112	8,6104	8,1221
87192	-7,4919	-0,96982	15,248	7,8572
87193	-7,6844	-0,9729	15,929	7,984
87194	-7,2625	-0,48537	15,661	7,8854
87195	-1,2785	-0,94461	6,385	7,5554
87196	-0,8301	-0,4731	6,7341	7,4702
87197	-7,9514	-0,96632	14,426	7,8477
87198	-8,1468	-0,971	15,103	7,9478
87199	-7,7213	-0,48444	14,836	7,8517
87200	-9,3119	-0,98376	19,207	8,7667
87201	-9,1153	-0,98262	18,52	8,626
87202	-8,8857	-0,49124	18,946	8,7023
87203	-2,1046	-0,94457	5,7071	7,737
87204	-1,7148	-0,47151	5,9293	7,6705
87205	-10,162	-0,98636	19,724	8,8947
87206	-9,9685	-0,98508	19,04	8,7757
87207	-9,7382	-0,49253	19,469	8,8512
87208	-2,9081	-0,9321	5,1343	7,9151
87209	-2,4606	-0,47306	5,3218	7,8418
87210	-8,0669	-0,97736	17,297	8,2779
87211	-7,8741	-0,97514	16,614	8,1303
87212	-7,6418	-0,48762	17,029	8,1839
87213	-7,7541	-0,96105	13,75	7,7571
87214	-7,5506	-0,95791	13,083	7,6893
87215	-7,3267	-0,47918	13,484	7,665
87216	-8,9185	-0,98112	17,83	8,4726
87217	-8,7229	-0,97931	17,146	8,3346
87218	-8,492	-0,48974	17,565	8,3903
87219	-8,6044	-0,96868	14,278	7,9585
87220	-8,3969	-0,96024	13,612	7,884
87221	-8,1815	-0,48187	14,017	7,867
87222	-3,7122	-0,90773	5,1145	8,0038
87223	-3,334	-0,45904	4,8902	8,0064
87224	-8,3394	-0,97409	15,784	8,069
87225	-8,5301	-0,97709	16,462	8,1925
87226	-8,1064	-0,48752	16,198	8,1001
87227	-7,9917	-0,9503	12,289	7,7807
87228	-8,1935	-0,95709	12,944	7,8208
87229	-7,7712	-0,47873	12,682	7,7345
87230	-8,7999	-0,97337	14,955	8,053
87231	-8,995	-0,97521	15,632	8,1521
87232	-8,5724	-0,48656	15,37	8,0621
87233	-9,5793	-0,98245	17,671	8,5177
87234	-9,7718	-0,98393	18,353	8,6397
87235	-9,3449	-0,49138	18,095	8,5743
87236	-9,4572	-0,97342	14,799	8,1572
87237	-9,2477	-0,96813	14,131	8,0825
87238	-9,03	-0,48681	14,542	8,0697
87239	-9,1404	-0,96503	9,301	8,3535
87240	-8,9212	-0,9485	8,6886	8,3954
87241	-8,701	-0,47541	9,0706	8,2762
87242	-9,1857	-0,97822	16,311	8,2698
87243	-9,3837	-0,98063	16,986	8,3853
87244	-8,9538	-0,48957	16,726	8,3036
87245	-8,4269	-0,94101	11,503	7,9149
87246	-8,6327	-0,94985	12,15	7,9302
87247	-8,2088	-0,47157	11,897	7,848
87248	-9,4294	-0,98698	22,122	9,3967
87249	-9,6228	-0,98777	22,808	9,5278
87250	-9,1943	-0,49324	22,547	9,5148
87251	-8,8686	-0,93962	10,717	8,0918
87252	-9,0745	-0,95452	11,36	8,0841
87253	-8,6449	-0,46944	11,109	8,0042
87254	-9,8969	-0,98834	21,266	9,1957
87255	-10,093	-0,9887	21,956	9,3169
87256	-9,6645	-0,49375	21,698	9,3018
87257	-9,3388	-0,9598	9,9313	8,3152
87258	-9,5079	-0,94445	10,569	8,277
87259	-9,0922	-0,47018	10,325	8,2029
87260	-10,358	-0,98843	20,406	9,024
87261	-10,554	-0,9898	21,088	9,1317
87262	-10,125	-0,49459	20,833	9,1137
87263	-10,015	-0,99224	9,7931	8,5269
87264	-9,8166	-0,97098	9,1396	8,5778
87265	-9,5631	-0,48962	9,534	8,4467
87266	-9,6523	-0,97525	15,476	8,2502
87267	-9,8506	-0,97918	16,152	8,3423
87268	-9,4176	-0,48865	15,895	8,2615
87269	-10,049	-0,9816	16,828	8,4521
87270	-10,239	-0,98363	17,505	8,5527
87271	-9,8099	-0,49106	17,249	8,487
87272	-10,32	-0,97518	15,314	8,3446
87273	-10,109	-0,97053	14,645	8,276
87274	-9,8871	-0,48661	15,058	8,2659
87275	-10,823	-0,98781	19,55	8,8853
87276	-11,021	-0,989	20,235	8,9791
87277	-10,586	-0,49383	19,979	8,9592
87278	-10,518	-0,9791	15,99	8,4305
87279	-10,719	-0,98241	16,662	8,5093
87280	-10,284	-0,49053	16,409	8,444
87281	-9,0402	-0,95968	13,464	8,0132
87282	-8,8345	-0,95664	12,805	7,9661
87283	-8,6124	-0,47836	13,206	7,9247
87284	-10,432	-0,98512	18,188	8,6694
87285	-10,63	-0,98653	18,867	8,7708
87286	-10,199	-0,49255	18,612	8,7257
87287	-9,5453	-0,9896	25,043	10,037
87288	-9,3509	-0,98855	24,352	9,9149
87289	-9,1174	-0,49421	24,781	10,056
87290	-9,6861	-0,95995	13,315	8,1577
87291	-9,8998	-0,96524	13,977	8,207
87292	-9,468	-0,48132	13,722	8,1217
87293	-10,909	-0,98445	17,34	8,6042
87294	-11,096	-0,98634	18,017	8,6855
87295	-10,665	-0,49257	17,764	8,6397
87296	-10,974	-0,97461	15,153	8,4525
87297	-11,187	-0,97861	15,821	8,5091
87298	-10,752	-0,48857	15,571	8,4454
87299	-9,4804	-0,95691	12,656	8,1155
87300	-9,2803	-0,96335	12,007	8,0956
87301	-9,0523	-0,47828	12,404	8,0309
87302	-10,209	-0,99087	24,877	9,9027
87303	-9,9732	-0,49539	25,305	10,041
87304	-10,335	-0,96007	13,16	8,3022
87305	-10,133	-0,96763	12,51	8,2812
87306	-9,9043	-0,47863	12,909	8,2205
87307	-10,549	-0,96536	13,822	8,346
87308	-10,764	-0,96996	14,484	8,3899
87309	-10,332	-0,48392	14,232	8,3139
87310	-9,8178	-0,98887	23,497	9,6678
87311	-10,015	-0,98982	24,186	9,7806
87312	-9,5844	-0,49434	23,924	9,7964
87313	-11,203	-0,96511	13,658	8,4816
87314	-10,99	-0,96065	13,009	8,4633
87315	-10,766	-0,48144	13,412	8,4071
87316	-11,418	-0,9697	14,32	8,5195
87317	-11,63	-0,97376	14,983	8,5513
87318	-11,196	-0,48604	14,736	8,4893
87319	-10,286	-0,98949	22,642	9,446
87320	-10,479	-0,99012	23,325	9,5482
87321	-10,051	-0,49453	23,07	9,5622
87322	-11,862	-0,96514	13,497	8,6338
87323	-12,077	-0,96925	14,151	8,6409
87324	-11,641	-0,48366	13,904	8,581
87325	-11,294	-0,98775	18,696	8,782
87326	-11,489	-0,9891	19,373	8,8587
87327	-11,059	-0,49398	19,122	8,8378
87328	-9,9326	-0,97408	11,861	8,2658
87329	-9,7138	-0,95935	11,213	8,2657
87330	-9,4961	-0,48508	11,611	8,1827
87331	-4,5381	-0,82557	5,5011	8,0414
87332	-4,0903	-0,44869	5,3388	8,0113
87333	-10,587	-0,98026	11,717	8,4514
87334	-10,787	-0,96821	12,359	8,4473
87335	-10,352	-0,489	12,11	8,3675
87336	-10,184	-0,97689	10,431	8,4859
87337	-10,368	-0,96553	11,068	8,4551
87338	-9,9235	-0,47427	10,814	8,3732
87339	-5,3084	-0,82337	5,9963	8,0659
87340	-4,9237	-0,37688	5,737	8,0571
87341	-10,872	-1,0012	10,301	8,7009
87342	-10,76	-1,0047	9,615	8,7834
87343	-10,417	-0,50262	10,033	8,6205
87344	-11,056	-0,98986	10,938	8,6673
87345	-11,235	-0,96799	11,566	8,6358
87346	-10,796	-0,49126	11,317	8,5581
87347	-11,583	-0,98496	17,167	8,6418
87348	-11,387	-0,98192	16,493	8,5818
87349	-11,154	-0,49188	16,915	8,5969
87350	-11,705	-0,97342	10,798	8,8705
87351	-11,553	-0,99918	10,262	8,9168
87352	-11,262	-0,49861	10,545	8,7939
87353	-6,0707	-0,90545	6,5965	8,0905
87354	-5,6476	-0,44648	6,3372	8,0641
87355	-10,676	-0,99106	24,014	9,6599
87356	-10,445	-0,49547	24,449	9,7867
87357	-6,9215	-0,92987	7,1111	8,172
87358	-6,5106	-0,45897	6,8636	8,1339
87359	-10,75	-0,99016	21,779	9,2502
87360	-10,952	-0,99082	22,468	9,3418
87361	-10,521	-0,49495	22,214	9,3535
87362	-11,145	-0,99145	23,151	9,4422
87363	-10,907	-0,49559	23,58	9,5561
87364	-11,414	-0,99128	21,6	9,1621
87365	-11,218	-0,99037	20,918	9,0835
87366	-10,979	-0,49521	21,344	9,1713
87367	-7,7741	-0,94538	7,5927	8,287
87368	-7,352	-0,4709	7,3731	8,2287
87369	-11,616	-0,99195	22,289	9,2513
87370	-11,382	-0,49587	22,723	9,352
87371	-11,77	-0,98685	17,845	8,7175
87372	-11,96	-0,9888	18,521	8,7753
87373	-11,527	-0,49377	18,27	8,7538
87374	-12,086	-0,99217	21,424	9,0888
87375	-11,849	-0,49608	21,855	9,1751
87376	-12,247	-0,98439	16,995	8,6942
87377	-12,448	-0,98732	17,667	8,7313
87378	-12,012	-0,49307	17,419	8,7104
87379	-8,6813	-0,94757	8,0698	8,4404
87380	-8,2368	-0,47448	7,8439	8,3675
87381	-11,648	-0,96068	12,848	8,621
87382	-11,435	-0,95594	12,208	8,6271
87383	-11,213	-0,47921	12,606	8,5496
87384	-11,889	-0,99126	20,743	9,0132
87385	-11,687	-0,99028	20,058	8,9485
87386	-11,457	-0,49516	20,492	9,0211
87387	-9,5974	-0,95445	8,5272	8,6217
87388	-9,1469	-0,47309	8,313	8,5368
87389	-12,556	-0,99217	20,561	8,9572
87390	-12,322	-0,49609	20,994	9,0282
87391	-12,31	-0,96059	12,688	8,7954
87392	-12,521	-0,96502	13,329	8,7772
87393	-12,083	-0,48148	13,09	8,7191
87394	-10,561	-0,98344	8,9616	8,8379
87395	-10,272	-0,96537	8,3419	8,8674
87396	-10,048	-0,48135	8,7414	8,7301
87397	-12,052	-0,98135	16,321	8,64
87398	-11,843	-0,97776	15,65	8,6017
87399	-11,621	-0,49004	16,071	8,5964
87400	-11,884	-0,95155	11,425	8,8351
87401	-12,096	-0,95584	12,048	8,8067
87402	-11,656	-0,47673	11,81	8,7363
87403	-12,353	-0,9912	19,876	8,896
87404	-12,155	-0,99014	19,198	8,8475
87405	-11,917	-0,49512	19,625	8,9025
87406	-12,556	-0,95721	11,266	9,0385
87407	-12,357	-0,96846	10,669	9,0876
87408	-12,111	-0,47482	11,041	8,9669
87409	-13,025	-0,99201	19,697	8,8587
87410	-12,79	-0,49608	20,128	8,9131
87411	-12,769	-0,96151	11,889	9,0055
87412	-12,977	-0,96081	12,52	8,9626
87413	-12,536	-0,47911	12,286	8,906
87414	-12,918	-0,98388	16,817	8,7285
87415	-12,71	-0,98058	16,145	8,7133
87416	-12,482	-0,49132	16,571	8,7087
87417	-13,235	-0,95743	11,092	9,2635
87418	-13,44	-0,96719	11,717	9,1968
87419	-13,002	-0,4824	11,494	9,1412
87420	-12,289	-0,97331	14,814	8,6666
87421	-12,501	-0,97698	15,474	8,6811
87422	-12,064	-0,48772	15,229	8,6383
87423	-12,638	-0,98927	18,343	8,784
87424	-12,827	-0,99096	19,019	8,8142
87425	-12,393	-0,49502	18,771	8,8205
87426	-13,118	-0,98681	17,489	8,7602
87427	-13,319	-0,98936	18,161	8,7698
87428	-12,883	-0,49424	17,915	8,7772
87429	-11,441	-1,0027	9,5762	8,9978
87430	-11,667	-1,0008	9,1904	9,1533
87431	-11,263	-0,98962	8,7092	9,1166
87432	-11,029	-0,50208	9,1726	8,9607
87433	-12,736	-0,96913	13,984	8,7784
87434	-12,95	-0,97301	14,64	8,7683
87435	-12,514	-0,48558	14,399	8,7277
87436	-12,204	-0,99421	10,134	9,1364
87437	-12,032	-0,9993	9,5849	9,1921
87438	-11,744	-0,50057	9,9416	9,0446
87439	-13,582	-0,98328	16,636	8,7783
87440	-13,789	-0,98613	17,307	8,766
87441	-13,353	-0,49257	17,063	8,7748
87442	-13,036	-0,96868	10,494	9,3174
87443	-12,821	-0,98286	9,9166	9,3766
87444	-12,597	-0,49364	10,292	9,2429
87445	-13,188	-0,96524	13,161	8,9387
87446	-13,398	-0,96919	13,806	8,903
87447	-12,958	-0,48355	13,568	8,864
87448	-13,374	-0,97997	15,964	8,7687
87449	-13,162	-0,97669	15,3	8,7768
87450	-12,938	-0,48926	15,718	8,7505
87451	-13,508	-0,99106	18,837	8,7954
87452	-13,261	-0,49594	19,267	8,8325
87453	-14,035	-0,97983	15,789	8,8397
87454	-14,248	-0,98261	16,452	8,8045
87455	-13,811	-0,49071	16,209	8,8152
87456	-13,911	-0,95444	10,912	9,481
87457	-13,707	-0,94988	10,298	9,5694
87458	-13,469	-0,47503	10,692	9,4251
87459	-13,989	-0,98869	17,979	8,7707
87460	-13,754	-0,49512	18,407	8,7884
87461	-13,613	-0,97307	14,462	8,8869
87462	-13,823	-0,97655	15,125	8,8534
87463	-13,387	-0,48743	14,881	8,8375
87464	-13,853	-0,96579	12,986	9,0864
87465	-13,648	-0,9665	12,348	9,1485
87466	-13,417	-0,4817	12,754	9,0502
87467	-14,064	-0,96973	13,63	9,045
87468	-14,277	-0,97323	14,282	8,9865
87469	-13,839	-0,48564	14,043	8,9729
87470	-12,649	-0,98795	9,3678	9,4385
87471	-12,367	-0,98141	8,8266	9,4674
87472	-12,223	-0,49873	9,1822	9,3526
87473	-14,455	-0,98547	17,123	8,7872
87474	-14,224	-0,49357	17,551	8,7849
87475	-13,493	-0,96406	9,7201	9,6341
87476	-13,264	-0,96518	9,1351	9,7068
87477	-13,048	-0,48921	9,5342	9,5521
87478	-14,521	-0,96942	12,808	9,2524
87479	-14,727	-0,97041	13,456	9,1661
87480	-14,289	-0,48409	13,217	9,1559
87481	-14,317	-0,97013	12,17	9,3201
87482	-14,116	-0,9642	11,537	9,4088
87483	-13,878	-0,4848	11,939	9,2861
87484	-14,698	-0,97964	15,606	8,8869
87485	-14,488	-0,97671	14,945	8,9472
87486	-14,259	-0,48912	15,369	8,8996
87487	-14,911	-0,98241	16,27	8,8466
87488	-14,686	-0,4919	16,696	8,8235
87489	-14,988	-0,96889	11,984	9,5128
87490	-15,188	-0,97138	12,631	9,3975
87491	-14,752	-0,48533	12,397	9,3906
87492	-15,367	-0,97973	15,42	8,9511
87493	-15,137	-0,49051	15,843	8,9059
87494	-15,157	-0,9768	14,759	9,0168
87495	-14,941	-0,9739	14,108	9,1021
87496	-14,716	-0,48759	14,522	9,0328
87497	-14,787	-0,96296	11,351	9,6074
87498	-14,591	-0,9588	10,724	9,7216
87499	-14,353	-0,4794	11,132	9,5739
87500	-14,388	-0,95425	10,11	9,8158
87501	-14,172	-0,95073	9,5046	9,9182
87502	-13,946	-0,47485	9,9037	9,7559
87503	-15,462	-0,96779	11,156	9,8294
87504	-15,657	-0,97035	11,8	9,6848
87505	-15,222	-0,48356	11,57	9,6805
87506	-15,822	-0,97732	14,577	9,1025
87507	-15,598	-0,48922	14,997	9,0351
87508	-15,394	-0,97236	13,28	9,3057
87509	-15,606	-0,97442	13,926	9,193
87510	-15,166	-0,48632	13,695	9,2117
87511	-15,266	-0,96363	10,529	9,9499
87512	-15,061	-0,95971	9,9063	10,085
87513	-14,83	-0,4794	10,316	9,9155
87514	-15,857	-0,97283	12,447	9,5638
87515	-16,065	-0,97394	13,097	9,4202
87516	-15,622	-0,48605	12,864	9,4432
87517	-16,136	-0,97216	10,961	10,033
87518	-15,931	-0,97158	10,32	10,202
87519	-15,701	-0,48423	10,742	10,027
87520	-16,277	-0,976	13,743	9,3023
87521	-16,046	-0,4881	14,158	9,2114
87522	-16,332	-0,97472	11,605	9,8818
87523	-16,531	-0,97552	12,259	9,7045
87524	-16,092	-0,48679	12,029	9,7315
87525	-16,739	-0,97663	12,909	9,5555
87526	-16,508	-0,4879	13,329	9,4377
87527	-17,006	-0,97805	11,408	10,053
87528	-16,804	-0,978	10,751	10,263
87529	-16,571	-0,48793	11,18	10,084
87530	-17,205	-0,97886	12,062	9,8694
87531	-16,97	-0,48873	12,489	9,7217
87532	-17,676	-0,98201	11,201	10,252
87533	-17,44	-0,49012	11,636	10,07
87534	-18,15	-0,9863	10,32	10,714
87535	-17,474	-0,98196	10,544	10,469
87536	-17,911	-0,49189	10,766	10,492
87537	-18,584	-0,98961	9,4225	11,255
87538	-17,955	-0,98493	9,6582	10,97
87539	-18,389	-0,49442	9,8737	11,002
87540	-18,986	-0,98836	8,5027	11,89
87541	-18,345	-0,98771	8,7637	11,531
87542	-18,808	-0,49519	8,9691	11,591
87543	-20,649	-0,99833	3,7691	16,251
87544	-20,291	-0,99538	3,2183	15,985
87545	-20,825	-0,51104	3,286	16,793
87546	-19,359	-0,98547	7,5567	12,627
87547	-18,744	-0,98601	7,8403	12,192
87548	-19,219	-0,49317	8,0302	12,295
87549	-20,345	-0,97857	4,6377	15,366
87550	-20,067	-0,9785	4,0146	15,463
87551	-20,525	-0,48729	4,1316	15,995
87552	-20,036	-0,97455	5,6191	14,405
87553	-19,742	-0,98007	4,9872	14,613
87554	-20,189	-0,49129	5,1296	14,964
87555	-19,716	-0,97556	6,5868	13,484
87556	-19,096	-0,98306	6,8983	12,935
87557	-19,557	-0,4923	7,075	13,089
87558	-19,456	-0,97194	5,9356	13,781
87559	-19,906	-0,48326	6,0945	14,014
87560	-17,279	-0,98058	9,882	10,716
87561	-16,599	-0,97742	10,11	10,44
87562	-17,048	-0,49007	10,319	10,503
87563	-17,716	-0,98303	8,9994	11,234
87564	-17,077	-0,97669	9,242	10,922
87565	-17,521	-0,49051	9,4426	10,997
87566	-15,726	-0,96766	9,6971	10,344
87567	-16,396	-0,97353	9,4697	10,637
87568	-16,172	-0,48735	9,8971	10,435
87569	-18,104	-0,98536	8,1013	11,815
87570	-17,486	-0,97941	8,3612	11,456
87571	-17,932	-0,49252	8,5557	11,55
87572	-14,845	-0,95619	9,3009	10,194
87573	-15,512	-0,96211	9,0764	10,497
87574	-15,291	-0,48031	9,4963	10,305
87575	-18,482	-0,9836	7,1819	12,474
87576	-17,878	-0,9791	7,4606	12,058
87577	-18,326	-0,49284	7,6449	12,184
87578	-13,943	-0,95184	8,9196	9,9973
87579	-14,607	-0,95375	8,6998	10,304
87580	-14,398	-0,47588	9,1055	10,127
87581	-16,847	-0,97307	8,6039	11,133
87582	-16,183	-0,96798	8,849	10,799
87583	-16,632	-0,48618	9,0415	10,904
87584	-12,982	-0,95864	8,594	9,742
87585	-13,666	-0,95841	8,3528	10,059
87586	-13,489	-0,47596	8,7337	9,9077
87587	-17,26	-0,97316	7,7206	11,683
87588	-16,586	-0,97466	7,9892	11,294
87589	-17,061	-0,4869	8,1663	11,432
87590	-18,837	-0,97943	6,2471	13,192
87591	-18,247	-0,97503	6,5428	12,719
87592	-18,692	-0,49076	6,7125	12,89
87593	-15,275	-0,95967	8,4753	10,615
87594	-15,922	-0,96957	8,2344	10,948
87595	-15,733	-0,4818	8,6565	10,746
87596	-17,643	-0,97054	6,8215	12,281
87597	-16,974	-0,97711	7,1128	11,84
87598	-17,46	-0,48626	7,2749	12,014
87599	-14,329	-0,96032	8,133	10,372
87600	-15,007	-0,95843	7,8835	10,721
87601	-14,816	-0,47787	8,294	10,533
87602	-19,162	-0,97746	5,3036	13,933
87603	-18,585	-0,97093	5,613	13,413
87604	-19,028	-0,48868	5,7678	13,643
87605	-11,963	-0,97021	8,3455	9,4391
87606	-12,666	-0,96962	8,0667	9,7613
87607	-12,475	-0,48268	8,4543	9,6113
87608	-19,463	-0,98	4,3641	14,615
87609	-18,898	-0,97066	4,6781	14,097
87610	-19,344	-0,48878	4,8162	14,398
87611	-14,053	-0,96022	7,5653	10,44
87612	-13,35	-0,96938	7,8255	10,084
87613	-13,854	-0,48244	7,9674	10,261
87614	-19,709	-0,97556	3,4638	15,122
87615	-19,165	-0,97563	3,7674	14,648
87616	-19,647	-0,49122	3,8618	15,055
87617	-17,995	-0,96653	5,9087	12,908
87618	-17,338	-0,97348	6,2215	12,424
87619	-17,826	-0,48427	6,368	12,64
87620	-15,655	-0,96833	7,6426	11,064
87621	-16,299	-0,97862	7,3814	11,436
87622	-16,132	-0,48777	7,8073	11,225
87623	-17,689	-0,96238	5,316	13,03
87624	-18,321	-0,96414	4,9874	13,533
87625	-18,164	-0,48226	5,4494	13,284
87626	-14,731	-0,95834	7,3158	10,798
87627	-15,378	-0,96719	7,0556	11,165
87628	-15,209	-0,48056	7,4699	10,972
87629	-16,669	-0,98006	6,5128	11,963
87630	-16,023	-0,97748	6,7944	11,55
87631	-16,517	-0,49085	6,9436	11,747
87632	-14,437	-0,96043	6,7529	10,855
87633	-13,77	-0,95613	7,017	10,488
87634	-14,264	-0,47778	7,1586	10,677
87635	-17,032	-0,96932	5,6288	12,52
87636	-16,397	-0,96739	5,9287	12,075
87637	-16,88	-0,48921	6,0671	12,299
87638	-19,412	-0,96812	2,877	15,033
87639	-19,923	-0,48434	2,9184	15,453
87640	-17,379	-0,95855	4,7358	13,076
87641	-16,73	-0,96201	5,0586	12,598
87642	-17,228	-0,48012	5,1789	12,867
87643	-18,011	-0,96031	4,4072	13,612
87644	-18,6	-0,96629	4,0813	14,074
87645	-18,478	-0,48188	4,5255	13,904
87646	-11,682	-0,97142	7,8242	9,459
87647	-10,973	-0,97156	8,0895	9,1519
87648	-11,451	-0,48754	8,2368	9,297
87649	-12,385	-0,97082	7,5453	9,788
87650	-13,067	-0,96529	7,2773	10,124
87651	-12,885	-0,48694	7,6693	9,9653
87652	-15,084	-0,96928	6,4927	11,233
87653	-15,75	-0,96481	6,2103	11,646
87654	-15,582	-0,48663	6,6325	11,443
87655	-11,397	-0,97159	7,2461	9,4912
87656	-12,081	-0,97627	7,0019	9,8056
87657	-11,913	-0,48388	7,4116	9,6577
87658	-17,679	-0,95606	3,8472	13,577
87659	-17,049	-0,95472	4,1802	13,105
87660	-17,545	-0,47843	4,2889	13,406
87661	-14,804	-0,95937	5,9328	11,289
87662	-14,124	-0,96161	6,2097	10,887
87663	-14,626	-0,48265	6,3446	11,1
87664	-18,267	-0,96204	3,5213	14,076
87665	-18,868	-0,96819	3,1806	14,502
87666	-18,751	-0,48441	3,6166	14,408
87667	-16,094	-0,96007	5,3585	12,133
87668	-15,471	-0,9549	5,6504	11,715
87669	-15,954	-0,47818	5,7802	11,944
87670	-17,321	-0,95098	3,3097	13,546
87671	-17,922	-0,95259	2,9704	13,965
87672	-17,813	-0,47763	3,4054	13,867
87673	-16,399	-0,95818	4,503	12,602
87674	-15,781	-0,95689	4,812	12,167
87675	-16,27	-0,48189	4,9295	12,428
87676	-15,158	-0,95172	5,1039	11,734
87677	-14,487	-0,95769	5,3923	11,311
87678	-14,998	-0,47672	5,5184	11,552
87679	-16,69	-0,94963	3,6427	13,047
87680	-16,073	-0,9495	3,9649	12,604
87681	-16,567	-0,47629	4,0701	12,897
87682	-10,688	-0,97173	7,5115	9,1783
87683	-10,495	-0,48402	7,9423	9,0339
87684	-16,918	-0,95241	2,7826	13,412
87685	-16,317	-0,95318	3,1129	12,986
87686	-16,828	-0,47335	3,214	13,313
87687	-15,455	-0,94822	4,2739	12,15
87688	-15,317	-0,475	4,6894	11,988
87689	-18,522	-0,95874	2,6297	14,431
87690	-19,091	-0,96924	2,2707	14,728
87691	-19,024	-0,48378	2,7018	14,771
87692	-15,7	-0,95304	3,4351	12,523
87693	-15,594	-0,47321	3,8584	12,394
87694	-17,519	-0,95403	2,4433	13,858
87695	-18,115	-0,94137	2,1062	14,237
87696	-18,03	-0,47496	2,5354	14,198
87697	-11,081	-0,97281	6,6834	9,5042
87698	-10,899	-0,48771	7,092	9,3596
87699	-17,101	-0,94542	1,9317	13,689
87700	-16,509	-0,9617	2,254	13,292
87701	-17,018	-0,47907	2,3574	13,632
87702	-17,698	-0,93276	1,5946	14,09
87703	-16,699	-0,93022	1,4146	13,535
87704	-17,279	-0,92856	1,1168	13,893
87705	-17,201	-0,46635	1,524	13,876
87706	-18,262	-0,9203	1,2523	14,395
87707	-18,684	-0,95187	1,7471	14,56
87708	-18,2	-0,46641	1,6769	14,411
87709	-15,908	-0,96246	2,5844	12,844
87710	-15,821	-0,47983	3,0171	12,751
87711	-12,763	-0,97075	6,7339	10,149
87712	-13,458	-0,95731	6,4739	10,512
87713	-13,279	-0,47835	6,8743	10,344
87714	-16,106	-0,9465	1,7369	13,117
87715	-16,024	-0,48263	2,1641	13,055
87716	-11,765	-0,9775	6,4391	9,8235
87717	-12,435	-0,97999	6,1941	10,152
87718	-12,269	-0,49239	6,5952	10,001
87719	-16,347	-0,92718	0,92371	13,358
87720	-16,203	-0,46388	1,3169	13,293
87721	-17,843	-0,9161	0,77457	14,213
87722	-18,791	-0,93224	0,86783	14,578
87723	-18,324	-0,45389	0,82778	14,506
87724	-16,927	-0,92552	0,62595	13,733
87725	-17,374	-0,46221	0,73034	14,045
87726	-13,13	-0,96656	5,9341	10,521
87727	-13,807	-0,95994	5,6692	10,899
87728	-13,649	-0,47896	6,074	10,735
87729	-16,44	-0,46331	0,54926	13,498
87730	-19,213	-0,96381	1,3626	14,733
87731	-19,18	-0,48546	1,7998	14,835
87732	-11,29	-0,4851	6,2933	9,689
87733	-19,264	-0,47835	0,89374	14,76
87734	-12,64	-0,4876	5,7999	10,361
87735	-13,992	-0,48098	5,2682	11,129
87736	20,768	-2,5	-26,431	5,2219
87737	20,534	-3,	-26,865	5,3176
87738	20,998	-3,	-26,003	5,1308
87739	20,765	-3,5	-26,437	5,2252
87740	20,537	-1,9991	-26,86	5,3166
87741	21,003	-2,	-25,994	5,1289
87742	20,773	-1,5	-26,421	5,2219
87743	20,303	-2,4991	-27,294	5,4122
87744	20,073	-1,9991	-27,722	5,509
87745	20,307	-1,4991	-27,288	5,4126
87746	20,069	-3,	-27,729	5,5107
87747	20,299	-3,5	-27,302	5,4157
87748	21,234	-2,5	-25,566	5,0379
87749	21,464	-3,	-25,139	4,951
87750	21,23	-3,5	-25,572	5,0415
87751	21,471	-2,	-25,126	4,9485
87752	21,24	-1,5	-25,554	5,0376
87753	19,838	-2,5	-28,157	5,6075
87754	19,608	-2,	-28,585	5,7057
87755	19,842	-1,5	-28,151	5,6076
87756	19,601	-3,	-28,597	5,7085
87757	19,832	-3,5	-28,17	5,6118
87758	21,701	-2,5	-24,698	4,8616
87759	21,931	-3,	-24,271	4,7796
87760	21,697	-3,5	-24,705	4,8654
87761	21,938	-2,	-24,258	4,7772
87762	21,708	-1,5	-24,686	4,8618
87763	19,371	-2,5	-29,025	5,8067
87764	19,141	-2,	-29,453	5,9053
87765	19,375	-1,5	-29,019	5,8066
87766	19,134	-3,	-29,465	5,9082
87767	19,364	-3,5	-29,038	5,8109
87768	22,168	-2,5	-23,83	4,6952
87769	22,398	-3,	-23,403	4,6188
87770	22,165	-3,5	-23,837	4,6993
87771	22,405	-2,	-23,39	4,6167
87772	22,175	-1,5	-23,818	4,6959
87773	18,904	-2,5	-29,893	6,0067
87774	18,674	-2,	-30,32	6,1044
87775	18,907	-1,5	-29,886	6,0063
87776	18,667	-3,	-30,333	6,1073
87777	18,897	-3,5	-29,905	6,0107
87778	22,636	-2,5	-22,963	4,5403
87779	22,866	-3,	-22,535	4,4705
87780	22,632	-3,5	-22,969	4,5448
87781	22,873	-2,	-22,522	4,4685
87782	22,642	-1,5	-22,95	4,5417
87783	18,437	-2,5	-30,761	6,205
87784	18,206	-2,	-31,188	6,3004
87785	18,44	-1,5	-30,754	6,2044
87786	18,2	-3,	-31,201	6,3033
87787	18,43	-3,5	-30,773	6,2087
87788	23,103	-2,5	-22,095	4,3986
87789	23,333	-3,	-21,667	4,3362
87790	23,099	-3,5	-22,101	4,4035
87791	23,34	-2,	-21,655	4,3345
87792	23,11	-1,5	-22,082	4,4007
87793	17,969	-2,5	-31,629	6,3987
87794	17,739	-2,	-32,056	6,4905
87795	17,973	-1,5	-31,622	6,398
87796	17,732	-3,	-32,069	6,4932
87797	17,962	-3,5	-31,641	6,4021
87798	23,57	-2,5	-21,227	4,272
87799	23,8	-3,	-20,799	4,2182
87800	23,567	-3,5	-21,233	4,2773
87801	23,807	-2,	-20,787	4,2168
87802	23,577	-1,5	-21,214	4,275
87803	17,502	-2,5	-32,496	6,585
87804	17,272	-2,	-32,924	6,6716
87805	17,505	-1,5	-32,49	6,5842
87806	17,265	-3,	-32,937	6,6742
87807	17,495	-3,5	-32,509	6,5882
87808	24,037	-2,5	-20,359	4,1629
87809	24,268	-3,	-19,931	4,1193
87810	24,034	-3,5	-20,365	4,1689
87811	24,274	-2,	-19,919	4,1182
87812	24,044	-1,5	-20,346	4,1669
87813	17,035	-2,5	-33,364	6,7608
87814	16,804	-2,	-33,792	6,8406
87815	17,038	-1,5	-33,358	6,7599
87816	16,798	-3,	-33,804	6,8431
87817	17,028	-3,5	-33,377	6,7637
87818	24,505	-2,5	-19,491	4,0745
87819	24,735	-3,	-19,064	4,0431
87820	24,501	-3,5	-19,498	4,0812
87821	24,742	-2,	-19,051	4,0424
87822	24,512	-1,5	-19,479	4,0798
87823	16,567	-2,5	-34,232	6,9229
87824	16,337	-2,	-34,66	6,9946
87825	16,571	-1,5	-34,226	6,922
87826	16,33	-3,	-34,672	6,9968
87827	16,561	-3,5	-34,245	6,9255
87828	24,972	-2,5	-18,623	4,0109
87829	25,202	-3,	-18,196	3,9948
87830	24,969	-3,5	-18,63	4,0186
87831	25,209	-2,	-18,183	3,9946
87832	24,979	-1,5	-18,611	4,0178
87833	16,1	-2,5	-35,1	7,0686
87834	15,87	-2,	-35,528	7,1312
87835	16,103	-1,5	-35,094	7,0678
87836	15,863	-3,	-35,54	7,1331
87837	16,093	-3,5	-35,113	7,0709
87838	25,439	-2,5	-17,756	3,9783
87839	25,67	-3,	-17,328	3,9817
87840	25,436	-3,5	-17,762	3,9872
87841	25,676	-2,	-17,315	3,982
87842	25,446	-1,5	-17,743	3,9871
87843	15,633	-2,5	-35,968	7,1957
87844	15,403	-2,	-36,395	7,2488
87845	15,636	-1,5	-35,961	7,1951
87846	15,396	-3,	-36,408	7,2505
87847	15,626	-3,5	-35,98	7,1978
87848	25,907	-2,5	-16,888	3,9852
87849	26,137	-3,	-16,46	4,0138
87850	25,903	-3,5	-16,894	3,9953
87851	26,144	-2,	-16,447	4,0149
87852	25,913	-1,5	-16,875	3,9963
87853	15,165	-2,5	-36,836	7,3035
87854	14,935	-2,	-37,263	7,3477
87855	15,169	-1,5	-36,829	7,303
87856	14,928	-3,	-37,276	7,3492
87857	15,159	-3,5	-36,848	7,3054
87858	26,374	-2,5	-16,02	4,0434
87859	26,604	-3,	-15,592	4,1059
87860	26,371	-3,5	-16,026	4,055
87861	26,611	-2,	-15,58	4,1079
87862	26,381	-1,5	-16,007	4,0573
87863	14,698	-2,5	-37,703	7,3934
87864	14,468	-2,	-38,131	7,4313
87865	14,702	-1,5	-37,697	7,3931
87866	14,461	-3,	-38,144	7,4326
87867	14,691	-3,5	-37,716	7,3951
87868	26,841	-2,5	-15,152	4,1702
87869	27,071	-3,	-14,724	4,2783
87870	26,838	-3,5	-15,158	4,1831
87871	27,078	-2,	-14,712	4,2817
87872	26,848	-1,5	-15,139	4,1871
87873	14,231	-2,5	-38,571	7,4704
87874	14,001	-2,	-38,999	7,5065
87875	14,234	-1,5	-38,565	7,4698
87876	13,994	-3,	-39,012	7,5077
87877	14,224	-3,5	-38,584	7,4716
87878	27,309	-2,5	-14,284	4,3897
87879	27,539	-3,	-13,857	4,5601
87880	27,305	-3,5	-14,29	4,4035
87881	27,546	-2,	-13,844	4,5652
87882	27,315	-1,5	-14,272	4,4097
87883	13,764	-2,5	-39,439	7,5438
87884	13,533	-2,	-39,867	7,5859
87885	13,767	-1,5	-39,433	7,5424
87886	13,526	-3,	-39,879	7,5873
87887	13,757	-3,5	-39,452	7,5443
87888	27,776	-2,5	-13,416	4,7355
87889	28,006	-3,	-12,989	4,9909
87890	27,772	-3,5	-13,423	4,7493
87891	28,013	-2,	-12,976	4,9983
87892	27,783	-1,5	-13,404	4,7581
87893	13,296	-2,5	-40,307	7,6294
87894	13,066	-2,	-40,735	7,6883
87895	13,3	-1,5	-40,301	7,6261
87896	13,059	-3,	-40,747	7,6901
87897	13,289	-3,5	-40,32	7,6284
87898	28,243	-2,5	-12,548	5,2537
87899	28,473	-3,	-12,121	5,624
87900	28,24	-3,5	-12,555	5,2649
87901	28,48	-2,	-12,108	5,634
87902	28,25	-1,5	-12,536	5,2776
87903	12,829	-2,5	-41,175	7,749
87904	12,599	-2,	-41,602	7,8378
87905	12,832	-1,5	-41,169	7,7423
87906	12,592	-3,	-41,615	7,8405
87907	12,822	-3,5	-41,187	7,7454
87908	28,71	-2,5	-11,681	6,0044
87909	28,941	-3,	-11,253	6,5236
87910	28,707	-3,5	-11,687	6,0103
87911	28,947	-2,	-11,24	6,5391
87912	28,717	-1,5	-11,668	6,0266
87913	12,362	-2,5	-42,043	7,9293
87914	12,131	-2,	-42,47	8,0612
87915	12,365	-1,5	-42,036	7,9173
87916	12,125	-3,	-42,483	8,0651
87917	12,355	-3,5	-42,055	7,922
87918	29,178	-2,5	-10,813	7,0582
87919	29,407	-3,	-10,387	7,7674
87920	29,174	-3,5	-10,819	7,0519
87921	29,415	-2,	-10,373	7,7902
87922	29,185	-1,5	-10,8	7,0779
87923	11,894	-2,5	-42,911	8,197
87924	11,664	-2,	-43,338	8,3791
87925	11,898	-1,5	-42,904	8,1783
87926	11,657	-3,	-43,351	8,3847
87927	11,888	-3,5	-42,923	8,1848
87928	29,644	-2,5	-9,9461	8,4989
87929	29,875	-3,	-9,5183	9,4332
87930	29,641	-3,5	-9,9524	8,4776
87931	29,882	-2,	-9,5047	9,4603
87932	29,652	-1,5	-9,9323	8,5107
87933	11,427	-2,5	-43,778	8,5666
87934	11,197	-2,	-44,205	8,7921
87935	11,431	-1,5	-43,772	8,5408
87936	11,19	-3,	-44,219	8,8001
87937	11,42	-3,5	-43,791	8,5499
87938	30,112	-2,5	-9,0769	10,393
87939	30,343	-3,0001	-8,6483	11,558
87940	30,109	-3,5	-9,083	10,35
87941	30,349	-2,	-8,6368	11,589
87942	30,119	-1,5	-9,0644	10,394
87943	10,96	-2,5	-44,645	9,0252
87944	10,73	-2,	-45,073	9,2667
87945	10,964	-1,5	-44,639	8,9947
87946	10,723	-3,	-45,086	9,2756
87947	10,953	-3,5	-44,659	9,0058
87948	30,58	-2,5	-8,2083	12,751
87949	30,811	-3,0001	-7,7788	14,082
87950	30,577	-3,5	-8,2142	12,688
87951	30,817	-2,	-7,769	14,109
87952	30,586	-1,5	-8,1966	12,739
87953	10,492	-2,5	-45,515	9,5164
87954	10,261	-1,9999	-45,944	9,718
87955	10,495	-1,5	-45,508	9,486
87956	10,255	-3,	-45,954	9,7235
87957	10,486	-3,5	-45,527	9,4975
87958	31,048	-2,5001	-7,3395	15,437
87959	31,278	-3,0001	-6,9127	16,761
87960	31,045	-3,5001	-7,345	15,377
87961	31,284	-2,	-6,9011	16,795
87962	31,054	-1,5	-7,3287	15,427
87963	10,024	-2,5	-46,383	9,9244
87964	9,7947	-2,	-46,81	10,001
87965	10,027	-1,5	-46,378	9,9047
87966	9,7881	-3,	-46,822	10,002
87967	10,018	-3,5	-46,395	9,9105
87968	31,514	-2,5	-6,4743	18,116
87969	31,746	-3,	-6,0435	19,15
87970	31,511	-3,5	-6,479	18,087
87971	31,751	-2,	-6,0333	19,177
87972	31,521	-1,5	-6,4609	18,138
87973	9,5585	-2,5	-47,249	10,078
87974	9,5614	-1,5	-47,243	10,077
87975	9,3265	-2,	-47,679	9,9347
87976	9,3208	-3,	-47,69	9,928
87977	9,551	-3,5	-47,262	10,078
87978	31,983	-2,5	-5,6025	20,21
87979	31,982	-3,5	-5,6057	20,239
87980	32,217	-3,	-5,1686	20,266
87981	31,986	-1,5	-5,5978	20,253
87982	32,219	-2,	-5,1654	20,272
87983	31,756	-1,	-6,0254	19,215
87984	32,219	-1,	-5,1639	20,344
87985	31,986	-0,5	-5,5978	20,16
87986	31,291	-1,	-6,8885	16,772
87987	31,521	-0,5	-6,4609	17,993
87988	30,823	-1,	-7,7564	14,058
87989	31,054	-0,5	-7,3287	15,308
87990	30,356	-1,	-8,6242	11,546
87991	30,586	-0,5	-8,1966	12,672
87992	29,889	-1,	-9,4921	9,4448
87993	30,119	-0,5	-9,0644	10,389
87994	29,422	-1,	-10,36	7,7986
87995	29,652	-0,5	-9,9323	8,5479
87996	28,954	-1,	-11,228	6,5655
87997	29,185	-0,5	-10,8	7,1402
87998	28,487	-1,	-12,096	5,6703
87999	28,717	-0,5	-11,668	6,0966
88000	28,02	-1,	-12,963	5,0375
88001	28,25	-0,5	-12,536	5,3462
88002	27,552	-1,	-13,831	4,6027
88003	27,783	-0,5	-13,404	4,8194
88004	27,085	-1,	-14,699	4,3151
88005	27,315	-0,5	-14,272	4,462
88006	26,618	-1,	-15,567	4,1366
88007	26,848	-0,5	-15,139	4,2305
88008	26,15	-1,	-16,435	4,0389
88009	26,381	-0,5	-16,007	4,093
88010	25,683	-1,	-17,303	4,0016
88011	25,913	-0,5	-16,875	4,0254
88012	25,216	-1,	-18,171	4,0105
88013	25,446	-0,5	-17,743	4,011
88014	24,749	-1,	-19,038	4,0553
88015	24,979	-0,5	-18,611	4,0375
88016	24,281	-1,	-19,906	4,1286
88017	24,512	-0,5	-19,479	4,0962
88018	23,814	-1,	-20,774	4,2252
88019	24,044	-0,5	-20,346	4,1808
88020	23,347	-1,	-21,642	4,3412
88021	23,577	-0,5	-21,214	4,2868
88022	22,879	-1,	-22,51	4,4739
88023	23,11	-0,5	-22,082	4,4109
88024	22,412	-1,	-23,378	4,6209
88025	22,642	-0,5	-22,95	4,5505
88026	21,945	-1,	-24,245	4,7805
88027	22,175	-0,5	-23,818	4,7037
88028	21,477	-1,	-25,113	4,9509
88029	21,708	-0,5	-24,686	4,8685
88030	21,01	-1,	-25,981	5,1306
88031	21,24	-0,5	-25,554	5,0435
88032	20,543	-1,	-26,849	5,3179
88033	20,773	-0,5	-26,421	5,2269
88034	20,076	-1,	-27,717	5,5112
88035	20,306	-0,5	-27,289	5,4172
88036	19,608	-1,	-28,585	5,7084
88037	19,838	-0,5	-28,157	5,6124
88038	19,141	-1,	-29,453	5,9076
88039	19,371	-0,5	-29,025	5,8106
88040	18,674	-1,	-30,32	6,1063
88041	18,904	-0,5	-29,893	6,0095
88042	18,206	-1,	-31,188	6,3019
88043	18,437	-0,5	-30,761	6,2067
88044	17,739	-1,	-32,056	6,4916
88045	17,969	-0,5	-31,629	6,3994
88046	17,272	-1,	-32,924	6,6724
88047	17,502	-0,5	-32,496	6,5847
88048	16,804	-1,	-33,792	6,8412
88049	17,035	-0,5	-33,364	6,7596
88050	16,337	-1,	-34,66	6,9951
88051	16,567	-0,5	-34,232	6,9211
88052	15,87	-1,	-35,528	7,1317
88053	16,1	-0,5	-35,1	7,0664
88054	15,403	-1,	-36,395	7,2494
88055	15,633	-0,5	-35,968	7,1937
88056	14,935	-1,	-37,263	7,3484
88057	15,165	-0,5	-36,836	7,3019
88058	14,468	-1,	-38,131	7,4316
88059	14,698	-0,5	-37,703	7,3926
88060	14,001	-1,	-38,999	7,5057
88061	14,231	-0,5	-38,571	7,4704
88062	13,533	-1,	-39,867	7,5826
88063	13,764	-0,5	-39,439	7,5439
88064	13,066	-1,	-40,735	7,6801
88065	13,296	-0,5	-40,307	7,6277
88066	12,599	-1,	-41,602	7,8218
88067	12,829	-0,5	-41,175	7,7418
88068	12,131	-1,	-42,47	8,0344
88069	12,362	-0,5	-42,043	7,9113
88070	11,664	-1,	-43,338	8,3401
88071	11,894	-0,5	-42,911	8,1617
88072	11,197	-1,	-44,206	8,7437
88073	11,427	-0,5	-43,778	8,5086
88074	10,729	-1,	-45,074	9,2144
88075	10,96	-0,5	-44,646	8,9441
88076	10,262	-1,	-45,942	9,6731
88077	10,492	-0,5	-45,514	9,4177
88078	9,7942	-1,	-46,811	9,981
88079	10,025	-0,5	-46,382	9,8264
88080	9,3263	-1,	-47,68	9,9521
88081	9,5574	-0,5	-47,251	10,009
88082	9,0914	-1,5	-48,116	9,8101
88083	9,0897	-0,5	-48,119	9,779
88084	8,856	-1,	-48,553	9,2681
88085	9,0888	-2,5	-48,121	9,7851
88086	8,8552	-2,	-48,555	9,2355
88087	9,0863	-3,5	-48,126	9,8026
88088	8,8535	-3,	-48,558	9,2424
88089	9,3165	-4,	-47,698	9,9523
88090	8,8526	-4,	-48,559	9,2719
88091	9,0863	-4,5	-48,126	9,7881
88092	9,7813	-4,	-46,835	9,9868
88093	9,551	-4,5	-47,262	10,013
88094	10,249	-4,	-45,967	9,6849
88095	10,018	-4,5	-46,395	9,8318
88096	10,716	-4,	-45,099	9,2281
88097	10,486	-4,5	-45,527	9,4245
88098	11,183	-4,	-44,231	8,7558
88099	10,953	-4,5	-44,659	8,9504
88100	11,65	-4,	-43,363	8,3501
88101	11,42	-4,5	-43,791	8,5141
88102	12,118	-4,	-42,496	8,0417
88103	11,888	-4,5	-42,923	8,1657
88104	12,585	-4,	-41,628	7,8269
88105	12,355	-4,5	-42,055	7,9144
88106	13,052	-4,	-40,76	7,6836
88107	12,822	-4,5	-41,187	7,744
88108	13,52	-4,	-39,892	7,5854
88109	13,289	-4,5	-40,32	7,6294
88110	13,987	-4,	-39,024	7,5082
88111	13,757	-4,5	-39,452	7,5454
88112	14,454	-4,	-38,156	7,4342
88113	14,224	-4,5	-38,584	7,4718
88114	14,922	-4,	-37,288	7,3514
88115	14,691	-4,5	-37,716	7,3942
88116	15,389	-4,	-36,421	7,2528
88117	15,159	-4,5	-36,848	7,3037
88118	15,856	-4,	-35,553	7,1356
88119	15,626	-4,5	-35,98	7,1957
88120	16,324	-4,	-34,685	6,9996
88121	16,093	-4,5	-35,113	7,0687
88122	16,791	-4,	-33,817	6,8461
88123	16,561	-4,5	-34,245	6,9236
88124	17,258	-4,	-32,949	6,6776
88125	17,028	-4,5	-33,377	6,7623
88126	17,725	-4,	-32,081	6,4971
88127	17,495	-4,5	-32,509	6,5875
88128	18,193	-4,	-31,214	6,3075
88129	17,962	-4,5	-31,641	6,4022
88130	18,66	-4,	-30,346	6,112
88131	18,43	-4,5	-30,773	6,2096
88132	19,127	-4,	-29,478	5,9133
88133	18,897	-4,5	-29,905	6,0124
88134	19,595	-4,	-28,61	5,7142
88135	19,364	-4,5	-29,038	5,8134
88136	20,062	-4,	-27,742	5,5168
88137	19,832	-4,5	-28,17	5,6152
88138	20,529	-4,	-26,874	5,3234
88139	20,299	-4,5	-27,302	5,4199
88140	20,997	-4,	-26,006	5,1358
88141	20,766	-4,5	-26,434	5,2296
88142	21,464	-4,	-25,139	4,9559
88143	21,234	-4,5	-25,566	5,046
88144	21,931	-4,	-24,271	4,7851
88145	21,701	-4,5	-24,698	4,8709
88146	22,398	-4,	-23,403	4,6252
88147	22,168	-4,5	-23,83	4,7058
88148	22,866	-4,	-22,535	4,4778
88149	22,636	-4,5	-22,963	4,5525
88150	23,333	-4,	-21,667	4,3446
88151	23,103	-4,5	-22,095	4,4126
88152	23,8	-4,	-20,799	4,228
88153	23,57	-4,5	-21,227	4,2883
88154	24,268	-4,	-19,931	4,1308
88155	24,037	-4,5	-20,359	4,1819
88156	24,735	-4,	-19,064	4,0567
88157	24,505	-4,5	-19,491	4,097
88158	25,202	-4,	-18,196	4,011
88159	24,972	-4,5	-18,623	4,0379
88160	25,67	-4,	-17,328	4,0009
88161	25,439	-4,5	-17,756	4,0109
88162	26,137	-4,	-16,46	4,0365
88163	25,907	-4,5	-16,888	4,0246
88164	26,604	-4,	-15,592	4,1324
88165	26,374	-4,5	-16,02	4,0912
88166	27,071	-4,	-14,724	4,3084
88167	26,841	-4,5	-15,152	4,2278
88168	27,539	-4,	-13,857	4,5927
88169	27,309	-4,5	-14,284	4,4578
88170	28,006	-4,	-12,989	5,0233
88171	27,776	-4,5	-13,416	4,8137
88172	28,473	-4,	-12,121	5,6512
88173	28,243	-4,5	-12,548	5,338
88174	28,941	-4,	-11,253	6,5387
88175	28,71	-4,5	-11,681	6,0879
88176	29,408	-4,	-10,385	7,7623
88177	29,178	-4,5	-10,813	7,1264
88178	29,875	-4,	-9,517	9,3952
88179	29,645	-4,5	-9,9448	8,5317
88180	30,343	-4,	-8,6489	11,481
88181	30,112	-4,5	-9,0769	10,362
88182	30,811	-4,	-7,7804	13,985
88183	30,58	-4,5	-8,2088	12,638
88184	31,278	-4,	-6,9114	16,705
88185	31,047	-4,5	-7,3406	15,269
88186	31,747	-4,	-6,0412	19,177
88187	31,515	-4,5	-6,4719	17,96
88188	31,983	-4,5	-5,6025	20,144
88189	32,217	-4,	-5,1686	20,33
88190	24,274	-5,	-19,919	4,1482
88191	23,807	-5,	-20,787	4,2422
88192	23,604	-5,	-20,109	4,6255
88193	13,059	-5,	-40,747	7,6897
88194	12,592	-5,	-41,615	7,8315
88195	12,39	-5,	-40,938	8,1505
88196	31,284	-5,	-6,9011	16,526
88197	30,817	-5,	-7,769	13,925
88198	30,579	-5,	-7,1151	15,028
88199	31,751	-5,	-6,0333	18,928
88200	31,036	-5,	-6,2517	17,111
88201	10,723	0,	-45,086	9,148
88202	11,19	0,	-44,219	8,7094
88203	10,508	0,	-44,404	9,0773
88204	10,723	-5,	-45,086	9,1474
88205	10,255	-5,	-45,954	9,5721
88206	10,061	-5,	-45,259	9,3655
88207	11,19	-5,	-44,219	8,7091
88208	10,522	-5,	-44,397	9,0712
88209	28,947	0,	-11,24	6,6715
88210	29,415	0,	-10,373	7,89
88211	28,74	0,	-10,581	7,9913
88212	28,48	0,	-12,108	5,7725
88213	28,273	0,	-11,449	6,9645
88214	28,947	-5,	-11,24	6,6757
88215	28,48	-5,	-12,108	5,7747
88216	28,269	-5,	-11,428	7,0013
88217	29,415	-5,	-10,373	7,8963
88218	28,733	-5,	-10,562	8,0323
88219	28,013	-5,	-12,976	5,1284
88220	27,546	-5,	-13,844	4,6789
88221	27,341	-5,	-13,166	5,6368
88222	27,809	-5,	-12,299	6,2114
88223	28,013	0,	-12,976	5,1281
88224	27,803	0,	-12,312	6,1983
88225	27,546	0,	-13,844	4,6787
88226	27,336	0,	-13,18	5,6266
88227	26,144	-5,	-16,447	4,0794
88228	25,676	-5,	-17,315	4,0347
88229	25,473	-5,	-16,638	4,6248
88230	26,611	-5,	-15,58	4,1868
88231	25,94	-5,	-15,77	4,7427
88232	26,144	0,	-16,447	4,0796
88233	26,611	0,	-15,58	4,187
88234	25,934	0,	-15,783	4,7385
88235	25,676	0,	-17,315	4,0349
88236	25,467	0,	-16,651	4,622
88237	25,209	-5,	-18,183	4,0378
88238	25,006	-5,	-17,506	4,5649
88239	24,742	-5,	-19,051	4,0782
88240	24,071	-5,	-19,242	4,5731
88241	24,538	-5,	-18,374	4,5506
88242	25,209	0,	-18,183	4,0381
88243	25,	0,	-17,519	4,5632
88244	24,742	0,	-19,051	4,0785
88245	24,532	0,	-18,387	4,5499
88246	24,274	0,	-19,919	4,1484
88247	24,065	0,	-19,254	4,5731
88248	23,34	-5,	-21,655	4,3563
88249	22,873	-5,	-22,522	4,4874
88250	22,67	-5,	-21,845	4,8018
88251	23,137	-5,	-20,977	4,703
88252	23,807	0,	-20,787	4,2424
88253	23,597	0,	-20,122	4,6262
88254	23,34	0,	-21,655	4,3565
88255	23,13	0,	-20,99	4,7043
88256	21,938	0,	-24,258	4,7917
88257	22,405	0,	-23,39	4,6333
88258	21,728	0,	-23,593	5,0543
88259	21,471	0,	-25,126	4,9611
88260	21,26	0,	-24,461	5,2015
88261	22,405	-5,	-23,39	4,6331
88262	22,202	-5,	-22,713	4,9189
88263	21,938	-5,	-24,258	4,7916
88264	21,471	-5,	-25,126	4,961
88265	21,268	-5,	-24,449	5,1988
88266	21,735	-5,	-23,581	5,0519
88267	21,003	-5,	-25,994	5,1397
88268	20,536	-5,	-26,862	5,3261
88269	20,334	-5,	-26,185	5,5269
88270	20,801	-5,	-25,317	5,3578
88271	21,003	0,	-25,994	5,1398
88272	20,793	0,	-25,329	5,3606
88273	20,536	0,	-26,862	5,3262
88274	20,326	0,	-26,197	5,53
88275	20,069	0,	-27,729	5,5184
88276	19,858	0,	-27,064	5,7079
88277	19,601	0,	-28,597	5,7145
88278	19,391	0,	-27,932	5,8924
88279	19,134	0,	-29,465	5,9125
88280	18,924	0,	-28,8	6,0815
88281	20,069	-5,	-27,729	5,5183
88282	19,866	-5,	-27,052	5,7046
88283	19,601	-5,	-28,597	5,7145
88284	19,134	-5,	-29,465	5,9125
88285	18,932	-5,	-28,788	6,078
88286	19,399	-5,	-27,92	5,889
88287	17,732	-5,	-32,069	6,4926
88288	17,265	-5,	-32,937	6,6721
88289	17,063	-5,	-32,26	6,8361
88290	18,2	-5,	-31,201	6,3043
88291	17,53	-5,	-31,392	6,6512
88292	17,732	0,	-32,069	6,4925
88293	18,2	0,	-31,201	6,3042
88294	17,522	0,	-31,403	6,655
88295	17,265	0,	-32,937	6,672
88296	17,054	0,	-32,271	6,84
88297	16,798	0,	-33,804	6,8395
88298	16,587	0,	-33,139	7,0177
88299	16,33	0,	-34,672	6,9924
88300	16,119	0,	-34,006	7,1854
88301	15,863	0,	-35,54	7,1284
88302	15,652	0,	-34,874	7,341
88303	16,798	-5,	-33,804	6,8398
88304	16,596	-5,	-33,127	7,0137
88305	16,33	-5,	-34,672	6,9927
88306	15,863	-5,	-35,54	7,1287
88307	15,662	-5,	-34,863	7,3369
88308	16,129	-5,	-33,995	7,1814
88309	15,396	-5,	-36,408	7,2466
88310	15,195	-5,	-35,731	7,4785
88311	14,928	-5,	-37,276	7,3466
88312	14,461	-5,	-38,144	7,4319
88313	14,26	-5,	-37,467	7,7194
88314	14,728	-5,	-36,599	7,6057
88315	15,396	0,	-36,408	7,2462
88316	15,189	0,	-35,737	7,4807
88317	14,928	0,	-37,276	7,3462
88318	14,719	0,	-36,607	7,609
88319	14,461	0,	-38,144	7,4314
88320	14,251	0,	-37,476	7,7233
88321	13,994	-5,	-39,012	7,509
88322	13,793	-5,	-38,335	7,8228
88323	13,526	-5,	-39,879	7,5894
88324	12,858	-5,	-40,07	8,0269
88325	13,326	-5,	-39,202	7,9221
88326	13,994	0,	-39,012	7,5085
88327	13,783	0,	-38,345	7,8271
88328	13,526	0,	-39,879	7,589
88329	13,315	0,	-39,213	7,9267
88330	13,059	0,	-40,747	7,6894
88331	12,852	0,	-40,078	8,029
88332	11,657	-5,	-43,351	8,3299
88333	10,984	-5,	-43,535	8,7754
88334	12,125	-5,	-42,483	8,0385
88335	11,454	-5,	-42,673	8,5139
88336	11,922	-5,	-41,805	8,3081
88337	12,592	0,	-41,615	7,8313
88338	12,385	0,	-40,946	8,1525
88339	12,125	0,	-42,483	8,0386
88340	11,918	0,	-41,809	8,3101
88341	31,284	0,	-6,9011	16,532
88342	31,751	0,	-6,0333	18,94
88343	31,054	0,	-6,2643	17,121
88344	10,255	0,	-45,954	9,5717
88345	10,04	0,	-45,268	9,3694
88346	9,7881	0,	-46,822	9,8545
88347	9,5727	0,	-46,134	9,5762
88348	9,3208	0,	-47,69	9,8356
88349	9,1022	0,	-47,002	9,5873
88350	29,882	-5,	-9,5047	9,4993
88351	29,199	-5,	-9,6995	9,3479
88352	30,349	-5,	-8,6368	11,521
88353	29,664	-5,	-8,8416	10,973
88354	30,124	-5,	-7,9781	12,908
88355	30,817	0,	-7,769	13,924
88356	30,599	0,	-7,1226	15,033
88357	29,882	0,	-9,5047	9,4929
88358	29,211	0,	-9,7204	9,2982
88359	30,349	0,	-8,6368	11,517
88360	30,144	0,	-7,9866	12,897
88361	29,677	0,	-8,8536	10,945
88362	32,452	-2,5	-4,7315	20,331
88363	32,452	-1,5	-4,7315	20,366
88364	32,675	-1,9993	-4,2913	19,996
88365	32,452	-3,5	-4,7315	20,361
88366	32,675	-2,9993	-4,293	19,99
88367	9,7881	-5,	-46,822	9,8589
88368	9,3208	-5,	-47,69	9,8492
88369	9,1466	-5,	-46,98	9,6078
88370	9,5998	-5,	-46,121	9,5789
88371	8,6198	-2,5	-48,992	8,6941
88372	8,6198	-3,5	-48,992	8,7129
88373	8,3795	-3,0008	-49,413	8,1465
88374	8,6198	-1,5	-48,992	8,695
88375	8,3807	-2,0004	-49,411	8,1358
88376	27,078	-5,	-14,712	4,3773
88377	26,407	-5,	-14,902	4,9348
88378	26,874	-5,	-14,034	5,2233
88379	27,078	0,	-14,712	4,3775
88380	26,869	0,	-14,048	5,2155
88381	26,402	0,	-14,916	4,929
88382	22,873	0,	-22,522	4,4876
88383	22,663	0,	-21,858	4,8035
88384	22,195	0,	-22,725	4,921
88385	18,667	-5,	-30,333	6,1099
88386	17,998	-5,	-30,524	6,4614
88387	18,465	-5,	-29,656	6,2696
88388	18,667	0,	-30,333	6,1099
88389	18,456	0,	-29,668	6,2732
88390	17,989	0,	-30,536	6,4652
88391	11,657	0,	-43,351	8,3303
88392	11,448	0,	-42,677	8,5175
88393	10,978	0,	-43,54	8,7782
88394	8,6198	-4,5	-48,992	8,7332
88395	8,3743	-3,9999	-49,421	8,147
88396	8,8535	-5,	-48,558	9,2478
88397	8,2354	-5,	-48,683	8,7051
88398	8,3824	-5,	-49,408	8,2287
88399	8,6938	-5,	-47,836	9,3552
88400	32,219	-5,	-5,1654	20,173
88401	31,498	-5,	-5,3954	18,816
88402	32,452	-4,5	-4,7315	20,363
88403	32,672	-4,	-4,298	20,032
88404	31,968	-5,	-4,5389	19,65
88405	32,675	-5,	-4,2919	20,075
88406	8,8535	0,	-48,558	9,2274
88407	8,6256	0,	-47,866	9,3065
88408	8,6198	-0,5	-48,992	8,7182
88409	8,3811	-1,0002	-49,41	8,1545
88410	8,1693	0,	-48,726	8,6689
88411	8,3824	0,	-49,408	8,2175
88412	32,452	-0,5	-4,7315	20,379
88413	32,677	-1,	-4,2888	20,04
88414	32,219	0,	-5,1654	20,191
88415	31,964	0,	-4,5724	19,628
88416	32,675	0,	-4,2919	20,093
88417	31,505	0,	-5,4139	18,82
88418	20,63	-2,5	26,688	5,7795
88419	20,866	-3,	26,249	5,6511
88420	20,394	-3,	27,125	5,9154
88421	20,63	-3,5	26,687	5,782
88422	20,864	-2,	26,253	5,6523
88423	20,392	-2,	27,129	5,9166
88424	20,628	-1,5	26,691	5,7833
88425	21,1	-2,5	25,814	5,5239
88426	21,336	-2,	25,377	5,4044
88427	21,1	-1,5	25,815	5,5272
88428	21,338	-3,	25,372	5,4033
88429	21,102	-3,5	25,811	5,5261
88430	20,157	-2,5	27,566	6,0525
88431	19,921	-3,	28,003	6,1961
88432	20,157	-3,5	27,565	6,0548
88433	19,919	-2,	28,007	6,1975
88434	20,155	-1,5	27,569	6,0561
88435	21,573	-2,5	24,935	5,2837
88436	21,809	-2,	24,498	5,1728
88437	21,573	-1,5	24,936	5,2873
88438	21,811	-3,	24,494	5,1717
88439	21,575	-3,5	24,932	5,2862
88440	19,684	-2,5	28,444	6,3411
88441	19,448	-3,	28,882	6,4922
88442	19,684	-3,5	28,443	6,3432
88443	19,446	-2,	28,886	6,4936
88444	19,682	-1,5	28,448	6,3446
88445	22,046	-2,5	24,057	5,0608
88446	22,282	-2,	23,62	4,9587
88447	22,046	-1,5	24,058	5,0646
88448	22,284	-3,	23,616	4,9577
88449	22,048	-3,5	24,054	5,0636
88450	19,211	-2,5	29,323	6,6447
88451	18,975	-3,	29,76	6,8028
88452	19,211	-3,5	29,322	6,6466
88453	18,973	-2,	29,764	6,8043
88454	19,209	-1,5	29,326	6,6481
88455	22,519	-2,5	23,179	4,8556
88456	22,754	-2,	22,742	4,7628
88457	22,519	-1,5	23,18	4,8597
88458	22,757	-3,	22,737	4,762
88459	22,521	-3,5	23,176	4,8589
88460	18,738	-2,5	30,201	6,9624
88461	18,503	-3,	30,638	7,127
88462	18,738	-3,5	30,2	6,9642
88463	18,5	-2,	30,642	7,1286
88464	18,736	-1,5	30,204	6,9657
88465	22,992	-2,5	22,3	4,6692
88466	23,227	-2,	21,863	4,5863
88467	22,992	-1,5	22,301	4,6737
88468	23,23	-3,	21,859	4,5855
88469	22,994	-3,5	22,297	4,6729
88470	18,265	-2,5	31,08	7,2932
88471	18,03	-3,	31,517	7,4636
88472	18,265	-3,5	31,078	7,2948
88473	18,027	-2,	31,521	7,4652
88474	18,263	-1,5	31,083	7,2964
88475	23,465	-2,5	21,422	4,5025
88476	23,7	-2,	20,985	4,4303
88477	23,464	-1,5	21,423	4,5076
88478	23,703	-3,	20,981	4,4297
88479	23,467	-3,5	21,419	4,5069
88480	17,792	-2,5	31,958	7,6356
88481	17,557	-3,	32,395	7,8108
88482	17,793	-3,5	31,957	7,6369
88483	17,554	-2,	32,399	7,8125
88484	17,79	-1,5	31,961	7,6386
88485	23,938	-2,5	20,544	4,3575
88486	24,173	-2,	20,107	4,2972
88487	23,937	-1,5	20,545	4,3632
88488	23,94	-3,5	20,541	4,3626
88489	24,176	-3,	20,102	4,2967
88490	17,319	-2,5	32,836	7,9876
88491	17,084	-3,	33,273	8,1661
88492	17,32	-3,5	32,835	7,9886
88493	17,081	-2,	33,277	8,1679
88494	17,317	-1,5	32,839	7,9903
88495	24,646	-2,	19,228	4,19
88496	24,41	-1,5	19,666	4,243
88497	24,411	-2,5	19,665	4,2364
88498	16,846	-2,5	33,715	8,3464
88499	16,611	-3,	34,152	8,5265
88500	16,847	-3,5	33,713	8,3471
88501	16,608	-2,	34,156	8,5282
88502	16,844	-1,5	33,718	8,3488
88503	24,884	-2,5	18,787	4,1431
88504	25,119	-2,	18,35	4,1132
88505	24,883	-1,5	18,788	4,1507
88506	25,122	-3,	18,346	4,1129
88507	24,886	-3,5	18,784	4,1504
88508	24,649	-3,	19,224	4,1896
88509	16,373	-2,5	34,593	8,7083
88510	16,138	-3,	35,03	8,8873
88511	16,374	-3,5	34,592	8,7086
88512	16,135	-2,	35,034	8,8891
88513	16,371	-1,5	34,596	8,7103
88514	25,357	-2,5	17,909	4,0829
88515	25,592	-2,	17,472	4,0735
88516	25,356	-1,5	17,91	4,0918
88517	25,594	-3,	17,467	4,0734
88518	25,359	-3,5	17,906	4,0917
88519	15,9	-2,5	35,471	9,0681
88520	15,665	-3,	35,908	9,2425
88521	15,901	-3,5	35,47	9,068
88522	15,663	-2,	35,912	9,2442
88523	15,898	-1,5	35,474	9,0697
88524	25,83	-2,5	17,03	4,0638
88525	26,065	-2,	16,593	4,0805
88526	25,829	-1,5	17,031	4,0743
88527	26,067	-3,	16,589	4,0807
88528	25,832	-3,5	17,027	4,0744
88529	15,427	-2,5	36,35	9,4186
88530	15,192	-3,	36,787	9,5835
88531	15,428	-3,5	36,348	9,418
88532	15,19	-2,	36,791	9,5851
88533	15,425	-1,5	36,353	9,4197
88534	26,303	-2,5	16,152	4,0973
88535	26,538	-2,	15,715	4,1484
88536	26,302	-1,5	16,153	4,1095
88537	26,54	-3,	15,711	4,1489
88538	26,304	-3,5	16,149	4,1099
88539	14,954	-2,5	37,228	9,75
88540	14,719	-3,	37,665	9,8987
88541	14,955	-3,5	37,227	9,7491
88542	14,717	-2,	37,669	9,9002
88543	14,952	-1,5	37,231	9,7506
88544	26,776	-2,5	15,274	4,1999
88545	27,011	-2,	14,837	4,2973
88546	26,775	-1,5	15,275	4,2139
88547	27,013	-3,	14,832	4,2984
88548	26,777	-3,5	15,271	4,2147
88549	14,481	-2,5	38,106	10,049
88550	14,246	-3,	38,543	10,173
88551	14,482	-3,5	38,105	10,048
88552	14,244	-2,	38,548	10,174
88553	14,48	-1,5	38,109	10,049
88554	27,249	-2,5	14,395	4,3956
88555	27,484	-2,	13,958	4,5558
88556	27,248	-1,5	14,396	4,4112
88557	27,486	-3,	13,954	4,5575
88558	27,25	-3,5	14,392	4,4125
88559	14,008	-2,5	38,985	10,298
88560	13,773	-3,	39,422	10,386
88561	14,009	-3,5	38,983	10,297
88562	13,771	-2,	39,426	10,387
88563	14,007	-1,5	38,988	10,298
88564	27,722	-2,5	13,517	4,7176
88565	27,957	-2,	13,08	4,9635
88566	27,721	-1,5	13,518	4,7337
88567	27,959	-3,	13,076	4,9661
88568	27,723	-3,5	13,514	4,7358
88569	13,535	-2,5	39,863	10,475
88570	13,3	-3,	40,3	10,514
88571	13,536	-3,5	39,862	10,475
88572	13,298	-2,	40,304	10,515
88573	13,534	-1,5	39,866	10,475
88574	28,195	-2,5	12,639	5,212
88575	28,43	-2,	12,202	5,5741
88576	28,194	-1,5	12,64	5,2266
88577	28,432	-3,	12,197	5,5776
88578	28,196	-3,5	12,635	5,23
88579	13,062	-2,5	40,741	10,554
88580	12,827	-3,	41,178	10,53
88581	13,063	-3,5	40,74	10,555
88582	12,825	-2,	41,183	10,53
88583	13,061	-1,5	40,744	10,555
88584	28,668	-2,5	11,76	5,9397
88585	28,903	-2,	11,323	6,4547
88586	28,667	-1,5	11,761	5,9496
88587	28,905	-3,	11,319	6,4603
88588	28,669	-3,5	11,757	5,9543
88589	12,589	-2,5	41,62	10,506
88590	12,354	-3,	42,057	10,407
88591	12,59	-3,5	41,619	10,508
88592	12,352	-2,	42,061	10,406
88593	12,588	-1,5	41,623	10,508
88594	29,14	-2,5	10,882	6,9753
88595	29,376	-2,	10,445	7,6848
88596	29,14	-1,5	10,883	6,9751
88597	29,378	-3,	10,441	7,6933
88598	29,142	-3,5	10,879	6,9838
88599	12,116	-2,5	42,498	10,307
88600	11,881	-3,	42,935	10,129
88601	12,117	-3,5	42,497	10,311
88602	11,879	-2,	42,939	10,128
88603	12,115	-1,5	42,501	10,309
88604	29,613	-2,5	10,004	8,4025
88605	29,849	-2,	9,5664	9,3411
88606	29,613	-1,5	10,005	8,3869
88607	29,851	-3,	9,5624	9,3532
88608	29,615	-3,5	10,	8,399
88609	11,644	-2,5	43,376	9,9497
88610	11,408	-3,	43,813	9,7015
88611	11,644	-3,5	43,375	9,9511
88612	11,406	-2,	43,818	9,6999
88613	11,642	-1,5	43,379	9,9494
88614	30,086	-2,5	9,1252	10,291
88615	30,322	-2,	8,6878	11,465
88616	30,086	-1,5	9,1262	10,255
88617	30,324	-3,	8,684	11,481
88618	30,088	-3,5	9,1221	10,273
88619	11,171	-2,5	44,255	9,4512
88620	10,935	-3,	44,692	9,1666
88621	11,171	-3,5	44,254	9,4469
88622	10,933	-2,	44,696	9,1641
88623	11,169	-1,5	44,258	9,4441
88624	30,559	-2,5	8,2467	12,653
88625	30,795	-2,	7,8091	14,007
88626	30,559	-1,5	8,2477	12,602
88627	30,797	-3,	7,8057	14,022
88628	30,561	-3,5	8,2438	12,621
88629	10,698	-2,5	45,133	8,879
88630	10,462	-3,	45,571	8,6096
88631	10,698	-3,5	45,132	8,8627
88632	10,46	-2,	45,574	8,6075
88633	10,696	-1,5	45,136	8,8603
88634	31,033	-2,5	7,3681	15,373
88635	31,268	-2,	6,9302	16,738
88636	31,032	-1,5	7,3691	15,324
88637	31,034	-3,5	7,3655	15,338
88638	31,27	-3,	6,9274	16,747
88639	10,224	-2,5	46,012	8,3378
88640	9,9887	-3,	46,45	8,1412
88641	10,225	-3,5	46,011	8,3075
88642	9,9871	-2,	46,453	8,1396
88643	10,223	-1,5	46,014	8,305
88644	31,742	-2,	6,0508	19,172
88645	31,505	-1,5	6,4902	18,092
88646	31,506	-2,5	6,4894	18,111
88647	9,7513	-2,5	46,89	7,9429
88648	9,7518	-3,5	46,89	7,9057
88649	9,5151	-3,	47,329	7,8434
88650	9,5141	-2,	47,331	7,8434
88651	9,75	-1,5	46,893	7,9073
88652	31,979	-2,5	5,6104	20,245
88653	31,979	-1,5	5,6109	20,27
88654	32,215	-2,	5,1712	20,29
88655	31,98	-3,5	5,6088	20,294
88656	31,743	-3,	6,049	19,185
88657	32,216	-3,	5,1707	20,295
88658	31,744	-4,	6,0469	19,211
88659	32,216	-4,	5,1696	20,39
88660	31,98	-4,5	5,6088	20,211
88661	31,271	-4,	6,9252	16,693
88662	31,507	-3,5	6,4871	18,101
88663	31,507	-4,5	6,4871	17,956
88664	30,798	-4,	7,8036	13,94
88665	31,034	-4,5	7,3655	15,22
88666	30,325	-4,	8,6819	11,414
88667	30,561	-4,5	8,2438	12,56
88668	29,852	-4,	9,5602	9,319
88669	30,088	-4,5	9,1221	10,273
88670	29,379	-4,	10,439	7,6896
88671	29,615	-4,5	10,	8,4419
88672	28,906	-4,	11,317	6,4778
88673	29,142	-4,5	10,879	7,0492
88674	28,433	-4,	12,195	5,6067
88675	28,669	-4,5	11,757	6,0256
88676	27,96	-4,	13,074	4,9998
88677	28,196	-4,5	12,635	5,2986
88678	27,487	-4,	13,952	4,5909
88679	27,723	-4,5	13,514	4,7967
88680	27,014	-4,	14,83	4,329
88681	27,25	-4,5	14,392	4,4643
88682	26,542	-4,	15,709	4,1757
88683	26,777	-4,5	15,271	4,2577
88684	26,069	-4,	16,587	4,1036
88685	26,304	-4,5	16,149	4,1452
88686	25,596	-4,	17,465	4,0927
88687	25,832	-4,5	17,027	4,1033
88688	25,123	-4,	18,344	4,1292
88689	25,359	-4,5	17,906	4,1156
88690	24,65	-4,	19,222	4,2034
88691	24,886	-4,5	18,784	4,1704
88692	24,177	-4,	20,1	4,3084
88693	24,413	-3,5	19,662	4,2425
88694	24,413	-4,5	19,662	4,2595
88695	23,704	-4,	20,979	4,4398
88696	23,94	-4,5	20,541	4,3773
88697	23,231	-4,	21,857	4,5943
88698	23,467	-4,5	21,419	4,5199
88699	22,758	-4,	22,735	4,7698
88700	22,994	-4,5	22,297	4,6845
88701	22,285	-4,	23,614	4,9647
88702	22,521	-4,5	23,176	4,8694
88703	21,812	-4,	24,492	5,178
88704	22,048	-4,5	24,054	5,0733
88705	21,339	-4,	25,37	5,409
88706	21,575	-4,5	24,932	5,2953
88707	20,866	-4,	26,249	5,657
88708	21,102	-4,5	25,811	5,5346
88709	20,393	-4,	27,127	5,9215
88710	20,629	-4,5	26,689	5,7908
88711	19,92	-4,	28,005	6,2019
88712	20,156	-4,5	27,567	6,0631
88713	19,447	-4,	28,884	6,4977
88714	19,683	-4,5	28,446	6,3511
88715	18,974	-4,	29,762	6,808
88716	19,21	-4,5	29,324	6,6541
88717	18,501	-4,	30,64	7,1319
88718	18,737	-4,5	30,202	6,9712
88719	18,028	-4,	31,519	7,4681
88720	18,264	-4,5	31,081	7,3011
88721	17,555	-4,	32,397	7,8147
88722	17,791	-4,5	31,959	7,6425
88723	17,083	-4,	33,275	8,1695
88724	17,318	-4,5	32,837	7,9932
88725	16,61	-4,	34,154	8,5292
88726	16,845	-4,5	33,716	8,3505
88727	16,137	-4,	35,032	8,8892
88728	16,373	-4,5	34,594	8,7104
88729	15,664	-4,	35,91	9,2435
88730	15,9	-4,5	35,472	9,0678
88731	15,191	-4,	36,789	9,5836
88732	15,427	-4,5	36,351	9,4154
88733	14,718	-4,	37,667	9,8982
88734	14,954	-4,5	37,229	9,7435
88735	14,245	-4,	38,545	10,172
88736	14,481	-4,5	38,107	10,039
88737	13,772	-4,	39,424	10,386
88738	14,008	-4,5	38,986	10,285
88739	13,299	-4,	40,302	10,515
88740	13,535	-4,5	39,864	10,46
88741	12,826	-4,	41,18	10,533
88742	13,062	-4,5	40,742	10,537
88743	12,353	-4,	42,059	10,412
88744	12,589	-4,5	41,621	10,489
88745	11,88	-4,	42,937	10,133
88746	12,116	-4,5	42,499	10,293
88747	11,407	-4,	43,815	9,6968
88748	11,643	-4,5	43,377	9,9333
88749	10,934	-4,	44,694	9,1434
88750	11,17	-4,5	44,256	9,4263
88751	10,461	-4,	45,572	8,5609
88752	10,697	-4,5	45,134	8,8316
88753	9,9881	-4,	46,451	8,072
88754	10,224	-4,5	46,012	8,2613
88755	9,5151	-4,	47,329	7,777
88756	9,7511	-4,5	46,891	7,847
88757	9,2784	-3,5	47,769	7,7148
88758	9,2781	-4,5	47,769	7,6719
88759	9,0416	-4,	48,208	7,5115
88760	9,2779	-2,5	47,77	7,7439
88761	9,0415	-3,	48,209	7,5659
88762	9,2771	-1,5	47,771	7,7136
88763	9,0412	-2,	48,209	7,5653
88764	9,513	-1,	47,333	7,7775
88765	9,0406	-1,	48,21	7,5081
88766	9,2771	-0,5	47,771	7,6697
88767	9,9859	-1,	46,455	8,0727
88768	9,75	-0,5	46,893	7,8543
88769	10,459	-1,	45,576	8,558
88770	10,223	-0,5	46,014	8,2601
88771	10,932	-1,	44,698	9,1407
88772	10,696	-0,5	45,136	8,8309
88773	11,405	-1,	43,82	9,694
88774	11,169	-0,5	44,258	9,4243
88775	11,878	-1,	42,941	10,131
88776	11,642	-0,5	43,379	9,9321
88777	12,351	-1,	42,063	10,411
88778	12,115	-0,5	42,501	10,292
88779	12,824	-1,	41,185	10,533
88780	12,588	-0,5	41,623	10,49
88781	13,297	-1,	40,306	10,516
88782	13,061	-0,5	40,744	10,538
88783	13,77	-1,	39,428	10,387
88784	13,534	-0,5	39,866	10,46
88785	14,242	-1,	38,55	10,173
88786	14,007	-0,5	38,988	10,286
88787	14,715	-1,	37,671	9,8997
88788	14,48	-0,5	38,109	10,04
88789	15,188	-1,	36,793	9,5853
88790	14,952	-0,5	37,231	9,7443
88791	15,661	-1,	35,915	9,2452
88792	15,425	-0,5	36,353	9,4162
88793	16,134	-1,	35,036	8,891
88794	15,898	-0,5	35,474	9,0686
88795	16,607	-1,	34,158	8,5309
88796	16,371	-0,5	34,596	8,7113
88797	17,08	-1,	33,28	8,1712
88798	16,844	-0,5	33,718	8,3513
88799	17,553	-1,	32,401	7,8164
88800	17,317	-0,5	32,839	7,994
88801	18,026	-1,	31,523	7,4697
88802	17,79	-0,5	31,961	7,6433
88803	18,499	-1,	30,645	7,1334
88804	18,263	-0,5	31,083	7,3019
88805	18,972	-1,	29,766	6,8095
88806	18,736	-0,5	30,204	6,9719
88807	19,445	-1,	28,888	6,4991
88808	19,209	-0,5	29,326	6,6548
88809	19,918	-1,	28,01	6,2033
88810	19,682	-0,5	28,448	6,3518
88811	20,391	-1,	27,131	5,9228
88812	20,155	-0,5	27,569	6,0638
88813	20,864	-1,	26,253	5,6582
88814	20,628	-0,5	26,691	5,7914
88815	21,337	-1,	25,375	5,4101
88816	21,101	-0,5	25,813	5,5352
88817	21,81	-1,	24,496	5,1791
88818	21,574	-0,5	24,934	5,2958
88819	22,283	-1,	23,618	4,9656
88820	22,047	-0,5	24,056	5,0738
88821	22,756	-1,	22,74	4,7706
88822	22,52	-0,5	23,178	4,8699
88823	23,229	-1,	21,861	4,5951
88824	22,993	-0,5	22,299	4,6849
88825	23,702	-1,	20,983	4,4404
88826	23,466	-0,5	21,421	4,5202
88827	24,174	-1,	20,105	4,3089
88828	23,939	-0,5	20,543	4,3776
88829	24,647	-1,	19,226	4,2037
88830	24,412	-0,5	19,664	4,2597
88831	25,12	-1,	18,348	4,1294
88832	24,884	-0,5	18,786	4,1705
88833	25,593	-1,	17,47	4,0927
88834	25,357	-0,5	17,908	4,1157
88835	26,066	-1,	16,591	4,1033
88836	25,83	-0,5	17,029	4,1032
88837	26,539	-1,	15,713	4,1751
88838	26,303	-0,5	16,151	4,1449
88839	27,012	-1,	14,835	4,3279
88840	26,776	-0,5	15,273	4,2573
88841	27,485	-1,	13,956	4,5892
88842	27,249	-0,5	14,394	4,4636
88843	27,958	-1,	13,078	4,9969
88844	27,722	-0,5	13,516	4,7954
88845	28,431	-1,	12,2	5,6022
88846	28,195	-0,5	12,638	5,2962
88847	28,904	-1,	11,321	6,4701
88848	28,668	-0,5	11,759	6,0221
88849	29,377	-1,	10,443	7,6774
88850	29,141	-0,5	10,881	7,0414
88851	29,85	-1,	9,5645	9,3019
88852	29,614	-0,5	10,003	8,4298
88853	30,323	-1,	8,6861	11,394
88854	30,087	-0,5	9,1242	10,257
88855	30,796	-1,	7,8076	13,921
88856	30,56	-0,5	8,2459	12,545
88857	31,269	-1,	6,9291	16,679
88858	31,033	-0,5	7,3675	15,207
88859	31,742	-1,	6,0504	19,19
88860	31,506	-0,5	6,489	17,947
88861	31,979	-0,5	5,6104	20,175
88862	32,215	-1,	5,1712	20,359
88863	28,432	-5,	12,197	5,7175
88864	28,905	-5,	11,319	6,597
88865	28,228	-5,	11,522	6,9152
88866	27,959	-5,	13,076	5,0956
88867	27,755	-5,	12,401	6,1573
88868	28,432	0,	12,197	5,7162
88869	27,959	0,	13,076	5,0948
88870	27,757	0,	12,407	6,1477
88871	28,905	0,	11,319	6,5936
88872	28,229	0,	11,534	6,8961
88873	26,54	0,	15,711	4,2272
88874	26,067	0,	16,589	4,145
88875	25,864	0,	15,912	4,7892
88876	27,013	0,	14,832	4,3931
88877	26,337	0,	15,033	4,9563
88878	26,54	-5,	15,711	4,2273
88879	27,013	-5,	14,832	4,3931
88880	26,337	-5,	15,036	4,9538
88881	26,067	-5,	16,589	4,145
88882	25,864	-5,	15,915	4,7872
88883	25,594	-5,	17,467	4,1264
88884	25,391	-5,	16,793	4,6957
88885	25,122	-5,	18,346	4,157
88886	24,918	-5,	17,671	4,6631
88887	24,649	-5,	19,224	4,2267
88888	24,445	-5,	18,549	4,6777
88889	25,594	0,	17,467	4,1263
88890	25,391	0,	16,79	4,697
88891	25,122	0,	18,346	4,1569
88892	24,918	0,	17,668	4,6639
88893	23,703	0,	20,981	4,4573
88894	23,23	0,	21,859	4,61
88895	23,027	0,	21,182	4,9306
88896	24,649	0,	19,224	4,2266
88897	24,445	0,	18,547	4,6781
88898	24,176	0,	20,102	4,3284
88899	23,5	0,	20,304	4,8167
88900	23,973	0,	19,425	4,7311
88901	24,176	-5,	20,102	4,3285
88902	23,972	-5,	19,428	4,7311
88903	23,703	-5,	20,981	4,4574
88904	23,499	-5,	20,306	4,817
88905	22,757	0,	22,737	4,7841
88906	22,284	0,	23,616	4,978
88907	22,081	0,	22,939	5,2314
88908	22,554	0,	22,06	5,0696
88909	23,23	-5,	21,859	4,6101
88910	23,025	-5,	21,184	4,9311
88911	22,757	-5,	22,737	4,7842
88912	22,552	-5,	22,062	5,0703
88913	22,284	-5,	23,616	4,9781
88914	22,079	-5,	22,941	5,2323
88915	20,865	-5,	26,251	5,6684
88916	21,338	-5,	25,372	5,421
88917	20,66	-5,	25,575	5,8401
88918	20,392	-5,	27,129	5,9324
88919	20,187	-5,	26,454	6,0799
88920	20,865	0,	26,251	5,6683
88921	20,392	0,	27,129	5,9323
88922	20,19	0,	26,452	6,0785
88923	21,338	0,	25,372	5,4209
88924	20,663	0,	25,574	5,8388
88925	19,919	0,	28,007	6,2123
88926	19,717	0,	27,33	6,3355
88927	19,446	0,	28,886	6,5075
88928	18,973	0,	29,764	6,8172
88929	18,771	0,	29,087	6,8981
88930	19,244	0,	28,209	6,6089
88931	19,919	-5,	28,007	6,2123
88932	19,714	-5,	27,332	6,3369
88933	19,446	-5,	28,886	6,5076
88934	19,241	-5,	28,21	6,6105
88935	18,5	0,	30,642	7,1403
88936	18,298	0,	29,965	7,2021
88937	18,027	0,	31,521	7,4755
88938	17,554	0,	32,399	7,821
88939	17,353	0,	31,722	7,8491
88940	17,825	0,	30,844	7,5196
88941	18,973	-5,	29,764	6,8172
88942	18,768	-5,	29,088	6,8998
88943	18,5	-5,	30,642	7,1404
88944	18,295	-5,	29,967	7,2039
88945	18,027	-5,	31,521	7,4756
88946	17,822	-5,	30,845	7,5214
88947	17,081	0,	33,277	8,1741
88948	16,88	0,	32,601	8,1887
88949	16,608	0,	34,156	8,5317
88950	16,135	0,	35,034	8,889
88951	15,934	0,	34,357	8,8868
88952	16,407	0,	33,479	8,5358
88953	17,554	-5,	32,399	7,821
88954	17,349	-5,	31,723	7,851
88955	17,081	-5,	33,277	8,1742
88956	16,876	-5,	32,601	8,1907
88957	16,608	-5,	34,156	8,5317
88958	16,403	-5,	33,48	8,5378
88959	15,663	0,	35,912	9,2397
88960	15,461	0,	35,236	9,2372
88961	15,19	0,	36,791	9,5753
88962	14,717	0,	37,669	9,8844
88963	14,516	0,	36,992	9,9088
88964	14,988	0,	36,114	9,5805
88965	15,19	-5,	36,791	9,5752
88966	15,663	-5,	35,912	9,2396
88967	14,984	-5,	36,114	9,5826
88968	14,717	-5,	37,669	9,8843
88969	14,511	-5,	36,993	9,911
88970	14,244	0,	38,548	10,152
88971	13,771	0,	39,426	10,359
88972	13,57	0,	38,749	10,475
88973	14,043	0,	37,871	10,211
88974	14,244	-5,	38,548	10,152
88975	14,038	-5,	37,871	10,214
88976	13,771	-5,	39,426	10,359
88977	13,565	-5,	38,749	10,477
88978	13,298	0,	40,304	10,482
88979	13,092	0,	39,625	10,685
88980	12,825	0,	41,183	10,495
88981	12,352	0,	42,061	10,371
88982	12,15	0,	41,383	10,854
88983	12,623	0,	40,505	10,815
88984	13,298	-5,	40,304	10,482
88985	13,092	-5,	39,627	10,685
88986	12,825	-5,	41,183	10,494
88987	12,619	-5,	40,506	10,819
88988	12,352	-5,	42,061	10,371
88989	12,146	-5,	41,384	10,857
88990	29,378	-5,	10,441	7,8018
88991	29,851	-5,	9,5624	9,397
88992	29,166	-5,	9,7607	9,2585
88993	28,696	-5,	10,639	7,9413
88994	29,378	0,	10,441	7,7942
88995	28,701	0,	10,662	7,8957
88996	29,851	0,	9,5624	9,3861
88997	29,175	0,	9,7958	9,1834
88998	11,879	-5,	42,939	10,094
88999	11,679	-5,	42,261	10,776
89000	11,406	-5,	43,818	9,6633
89001	11,211	-5,	43,14	10,569
89002	10,933	-5,	44,696	9,115
89003	10,744	-5,	44,02	10,235
89004	11,879	0,	42,939	10,094
89005	11,676	0,	42,261	10,779
89006	11,406	0,	43,818	9,663
89007	10,933	0,	44,696	9,1151
89008	10,734	0,	44,019	10,249
89009	11,209	0,	43,139	10,573
89010	10,46	0,	45,574	8,5334
89011	10,253	0,	44,899	9,8458
89012	9,9871	0,	46,453	8,0416
89013	9,5141	0,	47,331	7,7463
89014	9,2709	0,	46,652	9,1231
89015	9,7596	0,	45,778	9,445
89016	30,324	0,	8,684	11,41
89017	29,648	0,	8,9217	10,819
89018	30,797	0,	7,8057	13,834
89019	30,123	0,	8,0517	12,766
89020	30,324	-5,	8,684	11,421
89021	29,637	-5,	8,8853	10,898
89022	30,797	-5,	7,8057	13,843
89023	30,107	-5,	8,0207	12,825
89024	31,27	0,	6,9274	16,478
89025	30,594	0,	7,1756	14,95
89026	31,743	0,	6,049	18,933
89027	31,057	0,	6,2919	17,11
89028	9,9871	-5,	46,453	8,0363
89029	9,5141	-5,	47,331	7,7417
89030	9,3387	-5,	46,652	8,9942
89031	8,8047	-2,5	48,648	7,3879
89032	8,8047	-1,5	48,648	7,3605
89033	8,5616	-1,999	49,075	7,3796
89034	8,8047	-3,5	48,648	7,3633
89035	8,563	-2,9988	49,072	7,3836
89036	31,27	-5,	6,9274	16,485
89037	31,743	-5,	6,049	18,957
89038	31,064	-5,	6,3055	17,104
89039	30,584	-5,	7,16	14,966
89040	32,452	-2,5	4,7315	20,344
89041	32,452	-3,5	4,7315	20,394
89042	32,676	-3,0007	4,291	20,006
89043	32,452	-1,5	4,7315	20,382
89044	32,675	-2,0008	4,2928	20,005
89045	27,486	0,	13,954	4,6699
89046	26,809	0,	14,155	5,2202
89047	27,283	0,	13,283	5,6019
89048	27,486	-5,	13,954	4,6702
89049	27,283	-5,	13,28	5,6062
89050	26,81	-5,	14,158	5,2171
89051	21,811	0,	24,494	5,1906
89052	21,135	0,	24,695	5,6172
89053	21,608	0,	23,817	5,4144
89054	21,811	-5,	24,494	5,1906
89055	21,606	-5,	23,819	5,4154
89056	21,133	-5,	24,697	5,6183
89057	16,135	-5,	35,034	8,889
89058	15,93	-5,	34,358	8,8889
89059	15,457	-5,	35,236	9,2392
89060	10,46	-5,	45,574	8,5323
89061	10,275	-5,	44,9	9,8083
89062	9,8067	-5,	45,777	9,3613
89063	8,8047	-0,5	48,648	7,3524
89064	8,5594	-1,	49,078	7,3206
89065	9,0412	0,	48,209	7,5134
89066	8,3668	0,	48,378	8,8089
89067	8,5622	0,	49,074	7,3845
89068	8,7988	0,	47,522	8,9535
89069	32,216	0,	5,1707	20,199
89070	31,512	0,	5,417	18,851
89071	32,452	-0,5	4,7315	20,387
89072	32,672	-1,	4,298	20,055
89073	31,961	0,	4,5439	19,657
89074	32,675	0,	4,2919	20,097
89075	9,0412	-5,	48,209	7,5102
89076	8,8642	-5,	47,523	8,8151
89077	8,8047	-4,5	48,648	7,3502
89078	8,5675	-4,	49,065	7,3253
89079	8,3919	-5,	48,388	8,7371
89080	8,5622	-5,	49,074	7,3939
89081	32,452	-4,5	4,7315	20,428
89082	32,677	-4,0001	4,2871	20,068
89083	32,216	-5,	5,1707	20,246
89084	32,007	-5,	4,5976	19,695
89085	32,675	-5,	4,2919	20,122
89086	31,542	-5,	5,4521	18,898
89087	-20,302	-2,5	-27,297	5,413
89088	-20,535	-3,	-26,863	5,3173
89089	-20,071	-3,	-27,725	5,5097
89090	-20,305	-3,5	-27,291	5,4133
89091	-20,533	-1,9991	-26,868	5,3183
89092	-20,066	-2,	-27,734	5,5118
89093	-20,296	-1,5	-27,307	5,4168
89094	-20,766	-2,4991	-26,434	5,2226
89095	-20,996	-1,9991	-26,007	5,1316
89096	-20,763	-1,4991	-26,441	5,226
89097	-21,001	-3,	-25,999	5,1299
89098	-20,771	-3,5	-26,426	5,2229
89099	-19,836	-2,5	-28,161	5,6085
89100	-19,606	-3,	-28,589	5,7067
89101	-19,84	-3,5	-28,155	5,6086
89102	-19,599	-2,	-28,602	5,7095
89103	-19,829	-1,5	-28,174	5,6129
89104	-21,231	-2,5	-25,571	5,0389
89105	-21,461	-2,	-25,144	4,9521
89106	-21,227	-1,5	-25,578	5,0425
89107	-21,468	-3,	-25,131	4,9495
89108	-21,238	-3,5	-25,558	5,0386
89109	-19,369	-2,5	-29,029	5,8077
89110	-19,139	-3,	-29,457	5,9062
89111	-19,372	-3,5	-29,023	5,8075
89112	-19,132	-2,	-29,469	5,9091
89113	-19,362	-1,5	-29,042	5,8119
89114	-21,698	-2,5	-24,704	4,8626
89115	-21,928	-2,	-24,276	4,7806
89116	-21,695	-1,5	-24,71	4,8665
89117	-21,935	-3,	-24,263	4,7782
89118	-21,705	-3,5	-24,691	4,8628
89119	-18,902	-2,5	-29,897	6,0077
89120	-18,672	-3,	-30,324	6,1053
89121	-18,905	-3,5	-29,89	6,0072
89122	-18,665	-2,	-30,337	6,1082
89123	-18,895	-1,5	-29,91	6,0116
89124	-22,165	-2,5	-23,836	4,6962
89125	-22,395	-2,	-23,409	4,6199
89126	-22,162	-1,5	-23,842	4,7003
89127	-22,402	-3,	-23,396	4,6177
89128	-22,172	-3,5	-23,823	4,6969
89129	-18,435	-2,5	-30,764	6,2058
89130	-18,204	-3,	-31,192	6,3013
89131	-18,438	-3,5	-30,758	6,2052
89132	-18,197	-2,	-31,205	6,3041
89133	-18,428	-1,5	-30,777	6,2095
89134	-22,632	-2,5	-22,968	4,5413
89135	-22,863	-2,	-22,541	4,4714
89136	-22,629	-1,5	-22,975	4,5457
89137	-22,869	-3,	-22,528	4,4694
89138	-22,639	-3,5	-22,956	4,5426
89139	-17,967	-2,5	-31,632	6,3995
89140	-17,737	-3,	-32,06	6,4913
89141	-17,971	-3,5	-31,626	6,3988
89142	-17,73	-2,	-32,072	6,494
89143	-17,96	-1,5	-31,645	6,403
89144	-23,1	-2,5	-22,101	4,3996
89145	-23,33	-2,	-21,673	4,3371
89146	-23,096	-1,5	-22,107	4,4044
89147	-23,337	-3,	-21,66	4,3354
89148	-23,107	-3,5	-22,088	4,4016
89149	-17,5	-2,5	-32,5	6,5857
89150	-17,27	-3,	-32,927	6,6723
89151	-17,504	-3,5	-32,493	6,5849
89152	-17,263	-2,	-32,94	6,6749
89153	-17,493	-1,5	-32,513	6,5889
89154	-23,567	-2,5	-21,233	4,2728
89155	-23,797	-2,	-20,806	4,219
89156	-23,563	-1,5	-21,239	4,2782
89157	-23,804	-3,	-20,793	4,2175
89158	-23,574	-3,5	-21,22	4,2758
89159	-17,033	-2,5	-33,367	6,7614
89160	-16,803	-3,	-33,795	6,8412
89161	-17,036	-3,5	-33,361	6,7605
89162	-16,796	-2,	-33,808	6,8436
89163	-17,026	-1,5	-33,38	6,7643
89164	-24,034	-2,5	-20,365	4,1636
89165	-24,264	-2,	-19,938	4,1199
89166	-24,031	-1,5	-20,372	4,1696
89167	-24,271	-3,	-19,925	4,1188
89168	-24,041	-3,5	-20,353	4,1677
89169	-16,566	-2,5	-34,235	6,9234
89170	-16,336	-3,	-34,663	6,9951
89171	-16,569	-3,5	-34,229	6,9225
89172	-16,329	-2,	-34,675	6,9973
89173	-16,559	-1,5	-34,248	6,926
89174	-24,501	-2,5	-19,498	4,075
89175	-24,731	-2,	-19,07	4,0436
89176	-24,498	-1,5	-19,504	4,0817
89177	-24,738	-3,	-19,057	4,0428
89178	-24,508	-3,5	-19,485	4,0803
89179	-16,099	-2,5	-35,103	7,069
89180	-15,868	-3,	-35,53	7,1316
89181	-16,102	-3,5	-35,096	7,0682
89182	-15,861	-2,	-35,543	7,1335
89183	-16,092	-1,5	-35,116	7,0714
89184	-24,968	-2,5	-18,63	4,0113
89185	-25,199	-2,	-18,203	3,995
89186	-24,965	-1,5	-18,636	4,0189
89187	-25,206	-3,	-18,19	3,9947
89188	-24,975	-3,5	-18,617	4,0182
89189	-15,631	-2,5	-35,97	7,1961
89190	-15,401	-3,	-36,398	7,2491
89191	-15,635	-3,5	-35,964	7,1955
89192	-15,394	-2,	-36,411	7,2508
89193	-15,624	-1,5	-35,983	7,1982
89194	-25,436	-2,5	-17,762	3,9783
89195	-25,666	-2,	-17,335	3,9815
89196	-25,432	-1,5	-17,769	3,9872
89197	-25,673	-3,	-17,322	3,9818
89198	-25,443	-3,5	-17,75	3,9871
89199	-15,164	-2,5	-36,838	7,3038
89200	-14,934	-3,	-37,266	7,3481
89201	-15,168	-3,5	-36,832	7,3034
89202	-14,927	-2,	-37,278	7,3495
89203	-15,157	-1,5	-36,851	7,3057
89204	-25,903	-2,5	-16,895	3,9848
89205	-26,133	-2,	-16,467	4,0132
89206	-25,899	-1,5	-16,901	3,9949
89207	-26,14	-3,	-16,454	4,0142
89208	-25,91	-3,5	-16,882	3,996
89209	-14,697	-2,5	-37,706	7,3937
89210	-14,467	-3,	-38,133	7,4316
89211	-14,7	-3,5	-37,699	7,3934
89212	-14,46	-2,	-38,146	7,4328
89213	-14,69	-1,5	-37,719	7,3954
89214	-26,37	-2,5	-16,027	4,0424
89215	-26,6	-2,	-15,6	4,1046
89216	-26,367	-1,5	-16,033	4,0541
89217	-26,607	-3,	-15,587	4,1065
89218	-26,377	-3,5	-16,014	4,0562
89219	-14,23	-2,5	-38,573	7,4706
89220	-14,	-3,	-39,001	7,5069
89221	-14,233	-3,5	-38,567	7,4701
89222	-13,993	-2,	-39,014	7,508
89223	-14,223	-1,5	-38,586	7,4719
89224	-26,837	-2,5	-15,159	4,1686
89225	-27,067	-2,	-14,732	4,2761
89226	-26,834	-1,5	-15,166	4,1814
89227	-27,074	-3,	-14,719	4,2795
89228	-26,844	-3,5	-15,147	4,1855
89229	-13,762	-2,5	-39,441	7,5442
89230	-13,532	-3,	-39,869	7,5864
89231	-13,766	-3,5	-39,435	7,5429
89232	-13,525	-2,	-39,881	7,5877
89233	-13,756	-1,5	-39,454	7,5446
89234	-27,304	-2,5	-14,292	4,3869
89235	-27,535	-2,	-13,864	4,5565
89236	-27,301	-1,5	-14,298	4,4006
89237	-27,542	-3,	-13,851	4,5616
89238	-27,311	-3,5	-14,279	4,407
89239	-13,295	-2,5	-40,309	7,6299
89240	-13,065	-3,	-40,736	7,6889
89241	-13,299	-3,5	-40,302	7,6267
89242	-13,058	-2,	-40,749	7,6907
89243	-13,288	-1,5	-40,322	7,6288
89244	-27,772	-2,5	-13,424	4,7311
89245	-28,002	-2,	-12,997	4,9853
89246	-27,768	-1,5	-13,43	4,7445
89247	-28,009	-3,	-12,984	4,9929
89248	-27,779	-3,5	-13,411	4,754
89249	-12,828	-2,5	-41,176	7,7497
89250	-12,598	-3,	-41,604	7,8388
89251	-12,832	-3,5	-41,17	7,7431
89252	-12,591	-2,	-41,617	7,8415
89253	-12,821	-1,5	-41,189	7,7462
89254	-28,239	-2,5	-12,556	5,2471
89255	-28,469	-2,	-12,129	5,6148
89256	-28,235	-1,5	-12,563	5,258
89257	-28,476	-3,	-12,116	5,6261
89258	-28,246	-3,5	-12,544	5,2715
89259	-12,361	-2,5	-42,044	7,9305
89260	-12,131	-3,	-42,472	8,0624
89261	-12,364	-3,5	-42,038	7,9187
89262	-12,124	-2,	-42,484	8,0662
89263	-12,354	-1,5	-42,057	7,923
89264	-28,706	-2,5	-11,689	5,9938
89265	-28,936	-2,	-11,261	6,5128
89266	-28,703	-1,5	-11,695	5,9984
89267	-28,943	-3,	-11,248	6,5281
89268	-28,713	-3,5	-11,676	6,018
89269	-11,894	-2,5	-42,912	8,198
89270	-11,664	-3,	-43,339	8,3806
89271	-11,897	-3,5	-42,905	8,1797
89272	-11,657	-2,	-43,352	8,3855
89273	-11,887	-1,5	-42,925	8,1857
89274	-29,173	-2,5	-10,821	7,047
89275	-29,403	-2,	-10,394	7,7539
89276	-29,17	-1,5	-10,827	7,0409
89277	-29,41	-3,	-10,381	7,7753
89278	-29,18	-3,5	-10,808	7,066
89279	-11,427	-2,5	-43,779	8,5678
89280	-11,197	-3,	-44,206	8,7943
89281	-11,43	-3,5	-43,773	8,5428
89282	-11,189	-2,	-44,22	8,7999
89283	-11,42	-1,5	-43,792	8,5503
89284	-29,64	-2,5	-9,9536	8,4817
89285	-29,87	-2,	-9,5272	9,4106
89286	-29,637	-1,5	-9,9599	8,4586
89287	-29,878	-3,	-9,5131	9,4403
89288	-29,647	-3,5	-9,9406	8,4936
89289	-10,96	-2,5	-44,646	9,026
89290	-10,729	-3,0001	-45,074	9,2691
89291	-10,963	-3,5	-44,64	8,9973
89292	-10,722	-2,	-45,087	9,2742
89293	-10,952	-1,5	-44,66	9,0055
89294	-30,107	-2,5	-9,0868	10,368
89295	-30,338	-2,	-8,6589	11,526
89296	-30,104	-1,5	-9,0931	10,326
89297	-30,345	-3,	-8,6455	11,561
89298	-30,115	-3,5	-9,0729	10,37
89299	-10,492	-2,5	-45,515	9,5167
89300	-10,261	-3,0001	-45,945	9,7195
89301	-10,495	-3,5	-45,509	9,4895
89302	-10,255	-2,	-45,955	9,7208
89303	-10,485	-1,5	-45,528	9,496
89304	-30,575	-2,5	-8,2176	12,716
89305	-30,806	-1,9999	-7,7886	14,047
89306	-30,572	-1,5	-8,2238	12,654
89307	-30,812	-3,	-7,7778	14,08
89308	-30,582	-3,5	-8,2052	12,708
89309	-10,024	-2,5001	-46,384	9,923
89310	-9,7942	-3,0001	-46,811	10,001
89311	-10,027	-3,5001	-46,379	9,9066
89312	-9,7878	-2,	-46,823	10,001
89313	-10,018	-1,5	-46,395	9,9077
89314	-31,043	-2,5	-7,3488	15,408
89315	-31,272	-2,	-6,9226	16,733
89316	-31,04	-1,5	-7,3548	15,348
89317	-31,279	-3,	-6,9102	16,764
89318	-31,049	-3,5	-7,3376	15,4
89319	-9,5581	-2,5	-47,249	10,079
89320	-9,3262	-3,	-47,68	9,9357
89321	-9,5607	-3,5	-47,244	10,079
89322	-9,3206	-2,	-47,69	9,934
89323	-9,5531	-1,5	-47,258	10,078
89324	-31,509	-2,5	-6,4839	18,086
89325	-31,506	-1,5	-6,4895	18,061
89326	-31,741	-2,	-6,0533	19,132
89327	-31,746	-3,	-6,0425	19,151
89328	-31,514	-3,5	-6,4743	18,096
89329	-9,0887	-2,5	-48,121	9,7911
89330	-9,0905	-3,5	-48,118	9,8118
89331	-8,8551	-3,	-48,555	9,2397
89332	-9,0862	-1,5	-48,126	9,8096
89333	-8,8534	-2,	-48,558	9,2394
89334	-9,3187	-1,	-47,694	9,9532
89335	-8,8526	-1,	-48,56	9,2792
89336	-9,0862	-0,5	-48,126	9,7894
89337	-9,7833	-1,	-46,831	9,9849
89338	-9,5531	-0,5	-47,258	10,011
89339	-10,248	-1,	-45,968	9,6833
89340	-10,018	-0,5	-46,395	9,8296
89341	-10,715	-1,	-45,1	9,2276
89342	-10,485	-0,5	-45,528	9,4229
89343	-11,183	-1,	-44,232	8,756
89344	-10,952	-0,5	-44,66	8,9498
89345	-11,65	-1,	-43,365	8,3506
89346	-11,42	-0,5	-43,792	8,5139
89347	-12,117	-1,	-42,497	8,0425
89348	-11,887	-0,5	-42,925	8,1662
89349	-12,584	-1,	-41,629	7,8277
89350	-12,354	-0,5	-42,057	7,915
89351	-13,051	-1,	-40,762	7,6843
89352	-12,821	-0,5	-41,189	7,7447
89353	-13,519	-1,	-39,894	7,5858
89354	-13,288	-0,5	-40,322	7,6298
89355	-13,986	-1,	-39,026	7,5085
89356	-13,756	-0,5	-39,454	7,5457
89357	-14,453	-1,	-38,159	7,4345
89358	-14,223	-0,5	-38,586	7,472
89359	-14,92	-1,	-37,291	7,3516
89360	-14,69	-0,5	-37,719	7,3944
89361	-15,387	-1,	-36,423	7,2531
89362	-15,157	-0,5	-36,851	7,3039
89363	-15,855	-1,	-35,556	7,136
89364	-15,624	-0,5	-35,983	7,196
89365	-16,322	-1,	-34,688	7,0001
89366	-16,092	-0,5	-35,116	7,0691
89367	-16,789	-1,	-33,82	6,8467
89368	-16,559	-0,5	-34,248	6,9241
89369	-17,256	-1,	-32,953	6,6783
89370	-17,026	-0,5	-33,38	6,7629
89371	-17,723	-1,	-32,085	6,4979
89372	-17,493	-0,5	-32,513	6,5882
89373	-18,191	-1,	-31,218	6,3084
89374	-17,96	-0,5	-31,645	6,403
89375	-18,658	-1,	-30,35	6,1129
89376	-18,428	-0,5	-30,777	6,2104
89377	-19,125	-1,	-29,482	5,9143
89378	-18,895	-0,5	-29,91	6,0133
89379	-19,592	-1,	-28,615	5,7152
89380	-19,362	-0,5	-29,042	5,8144
89381	-20,059	-1,	-27,747	5,5179
89382	-19,829	-0,5	-28,174	5,6162
89383	-20,527	-1,	-26,879	5,3245
89384	-20,296	-0,5	-27,307	5,4209
89385	-20,994	-1,	-26,012	5,1369
89386	-20,764	-0,5	-26,439	5,2306
89387	-21,461	-1,	-25,144	4,9569
89388	-21,231	-0,5	-25,571	5,047
89389	-21,928	-1,	-24,276	4,7862
89390	-21,698	-0,5	-24,704	4,8719
89391	-22,395	-1,	-23,409	4,6262
89392	-22,165	-0,5	-23,836	4,7068
89393	-22,863	-1,	-22,541	4,4787
89394	-22,632	-0,5	-22,968	4,5535
89395	-23,33	-1,	-21,673	4,3455
89396	-23,1	-0,5	-22,101	4,4135
89397	-23,797	-1,	-20,806	4,2288
89398	-23,567	-0,5	-21,233	4,2891
89399	-24,264	-1,	-19,938	4,1314
89400	-24,034	-0,5	-20,365	4,1826
89401	-24,731	-1,	-19,07	4,0571
89402	-24,501	-0,5	-19,498	4,0975
89403	-25,199	-1,	-18,203	4,0111
89404	-24,968	-0,5	-18,63	4,0381
89405	-25,666	-1,	-17,335	4,0007
89406	-25,436	-0,5	-17,762	4,0108
89407	-26,133	-1,	-16,467	4,0358
89408	-25,903	-0,5	-16,895	4,0241
89409	-26,6	-1,	-15,6	4,131
89410	-26,37	-0,5	-16,027	4,0902
89411	-27,067	-1,	-14,732	4,306
89412	-26,837	-0,5	-15,159	4,2259
89413	-27,535	-1,	-13,864	4,5888
89414	-27,304	-0,5	-14,292	4,4548
89415	-28,002	-1,	-12,997	5,0173
89416	-27,772	-0,5	-13,424	4,8088
89417	-28,469	-1,	-12,129	5,6417
89418	-28,239	-0,5	-12,556	5,3311
89419	-28,936	-1,	-11,261	6,5265
89420	-28,706	-0,5	-11,689	6,0762
89421	-29,403	-1,	-10,394	7,7459
89422	-29,173	-0,5	-10,821	7,1129
89423	-29,871	-1,	-9,5258	9,3745
89424	-29,641	-0,5	-9,9533	8,5116
89425	-30,338	-1,	-8,658	11,455
89426	-30,108	-0,5	-9,0856	10,341
89427	-30,805	-1,	-7,79	13,956
89428	-30,575	-0,5	-8,2179	12,609
89429	-31,273	-1,	-6,9218	16,678
89430	-31,042	-0,5	-7,35	15,244
89431	-31,741	-1,	-6,0529	19,155
89432	-31,51	-0,5	-6,4819	17,939
89433	-31,976	-1,5	-5,6167	20,225
89434	-31,977	-0,5	-5,6135	20,139
89435	-32,211	-1,	-5,1796	20,3
89436	-31,978	-2,5	-5,6119	20,196
89437	-32,212	-2,	-5,178	20,242
89438	-31,981	-3,5	-5,6071	20,23
89439	-32,214	-3,	-5,1748	20,249
89440	-31,748	-4,	-6,0389	19,175
89441	-32,214	-4,	-5,1732	20,316
89442	-31,981	-4,5	-5,6071	20,127
89443	-31,284	-4,	-6,9017	16,734
89444	-31,514	-4,5	-6,4743	17,951
89445	-30,819	-4,	-7,765	14,03
89446	-31,049	-4,5	-7,3376	15,278
89447	-30,352	-4,	-8,6327	11,519
89448	-30,582	-4,5	-8,2052	12,643
89449	-29,884	-4,	-9,5003	9,4241
89450	-30,115	-4,5	-9,0729	10,365
89451	-29,417	-4,	-10,368	7,7846
89452	-29,647	-4,5	-9,9406	8,5319
89453	-28,95	-4,	-11,236	6,556
89454	-29,18	-4,5	-10,808	7,1288
89455	-28,483	-4,	-12,103	5,6634
89456	-28,713	-4,5	-11,676	6,0887
89457	-28,016	-4,	-12,971	5,0326
89458	-28,246	-4,5	-12,544	5,34
89459	-27,548	-4,	-13,839	4,5994
89460	-27,779	-4,5	-13,411	4,8153
89461	-27,081	-4,	-14,706	4,3131
89462	-27,311	-4,5	-14,279	4,4593
89463	-26,614	-4,	-15,574	4,1353
89464	-26,844	-4,5	-15,147	4,2289
89465	-26,147	-4,	-16,442	4,0381
89466	-26,377	-4,5	-16,014	4,092
89467	-25,68	-4,	-17,309	4,0014
89468	-25,91	-4,5	-16,882	4,0251
89469	-25,212	-4,	-18,177	4,0107
89470	-25,443	-4,5	-17,75	4,0111
89471	-24,745	-4,	-19,045	4,0557
89472	-24,975	-4,5	-18,617	4,0378
89473	-24,278	-4,	-19,912	4,1292
89474	-24,508	-4,5	-19,485	4,0967
89475	-23,811	-4,	-20,78	4,226
89476	-24,041	-4,5	-20,353	4,1815
89477	-23,344	-4,	-21,648	4,3421
89478	-23,574	-4,5	-21,22	4,2877
89479	-22,876	-4,	-22,515	4,4748
89480	-23,107	-4,5	-22,088	4,4118
89481	-22,409	-4,	-23,383	4,6219
89482	-22,639	-4,5	-22,956	4,5515
89483	-21,942	-4,	-24,251	4,7815
89484	-22,172	-4,5	-23,823	4,7047
89485	-21,475	-4,	-25,118	4,9519
89486	-21,705	-4,5	-24,691	4,8696
89487	-21,008	-4,	-25,986	5,1316
89488	-21,238	-4,5	-25,558	5,0445
89489	-20,54	-4,	-26,854	5,319
89490	-20,771	-4,5	-26,426	5,228
89491	-20,073	-4,	-27,721	5,5122
89492	-20,303	-4,5	-27,294	5,4182
89493	-19,606	-4,	-28,589	5,7094
89494	-19,836	-4,5	-28,161	5,6134
89495	-19,139	-4,	-29,457	5,9085
89496	-19,369	-4,5	-29,029	5,8116
89497	-18,672	-4,	-30,324	6,1072
89498	-18,902	-4,5	-29,897	6,0104
89499	-18,204	-4,	-31,192	6,3027
89500	-18,435	-4,5	-30,764	6,2076
89501	-17,737	-4,	-32,06	6,4924
89502	-17,967	-4,5	-31,632	6,4002
89503	-17,27	-4,	-32,927	6,6731
89504	-17,5	-4,5	-32,5	6,5855
89505	-16,803	-4,	-33,795	6,8418
89506	-17,033	-4,5	-33,367	6,7603
89507	-16,336	-4,	-34,663	6,9957
89508	-16,566	-4,5	-34,235	6,9217
89509	-15,868	-4,	-35,53	7,1321
89510	-16,099	-4,5	-35,103	7,067
89511	-15,401	-4,	-36,398	7,2498
89512	-15,631	-4,5	-35,97	7,1941
89513	-14,934	-4,	-37,266	7,3487
89514	-15,164	-4,5	-36,838	7,3023
89515	-14,467	-4,	-38,133	7,432
89516	-14,697	-4,5	-37,706	7,393
89517	-14,	-4,	-39,001	7,5062
89518	-14,23	-4,5	-38,573	7,4708
89519	-13,532	-4,	-39,869	7,5832
89520	-13,762	-4,5	-39,441	7,5445
89521	-13,065	-4,	-40,736	7,681
89522	-13,295	-4,5	-40,309	7,6284
89523	-12,598	-4,	-41,604	7,823
89524	-12,828	-4,5	-41,176	7,743
89525	-12,131	-4,	-42,472	8,036
89526	-12,361	-4,5	-42,044	7,913
89527	-11,663	-4,	-43,339	8,342
89528	-11,894	-4,5	-42,912	8,1637
89529	-11,196	-4,	-44,207	8,746
89530	-11,426	-4,5	-43,779	8,5109
89531	-10,729	-4,	-45,075	9,218
89532	-10,959	-4,5	-44,647	8,947
89533	-10,261	-4,	-45,943	9,677
89534	-10,492	-4,5	-45,515	9,4213
89535	-9,7934	-4,	-46,812	9,9845
89536	-10,024	-4,5	-46,383	9,8306
89537	-9,3249	-4,	-47,682	9,9548
89538	-9,5568	-4,5	-47,252	10,013
89539	-9,0887	-4,5	-48,121	9,785
89540	-8,8551	-4,	-48,555	9,2707
89541	-9,7878	-5,	-46,823	9,86
89542	-10,255	-5,	-45,955	9,5756
89543	-9,5728	-5,	-46,156	9,5794
89544	-9,3206	-5,	-47,69	9,8437
89545	-9,1086	-5,	-47,023	9,5916
89546	-29,878	0,	-9,5131	9,479
89547	-30,345	0,	-8,6455	11,497
89548	-29,669	0,	-8,8375	10,976
89549	-30,345	-5,	-8,6455	11,492
89550	-30,812	-5,	-7,7778	13,895
89551	-30,136	-5,	-7,9889	12,882
89552	-29,878	-5,	-9,5131	9,4744
89553	-29,669	-5,	-8,8545	10,94
89554	-12,124	-5,	-42,484	8,0407
89555	-11,657	-5,	-43,352	8,3328
89556	-11,436	-5,	-42,684	8,526
89557	-12,124	0,	-42,484	8,0388
89558	-11,657	0,	-43,352	8,3297
89559	-11,467	0,	-42,655	8,5086
89560	-12,591	0,	-41,617	7,832
89561	-11,933	0,	-41,795	8,3032
89562	-13,058	0,	-40,749	7,6902
89563	-12,396	0,	-40,933	8,148
89564	-13,525	0,	-39,881	7,5897
89565	-12,857	0,	-40,072	8,0274
89566	-12,591	-5,	-41,617	7,833
89567	-11,906	-5,	-41,816	8,3186
89568	-13,058	-5,	-40,749	7,6905
89569	-13,525	-5,	-39,881	7,5897
89570	-12,847	-5,	-40,083	8,0325
89571	-12,374	-5,	-40,948	8,1609
89572	-14,927	-5,	-37,278	7,3466
89573	-14,46	-5,	-38,146	7,4318
89574	-14,248	-5,	-37,48	7,7243
89575	-14,927	0,	-37,278	7,3468
89576	-15,394	0,	-36,411	7,2468
89577	-14,726	0,	-36,601	7,606
89578	-13,993	0,	-39,014	7,5092
89579	-13,324	0,	-39,204	7,9225
89580	-14,46	0,	-38,146	7,432
89581	-13,792	0,	-38,337	7,8231
89582	-14,259	0,	-37,469	7,7197
89583	-15,861	0,	-35,543	7,1291
89584	-15,193	0,	-35,734	7,4789
89585	-16,329	0,	-34,675	6,9931
89586	-15,66	0,	-34,866	7,3373
89587	-15,394	-5,	-36,411	7,2466
89588	-14,716	-5,	-36,612	7,6105
89589	-15,861	-5,	-35,543	7,1289
89590	-16,329	-5,	-34,675	6,993
89591	-15,65	-5,	-34,877	7,3416
89592	-15,183	-5,	-35,745	7,4833
89593	-17,73	0,	-32,072	6,4934
89594	-17,263	0,	-32,94	6,6728
89595	-17,062	0,	-32,263	6,8367
89596	-18,197	0,	-31,205	6,3051
89597	-17,529	0,	-31,395	6,6518
89598	-17,73	-5,	-32,072	6,4933
89599	-18,197	-5,	-31,205	6,3051
89600	-17,519	-5,	-31,407	6,6559
89601	-17,263	-5,	-32,94	6,6727
89602	-17,052	-5,	-32,275	6,8408
89603	-18,665	0,	-30,337	6,1108
89604	-17,996	0,	-30,528	6,4622
89605	-19,132	0,	-29,469	5,9134
89606	-18,463	0,	-29,66	6,2703
89607	-19,599	0,	-28,602	5,7155
89608	-18,93	0,	-28,792	6,0788
89609	-18,665	-5,	-30,337	6,1109
89610	-17,987	-5,	-30,539	6,4661
89611	-19,132	-5,	-29,469	5,9135
89612	-19,599	-5,	-28,602	5,7156
89613	-18,921	-5,	-28,804	6,0825
89614	-18,454	-5,	-29,672	6,2742
89615	-20,066	-5,	-27,734	5,5194
89616	-19,389	-5,	-27,937	5,8934
89617	-20,533	-5,	-26,866	5,3272
89618	-21,001	-5,	-25,999	5,1409
89619	-20,323	-5,	-26,202	5,531
89620	-19,856	-5,	-27,069	5,7089
89621	-20,066	0,	-27,734	5,5193
89622	-19,397	0,	-27,925	5,8898
89623	-20,533	0,	-26,866	5,3271
89624	-19,864	0,	-27,057	5,7055
89625	-21,001	0,	-25,999	5,1407
89626	-20,331	0,	-26,189	5,5279
89627	-21,468	0,	-25,131	4,962
89628	-20,798	0,	-25,322	5,3587
89629	-21,935	0,	-24,263	4,7926
89630	-21,265	0,	-24,454	5,1997
89631	-22,402	0,	-23,396	4,6341
89632	-21,732	0,	-23,586	5,0528
89633	-21,468	-5,	-25,131	4,9622
89634	-20,79	-5,	-25,334	5,3616
89635	-21,935	-5,	-24,263	4,7928
89636	-22,402	-5,	-23,396	4,6343
89637	-21,725	-5,	-23,599	5,0552
89638	-21,258	-5,	-24,466	5,2024
89639	-22,869	0,	-22,528	4,4883
89640	-22,199	0,	-22,719	4,9197
89641	-23,337	0,	-21,66	4,3571
89642	-22,667	0,	-21,851	4,8025
89643	-22,869	-5,	-22,528	4,4885
89644	-23,337	-5,	-21,66	4,3574
89645	-22,659	-5,	-21,864	4,8042
89646	-22,192	-5,	-22,731	4,9218
89647	-24,738	0,	-19,057	4,0785
89648	-24,271	0,	-19,925	4,1487
89649	-24,068	0,	-19,248	4,5733
89650	-25,206	0,	-18,19	4,0379
89651	-24,535	0,	-18,38	4,5506
89652	-24,738	-5,	-19,057	4,0789
89653	-24,271	-5,	-19,925	4,1491
89654	-24,061	-5,	-19,261	4,5734
89655	-25,206	-5,	-18,19	4,0383
89656	-24,529	-5,	-18,393	4,5499
89657	-25,673	-5,	-17,322	4,0348
89658	-26,14	-5,	-16,454	4,079
89659	-25,463	-5,	-16,658	4,6212
89660	-24,996	-5,	-17,526	4,5628
89661	-25,673	0,	-17,322	4,0343
89662	-25,002	0,	-17,512	4,5645
89663	-26,14	0,	-16,454	4,0785
89664	-25,469	0,	-16,645	4,624
89665	-26,607	0,	-15,587	4,1853
89666	-25,936	0,	-15,777	4,7412
89667	-27,074	0,	-14,719	4,3748
89668	-26,403	0,	-14,909	4,9325
89669	-27,542	0,	-13,851	4,6749
89670	-26,87	0,	-14,042	5,2198
89671	-27,542	-5,	-13,851	4,6752
89672	-28,009	-5,	-12,984	5,1227
89673	-27,332	-5,	-13,188	5,6215
89674	-27,074	-5,	-14,719	4,3752
89675	-26,865	-5,	-14,055	5,2119
89676	-28,476	-5,	-12,116	5,7653
89677	-27,799	-5,	-12,32	6,1915
89678	-29,41	-5,	-10,381	7,8766
89679	-29,201	-5,	-9,7218	9,299
89680	-28,943	-5,	-11,248	6,6616
89681	-28,733	-5,	-10,584	7,9905
89682	-28,266	-5,	-11,452	6,9654
89683	-29,41	0,	-10,381	7,8791
89684	-29,207	0,	-9,7033	9,3337
89685	-28,943	0,	-11,248	6,6627
89686	-28,476	0,	-12,116	5,7656
89687	-28,272	0,	-11,439	6,9806
89688	-28,739	0,	-10,571	8,0086
89689	-9,7878	0,	-46,823	9,8557
89690	-9,3206	0,	-47,69	9,8468
89691	-9,1594	0,	-46,942	9,6112
89692	-30,812	0,	-7,7778	13,9
89693	-30,134	0,	-7,9773	12,908
89694	-31,279	0,	-6,9102	16,508
89695	-30,607	0,	-7,122	15,036
89696	-31,746	0,	-6,0425	18,925
89697	-31,087	0,	-6,2517	17,183
89698	-11,189	-5,	-44,22	8,7124
89699	-10,966	-5,	-43,552	8,7858
89700	-10,722	-5,	-45,087	9,151
89701	-10,497	-5,	-44,42	9,083
89702	-10,032	-5,	-45,287	9,374
89703	-11,189	0,	-44,22	8,7081
89704	-11,	0,	-43,516	8,7672
89705	-10,255	0,	-45,955	9,5698
89706	-9,6149	0,	-46,09	9,5764
89707	-10,722	0,	-45,087	9,1457
89708	-10,073	0,	-45,236	9,3609
89709	-10,535	0,	-44,379	9,0658
89710	-8,6198	-2,5	-48,992	8,6899
89711	-8,6198	-1,5	-48,992	8,7106
89712	-8,3799	-1,9995	-49,412	8,1383
89713	-8,6198	-3,5	-48,992	8,7003
89714	-8,3809	-3,0003	-49,41	8,1436
89715	-31,279	-5,	-6,9102	16,497
89716	-31,746	-5,	-6,0425	18,903
89717	-31,048	-5,	-6,2627	17,103
89718	-30,595	-5,	-7,1221	15,024
89719	-32,447	-2,5	-4,741	20,299
89720	-32,447	-3,5	-4,741	20,338
89721	-32,671	-3,0006	-4,2997	19,979
89722	-32,447	-1,5	-4,741	20,321
89723	-32,67	-2,0007	-4,3013	19,977
89724	-13,993	-5,	-39,014	7,5091
89725	-13,781	-5,	-38,348	7,8279
89726	-13,314	-5,	-39,215	7,9274
89727	-16,796	-5,	-33,808	6,8402
89728	-16,585	-5,	-33,142	7,0184
89729	-16,118	-5,	-34,01	7,1861
89730	-16,796	0,	-33,808	6,8403
89731	-16,127	0,	-33,998	7,1819
89732	-16,594	0,	-33,131	7,0143
89733	-23,804	-5,	-20,793	4,2432
89734	-23,594	-5,	-20,128	4,6267
89735	-23,127	-5,	-20,996	4,7049
89736	-23,804	0,	-20,793	4,2429
89737	-23,134	0,	-20,983	4,7036
89738	-23,601	0,	-20,116	4,6259
89739	-26,607	-5,	-15,587	4,1857
89740	-26,398	-5,	-14,923	4,9266
89741	-25,931	-5,	-15,791	4,737
89742	-28,009	0,	-12,984	5,1227
89743	-27,337	0,	-13,174	5,6317
89744	-27,805	0,	-12,306	6,204
89745	-32,447	-4,5	-4,741	20,35
89746	-32,672	-4,	-4,2964	20,026
89747	-32,214	-5,	-5,1748	20,157
89748	-31,955	-5,	-4,5617	19,618
89749	-32,67	-5,	-4,3005	20,077
89750	-31,501	-5,	-5,4097	18,803
89751	-8,8534	-5,	-48,558	9,2354
89752	-8,6449	-5,	-47,884	9,3171
89753	-8,6198	-4,5	-48,992	8,7228
89754	-8,3812	-4,0023	-49,41	8,1581
89755	-8,1723	-5,	-48,74	8,6614
89756	-8,3824	-5,	-49,408	8,224
89757	-32,214	0,	-5,1748	20,142
89758	-31,551	0,	-5,3711	18,915
89759	-32,447	-0,5	-4,741	20,307
89760	-32,668	-1,	-4,3056	20,008
89761	-31,99	0,	-4,4846	19,698
89762	-32,67	0,	-4,3005	20,034
89763	-8,6198	-0,5	-48,992	8,744
89764	-8,377	-1,0001	-49,417	8,1558
89765	-8,8534	0,	-48,558	9,2528
89766	-8,2634	0,	-48,631	8,7353
89767	-8,3824	0,	-49,408	8,2373
89768	-8,7104	0,	-47,79	9,3711
89769	-3,6263	0,	5,8845	7,8483
89770	-3,6972	0,	6,3973	7,7523
89771	-4,2418	0,	6,3464	7,8347
89772	-3,9963	0,	5,7174	7,9253
89773	-3,3422	0,	5,2816	7,9332
89774	-3,1256	0,	5,8374	7,8027
89775	-5,9217	0,	-48,181	9,1544
89776	-5,5585	0,	-47,839	9,6935
89777	-6,1371	0,	-47,48	9,6687
89778	-6,3811	0,	-48,067	9,1201
89779	-5,5311	0,	-48,629	8,7552
89780	-6,0633	0,	-48,734	8,6613
89781	-0,69771	0,	51,841	17,623
89782	-0,30767	0,	52,086	17,529
89783	-1,1115	0,	52,041	17,49
89784	-0,75778	0,	52,469	18,083
89785	-0,92614	0,	51,398	17,408
89786	-0,40353	0,	51,41	17,399
89787	0,55649	0,	-11,071	6,8453
89788	0,53811	0,	-11,633	6,8393
89789	0,9369	0,	-10,929	6,8609
89790	1,1048	0,	-11,665	6,8573
89791	0,31556	0,	-10,385	6,8771
89792	7,3474e-002	0,	-10,929	6,8444
89793	-0,61349	0,	7,6691	7,2795
89794	-0,83582	0,	7,0898	7,398
89795	-1,1348	0,	7,6861	7,2913
89796	6,7025	0,	48,966	12,492
89797	6,1609	0,	48,54	14,055
89798	6,8695	0,	48,193	12,63
89799	7,2	0,	48,787	11,386
89800	6,261	0,	49,33	13,311
89801	6,7946	0,	49,55	11,732
89802	0,36843	0,	-18,683	8,5305
89803	0,11869	0,	-19,275	8,7828
89804	0,6147	0,	-19,218	8,7605
89805	6,1726	0,	-7,8855	7,8939
89806	6,8056	0,	-7,9144	8,0326
89807	6,4264	0,	-7,385	8,0366
89808	0,10255	0,	23,757	10,117
89809	-0,42509	0,	23,807	10,136
89810	-0,11062	0,	23,262	9,9127
89811	0,44748	0,	28,724	12,182
89812	0,81992	0,	28,268	11,988
89813	1,0246	0,	28,834	12,22
89814	-5,7868	0,	35,999	15,212
89815	-6,2955	0,	36,263	15,155
89816	-5,739	0,	36,623	15,708
89817	-16,508	0,	-0,25519	13,595
89818	-16,534	0,	0,29524	13,609
89819	-17,076	0,	6,5944e-003	13,944
89820	21,619	0,	-7,4138	13,884
89821	22,087	0,	-7,5058	13,96
89822	22,086	0,	-7,0073	14,664
89823	4,1979	0,	49,878	17,063
89824	4,7157	0,	49,538	16,593
89825	4,6982	0,	50,146	16,034
89826	7,3287	0,	41,984	17,721
89827	7,9708	0,	41,882	16,407
89828	7,4695	0,	42,682	17,34
89829	8,1687	0,	42,54	15,82
89830	5,2809	0,	-49,081	8,5489
89831	5,2091	0,	-49,881	7,723
89832	5,8698	0,	-49,543	8,0109
89833	5,8707	0,	-50,089	7,6736
89834	17,471	0,	-10,173	10,756
89835	17,229	0,	-10,702	10,495
89836	17,809	0,	-10,63	10,621
89837	0,14434	0,	17,631	7,777
89838	0,16078	0,	18,147	7,9465
89839	-0,47296	0,	17,687	7,7975
89840	-0,51915	0,	18,387	8,0303
89841	-0,28087	0,	-6,5365	7,476
89842	9,704e-003	0,	-7,2945	7,3248
89843	-0,58302	0,	-7,1043	7,3684
89844	30,685	0,	-0,21967	22,391
89845	30,805	0,	-0,90129	22,069
89846	31,192	0,	-0,42005	21,859
89847	30,305	0,	-0,84567	22,525
89848	-27,84	0,	-5,676	17,825
89849	-28,397	0,	-5,8588	17,121
89850	-28,314	0,	-5,3046	18,298
89851	-1,4982	0,	51,053	17,461
89852	-0,94047	0,	50,953	17,415
89853	-1,3399	0,	51,598	17,49
89854	-0,76301	0,	4,2771	7,9532
89855	-1,5419	0,	4,163	8,0003
89856	-0,76928	0,	3,3692	8,1014
89857	-1,5419	0,	3,4084	8,1229
89858	-0,65439	0,	5,0877	7,8017
89859	5,5052e-002	0,	5,2581	7,7603
89860	8,2364e-003	0,	4,3086	7,9392
89861	-0,44935	0,	-3,6434	8,035
89862	-0,66562	0,	-2,6843	8,1725
89863	-1,2038	0,	-3,9377	7,9989
89864	-1,3402	0,	-2,7764	8,1863
89865	-0,42861	0,	0,468	8,3471
89866	-0,97003	0,	-0,59507	8,3516
89867	-0,28728	0,	-0,54339	8,3421
89868	-1,1248	0,	0,47081	8,3653
89869	-0,11895	0,	-4,5518	7,8671
89870	0,53882	0,	-4,3875	7,9078
89871	0,26108	0,	-3,4953	8,0506
89872	-0,82187	0,	-1,6255	8,2911
89873	-0,13913	0,	-1,5739	8,2815
89874	4,4809e-002	0,	-2,5362	8,1882
89875	-1,3388	0,	5,624	7,7176
89876	-1,4333	0,	4,9735	7,8476
89877	-0,57834	0,	6,0355	7,6079
89878	-0,65668	0,	2,4759	8,2153
89879	-0,5594	0,	1,5028	8,3033
89880	-1,2556	0,	1,5056	8,3217
89881	-1,4293	0,	2,5151	8,2359
89882	-1,2664	0,	6,2784	7,5789
89883	-2,0246	0,	6,1456	7,6476
89884	-2,0708	0,	5,5439	7,7723
89885	-0,27026	0,	-5,583	7,6675
89886	-0,87343	0,	-4,8462	7,8322
89887	0,29095	0,	-5,4401	7,7013
89888	-0,73076	0,	-6,0864	7,58
89889	0,16613	0,	-6,4108	7,5025
89890	-1,3339	0,	-5,3495	7,741
89891	-1,9576	0,	-4,998	7,8519
89892	-1,9231	0,	-3,9907	8,0298
89893	-2,1653	0,	4,8934	7,9031
89894	-2,5697	0,	4,2849	8,051
89895	0,82868	0,	6,2146	7,579
89896	0,747	0,	5,3356	7,7548
89897	0,13111	0,	6,206	7,57
89898	0,42745	0,	8,0345	7,2054
89899	0,94557	0,	7,1278	7,3945
89900	1,0444	0,	7,9797	7,2317
89901	0,248	0,	7,1191	7,3835
89902	1,9652e-003	0,	3,4007	8,0873
89903	4,8833e-002	0,	2,454	8,2117
89904	0,94872	0,	-5,2758	7,7429
89905	1,5467	0,	-5,1296	7,8007
89906	1,2507	0,	-4,2562	7,9473
89907	0,14611	0,	1,4809	8,2999
89908	0,25624	0,	0,49818	8,3466
89909	-1,4965	0,	-1,7176	8,3044
89910	-1,64	0,	-0,61883	8,3803
89911	0,39758	0,	-0,51321	8,3416
89912	0,56105	0,	-1,4924	8,2954
89913	-1,7948	0,	0,44705	8,394
89914	-1,9929	0,	1,5618	8,3552
89915	0,97296	0,	-3,364	8,0894
89916	0,74498	0,	-2,4547	8,2023
89917	-0,10417	0,	8,1845	7,176
89918	0,49846	0,	8,852	7,0633
89919	-0,12652	0,	8,9094	7,0497
89920	-0,68863	0,	8,2712	7,1677
89921	-0,28362	0,	7,2692	7,3514
89922	-1,3374	0,	6,9537	7,4461
89923	-0,50595	0,	6,6899	7,4756
89924	-2,5917e-002	0,	-7,8852	7,213
89925	-0,61864	0,	-7,6951	7,2532
89926	-1,318e-002	0,	-8,5956	7,0896
89927	-0,74253	0,	-8,372	7,1373
89928	0,63406	0,	-7,9444	7,2093
89929	0,4567	0,	-7,1688	7,3511
89930	1,2819	0,	-6,1347	7,5872
89931	0,72733	0,	-6,2679	7,5375
89932	-1,0329	0,	-6,6541	7,4678
89933	-1,5981	0,	-6,276	7,5752
89934	-1,2465	0,	-7,4219	7,3281
89935	-2,0955	0,	6,8208	7,5143
89936	-2,686	0,	6,862	7,5526
89937	-2,6236	0,	6,2351	7,6753
89938	-2,8865	0,	5,0776	7,9307
89939	-2,6698	0,	5,6334	7,7984
89940	1,613	0,	7,0384	7,4421
89941	1,5206	0,	6,1798	7,6114
89942	0,70018	0,	4,386	7,9321
89943	0,71097	0,	3,4077	8,0948
89944	1,8799	0,	-5,9885	7,6458
89945	2,5048	0,	-5,9004	7,7131
89946	2,2296	0,	-5,0526	7,8557
89947	0,75784	0,	2,461	8,2191
89948	0,82951	0,	1,4903	8,31
89949	-2,8516	0,	-5,7435	7,7768
89950	-2,7239	0,	-4,8294	7,9394
89951	-2,2218	0,	-5,9245	7,6821
89952	-2,0595	0,	-2,8294	8,2163
89953	-2,1503	0,	-1,7545	8,3409
89954	0,93964	0,	0,50765	8,3567
89955	1,0819	0,	-0,46067	8,3615
89956	-2,2939	0,	-0,65565	8,4164
89957	-2,4546	0,	0,39893	8,4415
89958	-2,1666	0,	2,5713	8,2704
89959	-2,5697	0,	3,5303	8,1716
89960	1,6707	0,	-3,2885	8,1266
89961	1,9336	0,	-4,1792	8,0003
89962	-3,2588	0,	6,9771	7,5858
89963	-3,1965	0,	6,3503	7,7047
89964	-3,8532	0,	6,986	7,6539
89965	0,49396	0,	9,6456	6,9458
89966	1,1664	0,	9,5833	6,9734
89967	1,1154	0,	8,7972	7,0892
89968	0,50247	0,	10,449	6,8562
89969	1,1749	0,	10,386	6,8815
89970	0,4432	0,	11,194	6,803
89971	1,2093	0,	11,165	6,8266
89972	-0,21522	0,	10,434	6,854
89973	-0,13101	0,	9,703	6,9345
89974	-1,21	0,	8,2883	7,1811
89975	-1,3319	0,	8,9877	7,0679
89976	-0,71098	0,	8,9961	7,0446
89977	-1,6364	0,	7,55	7,3399
89978	-1,7758	0,	8,2407	7,2182
89979	-2,2111	0,	7,5252	7,3818
89980	0,32321	0,	-9,5001	6,9633
89981	0,69598	0,	-10,243	6,8954
89982	-7,548e-002	0,	-10,102	6,8983
89983	0,6468	0,	-8,6547	7,0881
89984	-0,202	0,	-9,2009	7,0014
89985	0,83297	0,	-9,377	6,9899
89986	1,3541	0,	-8,6129	7,1213
89987	1,1851	0,	-7,8607	7,2415
89988	2,1465	0,	-6,8162	7,5003
89989	1,5623	0,	-6,9519	7,4332
89990	-1,3703	0,	-8,0989	7,2072
89991	-1,9954	0,	-7,8669	7,2884
89992	-1,8117	0,	-7,0438	7,4293
89993	-0,93135	0,	-8,9773	7,047
89994	-1,5431	0,	-8,8285	7,0979
89995	-1,1354	0,	-9,6616	6,967
89996	-0,60069	0,	-9,8026	6,9334
89997	-2,8015	0,	7,5663	7,4234
89998	-3,4013	0,	7,5839	7,4822
89999	-4,1933e-002	0,	-12,187	6,8499
90000	0,58826	0,	-12,323	6,8638
90001	5,5097e-002	0,	-11,491	6,8336
90002	-3,2909	0,	4,4691	8,0786
90003	-3,7122	0,	5,1145	8,0107
90004	2,3122	0,	6,9564	7,5024
90005	1,7118	0,	7,8903	7,2788
90006	2,3983	0,	7,814	7,3409
90007	1,3914	0,	4,3983	7,9529
90008	1,4389	0,	5,3007	7,7864
90009	2,7714	0,	-6,7281	7,5697
90010	3,1734	0,	-5,8748	7,7811
90011	3,4212	0,	-6,6964	7,6478
90012	1,4022	0,	3,42	8,115
90013	1,438	0,	2,47	8,242
90014	-3,0461	0,	-6,6068	7,6212
90015	-3,5447	0,	-5,5989	7,8778
90016	-3,6806	0,	-6,4765	7,7236
90017	-2,6894	0,	-3,8221	8,1178
90018	-2,7211	0,	-2,7922	8,271
90019	1,5097	0,	1,4993	8,3327
90020	1,6163	0,	0,53154	8,3847
90021	-2,8119	0,	-1,7173	8,3951
90022	-2,9424	0,	-0,70284	8,4702
90023	-2,6527	0,	1,5137	8,403
90024	-2,9017	0,	2,4858	8,3422
90025	1,7586	0,	-0,43678	8,3895
90026	1,9288	0,	-1,3844	8,3566
90027	1,2454	0,	-1,4398	8,3154
90028	2,1261	0,	-2,3238	8,2805
90029	2,3602	0,	-3,2402	8,1813
90030	1,4427	0,	-2,3793	8,2388
90031	2,6232	0,	-4,1309	8,0568
90032	2,8981	0,	-5,027	7,9201
90033	-3,3048	0,	3,4448	8,2451
90034	-3,7069	0,	4,2559	8,1678
90035	-3,9957	0,	7,5928	7,5533
90036	-4,3979	0,	6,9351	7,7379
90037	-4,5943	0,	7,5418	7,6495
90038	1,8782	0,	10,276	6,9297
90039	1,8371	0,	9,4969	7,0196
90040	-0,27449	0,	11,179	6,8016
90041	0,42074	0,	11,973	6,7845
90042	-0,41408	0,	11,859	6,7844
90043	-0,87164	0,	10,43	6,8666
90044	-1,0016	0,	11,123	6,8207
90045	-1,4083	0,	9,6905	6,97
90046	-1,5353	0,	10,382	6,8992
90047	-0,78744	0,	9,6989	6,9453
90048	-1,8977	0,	8,9401	7,1059
90049	-2,0457	0,	9,6443	7,0141
90050	-2,3505	0,	8,2159	7,262
90051	-2,4989	0,	8,8989	7,1581
90052	-2,9526	0,	8,2193	7,3156
90053	1,2057	0,	-10,119	6,9233
90054	1,437	0,	-10,859	6,8864
90055	1,5403	0,	-9,3352	7,0261
90056	1,7445	0,	-10,075	6,9579
90057	2,1451	0,	-9,2633	7,0779
90058	1,9582	0,	-8,5081	7,174
90059	2,9849	0,	-7,5378	7,4366
90060	2,3733	0,	-7,6202	7,3616
90061	-2,6	0,	-7,6109	7,3823
90062	-2,4163	0,	-6,7878	7,5275
90063	-3,211	0,	-7,4508	7,4779
90064	-2,1682	0,	-8,5966	7,1751
90065	-2,7746	0,	-8,4268	7,2586
90066	-1,7471	0,	-9,5128	7,0169
90067	-2,3473	0,	-9,3651	7,0815
90068	-1,3747	0,	-10,364	6,9121
90069	-1,9413	0,	-10,233	6,9581
90070	-1,0187	0,	-11,179	6,8564
90071	-0,84004	0,	-10,505	6,8797
90072	-1,5783	0,	-11,07	6,887
90073	-0,59324	0,	-12,016	6,8492
90074	-1,1864	0,	-11,876	6,8644
90075	-0,49621	0,	-11,32	6,8388
90076	-3,1465e-002	0,	-12,954	6,909
90077	-0,72882	0,	-12,692	6,8932
90078	0,74648	0,	12,88	6,8197
90079	0,66643	0,	13,773	6,8983
90080	0,20933	0,	13,551	6,8663
90081	1,1554	0,	13,548	6,8871
90082	-3,5524	0,	8,2368	7,378
90083	-4,1627	0,	8,2026	7,4637
90084	-4,7215	0,	6,2038	7,9326
90085	-4,9652	0,	6,8469	7,845
90086	-0,14857	0,	-14,49	7,152
90087	-0,63541	0,	-14,132	7,0883
90088	-0,34701	0,	-14,907	7,2492
90089	-0,87444	0,	-14,789	7,231
90090	4,7985e-002	0,	-14,867	7,2379
90091	0,60226	0,	-14,702	7,2043
90092	0,2714	0,	-13,953	7,0505
90093	2,0965	0,	4,3252	8,0053
90094	2,0768	0,	3,4195	8,1516
90095	-3,417	0,	-4,6849	8,0402
90096	-3,3653	0,	-3,7552	8,1941
90097	2,1808	0,	1,5183	8,371
90098	2,1126	0,	2,4695	8,2781
90099	-3,3969	0,	-2,7253	8,3466
90100	-3,4634	0,	-1,7339	8,4603
90101	2,2875	0,	0,55054	8,4228
90102	2,4275	0,	-0,40608	8,4353
90103	2,5977	0,	-1,3537	8,4027
90104	2,8032	0,	-2,2746	8,342
90105	3,0374	0,	-3,191	8,2441
90106	3,2992	0,	-4,0855	8,1336
90107	3,5742	0,	-4,9816	7,9997
90108	3,8532	0,	-5,8355	7,8726
90109	-4,476	0,	5,5748	8,0231
90110	-4,1282	0,	4,9013	8,0995
90111	1,1868	0,	11,944	6,8059
90112	1,9125	0,	11,054	6,8708
90113	1,9865	0,	11,793	6,8504
90114	0,15413	0,	12,645	6,797
90115	1,3644	0,	12,644	6,8286
90116	0,27191	0,	14,346	6,9711
90117	0,9411	0,	14,386	6,9906
90118	2,5638	0,	10,19	6,991
90119	3,237	0,	9,3482	7,1623
90120	3,2296	0,	10,1	7,067
90121	2,5227	0,	9,4108	7,083
90122	2,6228	0,	10,941	6,9333
90123	-0,1852	0,	14,124	6,9381
90124	-0,44792	0,	14,862	7,0624
90125	0,29	0,	14,935	7,0746
90126	-0,38303	0,	13,315	6,8454
90127	-0,70567	0,	14,054	6,935
90128	-0,68069	0,	12,531	6,8002
90129	-0,96713	0,	13,24	6,8513
90130	-1,1412	0,	11,803	6,8047
90131	-1,3463	0,	12,488	6,8216
90132	-1,6653	0,	11,075	6,8543
90133	-1,8326	0,	11,759	6,8407
90134	-2,1727	0,	10,336	6,9444
90135	-2,3337	0,	11,019	6,9038
90136	-2,8112	0,	10,282	7,0048
90137	-2,6469	0,	9,6031	7,068
90138	-3,7167	0,	8,8674	7,2916
90139	-3,1011	0,	8,9022	7,215
90140	1,1549	0,	-12,355	6,8843
90141	1,2745	0,	-13,057	6,9491
90142	0,59872	0,	-13,089	6,9302
90143	1,6048	0,	-11,596	6,8826
90144	1,7613	0,	-12,316	6,9146
90145	1,9758	0,	-10,815	6,9235
90146	2,1746	0,	-11,531	6,9227
90147	2,3494	0,	-10,003	7,0111
90148	2,5473	0,	-10,744	6,9754
90149	2,9455	0,	-9,9167	7,0785
90150	2,7553	0,	-9,1696	7,1452
90151	3,7895	0,	-8,2961	7,4006
90152	3,6347	0,	-7,5061	7,5183
90153	3,1799	0,	-8,332	7,3172
90154	-3,558	0,	-9,0476	7,2552
90155	-2,9537	0,	-9,1953	7,1624
90156	-3,3855	0,	-8,2667	7,3524
90157	-2,733	0,	-10,81	6,9907
90158	-2,1449	0,	-10,938	6,9314
90159	-2,5415	0,	-10,085	7,0209
90160	-1,9275	0,	-12,461	6,9347
90161	-1,746	0,	-11,766	6,8934
90162	-1,322	0,	-12,552	6,905
90163	-1,1376	0,	-14,004	7,0792
90164	-0,21544	0,	-13,596	6,9903
90165	-0,9128	0,	-13,334	6,9684
90166	-4,9608	0,	5,3957	8,1296
90167	-5,2629	0,	6,0778	8,0495
90168	-4,7613	0,	8,1516	7,5621
90169	-4,327	0,	8,8331	7,3799
90170	-4,944	0,	8,7707	7,4868
90171	0,13731	0,	-15,523	7,4067
90172	-0,46022	0,	-15,546	7,4158
90173	-5,1616	0,	7,4536	7,758
90174	-5,3701	0,	8,0733	7,6801
90175	-5,5066	0,	6,7209	7,9627
90176	-5,7538	0,	7,3544	7,8864
90177	4,0349	0,	9,3027	7,2675
90178	3,902	0,	8,4959	7,3768
90179	3,187	0,	8,5719	7,2786
90180	3,01	0,	6,8916	7,5775
90181	2,9154	0,	6,0483	7,7385
90182	2,2198	0,	6,0977	7,6714
90183	4,4252	0,	-8,2526	7,501
90184	4,9854	0,	-7,3905	7,7456
90185	5,042	0,	-8,2254	7,6101
90186	4,2704	0,	-7,4626	7,6163
90187	2,8395	0,	5,1783	7,9051
90188	2,7848	0,	4,3022	8,0617
90189	2,144	0,	5,2277	7,8392
90190	-4,6502	0,	-7,9946	7,5814
90191	-5,283	0,	-7,9001	7,7107
90192	-5,1638	0,	-7,1104	7,8305
90193	-4,4929	0,	-7,1917	7,7017
90194	-4,216	0,	-5,4908	7,9903
90195	-4,1092	0,	-4,6087	8,1397
90196	-4,0575	0,	-3,679	8,2925
90197	-4,0517	0,	-2,7295	8,4256
90198	-3,5939	0,	-0,71944	8,5349
90199	-3,7489	0,	0,26316	8,5692
90200	-3,1031	0,	0,35174	8,495
90201	2,8448	0,	1,5283	8,4206
90202	2,9441	0,	0,58351	8,4772
90203	3,0842	0,	-0,37311	8,4897
90204	3,2592	0,	-1,306	8,4702
90205	3,4647	0,	-2,227	8,4103
90206	3,7041	0,	-3,1338	8,329
90207	-3,9407	0,	1,2791	8,5524
90208	-4,1813	0,	2,1623	8,5201
90209	-3,2949	0,	1,3677	8,4782
90210	-3,5439	0,	2,3397	8,4177
90211	4,2558	0,	-4,9199	8,1051
90212	3,966	0,	-4,0282	8,2206
90213	-4,4897	0,	2,9851	8,4607
90214	-4,8149	0,	3,7841	8,3997
90215	-3,8524	0,	3,1626	8,3581
90216	-4,2545	0,	3,9737	8,28
90217	4,5349	0,	-5,7738	7,9814
90218	4,8161	0,	-6,5851	7,87
90219	4,1011	0,	-6,6571	7,7431
90220	-5,1733	0,	4,5326	8,3259
90221	-5,4991	0,	5,2707	8,2499
90222	-4,613	0,	4,7222	8,206
90223	-5,5527	0,	8,6923	7,6065
90224	-5,9622	0,	7,974	7,8098
90225	-6,1738	0,	8,5978	7,7442
90226	0,56923	0,	16,852	7,5442
90227	0,18388	0,	16,216	7,3644
90228	1,007	0,	16,587	7,4772
90229	0,65681	0,	15,884	7,2873
90230	1,6343	0,	14,859	7,0993
90231	0,95919	0,	14,976	7,0955
90232	1,43	0,	14,162	6,9757
90233	2,1641	0,	12,493	6,8711
90234	2,6968	0,	11,679	6,9094
90235	2,8243	0,	12,393	6,9233
90236	2,389	0,	13,206	6,9279
90237	1,7733	0,	13,312	6,895
90238	0,155	0,	17,088	7,6096
90239	0,76463	0,	17,475	7,7345
90240	-0,23036	0,	16,451	7,4286
90241	-0,46231	0,	17,145	7,6287
90242	-0,54287	0,	15,614	7,2212
90243	-0,70375	0,	16,318	7,3976
90244	0,19504	0,	15,687	7,234
90245	-0,96839	0,	14,792	7,061
90246	-1,1549	0,	15,531	7,2169
90247	-1,2898	0,	13,978	6,9441
90248	-1,5248	0,	14,713	7,0675
90249	-1,8762	0,	13,916	6,9652
90250	-1,6328	0,	13,197	6,8774
90251	-2,6939	0,	12,391	6,9111
90252	-2,0377	0,	12,443	6,8605
90253	-2,501	0,	11,702	6,8916
90254	-3,431	0,	10,238	7,0756
90255	-3,6093	0,	10,901	7,0414
90256	-2,9722	0,	10,965	6,9656
90257	-3,8824	0,	9,5241	7,216
90258	-4,0602	0,	10,171	7,1629
90259	-3,2668	0,	9,559	7,1369
90260	-4,5049	0,	9,4612	7,3135
90261	0,69158	0,	-15,358	7,3688
90262	0,76527	0,	-16,097	7,5825
90263	0,10269	0,	-16,154	7,5925
90264	1,1051	0,	-14,541	7,1845
90265	1,328	0,	-15,289	7,3697
90266	1,45	0,	-13,761	7,0534
90267	1,651	0,	-14,474	7,1942
90268	0,77419	0,	-13,793	7,0315
90269	1,8809	0,	-13,018	6,9799
90270	2,0521	0,	-13,719	7,0826
90271	2,3311	0,	-12,252	6,9546
90272	2,5002	0,	-12,959	7,022
90273	2,9324	0,	-12,176	7,0086
90274	2,7462	0,	-11,46	6,9753
90275	3,5491	0,	-9,8573	7,1567
90276	3,7419	0,	-10,583	7,124
90277	3,1434	0,	-10,658	7,0432
90278	3,9684	0,	-9,0743	7,3078
90279	4,1561	0,	-9,7971	7,2491
90280	3,3589	0,	-9,1102	7,2216
90281	4,5823	0,	-9,022	7,4107
90282	-4,1754	0,	-8,9043	7,3615
90283	-4,7851	0,	-8,7957	7,4772
90284	-4,0029	0,	-8,1234	7,4603
90285	-4,3339	0,	-9,6914	7,2874
90286	-3,7362	0,	-9,809	7,1861
90287	-2,9202	0,	-11,525	6,9935
90288	-3,5073	0,	-11,416	7,0634
90289	-3,3234	0,	-10,682	7,0637
90290	-2,5137	0,	-12,348	6,9759
90291	-3,1017	0,	-12,248	7,0304
90292	-2,3321	0,	-11,653	6,9364
90293	-2,1075	0,	-13,139	7,0095
90294	-2,6963	0,	-13,055	7,0499
90295	-1,7268	0,	-13,899	7,0913
90296	-2,2962	0,	-13,832	7,1187
90297	-1,502	0,	-13,229	6,9802
90298	-1,9229	0,	-14,595	7,2354
90299	-1,3767	0,	-14,661	7,2213
90300	-1,111	0,	-16,128	7,601
90301	-0,49484	0,	-16,177	7,6031
90302	-0,98765	0,	-15,428	7,3953
90303	-5,8012	0,	5,9529	8,1709
90304	-6,0874	0,	6,6042	8,1004
90305	4,596	0,	10,149	7,2431
90306	4,7784	0,	9,1829	7,3951
90307	5,0707	0,	9,8644	7,3538
90308	4,0275	0,	10,055	7,1713
90309	3,8112	0,	7,6732	7,5144
90310	3,7096	0,	6,8372	7,6652
90311	3,0962	0,	7,7492	7,4168
90312	4,4598	0,	10,897	7,1583
90313	5,1194	0,	10,784	7,2725
90314	0,24689	0,	19,985	8,6072
90315	-0,32555	0,	19,721	8,5082
90316	0,10243	0,	19,303	8,3527
90317	-5,1219	0,	9,3987	7,4222
90318	-5,7463	0,	9,3165	7,5474
90319	-6,3346	0,	7,2378	8,0253
90320	-6,5758	0,	7,8708	7,9582
90321	3,615	0,	5,994	7,8246
90322	3,5267	0,	5,152	7,98
90323	-1,4672e-002	0,	-18,478	8,443
90324	-0,26441	0,	-19,07	8,6954
90325	-0,73601	0,	-19,032	8,6807
90326	-0,51031	0,	-18,257	8,3574
90327	-6,033	0,	-8,6266	7,743
90328	-5,9615	0,	-7,8605	7,8525
90329	-5,4179	0,	-8,7012	7,6064
90330	-5,0229	0,	-6,2872	7,9641
90331	-4,8953	0,	-5,4382	8,1057
90332	-4,3519	0,	-6,3684	7,837
90333	3,472	0,	4,2759	8,135
90334	3,4417	0,	3,3948	8,2736
90335	2,7651	0,	3,3964	8,207
90336	-4,7886	0,	-4,5561	8,2531
90337	-4,7174	0,	-3,6555	8,3918
90338	-4,2316	0,	-0,77136	8,6155
90339	-4,1182	0,	-1,7381	8,5382
90340	3,4531	0,	2,4778	8,3937
90341	3,4948	0,	1,557	8,4852
90342	2,7765	0,	2,4795	8,3282
90343	3,5942	0,	0,6122	8,5414
90344	3,7279	0,	-0,32261	8,564
90345	-4,3866	0,	0,21124	8,6494
90346	-4,5827	0,	1,1425	8,6528
90347	-4,8232	0,	2,0257	8,6205
90348	-5,0988	0,	2,8516	8,5779
90349	4,9067	0,	-4,8105	8,222
90350	5,1887	0,	-5,6186	8,1241
90351	-5,4239	0,	3,6506	8,5178
90352	-5,7461	0,	4,42	8,4535
90353	5,6043	0,	-7,5083	7,8375
90354	5,4699	0,	-6,4299	8,0135
90355	5,8581	0,	-7,0078	7,9872
90356	-6,0718	0,	5,1581	8,379
90357	-6,3821	0,	5,8276	8,3163
90358	-6,3673	0,	9,222	7,6861
90359	-6,7873	0,	8,4945	7,8936
90360	-6,999	0,	9,1085	7,8425
90361	0,71972	0,	19,97	8,6054
90362	0,81741	0,	20,675	8,8759
90363	0,1858	0,	20,532	8,8176
90364	4,6455	0,	8,376	7,505
90365	4,522	0,	7,5925	7,628
90366	5,3747	0,	8,2375	7,6509
90367	5,5422	0,	8,9593	7,5627
90368	0,78107	0,	17,992	7,901
90369	1,2024	0,	17,21	7,6631
90370	1,3838	0,	17,911	7,8877
90371	0,92881	0,	18,622	8,1165
90372	0,36696	0,	18,63	8,1135
90373	1,5058	0,	16,345	7,4293
90374	1,8307	0,	15,526	7,2453
90375	2,046	0,	16,23	7,4236
90376	1,1556	0,	15,642	7,2419
90377	1,7183	0,	17,046	7,6317
90378	2,4256	0,	15,428	7,259
90379	2,2239	0,	14,719	7,1092
90380	3,2502	0,	13,818	7,0652
90381	2,6353	0,	13,916	7,0207
90382	3,0492	0,	13,107	6,9801
90383	3,9801	0,	11,548	7,058
90384	4,6166	0,	11,476	7,151
90385	3,8913	0,	10,803	7,0839
90386	4,1483	0,	12,234	7,074
90387	3,3775	0,	11,596	6,9816
90388	3,505	0,	12,311	6,9942
90389	-0,9357	0,	17,011	7,5971
90390	-1,0967	0,	17,748	7,8273
90391	-1,3158	0,	16,235	7,3933
90392	-1,5	0,	16,954	7,5965
90393	-1,8958	0,	16,175	7,402
90394	-1,7112	0,	15,452	7,2231
90395	-2,4993	0,	13,86	7,0027
90396	-2,7081	0,	14,578	7,1207
90397	-2,1112	0,	14,65	7,09
90398	-2,912	0,	13,088	6,9653
90399	-3,1131	0,	13,79	7,0483
90400	-2,2558	0,	13,14	6,9126
90401	-3,3464	0,	12,33	6,9764
90402	-3,5425	0,	13,023	7,0268
90403	-3,7907	0,	11,578	7,0325
90404	-3,1536	0,	11,642	6,9557
90405	-3,9816	0,	12,255	7,0519
90406	-4,2386	0,	10,835	7,1298
90407	-4,4256	0,	11,496	7,122
90408	-4,6827	0,	10,108	7,2619
90409	-4,8692	0,	10,752	7,2322
90410	-5,3119	0,	10,028	7,3762
90411	0,39158	0,	-17,765	8,1621
90412	0,78109	0,	-18,446	8,4343
90413	0,76301	0,	-16,838	7,8262
90414	0,95206	0,	-17,52	8,074
90415	0,10042	0,	-16,895	7,8388
90416	-0,10406	0,	-17,545	8,074
90417	1,4017	0,	-16,028	7,5816
90418	1,4927	0,	-16,73	7,8086
90419	1,874	0,	-15,223	7,3805
90420	2,0404	0,	-15,95	7,5876
90421	2,2532	0,	-14,432	7,2253
90422	2,4429	0,	-15,146	7,3975
90423	2,6714	0,	-13,659	7,125
90424	2,8509	0,	-14,367	7,261
90425	3,1014	0,	-12,883	7,0754
90426	3,2796	0,	-13,589	7,1756
90427	3,5245	0,	-12,097	7,0753
90428	3,7055	0,	-12,81	7,1404
90429	3,9368	0,	-11,307	7,1236
90430	4,1293	0,	-12,018	7,155
90431	3,3383	0,	-11,382	7,0424
90432	4,3489	0,	-10,523	7,2178
90433	4,5433	0,	-11,233	7,2175
90434	4,77	0,	-9,7448	7,354
90435	4,9606	0,	-10,457	7,3248
90436	5,3883	0,	-9,6971	7,4718
90437	5,1991	0,	-8,9948	7,5228
90438	-6,6683	0,	6,479	8,2471
90439	-6,9411	0,	7,1255	8,1832
90440	6,31	0,	-8,3953	7,8385
90441	5,6609	0,	-8,3431	7,7099
90442	-4,5118	0,	-10,45	7,2487
90443	-5,1091	0,	-10,343	7,36
90444	-4,9437	0,	-9,5828	7,4021
90445	-4,0979	0,	-11,301	7,1468
90446	-4,6956	0,	-11,186	7,2436
90447	-3,914	0,	-10,567	7,1491
90448	-3,6887	0,	-12,139	7,0982
90449	-4,282	0,	-12,034	7,1782
90450	-3,2842	0,	-12,955	7,1027
90451	-3,873	0,	-12,859	7,1666
90452	-2,8849	0,	-13,748	7,1585
90453	-3,4736	0,	-13,66	7,2074
90454	-2,4922	0,	-14,528	7,2632
90455	-3,0698	0,	-14,45	7,2977
90456	-2,0927	0,	-15,302	7,4137
90457	-2,673	0,	-15,23	7,4358
90458	-1,6699	0,	-16,067	7,605
90459	-2,2607	0,	-16,004	7,6166
90460	-1,5466	0,	-15,367	7,3997
90461	-1,2195	0,	-16,808	7,8266
90462	-1,8301	0,	-16,768	7,8347
90463	-1,3914	0,	-17,501	8,078
90464	-0,60335	0,	-16,857	7,8283
90465	-0,80783	0,	-17,506	8,0681
90466	4,4204	0,	6,7566	7,7777
90467	4,3135	0,	5,9479	7,9237
90468	5,5941	0,	10,499	7,3793
90469	5,2762	0,	11,363	7,2641
90470	5,9167	0,	11,227	7,3872
90471	5,8345	0,	9,6409	7,52
90472	6,1292	0,	10,341	7,4977
90473	-5,9362	0,	9,9457	7,5025
90474	-6,5685	0,	9,8426	7,6448
90475	0,14774	0,	-19,858	9,0423
90476	-0,40845	0,	-19,841	9,035
90477	-6,1662	0,	-9,4034	7,6651
90478	-6,6827	0,	-8,5581	7,8987
90479	-6,7686	0,	-9,3364	7,8088
90480	-5,692	0,	-6,2738	8,0909
90481	-5,8423	0,	-7,0708	7,9696
90482	4,2252	0,	5,1059	8,0771
90483	4,1497	0,	4,2638	8,2199
90484	-7,1823	0,	7,7585	8,1173
90485	-7,4196	0,	8,3765	8,0633
90486	-5,5644	0,	-5,4249	8,2289
90487	-5,4618	0,	-4,5274	8,3747
90488	4,1194	0,	3,3827	8,357
90489	4,1165	0,	2,4969	8,4726
90490	4,1583	0,	1,5761	8,5631
90491	4,2358	0,	0,6592	8,6227
90492	4,3696	0,	-0,27562	8,645
90493	4,549	0,	-1,1739	8,6417
90494	3,903	0,	-1,2555	8,5448
90495	-4,8691	0,	-0,79252	8,7071
90496	-5,0188	0,	0,14771	8,7503
90497	4,7639	0,	-2,0647	8,6005
90498	5,0034	0,	-2,9333	8,5444
90499	4,1179	0,	-2,1462	8,5031
90500	4,3572	0,	-3,053	8,423
90501	-5,2149	0,	1,079	8,7537
90502	-5,4509	0,	1,9644	8,7357
90503	5,2631	0,	-3,7991	8,4582
90504	5,5469	0,	-4,6186	8,3765
90505	4,6169	0,	-3,9188	8,3356
90506	-5,7265	0,	2,7903	8,6944
90507	-6,0271	0,	3,5669	8,6486
90508	5,8288	0,	-5,4267	8,2785
90509	6,1332	0,	-6,0871	8,2203
90510	-6,3493	0,	4,3364	8,5863
90511	-6,6653	0,	5,0314	8,5337
90512	-6,9756	0,	5,7009	8,4724
90513	-7,2729	0,	6,3624	8,4145
90514	6,943	0,	-8,4242	7,9812
90515	7,5886	0,	-8,3305	8,1584
90516	7,3026	0,	-7,7631	8,1794
90517	5,2512	0,	7,4539	7,7745
90518	5,1335	0,	6,6921	7,9028
90519	6,1002	0,	8,0865	7,818
90520	5,9941	0,	7,356	7,9324
90521	1,1371	0,	19,28	8,3553
90522	1,2854	0,	19,98	8,6157
90523	0,57527	0,	19,288	8,3493
90524	1,5316	0,	18,541	8,1036
90525	1,8998	0,	17,747	7,854
90526	2,0973	0,	18,459	8,0932
90527	1,7003	0,	19,233	8,35
90528	2,2585	0,	16,931	7,6252
90529	2,6409	0,	16,132	7,4369
90530	2,844	0,	16,836	7,633
90531	2,4567	0,	17,641	7,8452
90532	3,036	0,	15,33	7,2873
90533	3,4491	0,	14,524	7,1818
90534	2,8342	0,	14,622	7,1385
90535	3,6417	0,	15,232	7,3232
90536	3,236	0,	16,036	7,4582
90537	3,8746	0,	13,725	7,1255
90538	4,3169	0,	12,936	7,1204
90539	4,4961	0,	13,624	7,1947
90540	3,6736	0,	13,013	7,0415
90541	4,0637	0,	14,423	7,2339
90542	4,7848	0,	12,162	7,1668
90543	5,4181	0,	12,048	7,2704
90544	4,9482	0,	12,834	7,2073
90545	6,2677	0,	8,8083	7,7289
90546	6,8148	0,	7,9667	7,9932
90547	6,959	0,	8,6923	7,8996
90548	6,4803	0,	9,5111	7,6693
90549	-1,0268	0,	20,054	8,6396
90550	-0,38664	0,	20,268	8,7163
90551	-0,74095	0,	19,287	8,3526
90552	-1,661	0,	17,692	7,8272
90553	-1,8162	0,	18,41	8,0665
90554	-1,1429	0,	18,448	8,062
90555	-2,0801	0,	16,895	7,6057
90556	-2,2549	0,	17,613	7,8263
90557	-2,4962	0,	16,097	7,4185
90558	-2,6798	0,	16,813	7,6159
90559	-2,9086	0,	15,301	7,2706
90560	-2,3116	0,	15,374	7,2401
90561	-3,0977	0,	16,016	7,4418
90562	-3,322	0,	14,508	7,1664
90563	-3,5172	0,	15,22	7,3085
90564	-3,7436	0,	13,725	7,1101
90565	-3,9387	0,	14,423	7,2191
90566	-4,3697	0,	13,639	7,179
90567	-4,1777	0,	12,948	7,1022
90568	-5,2464	0,	12,078	7,241
90569	-5,0562	0,	11,414	7,2246
90570	-4,6165	0,	12,173	7,1413
90571	-6,1323	0,	10,577	7,4759
90572	-5,4983	0,	10,672	7,3472
90573	0,64375	0,	-19,8	9,0194
90574	0,15512	0,	-20,604	9,3875
90575	0,76201	0,	-20,545	9,3603
90576	1,0274	0,	-18,981	8,6642
90577	1,1981	0,	-19,7	8,9774
90578	1,3416	0,	-18,2	8,3486
90579	1,5795	0,	-18,921	8,6466
90580	1,6817	0,	-17,412	8,0577
90581	1,9093	0,	-18,114	8,3284
90582	2,1314	0,	-16,652	7,8125
90583	2,3081	0,	-17,346	8,0577
90584	2,6092	0,	-15,874	7,6036
90585	2,7757	0,	-16,579	7,826
90586	3,0406	0,	-15,081	7,433
90587	3,2231	0,	-15,788	7,6273
90588	3,648	0,	-14,997	7,4723
90589	3,4591	0,	-14,297	7,3107
90590	4,7357	0,	-11,944	7,2486
90591	4,9307	0,	-12,637	7,3089
90592	4,3102	0,	-12,73	7,219
90593	5,3551	0,	-11,854	7,3545
90594	5,1549	0,	-11,167	7,325
90595	6,019	0,	-9,6929	7,5999
90596	6,2216	0,	-10,341	7,5816
90597	5,5789	0,	-10,409	7,4445
90598	6,4789	0,	-9,0427	7,7816
90599	6,6748	0,	-9,6408	7,7502
90600	5,8298	0,	-8,9906	7,6468
90601	7,1455	0,	-8,9877	7,9464
90602	-5,7166	0,	-10,238	7,4849
90603	-5,5511	0,	-9,4779	7,5284
90604	-6,3328	0,	-10,136	7,6229
90605	-5,293	0,	-11,079	7,3532
90606	-5,9031	0,	-10,966	7,4764
90607	-4,8797	0,	-11,919	7,2723
90608	-5,483	0,	-11,802	7,3779
90609	-5,0724	0,	-12,637	7,3328
90610	-4,4663	0,	-12,754	7,2442
90611	-3,6585	0,	-14,361	7,345
90612	-4,2579	0,	-14,26	7,3995
90613	-4,0623	0,	-13,564	7,2693
90614	-3,2506	0,	-15,152	7,4691
90615	-3,8436	0,	-15,06	7,5079
90616	-2,841	0,	-15,933	7,6378
90617	-3,4295	0,	-15,849	7,6624
90618	-2,4209	0,	-16,705	7,8462
90619	-3,0125	0,	-16,632	7,8595
90620	-2,002	0,	-17,461	8,0877
90621	-2,592	0,	-17,406	8,0937
90622	-1,6094	0,	-18,216	8,3615
90623	-2,1804	0,	-18,169	8,3599
90624	-1,2515	0,	-18,996	8,674
90625	-1,7963	0,	-18,945	8,6611
90626	-1,0258	0,	-18,221	8,3477
90627	-0,88005	0,	-19,802	9,0217
90628	-1,422	0,	-19,746	9,0008
90629	-0,40107	0,	-20,587	9,3796
90630	-0,99107	0,	-20,562	9,3687
90631	0,20765	0,	-21,286	9,7122
90632	-0,44073	0,	-21,336	9,7367
90633	-7,2621	0,	-8,5307	8,0413
90634	-7,3897	0,	-7,6563	8,2226
90635	-6,6112	0,	-7,7919	8,0079
90636	4,9244	0,	5,0715	8,1875
90637	5,0266	0,	5,8834	8,0468
90638	6,0586	0,	11,912	7,3896
90639	6,678	0,	11,78	7,515
90640	6,4518	0,	11,069	7,5031
90641	-7,2002	0,	9,7291	7,8012
90642	-6,7645	0,	10,474	7,618
90643	-7,3983	0,	10,354	7,7729
90644	-7,5457	0,	7,0089	8,3519
90645	-7,8147	0,	7,6243	8,3014
90646	-7,6313	0,	8,9906	8,0124
90647	-7,8372	0,	9,601	7,9725
90648	-7,82	0,	-8,5796	8,1806
90649	-7,9477	0,	-7,7052	8,3584
90650	-8,4454	0,	-8,3643	8,3905
90651	-6,2372	0,	-5,3778	8,3743
90652	-6,3959	0,	-6,2155	8,2514
90653	-5,3907	0,	-3,6268	8,5111
90654	-5,357	0,	-2,7119	8,6321
90655	-4,7116	0,	-2,7059	8,5234
90656	4,7869	0,	3,3818	8,4535
90657	4,8488	0,	4,2295	8,3282
90658	4,7841	0,	2,4961	8,5677
90659	4,8137	0,	1,6116	8,6571
90660	4,8912	0,	0,69468	8,7159
90661	5,0161	0,	-0,20548	8,7488
90662	-5,4011	0,	-1,7651	8,7379
90663	-5,4918	0,	-0,82851	8,8148
90664	-4,7557	0,	-1,7592	8,6306
90665	5,1955	0,	-1,1038	8,7455
90666	5,4055	0,	-1,9757	8,7217
90667	-5,6415	0,	0,11171	8,8576
90668	-5,8348	0,	1,0246	8,8737
90669	6,7087	0,	7,2362	8,1078
90670	7,4908	0,	7,8719	8,1712
90671	7,5617	0,	7,1661	8,327
90672	5,6451	0,	-2,8444	8,6666
90673	5,9128	0,	-3,6556	8,6094
90674	-6,3467	0,	2,7126	8,8335
90675	-6,0708	0,	1,9101	8,8564
90676	6,1966	0,	-4,475	8,5285
90677	6,4937	0,	-5,1836	8,4713
90678	-6,6473	0,	3,4892	8,7892
90679	-6,9564	0,	4,2127	8,7482
90680	7,1467	0,	-6,4468	8,3867
90681	6,798	0,	-5,8441	8,412
90682	6,5214	0,	-6,6651	8,1917
90683	-7,2724	0,	4,9078	8,6969
90684	-7,5881	0,	5,5852	8,6497
90685	7,7911	0,	-8,894	8,1246
90686	8,452	0,	-8,7521	8,3272
90687	8,1853	0,	-8,1663	8,3469
90688	7,8993	0,	-7,5989	8,3685
90689	7,5487	0,	-7,0155	8,3779
90690	6,9233	0,	-7,2337	8,183
90691	6,6316	0,	6,5314	8,2297
90692	5,8764	0,	6,5942	8,0595
90693	0,54518	0,	22,401	9,5628
90694	0,84471	0,	21,446	9,1804
90695	4,5493e-002	0,	21,957	9,3811
90696	1,0286	0,	22,182	9,4736
90697	0,2131	0,	21,303	9,1199
90698	0,43174	0,	23,443	9,9875
90699	0,87414	0,	23,182	9,8792
90700	0,21857	0,	22,947	9,783
90701	1,3831	0,	20,685	8,8873
90702	1,8485	0,	19,934	8,6111
90703	1,9938	0,	20,643	8,8797
90704	1,5209	0,	21,395	9,1635
90705	2,4329	0,	19,862	8,599
90706	2,266	0,	19,151	8,3396
90707	3,2348	0,	18,257	8,0826
90708	3,0422	0,	17,546	7,8522
90709	2,6542	0,	18,352	8,0837
90710	4,0364	0,	16,642	7,6784
90711	3,4391	0,	16,74	7,6532
90712	3,8417	0,	15,938	7,4925
90713	4,6852	0,	14,322	7,3009
90714	5,1274	0,	13,522	7,2793
90715	5,3036	0,	14,21	7,3741
90716	4,8716	0,	15,02	7,429
90717	4,2562	0,	15,131	7,3732
90718	5,5816	0,	12,72	7,3081
90719	6,2087	0,	12,597	7,4171
90720	5,7528	0,	13,406	7,3708
90721	7,3951	0,	10,088	7,8019
90722	7,1717	0,	9,3951	7,8403
90723	6,775	0,	10,211	7,6472
90724	8,1113	0,	7,9459	8,321
90725	8,1823	0,	7,2401	8,472
90726	8,7469	0,	7,8573	8,5148
90727	8,2933	0,	8,5186	8,2623
90728	7,6351	0,	8,5975	8,0781
90729	-0,88271	0,	22,315	9,5267
90730	-0,65978	0,	21,646	9,2592
90731	-0,28112	0,	22,503	9,6024
90732	-1,5832	0,	19,915	8,5983
90733	-1,763	0,	20,651	8,8781
90734	-1,1324	0,	20,778	8,9197
90735	-1,9707	0,	19,111	8,3158
90736	-2,1555	0,	19,826	8,5778
90737	-1,2973	0,	19,149	8,3101
90738	-2,4101	0,	18,331	8,0651
90739	-2,5812	0,	19,042	8,3119
90740	-2,8546	0,	17,531	7,8358
90741	-3,0278	0,	18,245	8,067
90742	-3,4579	0,	17,441	7,848
90743	-3,2813	0,	16,731	7,6382
90744	-4,3236	0,	15,836	7,5188
90745	-4,134	0,	15,134	7,3596
90746	-3,7064	0,	15,934	7,4784
90747	-4,9972	0,	13,543	7,2612
90748	-5,1899	0,	14,235	7,3601
90749	-4,5648	0,	14,337	7,2866
90750	-5,4352	0,	12,757	7,2844
90751	-5,6259	0,	13,435	7,3514
90752	-4,8052	0,	12,852	7,1861
90753	-5,8806	0,	11,985	7,355
90754	-6,0735	0,	12,651	7,393
90755	-6,3243	0,	11,226	7,4677
90756	-6,5169	0,	11,878	7,4793
90757	-5,6903	0,	11,32	7,3394
90758	-6,9595	0,	11,113	7,6074
90759	-8,1776	0,	6,8624	8,5504
90760	-7,8854	0,	6,2466	8,5934
90761	-8,052	0,	8,2423	8,2476
90762	-8,2764	0,	8,8503	8,2016
90763	-8,4467	0,	7,4778	8,5001
90764	-8,7023	0,	8,0871	8,4555
90765	0,24747	0,	-22,008	10,068
90766	0,37372	0,	-22,709	10,417
90767	-0,39614	0,	-22,845	10,489
90768	-0,40091	0,	-22,059	10,092
90769	0,81454	0,	-21,227	9,6851
90770	0,92903	0,	-21,932	10,025
90771	1,3164	0,	-20,445	9,3184
90772	1,4569	0,	-21,16	9,6511
90773	1,7503	0,	-19,641	8,9612
90774	1,9149	0,	-20,359	9,2808
90775	2,1473	0,	-18,835	8,6283
90776	2,3422	0,	-19,555	8,9332
90777	2,5357	0,	-18,047	8,3303
90778	2,7375	0,	-18,756	8,6129
90779	2,9525	0,	-17,273	8,0711
90780	3,1439	0,	-17,974	8,3304
90781	3,3896	0,	-16,494	7,8481
90782	3,5765	0,	-17,19	8,0827
90783	3,8305	0,	-15,703	7,6649
90784	4,0146	0,	-16,403	7,8741
90785	4,264	0,	-14,91	7,5268
90786	4,4515	0,	-15,607	7,7065
90787	4,6924	0,	-14,121	7,4384
90788	4,0752	0,	-14,21	7,3672
90789	4,8796	0,	-14,813	7,5859
90790	5,1213	0,	-13,333	7,4005
90791	5,3146	0,	-14,019	7,5157
90792	4,5009	0,	-13,427	7,3127
90793	5,5501	0,	-12,547	7,4132
90794	5,7473	0,	-13,228	7,4961
90795	5,9828	0,	-11,772	7,4756
90796	6,1829	0,	-12,443	7,5278
90797	6,4252	0,	-11,016	7,5846
90798	6,6225	0,	-11,67	7,6083
90799	5,7826	0,	-11,084	7,4469
90800	6,8773	0,	-10,289	7,7338
90801	7,0795	0,	-10,918	7,7361
90802	7,3413	0,	-9,5858	7,9172
90803	7,544	0,	-10,189	7,9029
90804	8,016	0,	-9,4743	8,1048
90805	-7,3479	0,	-9,309	7,9529
90806	-7,9986	0,	-9,1767	8,1395
90807	-7,5733	0,	-9,9466	7,9342
90808	-6,9352	0,	-10,069	7,767
90809	-6,7189	0,	-11,561	7,6313
90810	-6,0931	0,	-11,689	7,4984
90811	-6,5194	0,	-10,864	7,6128
90812	-5,8782	0,	-13,218	7,5191
90813	-5,2649	0,	-13,344	7,4255
90814	-5,6756	0,	-12,52	7,4351
90815	-5,0486	0,	-14,852	7,617
90816	-4,8544	0,	-14,158	7,4678
90817	-4,4431	0,	-14,959	7,5597
90818	-3,6011	0,	-16,548	7,8825
90819	-4,1999	0,	-16,454	7,9067
90820	-4,0226	0,	-15,758	7,6991
90821	-3,1837	0,	-17,333	8,1063
90822	-3,7793	0,	-17,245	8,1166
90823	-3,3626	0,	-18,035	8,3652
90824	-2,7704	0,	-18,114	8,3665
90825	-2,5427	0,	-19,617	8,9642
90826	-1,9667	0,	-19,695	8,9892
90827	-2,3673	0,	-18,898	8,6608
90828	-1,6591	0,	-21,24	9,6889
90829	-1,533	0,	-20,506	9,3482
90830	-1,0307	0,	-21,311	9,7258
90831	-8,078	0,	-6,7066	8,5821
90832	-8,4478	0,	-7,369	8,5681
90833	-7,3247	0,	-6,8769	8,3489
90834	-6,1346	0,	-4,4803	8,5177
90835	-6,0329	0,	-3,6071	8,6388
90836	0,62414	0,	24,213	10,303
90837	5,489e-002	0,	24,357	10,363
90838	8,6523	0,	6,9878	8,6604
90839	7,4846	0,	6,4613	8,4466
90840	8,2576	0,	6,3419	8,6752
90841	7,2499	0,	11,628	7,6439
90842	7,4497	0,	12,326	7,6679
90843	6,828	0,	12,464	7,5383
90844	7,6438	0,	10,793	7,7893
90845	7,8638	0,	11,488	7,7896
90846	7,0236	0,	10,917	7,6359
90847	-8,0353	0,	10,226	7,943
90848	-8,4823	0,	9,4607	8,1606
90849	-8,6751	0,	10,084	8,1251
90850	-8,624	0,	-8,9614	8,3447
90851	-9,2574	0,	-8,7215	8,5705
90852	-8,9455	0,	-8,0281	8,592
90853	-0,3042	0,	-24,426	11,312
90854	-0,74857	0,	-23,767	10,967
90855	-0,75575	0,	-24,645	11,43
90856	-1,1855	0,	-24,402	11,283
90857	5,4719	0,	3,3617	8,5716
90858	5,4386	0,	2,5066	8,6769
90859	5,4682	0,	1,6221	8,7651
90860	5,5369	0,	0,74132	8,828
90861	-5,9993	0,	-2,6922	8,7579
90862	-6,0219	0,	-1,7859	8,8569
90863	5,6618	0,	-0,15883	8,8605
90864	5,8305	0,	-1,0344	8,8704
90865	-6,1127	0,	-0,84924	8,9327
90866	-6,2592	0,	5,9157e-002	8,985
90867	6,0405	0,	-1,9063	8,8472
90868	6,2901	0,	-2,7324	8,8166
90869	6,5578	0,	-3,5436	8,7604
90870	6,8426	0,	-4,2671	8,7164
90871	-6,9678	0,	2,615	8,9817
90872	-7,2708	0,	3,3908	8,9567
90873	-7,5798	0,	4,1143	8,9171
90874	-7,8941	0,	4,7874	8,8847
90875	8,6769	0,	-9,3325	8,3063
90876	9,3535	0,	-9,1598	8,5291
90877	9,0927	0,	-8,5729	8,5435
90878	8,826	0,	-7,987	8,5651
90879	8,5161	0,	-7,4012	8,5783
90880	8,1655	0,	-6,8178	8,5886
90881	7,8134	0,	-6,2299	8,5995
90882	9,2169	0,	7,605	8,6995
90883	9,791	0,	7,4258	8,9186
90884	9,421	0,	6,7985	8,9301
90885	-9,1014	0,	7,309	8,7271
90886	-8,8157	0,	6,714	8,7614
90887	-6,945	0,	-5,2637	8,5608
90888	-6,7941	0,	-4,4264	8,6739
90889	-0,86234	0,	23,653	10,074
90890	-0,47275	0,	24,406	10,383
90891	-1,0185	0,	24,364	10,363
90892	1,0665	0,	23,952	10,195
90893	0,63686	0,	24,934	10,601
90894	1,2234	0,	24,744	10,518
90895	-7,5933	0,	10,993	7,7607
90896	-8,2287	0,	10,858	7,9245
90897	6,4819	0,	5,7939	8,3442
90898	5,6245	0,	5,0447	8,3146
90899	5,7267	0,	5,8566	8,1769
90900	6,3275	0,	5,0102	8,4617
90901	7,2219	0,	5,7297	8,5268
90902	1,3576	0,	22,963	9,7916
90903	1,7047	0,	22,131	9,4586
90904	1,9076	0,	22,866	9,7503
90905	1,5711	0,	23,736	10,102
90906	2,1315	0,	21,353	9,1566
90907	2,5781	0,	20,572	8,8675
90908	2,7394	0,	21,284	9,1381
90909	2,3044	0,	22,068	9,4354
90910	3,1751	0,	20,485	8,8498
90911	3,006	0,	19,774	8,5888
90912	3,8273	0,	18,155	8,0912
90913	4,2318	0,	17,346	7,8856
90914	4,4226	0,	18,047	8,1007
90915	3,6346	0,	17,445	7,8623
90916	4,0117	0,	18,864	8,3258
90917	3,4197	0,	18,967	8,328
90918	4,6435	0,	16,536	7,7154
90919	5,0642	0,	15,721	7,5847
90920	5,2552	0,	16,42	7,755
90921	4,4488	0,	15,832	7,532
90922	4,8342	0,	17,236	7,9099
90923	5,49	0,	14,908	7,499
90924	5,6826	0,	15,601	7,6416
90925	6,5608	0,	13,969	7,5569
90926	5,9289	0,	14,094	7,462
90927	6,3799	0,	13,283	7,476
90928	8,0493	0,	9,985	7,9757
90929	8,4841	0,	9,2136	8,1994
90930	8,6946	0,	9,8644	8,159
90931	7,8259	0,	9,2926	8,014
90932	8,2689	0,	10,664	7,9531
90933	8,9289	0,	8,43	8,457
90934	9,5585	0,	8,2625	8,6761
90935	9,1342	0,	9,0852	8,4007
90936	-1,1495	0,	22,92	9,7744
90937	-1,3717	0,	23,618	10,056
90938	-0,54787	0,	23,108	9,8476
90939	-1,4982	0,	22,157	9,4679
90940	-1,7136	0,	22,858	9,7469
90941	-1,9058	0,	21,361	9,1571
90942	-1,2752	0,	21,489	9,1989
90943	-2,0963	0,	22,064	9,4326
90944	-2,5209	0,	21,27	9,1287
90945	-2,3352	0,	20,562	8,8577
90946	-3,3832	0,	19,663	8,5631
90947	-2,766	0,	19,757	8,5742
90948	-3,1988	0,	18,956	8,3131
90949	-4,0681	0,	17,351	7,8727
90950	-4,2469	0,	18,058	8,0903
90951	-3,6311	0,	18,155	8,0777
90952	-4,5087	0,	16,543	7,7027
90953	-4,689	0,	17,248	7,8987
90954	-3,8915	0,	16,641	7,6648
90955	-4,9415	0,	15,737	7,5726
90956	-5,1312	0,	16,433	7,7434
90957	-5,377	0,	14,934	7,4866
90958	-4,752	0,	15,035	7,416
90959	-5,5659	0,	15,625	7,6299
90960	-5,8185	0,	14,127	7,4473
90961	-6,0123	0,	14,816	7,5625
90962	-6,2642	0,	13,329	7,4574
90963	-6,4593	0,	14,006	7,5422
90964	-6,9081	0,	13,21	7,5712
90965	-6,7098	0,	12,543	7,5152
90966	-7,7914	0,	11,638	7,7648
90967	-7,1522	0,	11,765	7,6173
90968	-8,9267	0,	8,695	8,4084
90969	-9,1237	0,	9,3036	8,3614
90970	-9,3571	0,	7,9182	8,6814
90971	-9,5974	0,	8,5272	8,6375
90972	0,28429	0,	-24,184	11,191
90973	-2,4434e-002	0,	-24,993	11,627
90974	0,51343	0,	-24,953	11,597
90975	0,60979	0,	-23,389	10,77
90976	-0,16007	0,	-23,525	10,836
90977	0,8678	0,	-24,118	11,141
90978	1,0553	0,	-22,632	10,376
90979	1,2484	0,	-23,332	10,724
90980	1,7295	0,	-22,564	10,329
90981	1,5714	0,	-21,865	9,9923
90982	2,5068	0,	-20,274	9,2534
90983	2,6734	0,	-20,984	9,5696
90984	2,0554	0,	-21,074	9,6144
90985	2,9324	0,	-19,476	8,9184
90986	3,1127	0,	-20,189	9,2212
90987	3,538	0,	-19,39	8,8983
90988	3,3457	0,	-18,682	8,6133
90989	4,2015	0,	-17,099	8,107
90990	4,3895	0,	-17,797	8,3489
90991	3,7679	0,	-17,891	8,3413
90992	4,6356	0,	-16,306	7,9131
90993	4,8245	0,	-17,	8,1301
90994	5,2613	0,	-16,2	7,9527
90995	5,0671	0,	-15,51	7,7626
90996	5,9405	0,	-13,914	7,608
90997	6,1352	0,	-14,595	7,7379
90998	5,5018	0,	-14,712	7,6599
90999	6,3801	0,	-13,123	7,6078
91000	6,5746	0,	-13,796	7,7059
91001	6,8226	0,	-12,341	7,6582
91002	7,0242	0,	-13,002	7,7269
91003	7,2767	0,	-11,572	7,7582
91004	7,4777	0,	-12,218	7,7984
91005	7,9479	0,	-11,447	7,9204
91006	7,7462	0,	-10,818	7,9044
91007	8,8998	0,	-9,9291	8,2922
91008	8,2187	0,	-10,078	8,0899
91009	-8,2239	0,	-9,8143	8,1195
91010	-8,8739	0,	-9,6236	8,3238
91011	-7,7867	0,	-10,622	7,9278
91012	-8,4355	0,	-10,46	8,1086
91013	-7,3482	0,	-11,441	7,7782
91014	-7,9877	0,	-11,294	7,9364
91015	-7,1487	0,	-10,744	7,7626
91016	-7,5472	0,	-12,127	7,8139
91017	-6,912	0,	-12,269	7,676
91018	-6,0743	0,	-13,918	7,632
91019	-6,6911	0,	-13,787	7,727
91020	-6,4888	0,	-13,095	7,6272
91021	-5,6551	0,	-14,739	7,6883
91022	-6,2701	0,	-14,616	7,7637
91023	-5,461	0,	-14,045	7,5429
91024	-5,2302	0,	-15,551	7,7932
91025	-5,8459	0,	-15,433	7,8498
91026	-4,802	0,	-16,354	7,9442
91027	-5,4139	0,	-16,242	7,9821
91028	-4,6247	0,	-15,658	7,7396
91029	-4,3781	0,	-17,15	8,1386
91030	-4,9847	0,	-17,043	8,1583
91031	-3,9582	0,	-17,947	8,3741
91032	-4,5598	0,	-17,844	8,3774
91033	-3,5409	0,	-18,745	8,6466
91034	-4,1384	0,	-18,647	8,6355
91035	-3,1242	0,	-19,543	8,952
91036	-2,9487	0,	-18,824	8,6484
91037	-3,7213	0,	-19,448	8,9276
91038	-3,2982	0,	-20,252	9,2512
91039	-2,6953	0,	-20,35	9,2893
91040	-1,7447	0,	-21,972	10,043
91041	-2,408	0,	-21,869	9,9815
91042	-2,2454	0,	-21,162	9,6551
91043	-1,1116	0,	-22,829	10,476
91044	-1,8975	0,	-22,67	10,378
91045	-1,1164	0,	-22,043	10,079
91046	-1,3281	0,	-23,5	10,807
91047	-0,47598	0,	-25,213	11,74
91048	-1,04	0,	-25,218	11,729
91049	7,4226e-002	0,	-25,769	12,055
91050	-0,53907	0,	-25,778	12,052
91051	6,1432	0,	3,3496	8,7036
91052	5,5338	0,	4,2093	8,4484
91053	6,2369	0,	4,1747	8,593
91054	8,0637	0,	12,186	7,8095
91055	7,6327	0,	13,013	7,714
91056	8,2617	0,	12,871	7,846
91057	8,6917	0,	12,038	7,9604
91058	8,489	0,	11,359	7,9507
91059	-8,8686	0,	10,717	8,104
91060	-8,4269	0,	11,503	7,9257
91061	-9,0666	0,	11,36	8,0948
91062	-9,8994	0,	-8,4718	8,8129
91063	-10,167	0,	-9,1457	8,7842
91064	-9,5073	0,	-9,3838	8,5431
91065	6,1099	0,	2,4946	8,8071
91066	6,111	0,	1,6398	8,8898
91067	-6,6925	0,	-3,5532	8,7931
91068	-6,6253	0,	-2,6864	8,8951
91069	-8,2098	0,	5,4648	8,8389
91070	-8,5235	0,	6,0982	8,804
91071	6,1797	0,	0,75901	8,952
91072	6,2939	0,	-0,10839	8,9916
91073	-6,6479	0,	-1,7801	8,9927
91074	-6,7246	0,	-0,88859	9,0688
91075	6,4627	0,	-0,98395	9,0016
91076	6,679	0,	-1,8215	8,9989
91077	-6,8711	0,	1,9803e-002	9,1203
91078	-7,0728	0,	0,88884	9,1539
91079	-6,4525	0,	0,97207	9,001
91080	6,9286	0,	-2,6476	8,9691
91081	7,2128	0,	-3,4149	8,9417
91082	-7,3122	0,	1,7294	9,1571
91083	-7,5905	0,	2,52	9,1555
91084	-6,692	0,	1,8126	9,0042
91085	7,4977	0,	-4,1384	8,8987
91086	7,8047	0,	-4,7986	8,8714
91087	7,1397	0,	-4,9757	8,6585
91088	-7,8935	0,	3,2957	9,1314
91089	-8,209	0,	3,9926	9,1151
91090	7,9949	0,	5,6103	8,7531
91091	8,7305	0,	5,4917	8,9864
91092	9,0263	0,	6,1527	8,944
91093	9,5764	0,	-9,7565	8,5118
91094	10,261	0,	-9,567	8,747
91095	10,015	0,	-8,9732	8,765
91096	9,7546	0,	-8,3862	8,7824
91097	9,4622	0,	-7,8105	8,793
91098	8,8194	0,	-6,6392	8,8147
91099	9,1523	0,	-7,2247	8,8074
91100	8,4672	0,	-6,0514	8,8256
91101	8,1297	0,	-5,4501	8,8382
91102	7,4647	0,	-5,6272	8,6252
91103	10,757	0,	7,8797	9,1445
91104	10,448	0,	7,2413	9,1761
91105	10,133	0,	8,0833	8,8928
91106	-10,031	0,	7,7329	8,9323
91107	-9,7601	0,	7,1319	8,9695
91108	-0,27923	0,	-27,266	12,926
91109	-0,55055	0,	-28,05	13,386
91110	-4,7168e-002	0,	-28,128	13,457
91111	0,38599	0,	-27,355	12,966
91112	-10,273	0,	-7,5566	9,1102
91113	-10,591	0,	-8,2183	9,0901
91114	-9,5875	0,	-7,7783	8,8406
91115	-7,8571	0,	-5,931	8,6727
91116	-7,1038	0,	-6,1014	8,439
91117	-7,6366	0,	-5,1661	8,7544
91118	6,7609e-002	0,	25,077	10,662
91119	-0,52633	0,	25,152	10,691
91120	0,68247	0,	25,63	10,888
91121	3,9858e-002	0,	25,802	10,963
91122	1,7279	0,	24,528	10,426
91123	1,269	0,	25,44	10,805
91124	1,8803	0,	25,267	10,722
91125	7,7801	0,	4,8711	8,836
91126	7,0676	0,	4,946	8,6414
91127	2,1212	0,	23,639	10,063
91128	2,6957	0,	23,53	10,012
91129	2,5073	0,	22,803	9,7285
91130	2,3014	0,	24,381	10,356
91131	3,3364	0,	21,198	9,12
91132	3,51	0,	21,908	9,386
91133	2,9123	0,	22,	9,4175
91134	3,7633	0,	20,388	8,8371
91135	4,1862	0,	19,574	8,5734
91136	4,3629	0,	20,281	8,8199
91137	3,5942	0,	19,677	8,5771
91138	3,9391	0,	21,097	9,0945
91139	4,6071	0,	18,755	8,3333
91140	5,025	0,	17,937	8,1224
91141	5,2121	0,	18,639	8,3395
91142	4,7901	0,	19,462	8,5671
91143	5,4459	0,	17,12	7,9462
91144	6,0634	0,	16,996	7,9837
91145	5,8737	0,	16,3	7,8081
91146	5,6316	0,	17,819	8,1438
91147	6,7444	0,	14,659	7,6644
91148	6,1125	0,	14,785	7,574
91149	6,9341	0,	15,347	7,787
91150	6,3052	0,	15,478	7,7126
91151	7,1919	0,	13,837	7,6654
91152	7,8212	0,	13,698	7,778
91153	7,011	0,	13,151	7,589
91154	7,3788	0,	14,523	7,7586
91155	9,3447	0,	9,736	8,3591
91156	9,5627	0,	10,393	8,3282
91157	8,9141	0,	10,543	8,1349
91158	9,9971	0,	9,5688	8,5747
91159	9,7638	0,	8,9177	8,617
91160	-1,0721	0,	25,11	10,671
91161	-0,55408	0,	25,877	10,993
91162	-1,1872	0,	25,856	10,976
91163	-1,5278	0,	24,329	10,347
91164	-1,6602	0,	25,055	10,639
91165	-1,9358	0,	23,556	10,03
91166	-2,1105	0,	24,281	10,319
91167	-2,507	0,	23,48	9,9937
91168	-2,3118	0,	22,765	9,7132
91169	-3,1347	0,	21,177	9,1082
91170	-3,3207	0,	21,884	9,3749
91171	-2,7114	0,	21,973	9,405
91172	-3,5662	0,	20,375	8,8254
91173	-3,7474	0,	21,084	9,0849
91174	-2,9489	0,	20,469	8,837
91175	-4,0015	0,	19,569	8,5623
91176	-4,1875	0,	20,273	8,8098
91177	-4,4329	0,	18,765	8,3243
91178	-3,8171	0,	18,862	8,3134
91179	-4,6217	0,	19,465	8,5582
91180	-4,8678	0,	17,955	8,1138
91181	-5,0565	0,	18,655	8,3324
91182	-5,3116	0,	17,138	7,9362
91183	-5,4963	0,	17,838	8,1356
91184	-5,9451	0,	17,015	7,9742
91185	-5,7555	0,	16,321	7,7973
91186	-6,8445	0,	15,381	7,7778
91187	-6,2011	0,	15,507	7,702
91188	-6,6531	0,	14,696	7,6534
91189	-7,5473	0,	13,083	7,698
91190	-7,7541	0,	13,75	7,7674
91191	-7,1031	0,	13,887	7,6522
91192	-8,1901	0,	12,945	7,8308
91193	-7,9883	0,	12,29	7,79
91194	-7,349	0,	12,417	7,6455
91195	-9,5079	0,	10,569	8,2913
91196	-9,3166	0,	9,9274	8,3232
91197	-10,272	0,	8,3419	8,8859
91198	-10,516	0,	8,9525	8,8444
91199	-9,7944	0,	9,1358	8,588
91200	-4,4566e-002	0,	-26,504	12,471
91201	-0,65786	0,	-26,512	12,471
91202	-0,83575	0,	-27,219	12,869
91203	0,62065	0,	-26,593	12,518
91204	0,61209	0,	-25,73	12,027
91205	1,5064	0,	-24,061	11,102
91206	1,7387	0,	-24,795	11,468
91207	1,0969	0,	-24,887	11,553
91208	1,9226	0,	-23,264	10,68
91209	2,1251	0,	-23,978	11,026
91210	2,3727	0,	-22,479	10,28
91211	2,5602	0,	-23,187	10,613
91212	2,8326	0,	-21,69	9,8978
91213	3,0119	0,	-22,396	10,218
91214	2,2146	0,	-21,78	9,9416
91215	3,4618	0,	-21,605	9,8455
91216	3,2794	0,	-20,899	9,5379
91217	4,1488	0,	-19,303	8,8909
91218	4,3386	0,	-20,003	9,1682
91219	3,7183	0,	-20,103	9,2009
91220	4,5781	0,	-18,502	8,6125
91221	4,7683	0,	-19,202	8,8734
91222	3,9565	0,	-18,595	8,6066
91223	5,2042	0,	-18,392	8,6094
91224	5,0125	0,	-17,698	8,3695
91225	6,0828	0,	-16,777	8,2007
91226	5,4502	0,	-16,893	8,1665
91227	5,8879	0,	-16,089	8,0073
91228	6,9638	0,	-15,156	7,9688
91229	6,7693	0,	-14,477	7,8314
91230	6,327	0,	-15,283	7,8945
91231	7,6794	0,	-12,879	7,8632
91232	7,8727	0,	-13,539	7,9397
91233	7,2188	0,	-13,675	7,8207
91234	8,1489	0,	-12,094	7,9573
91235	8,3388	0,	-12,741	8,0043
91236	8,6276	0,	-11,315	8,1003
91237	8,8207	0,	-11,948	8,1219
91238	9,107	0,	-10,538	8,2866
91239	9,3067	0,	-11,158	8,2878
91240	8,4258	0,	-10,687	8,0872
91241	9,7912	0,	-10,365	8,4978
91242	-8,6364	0,	-11,132	8,1125
91243	-9,288	0,	-10,945	8,2988
91244	-9,0855	0,	-10,27	8,3079
91245	-8,1866	0,	-11,98	7,9674
91246	-8,831	0,	-11,812	8,1283
91247	-7,7457	0,	-12,82	7,8757
91248	-8,3828	0,	-12,665	8,0132
91249	-7,3128	0,	-13,654	7,8377
91250	-7,9416	0,	-13,508	7,9523
91251	-7,1105	0,	-12,962	7,7429
91252	-6,8869	0,	-14,485	7,8535
91253	-7,5086	0,	-14,345	7,9457
91254	-6,4609	0,	-15,31	7,9205
91255	-7,0873	0,	-15,179	7,9931
91256	-6,0297	0,	-16,125	8,0344
91257	-6,6576	0,	-15,997	8,0865
91258	-5,5966	0,	-16,931	8,1926
91259	-6,2215	0,	-16,808	8,2249
91260	-5,1663	0,	-17,736	8,3943
91261	-5,7826	0,	-17,617	8,407
91262	-4,74	0,	-18,543	8,6368
91263	-5,3514	0,	-18,426	8,6308
91264	-4,9256	0,	-19,236	8,8929
91265	-4,3189	0,	-19,349	8,9153
91266	-4,0687	0,	-20,858	9,5164
91267	-3,4582	0,	-20,967	9,5678
91268	-3,8954	0,	-20,156	9,2263
91269	-3,1999	0,	-22,475	10,249
91270	-3,0179	0,	-21,771	9,9333
91271	-2,5607	0,	-22,567	10,318
91272	-2,3361	0,	-24,035	11,046
91273	-1,765	0,	-24,135	11,131
91274	-2,114	0,	-23,341	10,713
91275	-1,103	0,	-25,783	12,043
91276	-1,6654	0,	-25,698	11,959
91277	-1,4697	0,	-24,975	11,585
91278	-1,263	0,	-26,488	12,424
91279	-8,8813	0,	-6,437	8,8771
91280	-9,9366	0,	-6,8777	9,1338
91281	-9,6148	0,	-6,2244	9,1536
91282	-9,251	0,	-7,0994	8,8604
91283	0,72031	0,	26,34	11,184
91284	1,3914	0,	26,147	11,092
91285	7,7703e-002	0,	26,513	11,258
91286	-0,63437	0,	26,644	11,31
91287	6,841	0,	3,3113	8,8627
91288	6,7679	0,	2,4884	8,9519
91289	8,4502	0,	13,556	7,9048
91290	8,8897	0,	12,722	7,992
91291	9,0888	0,	13,402	8,0359
91292	-10,859	0,	-8,8922	9,054
91293	-11,076	0,	-9,5816	9,0029
91294	-10,401	0,	-9,8208	8,754
91295	-7,3515	0,	-3,5141	8,9603
91296	-7,4857	0,	-4,3287	8,8663
91297	-8,5716	0,	-5,7705	8,908
91298	-8,5232	0,	4,6657	9,0837
91299	-8,8516	0,	5,3111	9,0625
91300	6,7691	0,	1,6337	9,0332
91301	6,8149	0,	0,78681	9,0944
91302	-7,2843	0,	-2,6473	9,0607
91303	-7,2635	0,	-1,7908	9,1427
91304	6,9292	0,	-8,0592e-002	9,1337
91305	7,0952	0,	-0,92004	9,1574
91306	-7,3401	0,	-0,89935	9,2178
91307	-7,4783	0,	-3,9933e-002	9,2763
91308	7,3116	0,	-1,7576	9,1552
91309	7,5742	0,	-2,5441	9,1511
91310	-7,6799	0,	0,82911	9,3093
91311	-7,9301	0,	1,6538	9,3337
91312	7,8584	0,	-3,3114	9,1246
91313	8,1592	0,	-3,9991	9,1104
91314	-8,2084	0,	2,4445	9,3328
91315	-8,5247	0,	3,1704	9,3385
91316	8,5157	0,	4,7525	9,0678
91317	9,2132	0,	4,6438	9,3039
91318	9,4603	0,	5,3197	9,2555
91319	9,7561	0,	5,9807	9,2129
91320	10,078	0,	6,614	9,1888
91321	11,168	0,	-9,9743	8,9676
91322	10,935	0,	-9,3644	8,9953
91323	10,476	0,	-10,176	8,7281
91324	10,688	0,	-8,7706	9,0178
91325	10,411	0,	-8,185	9,035
91326	9,473	0,	-6,4539	9,0626
91327	9,1353	0,	-5,8785	9,0632
91328	8,7978	0,	-5,2772	9,0758
91329	8,4662	0,	-4,6593	9,0838
91330	11,029	0,	8,5261	9,0993
91331	11,671	0,	8,3095	9,3677
91332	11,397	0,	7,6763	9,415
91333	-10,973	0,	8,0895	9,1731
91334	-10,706	0,	7,5228	9,2033
91335	1,0484	0,	-29,127	14,044
91336	0,54195	0,	-29,214	14,138
91337	0,77552	0,	-28,54	13,693
91338	-1,1071	0,	-28,002	13,337
91339	-1,3089	0,	-28,777	13,792
91340	-0,78881	0,	-28,845	13,889
91341	-0,28543	0,	-28,923	13,953
91342	0,16222	0,	-29,023	14,029
91343	0,39579	0,	-28,349	13,579
91344	-9,4745	0,	6,5369	9,0047
91345	-9,1654	0,	5,9446	9,0279
91346	-10,964	0,	-7,3085	9,4073
91347	-10,644	0,	-6,6692	9,425
91348	-11,282	0,	-7,9701	9,3809
91349	-11,553	0,	-8,6303	9,3405
91350	0,84463	0,	26,995	11,453
91351	8,8519e-002	0,	27,296	11,586
91352	-5,4566e-002	0,	28,319	12,016
91353	0,43256	0,	29,227	12,395
91354	-0,11579	0,	29,112	12,349
91355	7,6471	0,	4,0616	8,9469
91356	7,5115	0,	3,2791	9,0328
91357	6,9346	0,	4,1365	8,7542
91358	8,3316	0,	3,9955	9,1476
91359	1,074	0,	27,562	11,689
91360	1,5157	0,	26,801	11,362
91361	1,7233	0,	27,454	11,622
91362	0,31788	0,	27,864	11,819
91363	1,3293	0,	28,171	11,932
91364	1,53	0,	29,332	12,415
91365	1,0096	0,	29,337	12,432
91366	1,5339	0,	28,737	12,166
91367	2,0028	0,	25,973	11,01
91368	2,4538	0,	25,12	10,653
91369	2,6179	0,	25,835	10,933
91370	2,1685	0,	26,665	11,284
91371	2,8759	0,	24,271	10,306
91372	3,2888	0,	23,444	9,9767
91373	3,4662	0,	24,16	10,248
91374	3,0488	0,	24,993	10,584
91375	3,6981	0,	22,626	9,6616
91376	4,1127	0,	21,807	9,3599
91377	4,2993	0,	22,516	9,6171
91378	3,8839	0,	23,342	9,9274
91379	3,1004	0,	22,718	9,6928
91380	4,5387	0,	20,99	9,0761
91381	4,9668	0,	20,17	8,8117
91382	5,1486	0,	20,874	9,0509
91383	4,72	0,	21,698	9,3256
91384	5,3951	0,	19,346	8,5708
91385	5,8187	0,	18,522	8,3578
91386	6,0076	0,	19,22	8,5702
91387	5,5771	0,	20,05	8,7985
91388	6,4394	0,	18,391	8,3726
91389	6,249	0,	17,695	8,1774
91390	7,3237	0,	16,728	8,0855
91391	7,1302	0,	16,038	7,9333
91392	6,691	0,	16,865	8,0347
91393	6,5013	0,	16,169	7,8635
91394	8,0081	0,	14,383	7,8659
91395	8,6467	0,	14,235	7,9766
91396	8,2006	0,	15,066	7,9655
91397	7,5685	0,	15,211	7,8761
91398	9,3289	0,	11,892	8,1278
91399	9,5289	0,	12,563	8,144
91400	9,7748	0,	11,063	8,312
91401	10,215	0,	10,226	8,5402
91402	10,432	0,	10,892	8,5112
91403	9,9796	0,	11,733	8,3032
91404	9,1262	0,	11,213	8,1223
91405	10,638	0,	9,3807	8,8054
91406	11,285	0,	9,177	9,0506
91407	10,404	0,	8,7296	8,8519
91408	10,869	0,	10,043	8,7617
91409	-0,62355	0,	27,428	11,638
91410	-0,73178	0,	28,218	11,964
91411	-1,2675	0,	26,624	11,294
91412	-1,3728	0,	27,385	11,605
91413	-1,7754	0,	25,802	10,945
91414	-1,9182	0,	26,523	11,234
91415	-2,3918	0,	25,731	10,898
91416	-2,2429	0,	25,007	10,612
91417	-3,2809	0,	24,116	10,234
91418	-3,0937	0,	23,4	9,9614
91419	-2,6816	0,	24,205	10,283
91420	-3,9334	0,	21,791	9,3515
91421	-4,1203	0,	22,498	9,6103
91422	-3,5078	0,	22,596	9,6501
91423	-4,3687	0,	20,982	9,0684
91424	-4,5505	0,	21,689	9,32
91425	-4,9921	0,	20,872	9,0454
91426	-4,8076	0,	20,169	8,8042
91427	-5,8759	0,	19,234	8,5652
91428	-5,2452	0,	19,355	8,5642
91429	-5,685	0,	18,538	8,3513
91430	-6,5774	0,	16,89	8,0256
91431	-6,77	0,	17,581	8,2023
91432	-6,1299	0,	17,715	8,1699
91433	-7,0312	0,	16,07	7,9242
91434	-7,2208	0,	16,754	8,0768
91435	-6,3878	0,	16,196	7,8529
91436	-7,6844	0,	15,929	7,9959
91437	-7,4919	0,	15,248	7,8681
91438	-8,3969	0,	13,612	7,8957
91439	-8,607	0,	14,281	7,9717
91440	-7,9514	0,	14,426	7,8589
91441	-8,8301	0,	12,806	7,9775
91442	-9,0402	0,	13,464	8,0263
91443	-9,4761	0,	12,657	8,1287
91444	-8,6284	0,	12,151	7,9409
91445	-9,2681	0,	12,008	8,1061
91446	-10,156	0,	10,415	8,4965
91447	-10,351	0,	11,062	8,4682
91448	-9,7059	0,	11,212	8,2784
91449	-10,686	0,	9,5902	8,7841
91450	-10,807	0,	10,276	8,7051
91451	-9,9649	0,	9,7734	8,5319
91452	-11,585	0,	9,1644	9,1551
91453	-11,217	0,	8,7001	9,1255
91454	-11,333	0,	9,538	8,9929
91455	1,2457	0,	-26,526	12,455
91456	1,4242	0,	-27,242	12,843
91457	0,82895	0,	-27,576	13,098
91458	1,8789	0,	-25,571	11,884
91459	1,9798	0,	-26,317	12,275
91460	1,2371	0,	-25,664	11,965
91461	2,3574	0,	-24,712	11,398
91462	2,5291	0,	-25,452	11,762
91463	2,7627	0,	-23,901	10,963
91464	2,9538	0,	-24,624	11,301
91465	3,1993	0,	-23,105	10,553
91466	3,3873	0,	-23,817	10,874
91467	3,6411	0,	-22,312	10,167
91468	3,8244	0,	-23,017	10,473
91469	4,0832	0,	-21,515	9,8033
91470	4,2699	0,	-22,217	10,096
91471	4,521	0,	-20,709	9,462
91472	4,706	0,	-21,412	9,7428
91473	3,9008	0,	-20,809	9,4953
91474	4,9581	0,	-19,902	9,1496
91475	5,1484	0,	-20,599	9,4145
91476	5,3944	0,	-19,092	8,8681
91477	5,5829	0,	-19,789	9,1183
91478	6,0207	0,	-18,972	8,8534
91479	5,8326	0,	-18,279	8,6216
91480	6,7177	0,	-16,655	8,2504
91481	6,9102	0,	-17,343	8,44
91482	6,2735	0,	-17,469	8,4151
91483	7,1595	0,	-15,841	8,1307
91484	6,5227	0,	-15,968	8,0614
91485	7,355	0,	-16,526	8,2961
91486	7,6041	0,	-15,026	8,0594
91487	7,8033	0,	-15,703	8,1978
91488	8,0635	0,	-14,212	8,0408
91489	7,4095	0,	-14,348	7,9272
91490	8,2561	0,	-14,884	8,1498
91491	8,7205	0,	-14,065	8,1544
91492	8,5321	0,	-13,401	8,0756
91493	9,6898	0,	-12,433	8,3273
91494	9,4999	0,	-11,791	8,3046
91495	9,0106	0,	-12,595	8,1638
91496	-9,4826	0,	-11,625	8,3079
91497	-10,132	0,	-11,432	8,4921
91498	-9,9436	0,	-10,734	8,5042
91499	-9,0273	0,	-12,498	8,1678
91500	-9,6734	0,	-12,32	8,3259
91501	-9,223	0,	-13,186	8,2177
91502	-8,5788	0,	-13,353	8,0836
91503	-8,3367	0,	-14,884	8,1645
91504	-8,1375	0,	-14,199	8,0542
91505	-7,7091	0,	-15,04	8,0796
91506	-6,8494	0,	-16,68	8,2724
91507	-7,4815	0,	-16,545	8,3166
91508	-7,284	0,	-15,865	8,154
91509	-6,4076	0,	-17,494	8,4352
91510	-7,0379	0,	-17,363	8,4583
91511	-6,5944	0,	-18,177	8,6421
91512	-5,9676	0,	-18,307	8,6403
91513	-5,727	0,	-19,807	9,1288
91514	-5,5369	0,	-19,119	8,8845
91515	-5,1069	0,	-19,934	9,1653
91516	-4,2456	0,	-21,564	9,8218
91517	-4,8617	0,	-21,446	9,7536
91518	-4,6735	0,	-20,749	9,4786
91519	-3,8172	0,	-22,376	10,19
91520	-3,6352	0,	-21,673	9,8731
91521	-4,4323	0,	-22,265	10,111
91522	-4,0036	0,	-23,074	10,489
91523	-3,3821	0,	-23,171	10,576
91524	-2,5847	0,	-24,762	11,408
91525	-3,1684	0,	-24,666	11,304
91526	-2,9651	0,	-23,958	10,979
91527	-2,2094	0,	-25,585	11,867
91528	-2,0137	0,	-24,862	11,49
91529	-2,7881	0,	-25,482	11,753
91530	-2,3956	0,	-26,307	12,229
91531	-1,8254	0,	-26,402	12,344
91532	-1,6311	0,	-27,931	13,235
91533	-1,4409	0,	-27,195	12,828
91534	-9,3051	0,	-5,5579	9,1865
91535	-9,0471	0,	-4,8702	9,229
91536	-8,351	0,	-5,0055	8,9901
91537	-8,8402	0,	3,8673	9,3227
91538	-9,1691	0,	4,5125	9,3178
91539	7,4139	0,	1,6368	9,1927
91540	7,4385	0,	2,4562	9,1203
91541	-11,769	0,	-9,3196	9,2799
91542	-11,273	0,	-10,285	8,9567
91543	-11,931	0,	-10,064	9,1934
91544	-7,9303	0,	-2,6285	9,2374
91545	-8,0299	0,	-3,4282	9,1608
91546	7,4598	0,	0,7899	9,2531
91547	7,5596	0,	-3,7766e-002	9,2971
91548	-7,9096	0,	-1,772	9,3181
91549	-7,9508	0,	-0,93094	9,3852
91550	7,7257	0,	-0,87721	9,3207
91551	7,9467	0,	-1,6769	9,3384
91552	-8,089	0,	-7,1527e-002	9,4429
91553	-8,2893	0,	0,75798	9,4912
91554	8,2093	0,	-2,4635	9,335
91555	8,5023	0,	-3,173	9,3396
91556	-8,5395	0,	1,5827	9,5154
91557	-8,8362	0,	2,3249	9,544
91558	9,0291	0,	3,8868	9,383
91559	9,7053	0,	3,7969	9,6249
91560	9,924	0,	4,4712	9,5828
91561	10,171	0,	5,1471	9,5332
91562	10,456	0,	5,7822	9,5043
91563	11,373	0,	-10,593	8,9423
91564	12,073	0,	-10,378	9,1839
91565	11,852	0,	-9,7592	9,2254
91566	11,619	0,	-9,1493	9,2593
91567	11,358	0,	-8,5535	9,2883
91568	11,081	0,	-7,9679	9,3102
91569	10,784	0,	-7,4014	9,3216
91570	10,119	0,	-7,6092	9,0487
91571	10,777	0,	6,4156	9,4782
91572	11,087	0,	7,0379	9,4504
91573	-10,322	0,	-6,0159	9,4478
91574	-10,025	0,	-5,3763	9,4675
91575	10,14	0,	-6,2686	9,3264
91576	10,471	0,	-6,8315	9,33
91577	9,806	0,	-7,0394	9,0541
91578	9,802	0,	-5,6932	9,3281
91579	9,4622	0,	-5,1138	9,3207
91580	9,1306	0,	-4,4958	9,3288
91581	8,8031	0,	-3,8606	9,3254
91582	2,092	0,	29,921	12,638
91583	1,5409	0,	29,944	12,674
91584	2,1535	0,	29,394	12,411
91585	1,0206	0,	29,949	12,692
91586	0,47085	0,	29,919	12,688
91587	12,573	0,	8,7187	9,5928
91588	12,324	0,	8,0909	9,6568
91589	11,927	0,	8,9605	9,3131
91590	-11,934	0,	9,539	9,1943
91591	-12,621	0,	9,3486	9,4606
91592	-12,331	0,	8,8098	9,4863
91593	-11,963	0,	8,3455	9,4642
91594	-11,682	0,	7,8242	9,4836
91595	1,4605	0,	-28,805	13,807
91596	1,559	0,	-29,52	14,243
91597	1,0565	0,	-29,719	14,448
91598	-1,833	0,	-28,705	13,696
91599	-1,9958	0,	-29,46	14,132
91600	-1,4485	0,	-29,551	14,291
91601	-0,92835	0,	-29,62	14,383
91602	-0,41865	0,	-29,709	14,486
91603	-10,435	0,	6,9218	9,2437
91604	-10,133	0,	6,3465	9,2631
91605	-11,992	0,	-7,6669	9,7113
91606	-11,662	0,	-7,0687	9,7203
91607	-12,263	0,	-8,3271	9,6604
91608	-12,49	0,	-8,9992	9,5919
91609	-9,1525	0,	3,0509	9,5496
91610	-9,4841	0,	3,7115	9,5662
91611	-9,8239	0,	5,7542	9,2877
91612	-9,4976	0,	5,158	9,2966
91613	8,8686	0,	3,1608	9,4431
91614	8,196	0,	3,213	9,2319
91615	1,9785	0,	28,063	11,87
91616	2,376	0,	27,318	11,547
91617	2,5691	0,	28,03	11,824
91618	2,1574	0,	28,799	12,163
91619	2,7836	0,	26,527	11,208
91620	3,2129	0,	25,708	10,864
91621	3,39	0,	26,42	11,132
91622	2,9688	0,	27,234	11,479
91623	3,6391	0,	24,882	10,526
91624	4,0613	0,	24,058	10,199
91625	4,2441	0,	24,768	10,456
91626	3,8189	0,	25,595	10,789
91627	4,4851	0,	23,232	9,883
91628	4,9066	0,	22,406	9,5823
91629	5,0946	0,	23,111	9,8259
91630	4,6666	0,	23,944	10,135
91631	5,3299	0,	21,581	9,2991
91632	5,7589	0,	20,755	9,0357
91633	5,9507	0,	21,455	9,2624
91634	5,518	0,	22,285	9,5353
91635	6,1896	0,	19,924	8,7952
91636	6,6283	0,	19,09	8,5817
91637	6,8193	0,	19,785	8,7841
91638	6,3851	0,	20,621	9,0106
91639	7,0724	0,	18,254	8,4005
91640	7,5147	0,	17,421	8,2555
91641	7,7115	0,	18,11	8,424
91642	6,882	0,	17,558	8,2094
91643	7,2639	0,	18,947	8,5872
91644	7,9564	0,	16,588	8,1503
91645	8,3949	0,	15,754	8,0871
91646	8,5987	0,	16,439	8,2128
91647	7,7628	0,	15,899	8,0033
91648	8,1529	0,	17,277	8,2985
91649	9,0405	0,	15,595	8,1698
91650	8,8392	0,	14,918	8,0704
91651	9,9283	0,	13,916	8,2272
91652	9,7279	0,	13,242	8,1821
91653	9,2852	0,	14,081	8,1019
91654	10,839	0,	12,234	8,4874
91655	10,637	0,	11,562	8,4972
91656	10,18	0,	12,404	8,3142
91657	11,747	0,	10,503	8,9529
91658	11,086	0,	10,709	8,7275
91659	11,517	0,	9,8393	9,0011
91660	-1,481	0,	28,174	11,933
91661	-1,2581	0,	29,139	12,344
91662	-0,79301	0,	29,01	12,297
91663	-1,713	0,	28,898	12,222
91664	-2,0235	0,	27,284	11,546
91665	-2,181	0,	28,034	11,844
91666	-2,5347	0,	26,452	11,188
91667	-2,682	0,	27,181	11,472
91668	-3,1563	0,	26,373	11,125
91669	-2,9985	0,	25,653	10,851
91670	-4,0624	0,	24,737	10,451
91671	-3,4489	0,	24,84	10,516
91672	-3,8825	0,	24,024	10,19
91673	-4,7374	0,	22,396	9,5785
91674	-4,9268	0,	23,1	9,8245
91675	-4,3077	0,	23,209	9,8771
91676	-5,1739	0,	21,58	9,2959
91677	-5,3616	0,	22,281	9,5342
91678	-5,6197	0,	20,757	9,0317
91679	-5,8027	0,	21,458	9,2612
91680	-6,066	0,	19,932	8,7908
91681	-6,2551	0,	20,628	9,0085
91682	-5,4353	0,	20,053	8,7922
91683	-6,514	0,	19,104	8,5772
91684	-6,7033	0,	19,799	8,7815
91685	-6,9631	0,	18,274	8,395
91686	-7,1576	0,	18,965	8,5836
91687	-6,3231	0,	18,408	8,3666
91688	-7,4133	0,	17,445	8,2489
91689	-7,6074	0,	18,133	8,419
91690	-7,8741	0,	16,614	8,1433
91691	-8,0669	0,	17,297	8,2918
91692	-8,3394	0,	15,784	8,0821
91693	-8,5301	0,	16,462	8,2065
91694	-8,8025	0,	14,957	8,0672
91695	-8,995	0,	15,632	8,1664
91696	-8,1468	0,	15,103	7,9599
91697	-9,4599	0,	14,801	8,1728
91698	-9,2503	0,	14,134	8,0971
91699	-10,123	0,	12,508	8,295
91700	-10,335	0,	13,16	8,3188
91701	-9,6861	0,	13,315	8,1725
91702	-10,56	0,	11,709	8,4625
91703	-9,9151	0,	11,859	8,277
91704	-10,778	0,	12,357	8,4629
91705	-11,001	0,	10,923	8,6734
91706	-11,217	0,	11,56	8,6512
91707	-11,453	0,	10,224	8,9146
91708	-11,668	0,	10,788	8,8824
91709	-12,137	0,	10,1	9,1456
91710	1,7828	0,	-27,884	13,205
91711	2,0092	0,	-28,603	13,594
91712	1,1876	0,	-28,218	13,449
91713	2,1583	0,	-27,033	12,669
91714	2,3803	0,	-27,741	13,028
91715	2,805	0,	-26,908	12,503
91716	2,6299	0,	-26,197	12,155
91717	4,0124	0,	-23,729	10,796
91718	4,1978	0,	-24,438	11,096
91719	3,5784	0,	-24,54	11,216
91720	4,4532	0,	-22,922	10,403
91721	4,6401	0,	-23,626	10,689
91722	5,0803	0,	-22,814	10,309
91723	4,8927	0,	-22,113	10,036
91724	5,7732	0,	-20,486	9,3817
91725	5,963	0,	-21,182	9,6288
91726	5,3334	0,	-21,302	9,6946
91727	6,2092	0,	-19,67	9,1011
91728	6,4037	0,	-20,36	9,3328
91729	6,6521	0,	-18,853	8,8555
91730	6,8446	0,	-19,541	9,0714
91731	7,1007	0,	-18,034	8,6478
91732	7,2969	0,	-18,719	8,8458
91733	6,464	0,	-18,16	8,627
91734	7,7463	0,	-17,894	8,6586
91735	7,5475	0,	-17,214	8,4808
91736	8,6484	0,	-16,24	8,4133
91737	8,4553	0,	-15,561	8,2823
91738	7,9988	0,	-16,389	8,3578
91739	9,5727	0,	-14,581	8,3608
91740	9,3866	0,	-13,913	8,286
91741	8,9131	0,	-14,737	8,2572
91742	10,553	0,	-12,917	8,5252
91743	9,8774	0,	-13,088	8,3706
91744	10,372	0,	-12,259	8,5089
91745	11,569	0,	-11,228	8,9124
91746	10,681	0,	-10,795	8,7089
91747	10,873	0,	-11,425	8,7008
91748	-10,787	0,	-11,221	8,6965
91749	-10,598	0,	-10,524	8,7169
91750	-11,43	0,	-11,032	8,897
91751	-10,323	0,	-12,126	8,5023
91752	-10,968	0,	-11,942	8,6777
91753	-9,8691	0,	-13,008	8,3684
91754	-10,516	0,	-12,83	8,5186
91755	-9,4196	0,	-13,873	8,2909
91756	-10,065	0,	-13,702	8,416
91757	-8,9747	0,	-14,726	8,2675
91758	-9,6168	0,	-14,56	8,3678
91759	-8,7755	0,	-14,04	8,1639
91760	-9,1759	0,	-15,406	8,3724
91761	-8,5422	0,	-15,57	8,2975
91762	-7,67	0,	-17,229	8,4976
91763	-8,3133	0,	-17,084	8,5296
91764	-8,1121	0,	-16,405	8,3761
91765	-7,2247	0,	-18,046	8,6609
91766	-7,8619	0,	-17,907	8,6714
91767	-6,7828	0,	-18,863	8,8657
91768	-7,4178	0,	-18,723	8,8538
91769	-6,3461	0,	-19,682	9,1091
91770	-6,9714	0,	-19,545	9,0766
91771	-6,1561	0,	-18,993	8,8673
91772	-5,9142	0,	-20,502	9,3884
91773	-6,5388	0,	-20,368	9,3362
91774	-5,4823	0,	-21,325	9,7008
91775	-6,1034	0,	-21,194	9,6304
91776	-5,2941	0,	-20,629	9,4265
91777	-5,6707	0,	-22,021	9,9563
91778	-5,0484	0,	-22,146	10,043
91779	-4,1959	0,	-23,77	10,8
91780	-4,8101	0,	-23,662	10,689
91781	-4,6187	0,	-22,963	10,411
91782	-3,7778	0,	-24,576	11,214
91783	-4,3852	0,	-24,474	11,092
91784	-3,5745	0,	-23,867	10,885
91785	-3,9685	0,	-25,285	11,52
91786	-3,3718	0,	-25,386	11,653
91787	-2,5855	0,	-27,033	12,615
91788	-3,1607	0,	-26,929	12,462
91789	-2,9743	0,	-26,204	12,119
91790	-2,2054	0,	-27,864	13,138
91791	-2,7699	0,	-27,766	12,982
91792	-2,0153	0,	-27,128	12,725
91793	-2,3829	0,	-28,607	13,536
91794	-9,5318	0,	-4,0042	9,5469
91795	-8,8602	0,	-4,1075	9,3071
91796	-9,7666	0,	-4,6886	9,5117
91797	8,0709	0,	1,6145	9,3742
91798	8,0916	0,	0,8094	9,4294
91799	-8,5791	0,	-2,5665	9,4397
91800	-8,5405	0,	-1,7773	9,5072
91801	-12,652	0,	-9,7438	9,4904
91802	-12,724	0,	-10,641	9,3355
91803	-12,088	0,	-10,812	9,124
91804	8,1915	0,	-1,8259e-002	9,4729
91805	8,3538	0,	-0,81403	9,5098
91806	-8,5817	0,	-0,93624	9,5732
91807	-8,6964	0,	-0,11555	9,6323
91808	8,5748	0,	-1,6137	9,5276
91809	8,8486	0,	-2,3535	9,5514
91810	-8,8967	0,	0,71396	9,6802
91811	-9,1597	0,	1,4735	9,7309
91812	-9,4564	0,	2,2157	9,7587
91813	-9,7822	0,	2,8882	9,7976
91814	-1,5845	0,	29,859	12,635
91815	-1,0538	0,	29,914	12,675
91816	9,5449	0,	3,0709	9,6845
91817	10,395	0,	3,6678	9,9043
91818	10,197	0,	3,012	9,9304
91819	10,614	0,	4,3421	9,8616
91820	10,876	0,	4,9738	9,8376
91821	12,269	0,	-11,013	9,1466
91822	12,973	0,	-10,782	9,383
91823	12,771	0,	-10,145	9,4483
91824	12,55	0,	-9,5254	9,4976
91825	12,301	0,	-8,9178	9,5442
91826	12,04	0,	-8,3219	9,5796
91827	11,756	0,	-7,7445	9,6036
91828	11,161	0,	5,6089	9,8072
91829	11,456	0,	6,2212	9,782
91830	10,471	0,	-5,5055	9,6047
91831	10,811	0,	-6,0666	9,6185
91832	10,131	0,	-4,9261	9,5987
91833	9,789	0,	-4,3406	9,5789
91834	-11,033	0,	-5,8152	9,7554
91835	-11,343	0,	-6,4294	9,7436
91836	2,4796	0,	29,704	12,528
91837	2,7613	0,	30,467	12,828
91838	2,182	0,	30,55	12,904
91839	1,6309	0,	30,573	12,939
91840	1,0612	0,	30,608	12,974
91841	12,815	0,	9,3697	9,5253
91842	13,453	0,	9,0798	9,8145
91843	13,219	0,	8,4667	9,8934
91844	-12,824	0,	9,9095	9,4074
91845	-13,501	0,	9,7178	9,6677
91846	-13,272	0,	9,1328	9,7404
91847	-12,982	0,	8,594	9,7713
91848	-12,694	0,	8,0569	9,8035
91849	2,0909	0,	-30,069	14,512
91850	1,5933	0,	-30,229	14,729
91851	2,1077	0,	-29,318	14,034
91852	-2,5457	0,	-29,362	13,978
91853	-2,6933	0,	-30,112	14,393
91854	-2,1201	0,	-30,216	14,62
91855	-1,5728	0,	-30,307	14,772
91856	-1,0208	0,	-30,382	14,917
91857	-11,415	0,	7,2575	9,5197
91858	-11,108	0,	6,702	9,534
91859	2,9e-002	0,	-29,809	14,559
91860	0,55007	0,	-29,806	14,54
91861	11,458	0,	-7,1781	9,6196
91862	11,142	0,	-6,6296	9,6195
91863	11,766	0,	6,8436	9,7512
91864	12,05	0,	7,4577	9,7097
91865	-7,7502e-002	0,	29,803	12,641
91866	-0,58876	0,	29,785	12,631
91867	-12,966	0,	-7,9778	10,009
91868	-12,687	0,	-7,3881	10,047
91869	-10,806	0,	6,1267	9,5567
91870	-10,485	0,	5,5648	9,5592
91871	9,1416	0,	-3,063	9,5562
91872	9,4614	0,	-3,7053	9,576
91873	-9,813	0,	4,3566	9,5608
91874	-10,159	0,	4,9685	9,5697
91875	-10,114	0,	3,5488	9,8127
91876	-10,47	0,	4,17	9,8436
91877	8,7681	0,	2,3817	9,5129
91878	8,0955	0,	2,4339	9,3029
91879	8,7025	0,	1,6085	9,5668
91880	9,4086	0,	2,3527	9,73
91881	2,748	0,	28,767	12,12
91882	3,1619	0,	27,947	11,758
91883	3,3466	0,	28,666	12,03
91884	2,9601	0,	29,498	12,402
91885	3,5752	0,	27,128	11,405
91886	3,996	0,	26,307	11,058
91887	4,1787	0,	27,017	11,313
91888	3,7617	0,	27,843	11,667
91889	4,424	0,	25,481	10,72
91890	4,8494	0,	24,654	10,393
91891	5,0305	0,	25,363	10,635
91892	4,6046	0,	26,193	10,969
91893	5,4615	0,	24,53	10,313
91894	5,2761	0,	23,823	10,078
91895	6,3281	0,	22,858	9,7165
91896	6,1388	0,	22,158	9,4973
91897	5,706	0,	22,989	9,7783
91898	7,2102	0,	21,177	9,1968
91899	6,5768	0,	21,321	9,2354
91900	7,0148	0,	20,481	8,9969
91901	7,903	0,	18,803	8,6064
91902	8,5439	0,	18,653	8,6182
91903	8,3497	0,	17,966	8,4622
91904	8,0935	0,	19,494	8,7796
91905	7,4549	0,	19,643	8,786
91906	9,2443	0,	16,28	8,2896
91907	9,4471	0,	16,964	8,4062
91908	8,7953	0,	17,128	8,3556
91909	9,6876	0,	15,436	8,2683
91910	10,129	0,	14,594	8,2939
91911	10,338	0,	15,27	8,3623
91912	9,4863	0,	14,759	8,175
91913	9,894	0,	16,114	8,3613
91914	10,581	0,	13,75	8,3704
91915	11,04	0,	12,906	8,4987
91916	11,243	0,	13,577	8,5116
91917	10,381	0,	13,077	8,3316
91918	10,782	0,	14,421	8,4103
91919	11,503	0,	12,048	8,6801
91920	11,962	0,	11,171	8,9147
91921	11,301	0,	11,376	8,6963
91922	12,17	0,	11,854	8,8725
91923	11,703	0,	12,725	8,664
91924	12,399	0,	10,275	9,1977
91925	13,056	0,	10,031	9,4515
91926	12,169	0,	9,6114	9,2536
91927	12,627	0,	10,958	9,1355
91928	-3,0188	0,	28,655	12,051
91929	-2,413	0,	28,757	12,137
91930	-2,8396	0,	27,931	11,773
91931	-3,9377	0,	26,998	11,323
91932	-3,3037	0,	27,101	11,411
91933	-3,7722	0,	26,278	11,06
91934	-4,6735	0,	24,633	10,393
91935	-4,8494	0,	25,346	10,64
91936	-4,228	0,	25,456	10,721
91937	-5,1126	0,	23,81	10,079
91938	-5,2954	0,	24,518	10,317
91939	-4,4935	0,	23,919	10,131
91940	-5,551	0,	22,985	9,7797
91941	-5,7334	0,	23,691	10,011
91942	-6,1807	0,	22,858	9,7198
91943	-5,9904	0,	22,16	9,4983
91944	-6,8923	0,	20,495	8,9965
91945	-7,0809	0,	21,192	9,1992
91946	-6,4381	0,	21,33	9,236
91947	-7,5355	0,	20,353	8,9744
91948	-7,3469	0,	19,66	8,7844
91949	-8,2609	0,	17,985	8,4572
91950	-8,4578	0,	18,676	8,6163
91951	-7,8019	0,	18,824	8,6035
91952	-8,9185	0,	17,83	8,4884
91953	-8,7229	0,	17,146	8,3496
91954	-9,6523	0,	15,476	8,266
91955	-9,8506	0,	16,152	8,3589
91956	-9,1857	0,	16,311	8,285
91957	-10,109	0,	14,645	8,2924
91958	-10,32	0,	15,314	8,3618
91959	-10,549	0,	13,822	8,3633
91960	-10,764	0,	14,484	8,408
91961	-9,8998	0,	13,977	8,2225
91962	-11,203	0,	13,658	8,5007
91963	-10,99	0,	13,009	8,4818
91964	-12,096	0,	12,048	8,8289
91965	-11,884	0,	11,425	8,8569
91966	-11,435	0,	12,208	8,6471
91967	-13,03	0,	10,49	9,3444
91968	-12,352	0,	10,664	9,1116
91969	3,027	0,	-27,616	12,87
91970	3,2254	0,	-28,334	13,21
91971	2,6066	0,	-28,46	13,425
91972	3,4641	0,	-26,789	12,354
91973	3,6609	0,	-27,495	12,668
91974	3,924	0,	-25,965	11,866
91975	3,289	0,	-26,078	12,001
91976	4,1042	0,	-26,67	12,166
91977	4,3798	0,	-25,149	11,413
91978	4,5616	0,	-25,852	11,697
91979	3,7604	0,	-25,251	11,53
91980	5,0094	0,	-25,038	11,262
91981	4,8255	0,	-24,335	10,99
91982	5,7074	0,	-22,705	10,23
91983	5,8991	0,	-23,399	10,474
91984	5,2672	0,	-23,519	10,595
91985	6,1494	0,	-21,884	9,8899
91986	6,3427	0,	-22,581	10,125
91987	5,5198	0,	-22,004	9,9564
91988	6,5934	0,	-21,055	9,5782
91989	6,7878	0,	-21,75	9,801
91990	7,0391	0,	-20,231	9,3006
91991	7,2364	0,	-20,919	9,5089
91992	7,6825	0,	-20,094	9,2527
91993	7,4894	0,	-19,407	9,0582
91994	8,391	0,	-17,752	8,6864
91995	8,5898	0,	-18,432	8,8467
91996	7,9425	0,	-18,58	8,8524
91997	8,8418	0,	-16,922	8,5633
91998	9,0372	0,	-17,6	8,7031
91999	8,1922	0,	-17,071	8,5136
92000	9,3028	0,	-16,089	8,4866
92001	9,4956	0,	-16,769	8,6041
92002	9,7693	0,	-15,255	8,4591
92003	9,1098	0,	-15,41	8,3619
92004	9,9609	0,	-15,931	8,5515
92005	10,243	0,	-14,419	8,4835
92006	10,431	0,	-15,092	8,5485
92007	10,732	0,	-13,58	8,5629
92008	10,057	0,	-13,751	8,4155
92009	10,918	0,	-14,249	8,5995
92010	11,238	0,	-12,733	8,7002
92011	11,412	0,	-13,402	8,7052
92012	11,754	0,	-11,878	8,8955
92013	11,925	0,	-12,543	8,8707
92014	11,058	0,	-12,075	8,6912
92015	12,448	0,	-11,67	9,0966
92016	-11,808	0,	-12,467	8,8488
92017	-11,611	0,	-11,753	8,8702
92018	-11,161	0,	-12,646	8,6861
92019	-10,262	0,	-14,389	8,4856
92020	-10,913	0,	-14,213	8,5981
92021	-10,712	0,	-13,524	8,5585
92022	-9,8181	0,	-15,241	8,4658
92023	-10,463	0,	-15,072	8,5526
92024	-10,02	0,	-15,919	8,5586
92025	-9,3847	0,	-16,089	8,4979
92026	-9,1543	0,	-17,608	8,7146
92027	-8,9523	0,	-16,931	8,5772
92028	-8,5052	0,	-17,762	8,6984
92029	-7,6064	0,	-19,406	9,0612
92030	-8,2474	0,	-19,259	9,0327
92031	-8,0549	0,	-18,585	8,8601
92032	-7,1641	0,	-20,232	9,3011
92033	-7,8016	0,	-20,088	9,2509
92034	-6,728	0,	-21,06	9,5765
92035	-7,3613	0,	-20,92	9,506
92036	-6,2918	0,	-21,89	9,8851
92037	-6,9228	0,	-21,751	9,794
92038	-5,8591	0,	-22,718	10,224
92039	-6,4859	0,	-22,585	10,115
92040	-5,4282	0,	-23,542	10,589
92041	-6,0511	0,	-23,41	10,463
92042	-5,2368	0,	-22,844	10,31
92043	-4,9993	0,	-24,366	10,983
92044	-5,6163	0,	-24,241	10,841
92045	-4,5758	0,	-25,183	11,401
92046	-5,1877	0,	-25,066	11,246
92047	-4,1614	0,	-26,	11,846
92048	-4,7671	0,	-25,884	11,676
92049	-3,751	0,	-26,826	12,323
92050	-4,3489	0,	-26,71	12,138
92051	-3,5647	0,	-26,101	11,974
92052	-3,3451	0,	-27,662	12,835
92053	-3,9324	0,	-27,546	12,637
92054	-2,9474	0,	-28,509	13,385
92055	-3,5189	0,	-28,393	13,176
92056	-3,1131	0,	-29,253	13,761
92057	-9,3503	0,	-3,2629	9,6036
92058	-9,2055	0,	-2,5321	9,648
92059	-8,6787	0,	-3,3662	9,364
92060	-10,218	0,	-3,8588	9,8259
92061	-9,996	0,	-3,1922	9,8445
92062	-13,194	0,	-8,6499	9,9256
92063	-13,508	0,	-9,1291	9,9214
92064	-13,272	0,	-9,7123	9,6885
92065	8,8143	0,	2,0501e-002	9,6698
92066	8,7232	0,	0,80347	9,6213
92067	-9,1669	0,	-1,7429	9,7147
92068	-9,1975	0,	-0,96639	9,7769
92069	8,9767	0,	-0,77527	9,7066
92070	9,2062	0,	-1,5211	9,7479
92071	-9,3122	0,	-0,1457	9,8349
92072	-9,5081	0,	0,63075	9,8982
92073	9,48	0,	-2,2608	9,7715
92074	9,7897	0,	-2,915	9,8112
92075	-10,084	0,	2,0802	10,01
92076	-9,7711	0,	1,3903	9,948
92077	-2,2028	0,	30,362	12,82
92078	-1,6384	0,	30,476	12,898
92079	-2,0394	0,	29,618	12,516
92080	11,068	0,	3,5593	10,191
92081	11,308	0,	4,1742	10,179
92082	-10,41	0,	2,7527	10,048
92083	-10,761	0,	3,3646	10,101
92084	10,061	0,	2,2938	9,9752
92085	10,87	0,	2,9036	10,217
92086	10,673	0,	2,2352	10,222
92087	13,152	0,	-11,439	9,324
92088	13,852	0,	-11,21	9,5438
92089	13,679	0,	-10,536	9,6451
92090	13,477	0,	-9,8987	9,7196
92091	13,24	0,	-9,2801	9,7899
92092	12,991	0,	-8,6725	9,8444
92093	12,72	0,	-8,0806	9,8899
92094	11,57	0,	4,8059	10,153
92095	11,854	0,	5,4116	10,136
92096	-10,883	0,	-3,7423	10,105
92097	-11,153	0,	-4,3585	10,108
92098	-10,453	0,	-4,5432	9,7895
92099	10,795	0,	-4,7369	9,8851
92100	11,143	0,	-5,3015	9,9126
92101	10,453	0,	-4,1514	9,8673
92102	10,109	0,	-3,5573	9,83
92103	-11,436	0,	-4,9909	10,094
92104	-11,747	0,	-5,5863	10,097
92105	-10,736	0,	-5,1756	9,778
92106	3,2418	0,	30,262	12,705
92107	3,4419	0,	31,014	13,002
92108	2,8495	0,	31,105	13,097
92109	2,2702	0,	31,187	13,171
92110	1,6829	0,	31,232	13,22
92111	13,694	0,	9,741	9,729
92112	14,314	0,	9,3849	10,029
92113	14,1	0,	8,7938	10,127
92114	-13,707	0,	10,298	9,5996
92115	-14,388	0,	10,11	9,8489
92116	-14,172	0,	9,5046	9,9517
92117	-13,943	0,	8,9196	10,031
92118	-13,677	0,	8,3483	10,098
92119	2,7528	0,	-29,984	14,312
92120	2,5992	0,	-30,732	14,829
92121	2,141	0,	-30,869	15,064
92122	3,2345	0,	-30,065	14,222
92123	3,0809	0,	-30,813	14,738
92124	3,6454	0,	-30,712	14,455
92125	-3,2607	0,	-30,003	14,184
92126	-3,4065	0,	-30,743	14,561
92127	-2,8085	0,	-30,865	14,871
92128	-2,2353	0,	-30,969	15,089
92129	-1,6518	0,	-31,056	15,31
92130	-12,413	0,	7,5356	9,8299
92131	-12,101	0,	7,0049	9,841
92132	-0,51109	0,	-30,472	15,016
92133	3,2004e-002	0,	-30,506	15,06
92134	1,0908	0,	-30,428	14,931
92135	0,55307	0,	-30,504	15,042
92136	12,436	0,	-7,5032	9,9204
92137	12,137	0,	-6,947	9,9355
92138	11,483	0,	-5,8625	9,9236
92139	11,82	0,	-6,3985	9,9401
92140	0,51153	0,	30,578	12,969
92141	-3,767e-002	0,	30,553	12,962
92142	-1,1077	0,	30,532	12,938
92143	-0,54893	0,	30,535	12,951
92144	-12,357	0,	-6,7898	10,065
92145	-12,056	0,	-6,2005	10,081
92146	12,149	0,	6,024	10,108
92147	12,434	0,	6,622	10,074
92148	-11,794	0,	6,4494	9,8606
92149	-11,478	0,	5,9052	9,8625
92150	-11,157	0,	5,3432	9,8684
92151	-10,816	0,	4,7818	9,8506
92152	-13,655	0,	-7,6901	10,357
92153	-13,915	0,	-8,2411	10,304
92154	-14,091	0,	-9,4511	10,034
92155	-14,597	0,	-9,2438	10,259
92156	-14,23	0,	-8,7202	10,287
92157	9,9386	0,	1,562	10,
92158	9,343	0,	1,5796	9,783
92159	3,5586	0,	29,397	12,315
92160	3,9463	0,	28,562	11,941
92161	4,1375	0,	29,279	12,201
92162	3,7519	0,	30,123	12,59
92163	4,3651	0,	27,732	11,577
92164	4,7872	0,	26,903	11,224
92165	4,9736	0,	27,612	11,463
92166	4,5535	0,	28,446	11,826
92167	5,4019	0,	26,779	11,113
92168	5,211	0,	26,074	10,884
92169	6,0796	0,	24,398	10,24
92170	6,5163	0,	23,56	9,9426
92171	6,6971	0,	24,261	10,151
92172	5,8942	0,	23,691	10,005
92173	6,2614	0,	25,105	10,457
92174	5,6425	0,	25,239	10,556
92175	6,9572	0,	22,718	9,6635
92176	7,4013	0,	21,874	9,405
92177	7,5876	0,	22,571	9,5955
92178	6,768	0,	22,018	9,4456
92179	7,1418	0,	23,421	9,8641
92180	7,8447	0,	21,032	9,1712
92181	8,2879	0,	20,188	8,9641
92182	8,4857	0,	20,878	9,1323
92183	7,6493	0,	20,336	8,9739
92184	8,0363	0,	21,726	9,3516
92185	8,9324	0,	20,03	8,942
92186	8,7344	0,	19,344	8,7872
92187	9,6483	0,	17,649	8,5383
92188	10,097	0,	16,798	8,4719
92189	10,297	0,	17,481	8,5735
92190	9,1907	0,	18,498	8,6443
92191	9,8451	0,	18,335	8,6599
92192	8,9965	0,	17,812	8,4932
92193	10,748	0,	16,627	8,5285
92194	10,545	0,	15,948	8,4491
92195	11,646	0,	14,923	8,5739
92196	11,444	0,	14,248	8,545
92197	10,991	0,	15,097	8,4721
92198	12,567	0,	13,219	8,8196
92199	11,906	0,	13,396	8,6702
92200	12,37	0,	12,531	8,8491
92201	13,283	0,	10,713	9,3799
92202	13,95	0,	10,461	9,6282
92203	13,496	0,	11,434	9,2903
92204	12,835	0,	11,641	9,0854
92205	-3,2061	0,	29,382	12,341
92206	-2,7637	0,	30,228	12,73
92207	-3,3708	0,	30,108	12,623
92208	-2,6003	0,	29,484	12,423
92209	-3,6509	0,	28,548	11,963
92210	-3,823	0,	29,268	12,231
92211	-4,1056	0,	27,72	11,596
92212	-4,2798	0,	28,437	11,853
92213	-3,4716	0,	27,824	11,682
92214	-4,5647	0,	26,892	11,24
92215	-4,7362	0,	27,605	11,486
92216	-5,0207	0,	26,062	10,895
92217	-5,1994	0,	26,77	11,13
92218	-4,3993	0,	26,172	10,975
92219	-5,4714	0,	25,231	10,565
92220	-5,6517	0,	25,937	10,792
92221	-5,9162	0,	24,399	10,25
92222	-6,1047	0,	25,101	10,468
92223	-6,363	0,	23,563	9,9504
92224	-6,5522	0,	24,264	10,161
92225	-6,8177	0,	22,725	9,669
92226	-7,0073	0,	23,423	9,8711
92227	-7,2703	0,	21,888	9,41
92228	-7,4656	0,	22,581	9,6021
92229	-6,6274	0,	22,027	9,4487
92230	-7,7241	0,	21,049	9,1744
92231	-7,9195	0,	21,741	9,3568
92232	-8,3759	0,	20,898	9,1364
92233	-8,1823	0,	20,205	8,9649
92234	-9,1153	0,	18,52	8,6426
92235	-9,3119	0,	19,207	8,7841
92236	-8,6496	0,	19,364	8,787
92237	-9,5756	0,	17,673	8,5347
92238	-9,7718	0,	18,353	8,6574
92239	-10,235	0,	17,508	8,5708
92240	-10,045	0,	16,83	8,4693
92241	-9,38	0,	16,989	8,4013
92242	-10,974	0,	15,153	8,4714
92243	-11,187	0,	15,821	8,5286
92244	-10,518	0,	15,99	8,4485
92245	-11,418	0,	14,32	8,5394
92246	-11,63	0,	14,983	8,5717
92247	-11,862	0,	13,497	8,6549
92248	-12,077	0,	14,151	8,6626
92249	-12,31	0,	12,688	8,8182
92250	-11,648	0,	12,848	8,6415
92251	-12,521	0,	13,329	8,8003
92252	-12,77	0,	11,891	9,0302
92253	-12,977	0,	12,52	8,9876
92254	-13,236	0,	11,094	9,2907
92255	-12,557	0,	11,268	9,0627
92256	-13,44	0,	11,716	9,2242
92257	-13,911	0,	10,912	9,5113
92258	3,3884	0,	-29,107	13,625
92259	3,6345	0,	-29,776	13,909
92260	2,7697	0,	-29,232	13,832
92261	3,8592	0,	-28,214	13,016
92262	4,0587	0,	-28,919	13,312
92263	4,4953	0,	-28,085	12,766
92264	4,3009	0,	-27,377	12,486
92265	5,1912	0,	-25,741	11,549
92266	5,3754	0,	-26,442	11,798
92267	4,7418	0,	-26,556	12,001
92268	5,6409	0,	-24,922	11,126
92269	5,8268	0,	-25,619	11,362
92270	6,0889	0,	-24,098	10,733
92271	6,278	0,	-24,798	10,958
92272	5,457	0,	-24,218	10,853
92273	6,5344	0,	-23,275	10,37
92274	6,7286	0,	-23,967	10,582
92275	6,9811	0,	-22,447	10,035
92276	7,1782	0,	-23,138	10,237
92277	7,4308	0,	-21,613	9,7302
92278	7,6259	0,	-22,305	9,9226
92279	7,8798	0,	-20,782	9,4587
92280	8,0787	0,	-21,467	9,6383
92281	8,3313	0,	-19,952	9,2221
92282	8,5276	0,	-20,635	9,389
92283	8,7856	0,	-19,118	9,0212
92284	8,9816	0,	-19,8	9,1741
92285	8,1383	0,	-19,265	9,031
92286	9,236	0,	-18,281	8,8586
92287	9,4398	0,	-18,962	8,9955
92288	9,691	0,	-17,446	8,7384
92289	9,8904	0,	-18,126	8,857
92290	10,35	0,	-17,286	8,7605
92291	10,154	0,	-16,61	8,6627
92292	11,289	0,	-15,598	8,7056
92293	11,105	0,	-14,921	8,6575
92294	10,623	0,	-15,768	8,6343
92295	12,273	0,	-13,889	8,8578
92296	12,098	0,	-13,211	8,8679
92297	11,597	0,	-14,07	8,7344
92298	13,311	0,	-12,125	9,2476
92299	12,619	0,	-12,335	9,0636
92300	-12,893	0,	-11,404	9,2618
92301	-13,542	0,	-11,288	9,4462
92302	-13,345	0,	-10,61	9,5346
92303	-12,452	0,	-12,289	9,029
92304	-12,256	0,	-11,575	9,0578
92305	-13,098	0,	-12,133	9,196
92306	-12,66	0,	-12,998	8,9962
92307	-12,008	0,	-13,169	8,8513
92308	-11,767	0,	-14,721	8,7528
92309	-11,113	0,	-14,896	8,6578
92310	-11,562	0,	-14,037	8,7283
92311	-10,231	0,	-16,598	8,6696
92312	-10,875	0,	-16,421	8,7132
92313	-10,665	0,	-15,75	8,6387
92314	-9,7972	0,	-17,445	8,7469
92315	-10,444	0,	-17,276	8,7665
92316	-9,5952	0,	-16,767	8,6152
92317	-9,3487	0,	-18,286	8,8657
92318	-9,9992	0,	-18,127	8,8628
92319	-8,8921	0,	-19,113	9,0229
92320	-9,5449	0,	-18,96	8,9977
92321	-8,6996	0,	-18,439	8,8544
92322	-8,4426	0,	-19,941	9,2191
92323	-9,0864	0,	-19,79	9,171
92324	-7,9987	0,	-20,776	9,4534
92325	-8,6401	0,	-20,623	9,3822
92326	-7,5561	0,	-21,61	9,722
92327	-8,196	0,	-21,46	9,6289
92328	-7,1169	0,	-22,446	10,023
92329	-7,7535	0,	-22,299	9,9093
92330	-6,6778	0,	-23,277	10,354
92331	-7,3089	0,	-23,137	10,222
92332	-6,2392	0,	-24,109	10,716
92333	-6,8686	0,	-23,971	10,563
92334	-6,4312	0,	-24,806	10,934
92335	-5,8047	0,	-24,941	11,107
92336	-4,5303	0,	-27,43	12,458
92337	-4,9546	0,	-26,594	11,972
92338	-5,1353	0,	-27,3	12,231
92339	-4,1062	0,	-28,276	12,984
92340	-4,7109	0,	-28,145	12,735
92341	-3,6846	0,	-29,137	13,559
92342	-4,2794	0,	-29,001	13,287
92343	-3,8511	0,	-29,872	13,894
92344	-9,8513	0,	-2,4614	9,8884
92345	-9,7672	0,	-1,7328	9,9295
92346	9,4327	0,	3,0311e-002	9,8786
92347	9,598	0,	-0,71007	9,9296
92348	-9,9191	0,	-0,21167	10,06
92349	-9,7979	0,	-0,95629	9,991
92350	9,8275	0,	-1,4559	9,9706
92351	10,118	0,	-2,1137	10,03
92352	-2,9051	0,	30,952	13,025
92353	-2,2991	0,	31,065	13,119
92354	11,516	0,	2,753	10,514
92355	11,74	0,	3,3863	10,514
92356	-10,7	0,	1,9606	10,26
92357	-11,047	0,	2,5757	10,34
92358	14,012	0,	-11,896	9,4582
92359	14,694	0,	-11,687	9,6468
92360	14,572	0,	-10,946	9,8009
92361	14,398	0,	-10,272	9,913
92362	14,186	0,	-9,6165	10,024
92363	13,949	0,	-8,9979	10,105
92364	13,673	0,	-8,4154	10,165
92365	11,98	0,	4,0011	10,499
92366	12,256	0,	4,6045	10,499
92367	-11,307	0,	-2,9875	10,406
92368	-11,569	0,	-3,5819	10,43
92369	-10,661	0,	-3,0757	10,125
92370	11,109	0,	-3,9606	10,159
92371	11,464	0,	-4,5221	10,208
92372	10,765	0,	-3,3666	10,125
92373	10,427	0,	-2,7679	10,068
92374	-11,839	0,	-4,1981	10,43
92375	-12,139	0,	-4,7705	10,45
92376	3,9521	0,	30,876	12,891
92377	4,1165	0,	31,613	13,183
92378	3,5228	0,	31,719	13,306
92379	2,9303	0,	31,81	13,399
92380	2,3263	0,	31,878	13,471
92381	15,18	0,	9,6227	10,242
92382	14,977	0,	9,0744	10,354
92383	14,57	0,	10,104	9,9105
92384	15,458	0,	10,067	10,188
92385	15,563	0,	10,627	10,038
92386	14,848	0,	10,549	9,8724
92387	-14,591	0,	10,724	9,755
92388	-15,266	0,	10,529	9,9863
92389	-15,061	0,	9,9063	10,122
92390	-14,845	0,	9,3009	10,231
92391	-14,607	0,	8,6998	10,342
92392	3,2042	0,	-31,435	15,074
92393	2,6876	0,	-31,547	15,377
92394	4,0454	0,	-30,423	14,153
92395	3,7687	0,	-31,334	14,802
92396	4,2952	0,	-31,165	14,434
92397	-3,997	0,	-30,612	14,28
92398	-4,1396	0,	-31,345	14,608
92399	-3,5204	0,	-31,488	15,008
92400	-2,9223	0,	-31,611	15,307
92401	-2,313	0,	-31,715	15,626
92402	-13,389	0,	7,8112	10,137
92403	-13,097	0,	7,2664	10,172
92404	-1,0998	0,	-31,132	15,449
92405	-0,52995	0,	-31,182	15,558
92406	1,6435	0,	-31,029	15,276
92407	1,1132	0,	-31,125	15,454
92408	13,402	0,	-7,8235	10,219
92409	13,113	0,	-7,2537	10,255
92410	11,811	0,	-5,0866	10,232
92411	12,159	0,	-5,625	10,264
92412	13,866	0,	8,1808	10,216
92413	13,63	0,	7,5865	10,298
92414	12,97	0,	7,8389	9,9657
92415	1,1133	0,	31,268	13,254
92416	0,53559	0,	31,284	13,272
92417	-1,7347	0,	31,18	13,196
92418	-1,1387	0,	31,241	13,243
92419	12,54	0,	5,2103	10,478
92420	12,83	0,	5,7992	10,46
92421	-12,785	0,	6,7357	10,19
92422	-12,474	0,	6,201	10,198
92423	-12,158	0,	5,6568	10,206
92424	-11,823	0,	5,1195	10,187
92425	-13,375	0,	-7,1004	10,406
92426	-13,06	0,	-6,5306	10,424
92427	12,814	0,	-6,6975	10,277
92428	12,496	0,	-6,1609	10,275
92429	13,378	0,	6,9837	10,368
92430	13,115	0,	6,3972	10,421
92431	12,718	0,	7,2361	10,028
92432	-1,3605e-002	0,	31,259	13,264
92433	-0,57994	0,	31,245	13,255
92434	-14,514	0,	-9,9835	10,026
92435	-13,856	0,	-10,034	9,8168
92436	-15,02	0,	-9,7761	10,245
92437	-15,284	0,	-9,0148	10,571
92438	-15,617	0,	-9,5879	10,481
92439	-15,322	0,	-10,361	10,151
92440	-14,669	0,	-10,525	9,9342
92441	10,551	0,	1,5034	10,247
92442	11,085	0,	1,5083	10,469
92443	11,319	0,	2,0847	10,522
92444	-11,117	0,	3,9858	10,13
92445	-11,482	0,	4,5581	10,173
92446	9,9371	0,	0,79571	10,047
92447	10,035	0,	5,4944e-002	10,104
92448	9,3415	0,	0,81328	9,8304
92449	10,525	0,	0,81287	10,281
92450	4,3308	0,	30,006	12,479
92451	4,7447	0,	29,164	12,089
92452	4,9247	0,	29,885	12,339
92453	4,5073	0,	30,735	12,749
92454	5,3485	0,	29,038	11,947
92455	5,162	0,	28,326	11,714
92456	6,0173	0,	26,649	11,009
92457	6,4453	0,	25,811	10,68
92458	6,6371	0,	26,512	10,88
92459	5,8264	0,	25,945	10,779
92460	6,2072	0,	27,353	11,218
92461	5,5883	0,	27,488	11,354
92462	6,879	0,	24,968	10,367
92463	7,3226	0,	24,122	10,071
92464	7,511	0,	24,819	10,256
92465	7,071	0,	25,668	10,559
92466	7,7721	0,	23,273	9,7948
92467	8,2226	0,	22,422	9,5401
92468	8,4166	0,	23,116	9,7066
92469	7,963	0,	23,972	9,9714
92470	8,6773	0,	21,572	9,3101
92471	9,1302	0,	20,72	9,1069
92472	9,3239	0,	21,413	9,253
92473	8,8688	0,	22,265	9,4672
92474	9,5797	0,	19,87	8,9338
92475	10,233	0,	19,703	8,9114
92476	9,3817	0,	19,183	8,7831
92477	10,036	0,	19,02	8,794
92478	9,7795	0,	20,556	9,0664
92479	10,949	0,	17,31	8,6242
92480	11,15	0,	17,991	8,7061
92481	10,494	0,	18,167	8,6898
92482	11,402	0,	16,455	8,6013
92483	11,854	0,	15,602	8,6234
92484	12,06	0,	16,28	8,6611
92485	11,198	0,	15,776	8,5281
92486	11,607	0,	17,132	8,662
92487	12,312	0,	14,747	8,694
92488	12,77	0,	13,895	8,8145
92489	12,109	0,	14,072	8,6716
92490	12,976	0,	14,567	8,8002
92491	12,518	0,	15,422	8,7064
92492	13,434	0,	13,714	8,9441
92493	13,227	0,	13,041	8,9866
92494	14,351	0,	11,946	9,4025
92495	14,162	0,	11,181	9,528
92496	13,691	0,	12,146	9,2194
92497	-3,9876	0,	29,994	12,516
92498	-3,5122	0,	30,832	12,921
92499	-4,1405	0,	30,716	12,792
92500	-4,4519	0,	29,157	12,123
92501	-4,6202	0,	29,873	12,379
92502	-4,9103	0,	28,322	11,744
92503	-5,0844	0,	29,034	11,984
92504	-5,5489	0,	28,188	11,604
92505	-5,3709	0,	27,483	11,378
92506	-6,473	0,	26,509	10,9
92507	-5,8304	0,	26,645	11,028
92508	-6,285	0,	25,807	10,695
92509	-7,1964	0,	24,123	10,081
92510	-7,3876	0,	24,823	10,269
92511	-6,7407	0,	24,966	10,379
92512	-7,6551	0,	23,279	9,803
92513	-7,8462	0,	23,974	9,9813
92514	-8,3097	0,	23,124	9,7154
92515	-8,1148	0,	22,434	9,547
92516	-9,0355	0,	20,742	9,1115
92517	-9,2326	0,	21,433	9,2596
92518	-8,5713	0,	21,59	9,3163
92519	-9,5042	0,	19,893	8,9364
92520	-9,6951	0,	20,574	9,0701
92521	-8,8419	0,	20,049	8,9433
92522	-10,162	0,	19,724	8,9136
92523	-9,9685	0,	19,04	8,7941
92524	-10,909	0,	17,34	8,6236
92525	-11,096	0,	18,017	8,7054
92526	-10,432	0,	18,188	8,6882
92527	-11,387	0,	16,493	8,6021
92528	-11,583	0,	17,167	8,6625
92529	-10,719	0,	16,662	8,528
92530	-12,052	0,	16,321	8,6617
92531	-11,843	0,	15,65	8,6229
92532	-12,95	0,	14,64	8,7925
92533	-12,289	0,	14,814	8,6889
92534	-12,736	0,	13,984	8,8022
92535	-13,853	0,	12,986	9,1142
92536	-13,647	0,	12,346	9,1761
92537	-13,188	0,	13,161	8,9642
92538	-14,787	0,	11,351	9,6406
92539	-14,114	0,	11,535	9,4392
92540	4,3048	0,	-29,588	13,607
92541	4,5457	0,	-30,288	13,854
92542	4,9095	0,	-29,482	13,308
92543	4,6948	0,	-28,79	13,07
92544	5,7615	0,	-27,838	12,281
92545	5,1242	0,	-27,966	12,55
92546	5,5634	0,	-27,143	12,066
92547	4,9298	0,	-27,258	12,264
92548	6,6534	0,	-26,191	11,393
92549	6,4639	0,	-25,495	11,197
92550	6,011	0,	-26,32	11,615
92551	7,5631	0,	-24,526	10,628
92552	6,9176	0,	-24,666	10,809
92553	7,3723	0,	-23,83	10,45
92554	8,2739	0,	-22,159	9,8294
92555	8,4696	0,	-22,847	9,987
92556	7,8229	0,	-22,996	10,124
92557	8,7265	0,	-21,321	9,5665
92558	8,9224	0,	-22,007	9,7137
92559	9,1779	0,	-20,483	9,3379
92560	9,3786	0,	-21,166	9,4731
92561	9,6359	0,	-19,644	9,1444
92562	9,8328	0,	-20,324	9,2668
92563	10,296	0,	-19,482	9,0964
92564	10,094	0,	-18,807	8,9894
92565	11,008	0,	-17,122	8,8005
92566	11,21	0,	-17,8	8,8731
92567	10,549	0,	-17,966	8,8738
92568	11,479	0,	-16,276	8,7734
92569	11,671	0,	-16,952	8,8241
92570	10,813	0,	-16,446	8,7087
92571	12,149	0,	-16,1	8,822
92572	11,965	0,	-15,422	8,7961
92573	12,957	0,	-13,697	9,002
92574	13,131	0,	-14,384	8,9707
92575	12,457	0,	-14,564	8,8712
92576	13,475	0,	-12,809	9,1955
92577	12,782	0,	-13,019	9,0199
92578	13,635	0,	-13,51	9,1289
92579	14,156	0,	-12,612	9,3518
92580	-14,414	0,	-11,879	9,5433
92581	-14,208	0,	-11,255	9,6375
92582	-13,747	0,	-12,016	9,3765
92583	-12,866	0,	-13,691	8,9863
92584	-13,523	0,	-13,519	9,109
92585	-13,305	0,	-12,842	9,1571
92586	-12,419	0,	-14,547	8,8659
92587	-13,077	0,	-14,368	8,9643
92588	-12,214	0,	-13,862	8,8482
92589	-11,968	0,	-15,402	8,7962
92590	-12,629	0,	-15,222	8,8696
92591	-11,524	0,	-16,248	8,7762
92592	-11,315	0,	-15,577	8,708
92593	-12,177	0,	-16,071	8,824
92594	-11,088	0,	-17,1	8,8041
92595	-11,736	0,	-16,92	8,8264
92596	-10,646	0,	-17,957	8,877
92597	-11,295	0,	-17,78	8,8746
92598	-10,195	0,	-18,801	8,9902
92599	-10,849	0,	-18,637	8,9652
92600	-9,7392	0,	-19,637	9,1419
92601	-10,393	0,	-19,474	9,0935
92602	-9,9343	0,	-20,312	9,2599
92603	-9,2839	0,	-20,472	9,3311
92604	-8,3934	0,	-22,149	9,8149
92605	-9,0346	0,	-21,993	9,6986
92606	-8,8373	0,	-21,308	9,5555
92607	-7,9455	0,	-22,991	10,107
92608	-8,5878	0,	-22,838	9,9687
92609	-8,1409	0,	-23,68	10,269
92610	-7,4997	0,	-23,831	10,43
92611	-7,2574	0,	-25,359	10,961
92612	-6,6203	0,	-25,505	11,167
92613	-7,0606	0,	-24,668	10,783
92614	-6,3722	0,	-27,035	11,78
92615	-6,1824	0,	-26,339	11,581
92616	-5,5676	0,	-26,467	11,765
92617	-5,7483	0,	-27,173	12,028
92618	-5,4941	0,	-28,724	12,747
92619	-5,3159	0,	-28,016	12,514
92620	-4,884	0,	-28,869	13,045
92621	-4,6069	0,	-30,462	13,917
92622	-4,4459	0,	-29,736	13,631
92623	-11,115	0,	-2,3304	10,413
92624	-10,966	0,	-1,6795	10,415
92625	-10,469	0,	-2,4185	10,131
92626	-10,385	0,	-1,6899	10,172
92627	10,456	0,	-1,329	10,231
92628	10,2	0,	-0,68544	10,155
92629	11,059	0,	0,81777	10,501
92630	11,643	0,	1,1748	10,757
92631	-15,919	0,	-10,173	10,381
92632	-16,188	0,	-10,783	10,234
92633	-15,536	0,	-10,96	10,039
92634	-10,501	0,	-0,22968	10,287
92635	-10,717	0,	0,46722	10,374
92636	-10,115	0,	0,56477	10,122
92637	-3,6439	0,	31,548	13,214
92638	-3,0132	0,	31,657	13,328
92639	11,876	0,	1,7512	10,799
92640	12,146	0,	2,5575	10,841
92641	-10,989	0,	1,1731	10,45
92642	-11,325	0,	1,7838	10,555
92643	-10,387	0,	1,2706	10,2
92644	14,838	0,	-12,402	9,532
92645	15,382	0,	-11,46	9,8645
92646	15,505	0,	-12,22	9,6813
92647	15,26	0,	-10,719	10,028
92648	15,109	0,	-10,004	10,205
92649	14,896	0,	-9,3494	10,327
92650	14,635	0,	-8,7285	10,431
92651	12,371	0,	3,1908	10,836
92652	12,647	0,	3,7935	10,859
92653	-11,676	0,	-2,2856	10,666
92654	-11,969	0,	-2,8342	10,734
92655	-11,399	0,	3,1876	10,391
92656	-11,772	0,	3,7612	10,461
92657	11,413	0,	-3,1809	10,421
92658	11,769	0,	-3,7426	10,491
92659	11,076	0,	-2,5822	10,368
92660	10,746	0,	-1,9868	10,289
92661	-12,232	0,	-3,4286	10,755
92662	-12,533	0,	-3,9805	10,799
92663	4,6717	0,	31,472	13,045
92664	4,8217	0,	32,199	13,333
92665	4,2058	0,	32,316	13,495
92666	2,9978	0,	32,503	13,711
92667	3,612	0,	32,423	13,615
92668	16,044	0,	9,8851	10,414
92669	15,857	0,	9,3223	10,566
92670	-15,462	0,	11,156	9,8657
92671	-16,136	0,	10,961	10,072
92672	-15,942	0,	10,319	10,246
92673	-15,737	0,	9,6963	10,389
92674	-15,512	0,	9,0764	10,539
92675	3,9213	0,	-32,084	15,156
92676	3,3673	0,	-32,212	15,552
92677	4,7956	0,	-31,029	14,146
92678	4,4478	0,	-31,914	14,8
92679	5,0056	0,	-31,759	14,372
92680	-4,7495	0,	-31,196	14,255
92681	-4,8977	0,	-31,918	14,513
92682	-4,2584	0,	-32,084	15,004
92683	-3,6392	0,	-32,227	15,391
92684	-3,0087	0,	-32,347	15,818
92685	-14,341	0,	8,1285	10,416
92686	-14,065	0,	7,5607	10,484
92687	-1,7295	0,	-31,802	15,839
92688	-1,1369	0,	-31,858	16,027
92689	2,2294	0,	-31,684	15,604
92690	1,6816	0,	-31,764	15,84
92691	14,359	0,	-8,146	10,501
92692	14,077	0,	-7,5607	10,566
92693	12,124	0,	-4,304	10,536
92694	12,481	0,	-4,8361	10,59
92695	14,763	0,	8,4833	10,464
92696	14,533	0,	7,907	10,564
92697	1,739	0,	31,923	13,519
92698	1,143	0,	31,957	13,55
92699	-2,4072	0,	31,77	13,42
92700	-1,788	0,	31,86	13,49
92701	-12,833	0,	-4,5529	10,813
92702	-13,144	0,	-5,1138	10,832
92703	-12,45	0,	-5,366	10,448
92704	12,924	0,	4,3969	10,853
92705	13,219	0,	4,9797	10,854
92706	-13,773	0,	7,0159	10,527
92707	-13,471	0,	6,4745	10,554
92708	-12,831	0,	5,4093	10,559
92709	-13,159	0,	5,9399	10,57
92710	-14,357	0,	-7,3913	10,733
92711	-14,072	0,	-6,8244	10,783
92712	-0,56704	0,	-31,909	16,132
92713	2,4015e-002	0,	-31,929	16,178
92714	1,3141e-002	0,	-31,217	15,6
92715	1,1513	0,	-31,861	16,013
92716	0,58626	0,	-31,913	16,142
92717	0,57538	0,	-31,2	15,562
92718	13,788	0,	-6,9909	10,611
92719	13,481	0,	-6,4397	10,632
92720	12,828	0,	-5,3745	10,615
92721	13,163	0,	-5,9031	10,638
92722	14,297	0,	7,3127	10,657
92723	14,052	0,	6,7328	10,734
92724	0,56525	0,	31,973	13,567
92725	-2,1337e-002	0,	31,971	13,569
92726	-1,1921	0,	31,922	13,536
92727	-0,58767	0,	31,956	13,56
92728	-13,452	0,	-5,6891	10,824
92729	-12,759	0,	-5,9412	10,447
92730	-13,757	0,	-6,2546	10,81
92731	13,509	0,	5,5686	10,829
92732	13,789	0,	6,1463	10,795
92733	-15,912	0,	-8,8084	10,851
92734	-15,605	0,	-8,2353	10,955
92735	-14,917	0,	-8,4913	10,605
92736	-16,244	0,	-9,3814	10,755
92737	-16,547	0,	-9,9866	10,604
92738	15,544	0,	11,167	9,8832
92739	16,15	0,	10,445	10,258
92740	16,262	0,	11,024	10,08
92741	-12,136	0,	4,3335	10,499
92742	-12,496	0,	4,872	10,546
92743	11,229	0,	0,22782	10,607
92744	10,623	0,	7,2105e-002	10,337
92745	5,2705	0,	31,341	12,872
92746	5,1012	0,	30,614	12,612
92747	5,9602	0,	28,909	11,81
92748	6,3926	0,	28,061	11,441
92749	6,5762	0,	28,768	11,641
92750	5,7737	0,	28,196	11,575
92751	6,1402	0,	29,622	12,027
92752	5,5285	0,	29,759	12,201
92753	7,0145	0,	27,918	11,278
92754	6,8271	0,	27,216	11,091
92755	7,8985	0,	26,215	10,614
92756	7,2628	0,	26,369	10,76
92757	7,7031	0,	25,519	10,448
92758	8,6075	0,	23,815	9,8821
92759	9,0628	0,	22,958	9,632
92760	9,2568	0,	23,653	9,7724
92761	8,1514	0,	24,669	10,155
92762	8,7982	0,	24,507	10,031
92763	9,5154	0,	22,106	9,4077
92764	9,9732	0,	21,249	9,2093
92765	10,169	0,	21,936	9,328
92766	9,7112	0,	22,794	9,5373
92767	10,433	0,	20,39	9,0402
92768	10,893	0,	19,534	8,9038
92769	11,089	0,	20,219	8,9959
92770	10,63	0,	21,075	9,1464
92771	11,551	0,	19,356	8,8778
92772	11,352	0,	18,674	8,802
92773	10,696	0,	18,85	8,7908
92774	12,265	0,	16,957	8,716
92775	12,724	0,	16,1	8,7378
92776	12,929	0,	16,776	8,7523
92777	12,468	0,	17,634	8,753
92778	11,808	0,	17,813	8,7383
92779	13,389	0,	15,915	8,7962
92780	13,182	0,	15,242	8,8062
92781	14,1	0,	13,527	9,0929
92782	14,554	0,	12,655	9,3175
92783	14,766	0,	13,341	9,2216
92784	13,894	0,	12,854	9,1419
92785	14,306	0,	14,198	9,0285
92786	13,64	0,	14,387	8,9235
92787	15,018	0,	11,854	9,5846
92788	15,708	0,	11,738	9,748
92789	14,828	0,	11,089	9,7118
92790	15,218	0,	12,49	9,4659
92791	-5,2528	0,	29,75	12,243
92792	-5,4235	0,	30,463	12,484
92793	-4,7731	0,	30,595	12,658
92794	-5,723	0,	28,9	11,846
92795	-5,9041	0,	29,609	12,067
92796	-6,3746	0,	28,756	11,674
92797	-6,1921	0,	28,053	11,47
92798	-7,3056	0,	27,068	10,96
92799	-7,1174	0,	26,368	10,78
92800	-6,6567	0,	27,212	11,115
92801	-8,229	0,	25,368	10,329
92802	-7,5764	0,	25,523	10,465
92803	-8,0375	0,	24,674	10,169
92804	-8,963	0,	22,97	9,6417
92805	-9,158	0,	23,658	9,7834
92806	-8,5008	0,	23,819	9,8928
92807	-9,4294	0,	22,122	9,4158
92808	-8,7681	0,	22,279	9,4749
92809	-9,6228	0,	22,808	9,5474
92810	-10,093	0,	21,956	9,3366
92811	-9,8922	0,	21,265	9,215
92812	-10,822	0,	19,551	8,9053
92813	-11,021	0,	20,235	8,9994
92814	-10,353	0,	20,406	9,0435
92815	-11,292	0,	18,697	8,8025
92816	-10,628	0,	18,867	8,7903
92817	-11,488	0,	19,374	8,8797
92818	-11,77	0,	17,845	8,7388
92819	-11,96	0,	18,521	8,7969
92820	-12,247	0,	16,995	8,7164
92821	-12,448	0,	17,667	8,7538
92822	-12,918	0,	16,817	8,7521
92823	-12,71	0,	16,145	8,7366
92824	-13,613	0,	14,462	8,9131
92825	-13,823	0,	15,125	8,8797
92826	-13,162	0,	15,3	8,8014
92827	-14,064	0,	13,63	9,073
92828	-14,277	0,	14,282	9,0146
92829	-13,398	0,	13,806	8,9288
92830	-14,52	0,	12,806	9,2829
92831	-14,727	0,	13,456	9,1962
92832	-14,987	0,	11,983	9,5462
92833	-15,187	0,	12,63	9,4304
92834	-14,314	0,	12,166	9,3505
92835	-15,657	0,	11,8	9,7206
92836	5,1505	0,	-30,182	13,565
92837	5,3684	0,	-30,897	13,767
92838	5,7509	0,	-30,056	13,211
92839	5,5394	0,	-29,355	13,025
92840	6,4033	0,	-27,71	12,042
92841	6,5979	0,	-28,406	12,212
92842	5,962	0,	-28,534	12,517
92843	6,8476	0,	-26,886	11,603
92844	6,2052	0,	-27,015	11,821
92845	7,0461	0,	-27,574	11,759
92846	7,2992	0,	-26,056	11,194
92847	7,4924	0,	-26,747	11,346
92848	7,7551	0,	-25,22	10,816
92849	7,947	0,	-25,906	10,959
92850	7,1096	0,	-25,36	10,995
92851	8,2098	0,	-24,382	10,47
92852	8,4064	0,	-25,069	10,605
92853	8,6657	0,	-23,538	10,154
92854	8,8607	0,	-24,225	10,282
92855	8,019	0,	-23,687	10,291
92856	9,1182	0,	-22,695	9,8703
92857	9,3205	0,	-23,379	9,9883
92858	9,5745	0,	-21,852	9,6184
92859	9,7727	0,	-22,536	9,7286
92860	10,033	0,	-21,007	9,3993
92861	10,235	0,	-21,688	9,4986
92862	10,493	0,	-20,162	9,2152
92863	10,692	0,	-20,842	9,3032
92864	10,956	0,	-19,317	9,0676
92865	11,156	0,	-19,994	9,1419
92866	11,416	0,	-18,476	8,9594
92867	11,619	0,	-19,149	9,018
92868	10,754	0,	-18,642	8,9648
92869	11,873	0,	-17,63	8,8913
92870	12,081	0,	-18,303	8,933
92871	12,341	0,	-16,776	8,8666
92872	12,539	0,	-17,45	8,8886
92873	13,013	0,	-16,596	8,8886
92874	12,823	0,	-15,921	8,8896
92875	13,988	0,	-14,882	9,0346
92876	13,809	0,	-14,196	9,0905
92877	13,313	0,	-15,063	8,9631
92878	14,988	0,	-13,122	9,4015
92879	14,316	0,	-13,312	9,2776
92880	-15,303	0,	-12,375	9,61
92881	-14,634	0,	-12,544	9,4658
92882	-15,09	0,	-11,749	9,7294
92883	-14,397	0,	-14,017	9,1766
92884	-14,184	0,	-13,359	9,2495
92885	-13,735	0,	-14,196	9,0807
92886	-13,496	0,	-15,712	8,9376
92887	-13,288	0,	-15,043	8,9615
92888	-12,838	0,	-15,891	8,8911
92889	-12,594	0,	-17,41	8,8885
92890	-11,943	0,	-17,6	8,8912
92891	-12,389	0,	-16,743	8,8682
92892	-11,701	0,	-19,136	9,014
92893	-11,046	0,	-19,31	9,0643
92894	-11,497	0,	-18,46	8,9578
92895	-10,132	0,	-20,989	9,3878
92896	-10,786	0,	-20,819	9,2912
92897	-10,588	0,	-20,15	9,208
92898	-9,6792	0,	-21,834	9,6027
92899	-10,33	0,	-21,669	9,4839
92900	-9,482	0,	-21,149	9,4616
92901	-9,8751	0,	-22,515	9,7091
92902	-9,229	0,	-22,681	9,8512
92903	-8,3356	0,	-24,371	10,441
92904	-8,98	0,	-24,214	10,254
92905	-8,7832	0,	-23,527	10,131
92906	-7,8912	0,	-25,213	10,782
92907	-8,5315	0,	-25,058	10,571
92908	-7,6944	0,	-24,522	10,602
92909	-7,4482	0,	-26,052	11,153
92910	-8,0902	0,	-25,899	10,917
92911	-7,0009	0,	-26,894	11,559
92912	-7,6385	0,	-26,742	11,299
92913	-6,8111	0,	-26,198	11,356
92914	-6,5542	0,	-27,736	12,
92915	-7,1921	0,	-27,586	11,713
92916	-6,1084	0,	-28,583	12,482
92917	-5,9302	0,	-27,875	12,243
92918	-6,741	0,	-28,432	12,166
92919	-5,6678	0,	-29,442	13,009
92920	-6,2949	0,	-29,283	12,659
92921	-5,2188	0,	-30,313	13,594
92922	-5,8466	0,	-30,149	13,205
92923	-5,0578	0,	-29,587	13,299
92924	-5,3812	0,	-31,029	13,819
92925	-10,961	0,	-0,96389	10,46
92926	-11,071	0,	-0,28025	10,532
92927	-10,38	0,	-0,9743	10,218
92928	-11,527	0,	-1,6348	10,668
92929	-11,481	0,	-0,97643	10,692
92930	-4,4022	0,	32,144	13,38
92931	-3,7434	0,	32,255	13,525
92932	-4,2722	0,	31,433	13,088
92933	11,813	0,	0,58488	10,849
92934	12,452	0,	1,5679	11,11
92935	12,346	0,	0,8382	11,117
92936	-11,287	0,	0,41665	10,619
92937	-11,603	0,	1,0213	10,743
92938	-16,414	0,	-11,403	10,089
92939	-16,815	0,	-10,597	10,45
92940	-17,075	0,	-11,216	10,257
92941	15,998	0,	-10,49	10,298
92942	16,042	0,	-11,305	10,034
92943	15,846	0,	-9,7752	10,484
92944	15,582	0,	-9,0651	10,654
92945	12,722	0,	2,3742	11,144
92946	13,01	0,	2,9836	11,2
92947	15,655	0,	-12,94	9,5442
92948	16,165	0,	-12,064	9,8457
92949	16,315	0,	-12,78	9,6505
92950	-12,033	0,	-1,6153	10,905
92951	-12,312	0,	-2,1199	10,997
92952	-11,672	0,	2,3989	10,631
92953	-12,045	0,	2,9683	10,728
92954	11,708	0,	-2,4036	10,664
92955	12,068	0,	-2,9628	10,762
92956	-12,605	0,	-2,6685	11,06
92957	-12,909	0,	-3,2024	11,134
92958	5,4205	0,	32,069	13,165
92959	4,9395	0,	32,919	13,658
92960	5,5689	0,	32,792	13,447
92961	16,865	0,	10,244	10,499
92962	16,709	0,	9,649	10,703
92963	16,426	0,	11,595	9,9414
92964	16,977	0,	10,823	10,315
92965	17,129	0,	11,422	10,11
92966	-16,332	0,	11,605	9,9206
92967	-16,815	0,	10,748	10,309
92968	-17,006	0,	11,408	10,094
92969	-16,621	0,	10,106	10,491
92970	-16,408	0,	9,4689	10,686
92971	4,6297	0,	-32,657	15,069
92972	4,06	0,	-32,807	15,555
92973	5,5784	0,	-31,627	14,005
92974	5,1875	0,	-32,502	14,655
92975	5,7661	0,	-32,348	14,166
92976	-5,5295	0,	-31,751	14,089
92977	-5,0238	0,	-32,648	14,837
92978	-5,69	0,	-32,458	14,262
92979	-4,3845	0,	-32,814	15,313
92980	-3,7296	0,	-32,968	15,865
92981	-15,275	0,	8,4753	10,657
92982	-15,018	0,	7,8804	10,769
92983	-12,418	0,	3,5419	10,793
92984	-12,794	0,	4,0783	10,87
92985	-2,3994	0,	-32,451	16,124
92986	-1,7785	0,	-32,526	16,43
92987	2,8507	0,	-32,325	15,842
92988	2,2984	0,	-32,428	16,173
92989	15,32	0,	-8,4442	10,771
92990	15,031	0,	-7,8728	10,856
92991	12,784	0,	-4,0493	10,907
92992	12,423	0,	-3,5245	10,827
92993	15,654	0,	8,7741	10,689
92994	15,432	0,	8,1995	10,819
92995	2,3938	0,	32,571	13,781
92996	1,7767	0,	32,617	13,823
92997	-3,1127	0,	32,364	13,637
92998	-2,4691	0,	32,465	13,727
92999	-13,21	0,	-3,7544	11,172
93000	-13,524	0,	-4,2989	11,217
93001	13,287	0,	3,5863	11,216
93002	13,59	0,	4,1615	11,246
93003	-14,742	0,	7,3127	10,846
93004	-14,453	0,	6,7503	10,906
93005	-13,154	0,	4,6168	10,91
93006	-13,505	0,	5,1424	10,95
93007	-15,306	0,	-7,6862	11,029
93008	-15,022	0,	-7,1184	11,106
93009	-14,618	0,	-7,9422	10,669
93010	-1,1859	0,	-32,582	16,61
93011	-0,57582	0,	-32,619	16,753
93012	1,7506	0,	-32,508	16,4
93013	1,1753	0,	-32,572	16,62
93014	14,749	0,	-7,2875	10,932
93015	14,456	0,	-6,7218	10,985
93016	13,14	0,	-4,5814	10,954
93017	13,492	0,	-5,1067	11,001
93018	15,203	0,	7,6232	10,931
93019	14,969	0,	7,0454	11,037
93020	1,1807	0,	32,651	13,853
93021	0,57426	0,	32,672	13,867
93022	-1,85	0,	32,554	13,796
93023	-1,2241	0,	32,617	13,836
93024	-13,835	0,	-4,8598	11,228
93025	-14,144	0,	-5,4199	11,233
93026	13,886	0,	4,7443	11,24
93027	14,183	0,	5,3143	11,231
93028	-16,875	0,	-9,1742	11,02
93029	-16,571	0,	-8,5771	11,178
93030	-14,151	0,	6,2089	10,943
93031	-13,834	0,	5,673	10,952
93032	1,5235e-002	0,	-32,64	16,798
93033	0,61031	0,	-32,624	16,745
93034	14,15	0,	-6,1706	11,016
93035	13,827	0,	-5,6354	11,015
93036	14,725	0,	6,4655	11,124
93037	14,463	0,	5,892	11,187
93038	-1,2332e-002	0,	32,67	13,868
93039	-0,61965	0,	32,652	13,86
93040	11,065	0,	-1,2262	10,487
93041	11,379	0,	-1,8083	10,589
93042	11,415	0,	-0,4269	10,678
93043	10,809	0,	-0,58262	10,414
93044	11,671	0,	-1,0424	10,782
93045	11,97	0,	-0,21834	10,954
93046	5,8723	0,	31,207	12,702
93047	6,3147	0,	30,342	12,267
93048	6,4871	0,	31,058	12,484
93049	5,703	0,	30,479	12,437
93050	6,0371	0,	31,928	12,947
93051	6,7562	0,	29,481	11,861
93052	7,1982	0,	28,625	11,481
93053	7,3805	0,	29,331	11,658
93054	6,9323	0,	30,193	12,057
93055	7,6407	0,	27,771	11,126
93056	8,0889	0,	26,915	10,791
93057	8,2759	0,	27,615	10,942
93058	7,4532	0,	27,069	10,937
93059	7,826	0,	28,474	11,289
93060	8,5408	0,	26,058	10,479
93061	9,1849	0,	25,897	10,319
93062	8,3454	0,	25,363	10,312
93063	8,9921	0,	25,201	10,188
93064	8,7307	0,	26,753	10,618
93065	9,9052	0,	23,488	9,6764
93066	10,104	0,	24,177	9,7864
93067	9,4476	0,	24,346	9,9208
93068	10,561	0,	23,312	9,5563
93069	10,365	0,	22,624	9,4556
93070	11,286	0,	20,904	9,0987
93071	11,748	0,	20,041	8,9659
93072	11,952	0,	20,727	9,0288
93073	11,483	0,	21,586	9,1755
93074	10,826	0,	21,763	9,2623
93075	12,207	0,	19,177	8,8671
93076	12,667	0,	18,315	8,8056
93077	12,871	0,	18,994	8,8348
93078	12,008	0,	18,495	8,7959
93079	12,41	0,	19,858	8,9142
93080	13,334	0,	18,13	8,793
93081	13,132	0,	17,453	8,7839
93082	14,052	0,	15,731	8,8712
93083	14,512	0,	14,869	8,986
93084	14,717	0,	15,545	8,9221
93085	13,846	0,	15,058	8,8872
93086	14,259	0,	16,403	8,8342
93087	13,594	0,	16,591	8,8049
93088	14,972	0,	14,012	9,1511
93089	15,43	0,	13,177	9,3649
93090	15,64	0,	13,831	9,2469
93091	15,18	0,	14,682	9,0597
93092	15,908	0,	12,374	9,6271
93093	16,599	0,	12,208	9,7675
93094	16,106	0,	13,005	9,4824
93095	-5,5742	0,	31,179	12,754
93096	-5,0537	0,	32,023	13,22
93097	-5,731	0,	31,891	13,006
93098	-4,9238	0,	31,311	12,924
93099	-6,2477	0,	31,032	12,533
93100	-6,0748	0,	30,322	12,311
93101	-7,9554	0,	26,918	10,816
93102	-8,1453	0,	27,613	10,969
93103	-7,489	0,	27,767	11,153
93104	-8,4198	0,	26,064	10,5
93105	-7,7672	0,	26,218	10,634
93106	-8,6134	0,	26,759	10,642
93107	-9,0765	0,	25,9	10,338
93108	-8,8852	0,	25,208	10,206
93109	-10,015	0,	24,186	9,8007
93110	-9,3509	0,	24,352	9,9348
93111	-9,8178	0,	23,497	9,6878
93112	-10,952	0,	22,468	9,3623
93113	-10,75	0,	21,779	9,2705
93114	-10,286	0,	22,642	9,4661
93115	-11,889	0,	20,743	9,0347
93116	-11,218	0,	20,918	9,1043
93117	-11,687	0,	20,058	8,9697
93118	-12,827	0,	19,019	8,8372
93119	-12,638	0,	18,343	8,8068
93120	-12,155	0,	19,198	8,8695
93121	-13,582	0,	16,636	8,8035
93122	-13,789	0,	17,307	8,7913
93123	-13,118	0,	17,489	8,7842
93124	-14,035	0,	15,789	8,8664
93125	-14,248	0,	16,452	8,8312
93126	-13,374	0,	15,964	8,7936
93127	-14,488	0,	14,945	8,9755
93128	-14,698	0,	15,606	8,9152
93129	-14,941	0,	14,108	9,1325
93130	-15,157	0,	14,759	9,047
93131	-15,606	0,	13,926	9,2254
93132	-15,394	0,	13,28	9,3384
93133	-16,531	0,	12,259	9,7425
93134	-15,857	0,	12,447	9,5993
93135	5,9688	0,	-30,771	13,423
93136	6,1734	0,	-31,481	13,561
93137	6,3744	0,	-29,932	12,89
93138	6,5794	0,	-30,634	13,019
93139	6,7987	0,	-29,102	12,396
93140	6,1629	0,	-29,231	12,695
93141	6,9943	0,	-29,799	12,522
93142	7,4373	0,	-28,962	12,051
93143	7,2407	0,	-28,27	11,935
93144	8,1402	0,	-26,598	11,114
93145	8,3385	0,	-27,287	11,217
93146	7,6909	0,	-27,435	11,507
93147	8,5982	0,	-25,755	10,75
93148	8,7909	0,	-26,443	10,849
93149	9,0573	0,	-24,912	10,417
93150	9,2574	0,	-25,596	10,508
93151	9,5155	0,	-24,066	10,116
93152	9,7114	0,	-24,749	10,202
93153	9,975	0,	-23,22	9,8459
93154	10,175	0,	-23,905	9,9242
93155	10,433	0,	-22,372	9,6072
93156	10,634	0,	-23,055	9,6774
93157	10,894	0,	-21,523	9,4002
93158	11,097	0,	-22,203	9,4607
93159	11,355	0,	-20,674	9,2268
93160	11,555	0,	-21,353	9,2773
93161	12,018	0,	-20,503	9,1268
93162	11,819	0,	-19,826	9,0886
93163	12,952	0,	-18,797	8,9323
93164	12,746	0,	-18,123	8,9253
93165	12,284	0,	-18,977	8,9874
93166	13,878	0,	-17,091	8,8967
93167	13,21	0,	-17,27	8,9051
93168	13,686	0,	-16,417	8,9293
93169	14,662	0,	-14,697	9,1252
93170	14,848	0,	-15,385	9,0394
93171	14,172	0,	-15,561	9,0016
93172	15,154	0,	-13,823	9,3046
93173	15,333	0,	-14,52	9,1869
93174	14,483	0,	-14,012	9,1874
93175	15,821	0,	-13,646	9,3904
93176	-15,975	0,	-12,206	9,775
93177	-16,647	0,	-12,026	9,914
93178	-15,762	0,	-11,58	9,8992
93179	-15,52	0,	-13,017	9,509
93180	-16,19	0,	-12,839	9,6215
93181	-15,064	0,	-13,843	9,2915
93182	-14,85	0,	-13,186	9,3698
93183	-15,733	0,	-13,661	9,38
93184	-15,276	0,	-14,498	9,1873
93185	-14,612	0,	-14,686	9,1226
93186	-13,703	0,	-16,382	8,9313
93187	-14,37	0,	-16,196	8,9476
93188	-14,157	0,	-15,535	9,0029
93189	-13,251	0,	-17,229	8,9053
93190	-13,916	0,	-17,051	8,8978
93191	-13,046	0,	-16,561	8,8904
93192	-13,458	0,	-17,897	8,8922
93193	-12,801	0,	-18,083	8,9227
93194	-11,897	0,	-19,808	9,081
93195	-12,552	0,	-19,622	9,0035
93196	-12,352	0,	-18,95	8,9822
93197	-11,441	0,	-20,652	9,2152
93198	-12,096	0,	-20,477	9,1157
93199	-11,242	0,	-19,982	9,1351
93200	-10,984	0,	-21,5	9,385
93201	-11,643	0,	-21,324	9,2617
93202	-10,526	0,	-22,351	9,5887
93203	-11,183	0,	-22,182	9,4433
93204	-10,727	0,	-23,028	9,6547
93205	-10,074	0,	-23,199	9,823
93206	-9,176	0,	-24,901	10,385
93207	-9,8249	0,	-24,735	10,17
93208	-9,6247	0,	-24,052	10,089
93209	-8,7305	0,	-25,744	10,709
93210	-9,3778	0,	-25,583	10,47
93211	-8,2804	0,	-26,589	11,066
93212	-8,9281	0,	-26,433	10,802
93213	-7,8297	0,	-27,435	11,457
93214	-8,4739	0,	-27,279	11,166
93215	-8,0194	0,	-28,127	11,564
93216	-7,3789	0,	-28,282	11,884
93217	-6,4737	0,	-29,99	12,864
93218	-7,1153	0,	-29,832	12,473
93219	-6,9275	0,	-29,132	12,35
93220	-6,0091	0,	-30,864	13,439
93221	-6,6552	0,	-30,696	12,999
93222	-6,1826	0,	-31,575	13,591
93223	-5,1944	0,	32,733	13,506
93224	-4,5024	0,	32,846	13,7
93225	-11,591	0,	-0,29279	10,763
93226	-11,868	0,	0,30724	10,899
93227	-17,177	0,	-9,7794	10,861
93228	-17,466	0,	-10,398	10,653
93229	16,896	0,	-9,9233	10,725
93230	16,654	0,	-10,452	10,45
93231	16,519	0,	-9,4613	10,804
93232	-11,987	0,	-0,95696	10,929
93233	-12,098	0,	-0,41612	11,009
93234	13,069	0,	1,6107	11,424
93235	13,339	0,	2,1914	11,502
93236	16,699	0,	-11,267	10,189
93237	16,817	0,	-11,942	9,9637
93238	-12,432	0,	-1,0129	11,149
93239	-12,673	0,	-1,4159	11,251
93240	-11,939	0,	1,632	10,845
93241	-12,309	0,	2,1833	10,972
93242	12,343	0,	-2,169	11,007
93243	11,985	0,	-1,6245	10,879
93244	12,503	0,	3,4989e-002	11,208
93245	12,963	0,	0,88102	11,427
93246	13,044	0,	0,25937	11,503
93247	-12,952	0,	-1,9205	11,337
93248	-13,258	0,	-2,4207	11,445
93249	5,0705	0,	33,642	13,982
93250	4,4208	0,	33,746	14,168
93251	4,3236	0,	33,036	13,815
93252	17,677	0,	10,633	10,517
93253	17,524	0,	10,028	10,76
93254	-17,485	0,	10,541	10,518
93255	-17,29	0,	9,8794	10,767
93256	5,3624	0,	-33,227	14,836
93257	4,7763	0,	-33,386	15,397
93258	-5,1693	0,	-33,358	15,041
93259	-4,4837	0,	-33,556	15,715
93260	-16,183	0,	8,849	10,845
93261	-15,943	0,	8,2294	11,006
93262	-12,682	0,	2,7527	11,063
93263	-13,065	0,	3,2823	11,172
93264	-3,0991	0,	-33,087	16,275
93265	-2,457	0,	-33,171	16,708
93266	3,506	0,	-32,936	15,936
93267	2,9351	0,	-33,051	16,376
93268	17,573	0,	-9,4913	11,086
93269	17,976	0,	-9,961	10,954
93270	16,255	0,	-8,7512	10,991
93271	15,987	0,	-8,1574	11,129
93272	13,469	0,	0,97124	11,699
93273	13,55	0,	0,34959	11,77
93274	14,027	0,	0,73542	12,043
93275	16,522	0,	9,0863	10,863
93276	16,32	0,	8,5066	11,035
93277	3,0765	0,	33,207	14,038
93278	2,4435	0,	33,269	14,097
93279	-3,8436	0,	32,956	13,842
93280	-3,1742	0,	33,063	13,96
93281	-13,562	0,	-2,9547	11,51
93282	-13,886	0,	-3,489	11,59
93283	13,627	0,	2,8008	11,551
93284	13,938	0,	3,3486	11,619
93285	-15,686	0,	7,6346	11,127
93286	-15,413	0,	7,0469	11,233
93287	-13,441	0,	3,8187	11,241
93288	-13,812	0,	4,3399	11,315
93289	-16,264	0,	-8,004	11,291
93290	-15,978	0,	-7,4217	11,408
93291	-1,8361	0,	-33,246	17,001
93292	-1,2035	0,	-33,3	17,273
93293	2,3828	0,	-33,155	16,695
93294	1,7956	0,	-33,229	17,029
93295	15,697	0,	-7,5861	11,226
93296	15,413	0,	-7,0108	11,315
93297	13,433	0,	-3,7822	11,28
93298	13,798	0,	-4,3047	11,357
93299	16,097	0,	7,9321	11,177
93300	15,875	0,	7,3515	11,319
93301	1,8264	0,	33,314	14,139
93302	1,2011	0,	33,349	14,154
93303	-2,5307	0,	33,164	14,049
93304	-1,8833	0,	33,249	14,103
93305	-14,199	0,	-4,0335	11,625
93306	-14,515	0,	-4,5853	11,658
93307	14,241	0,	3,9238	11,64
93308	14,551	0,	4,4839	11,664
93309	-17,819	0,	-9,5631	11,107
93310	-17,515	0,	-8,9502	11,324
93311	-15,125	0,	6,4844	11,304
93312	-14,82	0,	5,9302	11,347
93313	-14,163	0,	4,8655	11,346
93314	-14,503	0,	5,3942	11,367
93315	-15,693	0,	-6,8539	11,497
93316	-15,413	0,	-6,2788	11,575
93317	-14,737	0,	-6,5516	11,167
93318	-0,59342	0,	-33,337	17,41
93319	2,5992e-002	0,	-33,347	17,462
93320	1,2203	0,	-33,292	17,24
93321	0,62107	0,	-33,332	17,411
93322	15,12	0,	-6,445	11,38
93323	14,813	0,	-5,8947	11,412
93324	14,15	0,	-4,8301	11,395
93325	14,49	0,	-5,3595	11,423
93326	15,641	0,	6,7737	11,437
93327	15,395	0,	6,1966	11,534
93328	0,59471	0,	33,37	14,167
93329	-2,1648e-002	0,	33,371	14,166
93330	-1,2573	0,	33,312	14,143
93331	-0,62897	0,	33,353	14,157
93332	-14,825	0,	-5,1454	11,652
93333	-15,125	0,	-5,7126	11,629
93334	-14,449	0,	-5,9854	11,209
93335	14,848	0,	5,054	11,644
93336	15,133	0,	5,623	11,608
93337	17,346	0,	-11,216	10,3
93338	-12,544	0,	-0,47206	11,227
93339	-13,002	0,	-0,75155	11,469
93340	-12,375	0,	0,18392	11,14
93341	-12,913	0,	-6,7112e-002	11,436
93342	-17,307	0,	-11,838	10,076
93343	-17,726	0,	-11,016	10,453
93344	-17,972	0,	-11,641	10,209
93345	-12,184	0,	0,91187	11,02
93346	-12,565	0,	1,4211	11,185
93347	-12,782	0,	0,6876	11,349
93348	12,767	0,	-0,60291	11,35
93349	12,226	0,	-0,83385	11,051
93350	-13,243	0,	-1,1545	11,563
93351	-13,371	0,	-0,3466	11,668
93352	-13,815	0,	-0,78785	11,924
93353	-13,572	0,	-1,6286	11,718
93354	13,664	0,	1,4546	11,774
93355	5,6999	0,	33,515	13,777
93356	6,1856	0,	32,651	13,234
93357	6,3453	0,	33,372	13,497
93358	5,1819	0,	34,356	14,358
93359	5,8449	0,	34,235	14,09
93360	6,6518	0,	31,779	12,735
93361	7,1047	0,	30,909	12,279
93362	7,2833	0,	31,618	12,469
93363	6,8219	0,	32,493	12,956
93364	7,5567	0,	30,043	11,858
93365	8,1912	0,	29,881	11,618
93366	8,0083	0,	29,179	11,469
93367	7,7356	0,	30,749	12,026
93368	8,9177	0,	27,453	10,771
93369	9,1097	0,	28,152	10,892
93370	8,4612	0,	28,317	11,107
93371	9,3748	0,	26,592	10,459
93372	9,8379	0,	25,732	10,171
93373	10,029	0,	26,42	10,27
93374	9,567	0,	27,284	10,568
93375	10,301	0,	24,867	9,9053
93376	10,759	0,	24,001	9,6653
93377	10,955	0,	24,691	9,7455
93378	10,492	0,	25,557	9,9958
93379	9,6451	0,	25,036	10,04
93380	11,216	0,	23,136	9,451
93381	11,678	0,	22,272	9,2629
93382	11,878	0,	22,958	9,3208
93383	11,021	0,	22,448	9,352
93384	11,417	0,	23,822	9,5198
93385	12,149	0,	21,409	9,1027
93386	12,614	0,	20,544	8,9736
93387	12,817	0,	21,228	9,0045
93388	12,344	0,	22,09	9,148
93389	13,274	0,	20,355	8,8932
93390	13,074	0,	19,675	8,8778
93391	14,004	0,	17,943	8,7961
93392	14,466	0,	17,077	8,8161
93393	14,674	0,	17,752	8,7716
93394	13,802	0,	17,265	8,792
93395	14,203	0,	18,62	8,774
93396	13,538	0,	18,809	8,8177
93397	15,133	0,	16,886	8,8118
93398	14,924	0,	16,217	8,8798
93399	15,848	0,	14,501	9,1502
93400	16,316	0,	13,66	9,3597
93401	16,521	0,	14,313	9,2095
93402	16,054	0,	15,163	9,0286
93403	15,385	0,	15,358	8,9902
93404	16,995	0,	13,479	9,4396
93405	16,797	0,	12,839	9,6187
93406	17,829	0,	11,232	10,306
93407	18,358	0,	10,415	10,755
93408	18,516	0,	11,031	10,471
93409	17,993	0,	11,847	10,063
93410	17,302	0,	12,035	9,9314
93411	-5,2899	0,	33,438	13,842
93412	-4,5979	0,	33,551	14,031
93413	-5,397	0,	34,141	14,171
93414	-4,6543	0,	34,242	14,401
93415	-5,8717	0,	32,602	13,298
93416	-6,0196	0,	33,322	13,576
93417	-6,4045	0,	31,745	12,79
93418	-6,5683	0,	32,458	13,021
93419	-7,0876	0,	31,587	12,517
93420	-6,9123	0,	30,881	12,321
93421	-7,8671	0,	29,16	11,498
93422	-8,0609	0,	29,854	11,647
93423	-7,2127	0,	29,311	11,69
93424	-7,3964	0,	30,016	11,891
93425	-8,3333	0,	28,31	11,136
93426	-8,5238	0,	29,001	11,271
93427	-7,677	0,	28,464	11,318
93428	-8,9954	0,	28,144	10,919
93429	-8,8033	0,	27,454	10,796
93430	-9,7366	0,	25,735	10,191
93431	-9,933	0,	26,427	10,292
93432	-9,2702	0,	26,595	10,481
93433	-10,209	0,	24,877	9,9231
93434	-10,401	0,	25,561	10,015
93435	-9,5453	0,	25,043	10,058
93436	-10,876	0,	24,703	9,7622
93437	-10,676	0,	24,014	9,6804
93438	-11,616	0,	22,289	9,2724
93439	-11,815	0,	22,974	9,3324
93440	-11,145	0,	23,151	9,463
93441	-12,086	0,	21,424	9,1105
93442	-12,282	0,	22,104	9,1579
93443	-11,414	0,	21,6	9,183
93444	-12,556	0,	20,561	8,9796
93445	-12,756	0,	21,242	9,0126
93446	-13,025	0,	19,697	8,8819
93447	-13,223	0,	20,374	8,8991
93448	-12,353	0,	19,876	8,9181
93449	-13,508	0,	18,837	8,8197
93450	-13,697	0,	19,512	8,8192
93451	-13,989	0,	17,979	8,7962
93452	-14,19	0,	18,651	8,7746
93453	-13,319	0,	18,161	8,7938
93454	-14,66	0,	17,794	8,7705
93455	-14,455	0,	17,123	8,814
93456	-15,367	0,	15,42	8,9814
93457	-15,576	0,	16,084	8,889
93458	-14,911	0,	16,27	8,875
93459	-15,822	0,	14,577	9,1349
93460	-16,037	0,	15,237	9,0158
93461	-16,277	0,	13,743	9,3371
93462	-16,49	0,	14,395	9,1904
93463	-16,739	0,	12,909	9,593
93464	-16,065	0,	13,097	9,4552
93465	-16,947	0,	13,563	9,4144
93466	-17,205	0,	12,062	9,9102
93467	-17,409	0,	12,725	9,6948
93468	-17,676	0,	11,201	10,296
93469	-17,873	0,	11,872	10,041
93470	-18,339	0,	11,001	10,462
93471	-18,15	0,	10,32	10,763
93472	5,941	0,	-33,073	14,361
93473	5,519	0,	-33,951	15,062
93474	6,1283	0,	-33,78	14,437
93475	6,3612	0,	-32,202	13,735
93476	6,5484	0,	-32,91	13,813
93477	6,784	0,	-31,343	13,167
93478	6,9734	0,	-32,046	13,243
93479	7,4026	0,	-31,195	12,723
93480	7,1993	0,	-30,5	12,659
93481	8,0835	0,	-28,817	11,739
93482	8,2757	0,	-29,511	11,805
93483	7,6329	0,	-29,658	12,183
93484	8,5345	0,	-27,976	11,332
93485	8,7277	0,	-28,667	11,394
93486	7,887	0,	-28,125	11,617
93487	8,9892	0,	-27,132	10,956
93488	9,186	0,	-27,822	11,013
93489	9,4501	0,	-26,284	10,609
93490	9,6456	0,	-26,969	10,663
93491	10,112	0,	-26,121	10,342
93492	9,9116	0,	-25,434	10,294
93493	10,834	0,	-23,74	9,7552
93494	11,039	0,	-24,424	9,7905
93495	10,371	0,	-24,588	10,01
93496	11,298	0,	-22,885	9,5296
93497	11,498	0,	-23,565	9,5586
93498	11,759	0,	-22,032	9,3359
93499	11,965	0,	-22,712	9,3556
93500	12,218	0,	-21,182	9,1747
93501	12,422	0,	-21,857	9,1851
93502	12,685	0,	-20,328	9,0458
93503	12,886	0,	-21,004	9,0451
93504	13,154	0,	-19,472	8,952
93505	13,354	0,	-20,146	8,9378
93506	12,486	0,	-19,651	9,0108
93507	13,821	0,	-19,291	8,8663
93508	13,615	0,	-18,617	8,8966
93509	14,548	0,	-16,915	8,9063
93510	14,747	0,	-17,582	8,8388
93511	14,077	0,	-17,764	8,8808
93512	15,031	0,	-16,066	8,9765
93513	15,223	0,	-16,734	8,8858
93514	14,356	0,	-16,242	8,9438
93515	15,519	0,	-15,207	9,0958
93516	15,711	0,	-15,887	8,977
93517	16,	0,	-14,344	9,2673
93518	16,192	0,	-15,024	9,1195
93519	16,481	0,	-13,486	9,492
93520	16,668	0,	-14,167	9,3129
93521	16,967	0,	-12,657	9,7657
93522	17,142	0,	-13,321	9,5579
93523	17,628	0,	-12,514	9,847
93524	17,465	0,	-11,891	10,076
93525	18,547	0,	-10,983	10,559
93526	18,314	0,	-10,418	10,812
93527	17,926	0,	-11,145	10,426
93528	-16,862	0,	-12,658	9,7556
93529	-17,537	0,	-12,465	9,859
93530	-17,076	0,	-13,296	9,5629
93531	-16,404	0,	-13,483	9,4876
93532	-15,49	0,	-15,161	9,1026
93533	-16,157	0,	-14,971	9,1304
93534	-15,946	0,	-14,315	9,2707
93535	-15,039	0,	-16,01	8,9827
93536	-15,703	0,	-15,826	8,9866
93537	-14,826	0,	-15,349	9,0432
93538	-14,583	0,	-16,865	8,9092
93539	-15,247	0,	-16,677	8,891
93540	-14,122	0,	-17,719	8,8802
93541	-14,788	0,	-17,539	8,839
93542	-14,326	0,	-18,39	8,8306
93543	-13,663	0,	-18,571	8,8931
93544	-12,752	0,	-20,291	9,0349
93545	-13,413	0,	-20,103	8,9285
93546	-13,207	0,	-19,43	8,9453
93547	-12,299	0,	-21,15	9,1597
93548	-12,959	0,	-20,965	9,0311
93549	-11,842	0,	-22,007	9,3181
93550	-12,503	0,	-21,825	9,1673
93551	-11,384	0,	-22,858	9,5081
93552	-12,043	0,	-22,684	9,3359
93553	-10,931	0,	-23,709	9,7275
93554	-11,588	0,	-23,534	9,5328
93555	-10,478	0,	-24,563	9,9771
93556	-11,134	0,	-24,389	9,7594
93557	-10,278	0,	-23,88	9,8962
93558	-10,677	0,	-25,245	10,016
93559	-10,027	0,	-25,417	10,256
93560	-9,1216	0,	-27,122	10,904
93561	-9,5754	0,	-26,272	10,565
93562	-9,7734	0,	-26,96	10,613
93563	-8,6636	0,	-27,971	11,277
93564	-9,3176	0,	-27,81	10,956
93565	-8,205	0,	-28,821	11,685
93566	-8,8508	0,	-28,658	11,336
93567	-7,7523	0,	-29,676	12,128
93568	-7,5645	0,	-28,976	11,999
93569	-8,396	0,	-29,512	11,745
93570	-7,2968	0,	-30,538	12,616
93571	-7,9432	0,	-30,37	12,192
93572	-6,8287	0,	-31,407	13,161
93573	-7,4858	0,	-31,236	12,683
93574	-7,0131	0,	-32,104	13,232
93575	-6,3432	0,	-32,282	13,776
93576	-5,3078	0,	-34,074	15,301
93577	-6,0073	0,	-33,858	14,566
93578	-5,8356	0,	-33,168	14,481
93579	-17,077	0,	9,242	10,971
93580	-16,847	0,	8,6039	11,184
93581	-13,318	0,	2,4859	11,448
93582	-12,936	0,	1,9724	11,306
93583	-13,32	0,	0,43657	11,636
93584	-13,862	0,	7,3201e-002	11,969
93585	-3,8288	0,	-33,71	16,248
93586	-3,1441	0,	-33,827	16,854
93587	4,2065	0,	-33,536	15,866
93588	3,619	0,	-33,669	16,416
93589	17,196	0,	-9,0293	11,182
93590	16,908	0,	-8,4764	11,337
93591	13,335	0,	-2,4431	11,484
93592	12,702	0,	-2,7282	11,098
93593	12,952	0,	-1,9314	11,335
93594	13,308	0,	-0,37853	11,634
93595	13,893	0,	-3,9241e-002	11,986
93596	17,183	0,	8,8356	11,194
93597	17,368	0,	9,4327	10,971
93598	3,7878	0,	33,835	14,294
93599	3,1364	0,	33,907	14,379
93600	3,6906	0,	33,126	13,945
93601	-3,9059	0,	33,653	14,187
93602	-13,877	0,	-2,1288	11,814
93603	-14,205	0,	-2,6611	11,93
93604	13,934	0,	2,0353	11,845
93605	14,263	0,	2,5565	11,96
93606	-5,5106	0,	-34,744	15,353
93607	-6,2102	0,	-34,528	14,637
93608	-5,7945	0,	-35,403	15,328
93609	-6,4305	0,	-35,211	14,563
93610	-19,	0,	10,791	10,663
93611	-19,469	0,	9,8844	11,23
93612	-19,648	0,	10,606	10,809
93613	-18,811	0,	10,111	10,971
93614	-16,607	0,	7,9843	11,356
93615	-16,349	0,	7,3694	11,516
93616	-13,702	0,	3,0156	11,548
93617	-14,084	0,	3,5327	11,658
93618	-17,212	0,	-8,353	11,491
93619	-16,923	0,	-7,7513	11,661
93620	-2,502	0,	-33,911	17,27
93621	-1,8637	0,	-33,964	17,679
93622	2,4476	0,	-33,873	17,309
93623	3,0481	0,	-33,784	16,838
93624	16,64	0,	-7,8826	11,487
93625	16,357	0,	-7,304	11,616
93626	13,706	0,	-2,9722	11,584
93627	14,079	0,	-3,4926	11,695
93628	13,073	0,	-3,2574	11,208
93629	16,98	0,	8,256	11,377
93630	16,767	0,	7,6663	11,564
93631	2,5034	0,	33,968	14,437
93632	1,8625	0,	34,017	14,451
93633	-3,2365	0,	33,76	14,303
93634	-2,5682	0,	33,86	14,375
93635	-14,529	0,	-3,1954	11,998
93636	-14,865	0,	-3,7469	12,072
93637	14,574	0,	3,1043	12,017
93638	14,893	0,	3,6529	12,079
93639	-18,108	0,	-10,181	10,891
93640	-18,385	0,	-10,81	10,622
93641	-18,754	0,	-9,9543	11,11
93642	-18,455	0,	-9,3338	11,393
93643	5,3016	0,	35,074	14,738
93644	5,9646	0,	34,953	14,48
93645	5,3933	0,	35,791	15,212
93646	6,0895	0,	35,672	14,848
93647	-16,076	0,	6,7816	11,634
93648	-15,786	0,	6,2024	11,722
93649	-14,455	0,	4,0538	11,721
93650	-14,818	0,	4,5752	11,78
93651	-16,636	0,	-7,1691	11,791
93652	-16,36	0,	-6,5807	11,911
93653	-1,231	0,	-34,018	17,94
93654	-0,59146	0,	-34,047	18,135
93655	1,8604	0,	-33,947	17,629
93656	1,2526	0,	-34,006	17,946
93657	15,774	0,	-6,1631	11,79
93658	16,072	0,	-6,7287	11,719
93659	14,443	0,	-4,0151	11,761
93660	14,802	0,	-4,5409	11,824
93661	16,544	0,	7,0857	11,719
93662	16,309	0,	6,4991	11,859
93663	0,60483	0,	34,071	14,458
93664	1,2372	0,	34,053	14,466
93665	-1,9208	0,	33,945	14,428
93666	-1,2737	0,	34,012	14,441
93667	-15,181	0,	-4,2987	12,091
93668	-15,495	0,	-4,8613	12,101
93669	15,203	0,	4,213	12,09
93670	15,511	0,	4,777	12,093
93671	-15,482	0,	5,6481	11,778
93672	-15,158	0,	5,1039	11,789
93673	-16,08	0,	-6,0056	12,003
93674	-15,795	0,	-5,4285	12,064
93675	2,7953e-002	0,	-34,058	18,185
93676	0,65337	0,	-34,045	18,109
93677	15,466	0,	-5,6127	11,835
93678	15,143	0,	-5,0702	11,839
93679	16,063	0,	5,922	11,97
93680	15,796	0,	5,3461	12,044
93681	-1,1538e-002	0,	34,073	14,457
93682	-0,64533	0,	34,053	14,455
93683	5,6902	0,	-34,654	15,145
93684	6,2995	0,	-34,484	14,536
93685	5,8415	0,	-35,351	15,26
93686	6,4743	0,	-35,181	14,509
93687	19,035	0,	10,199	10,961
93688	19,703	0,	9,9737	11,21
93689	19,871	0,	10,603	10,83
93690	19,194	0,	10,814	10,67
93691	-17,737	0,	8,9989	11,294
93692	-17,955	0,	9,6582	11,02
93693	-13,77	0,	0,89402	11,883
93694	-13,164	0,	1,1968	11,506
93695	-4,6222	0,	-34,273	15,955
93696	-4,7858	0,	-35,003	16,244
93697	-3,8967	0,	-34,45	16,752
93698	5,0691	0,	-34,818	15,866
93699	4,9329	0,	-34,11	15,606
93700	18,211	0,	-9,2421	11,365
93701	19,228	0,	-9,5044	11,453
93702	18,883	0,	-8,9678	11,703
93703	18,613	0,	-9,7118	11,225
93704	17,868	0,	-8,7219	11,541
93705	13,722	0,	-0,84117	11,867
93706	13,136	0,	-1,1559	11,504
93707	18,872	0,	9,5806	11,287
93708	18,205	0,	9,8094	11,005
93709	4,5322	0,	34,46	14,538
93710	4,6188	0,	35,173	14,967
93711	3,8628	0,	34,542	14,674
93712	-14,143	0,	-1,2619	12,064
93713	-14,306	0,	-0,36805	12,208
93714	-14,704	0,	-0,89757	12,448
93715	-14,48	0,	-1,7999	12,223
93716	14,544	0,	1,741	12,256
93717	14,222	0,	1,2188	12,107
93718	6,4902	0,	34,092	13,819
93719	6,6403	0,	34,807	14,106
93720	7,6316	0,	33,039	12,885
93721	6,9815	0,	33,214	13,227
93722	7,4533	0,	32,332	12,697
93723	8,5586	0,	31,286	11,926
93724	8,3701	0,	30,587	11,791
93725	7,9142	0,	31,457	12,222
93726	9,296	0,	28,852	11,029
93727	9,759	0,	27,982	10,692
93728	9,9529	0,	28,674	10,781
93729	9,4826	0,	29,546	11,133
93730	8,8303	0,	29,719	11,395
93731	8,6474	0,	29,017	11,242
93732	10,415	0,	27,801	10,459
93733	10,221	0,	27,112	10,381
93734	11,145	0,	25,38	9,8358
93735	11,612	0,	24,512	9,5993
93736	11,808	0,	25,198	9,6472
93737	11,34	0,	26,067	9,8943
93738	10,683	0,	26,245	10,096
93739	12,078	0,	23,644	9,3883
93740	12,543	0,	22,776	9,2041
93741	12,745	0,	23,462	9,2287
93742	12,274	0,	24,327	9,4253
93743	13,012	0,	21,908	9,0474
93744	13,477	0,	21,039	8,9211
93745	13,68	0,	21,723	8,9185
93746	13,208	0,	22,588	9,0598
93747	13,942	0,	20,169	8,827
93748	14,407	0,	19,299	8,7675
93749	14,612	0,	19,98	8,7308
93750	13,742	0,	19,489	8,8151
93751	14,14	0,	20,847	8,8091
93752	14,873	0,	18,429	8,7452
93753	15,34	0,	17,561	8,7628
93754	15,544	0,	18,237	8,6841
93755	15,073	0,	19,106	8,6891
93756	15,804	0,	16,692	8,8238
93757	16,265	0,	15,829	8,93
93758	15,596	0,	16,023	8,8965
93759	16,476	0,	16,497	8,8007
93760	16,008	0,	17,366	8,7207
93761	16,933	0,	15,638	8,9264
93762	16,728	0,	14,975	9,0831
93763	17,877	0,	13,941	9,3228
93764	17,2	0,	14,132	9,285
93765	17,681	0,	13,301	9,538
93766	18,858	0,	12,277	9,9346
93767	18,68	0,	11,646	10,222
93768	18,174	0,	12,472	9,8481
93769	-6,1267	0,	34,025	13,913
93770	-6,2546	0,	34,779	14,248
93771	-5,4344	0,	34,818	14,562
93772	-6,8779	0,	33,897	13,552
93773	-6,7163	0,	33,179	13,307
93774	-7,9407	0,	32,125	12,426
93775	-7,7581	0,	31,424	12,263
93776	-7,2515	0,	32,3	12,755
93777	-8,7177	0,	29,695	11,423
93778	-8,9151	0,	30,391	11,541
93779	-8,2473	0,	30,556	11,821
93780	-9,186	0,	28,835	11,056
93781	-9,3758	0,	29,525	11,162
93782	-9,6584	0,	27,976	10,717
93783	-9,8545	0,	28,668	10,809
93784	-10,129	0,	27,117	10,405
93785	-10,32	0,	27,801	10,486
93786	-9,4663	0,	27,285	10,593
93787	-10,797	0,	26,943	10,188
93788	-10,597	0,	26,252	10,117
93789	-11,54	0,	24,523	9,6153
93790	-11,738	0,	25,209	9,665
93791	-11,067	0,	25,387	9,854
93792	-12,011	0,	23,657	9,4022
93793	-12,206	0,	24,337	9,4413
93794	-11,341	0,	23,834	9,5341
93795	-12,48	0,	22,789	9,2159
93796	-12,681	0,	23,473	9,2427
93797	-12,952	0,	21,922	9,0575
93798	-13,149	0,	22,601	9,0718
93799	-13,423	0,	21,056	8,9292
93800	-13,625	0,	21,737	8,9285
93801	-13,895	0,	20,189	8,833
93802	-14,094	0,	20,867	8,8165
93803	-14,379	0,	19,327	8,7702
93804	-14,569	0,	20,002	8,7366
93805	-14,861	0,	18,467	8,7448
93806	-15,058	0,	19,139	8,6899
93807	-15,33	0,	17,608	8,76
93808	-15,536	0,	18,279	8,682
93809	-15,789	0,	16,751	8,8175
93810	-15,998	0,	17,418	8,7159
93811	-15,124	0,	16,937	8,808
93812	-16,245	0,	15,901	8,9189
93813	-16,456	0,	16,562	8,7922
93814	-17,376	0,	14,866	9,0803
93815	-16,705	0,	15,054	9,0668
93816	-17,16	0,	14,214	9,2633
93817	-18,288	0,	13,194	9,5675
93818	-18,076	0,	12,535	9,8201
93819	-17,617	0,	13,379	9,5116
93820	-19,195	0,	11,484	10,312
93821	-18,536	0,	11,672	10,2
93822	6,7357	0,	-33,617	13,901
93823	6,9208	0,	-34,313	13,886
93824	7,3549	0,	-33,45	13,324
93825	7,1606	0,	-32,754	13,332
93826	8,0321	0,	-31,048	12,323
93827	8,2302	0,	-31,739	12,327
93828	7,5919	0,	-31,897	12,808
93829	8,4716	0,	-30,206	11,879
93830	8,6706	0,	-30,893	11,886
93831	7,8288	0,	-30,353	12,25
93832	9,1197	0,	-30,049	11,474
93833	8,9198	0,	-29,36	11,465
93834	10,045	0,	-28,349	10,73
93835	9,3792	0,	-28,512	11,079
93836	9,8424	0,	-27,659	10,723
93837	10,775	0,	-25,956	10,1
93838	10,975	0,	-26,641	10,103
93839	10,307	0,	-26,807	10,397
93840	11,242	0,	-25,105	9,8318
93841	11,439	0,	-25,782	9,8318
93842	10,574	0,	-25,269	10,051
93843	11,907	0,	-24,931	9,5872
93844	11,703	0,	-24,249	9,5937
93845	12,835	0,	-23,215	9,1824
93846	12,166	0,	-23,392	9,3837
93847	12,628	0,	-22,537	9,2034
93848	14,022	0,	-19,965	8,849
93849	14,223	0,	-20,639	8,7957
93850	13,555	0,	-20,822	8,9345
93851	14,693	0,	-19,78	8,7297
93852	14,488	0,	-19,108	8,799
93853	15,422	0,	-17,4	8,8141
93854	15,622	0,	-18,066	8,7085
93855	14,952	0,	-18,252	8,787
93856	15,902	0,	-16,555	8,8821
93857	16,098	0,	-17,215	8,7548
93858	16,58	0,	-16,368	8,8429
93859	16,384	0,	-15,704	8,9963
93860	17,329	0,	-14,001	9,3749
93861	17,531	0,	-14,661	9,1644
93862	16,86	0,	-14,847	9,1609
93863	17,803	0,	-13,178	9,6364
93864	17,994	0,	-13,821	9,3994
93865	18,472	0,	-13,009	9,6797
93866	18,283	0,	-12,381	9,944
93867	19,392	0,	-11,412	10,406
93868	19,168	0,	-10,823	10,72
93869	18,74	0,	-11,596	10,304
93870	19,884	0,	-9,2766	11,744
93871	20,192	0,	-9,8324	11,398
93872	19,55	0,	-10,051	11,197
93873	-18,202	0,	-12,268	9,9867
93874	-18,873	0,	-12,067	10,076
93875	-18,632	0,	-11,435	10,373
93876	-17,751	0,	-13,102	9,6615
93877	-18,423	0,	-12,903	9,7218
93878	-17,289	0,	-13,938	9,3936
93879	-17,959	0,	-13,744	9,4267
93880	-16,828	0,	-14,781	9,1778
93881	-17,499	0,	-14,588	9,1869
93882	-16,616	0,	-14,125	9,3227
93883	-17,038	0,	-15,444	8,9967
93884	-16,37	0,	-15,637	9,0099
93885	-16,118	0,	-17,16	8,7605
93886	-15,911	0,	-16,493	8,8906
93887	-15,452	0,	-17,351	8,8166
93888	-14,534	0,	-19,065	8,7946
93889	-15,202	0,	-18,877	8,6967
93890	-14,992	0,	-18,21	8,7856
93891	-14,077	0,	-19,918	8,8407
93892	-14,744	0,	-19,739	8,7226
93893	-13,871	0,	-19,246	8,8606
93894	-14,279	0,	-20,595	8,7853
93895	-13,619	0,	-20,777	8,9221
93896	-12,704	0,	-22,503	9,1836
93897	-13,366	0,	-22,318	9,0047
93898	-13,163	0,	-21,641	9,0367
93899	-12,247	0,	-23,36	9,3598
93900	-12,905	0,	-23,184	9,1615
93901	-11,791	0,	-24,214	9,5646
93902	-12,45	0,	-24,036	9,3446
93903	-11,332	0,	-25,071	9,7988
93904	-11,991	0,	-24,894	9,5562
93905	-10,875	0,	-25,931	10,061
93906	-11,534	0,	-25,753	9,7949
93907	-11,079	0,	-26,615	10,06
93908	-10,225	0,	-26,103	10,3
93909	-10,422	0,	-26,791	10,35
93910	-9,5049	0,	-28,497	11,019
93911	-10,164	0,	-28,333	10,673
93912	-9,9694	0,	-27,648	10,667
93913	-9,6913	0,	-29,183	11,029
93914	-9,0419	0,	-29,349	11,401
93915	-8,7789	0,	-30,897	11,822
93916	-8,1321	0,	-31,068	12,266
93917	-8,5869	0,	-30,206	11,815
93918	-7,1828	0,	-32,8	13,328
93919	-7,857	0,	-32,623	12,764
93920	-7,6701	0,	-31,933	12,764
93921	-6,6846	0,	-33,668	13,959
93922	-6,5129	0,	-32,978	13,86
93923	-7,3656	0,	-33,489	13,322
93924	-6,882	0,	-34,351	13,928
93925	-5,4622	0,	-36,319	15,978
93926	-5,0697	0,	-35,662	16,192
93927	-6,0401	0,	-36,102	15,19
93928	-19,271	0,	9,1943	11,586
93929	-20,114	0,	9,6947	11,425
93930	-19,918	0,	8,9424	11,927
93931	-17,507	0,	8,3607	11,518
93932	-17,26	0,	7,7206	11,741
93933	-13,943	0,	2,2063	11,822
93934	-14,33	0,	2,7194	11,968
93935	-14,312	0,	0,53065	12,202
93936	-14,876	0,	6,9622e-002	12,583
93937	-19,405	0,	-9,719	11,376
93938	-19,689	0,	-10,355	11,013
93939	-19,031	0,	-10,583	10,833
93940	-17,85	0,	-8,1057	11,847
93941	-18,151	0,	-8,7209	11,62
93942	-5,0076	0,	-36,624	16,644
93943	-4,6151	0,	-35,968	16,875
93944	-4,4493	0,	-36,748	17,492
93945	-3,2119	0,	-34,567	17,335
93946	-2,541	0,	-34,631	17,931
93947	5,2204	0,	-35,515	15,961
93948	5,3512	0,	-36,211	16,099
93949	6,007	0,	-36,041	15,214
93950	20,551	0,	-9,0401	12,022
93951	19,539	0,	-8,7401	12,003
93952	20,178	0,	-8,5022	12,363
93953	17,293	0,	-7,5981	11,878
93954	17,58	0,	-8,169	11,71
93955	13,951	0,	-2,152	11,852
93956	14,341	0,	-2,6672	12,006
93957	14,306	0,	-0,50189	12,205
93958	14,851	0,	-8,7756e-002	12,565
93959	14,37	0,	0,3466	12,245
93960	17,646	0,	8,0003	11,756
93961	17,848	0,	8,6046	11,512
93962	19,54	0,	9,3559	11,545
93963	20,372	0,	9,7526	11,422
93964	20,201	0,	9,1203	11,862
93965	3,2113	0,	34,613	14,756
93966	2,5556	0,	34,675	14,778
93967	-3,2753	0,	34,453	14,659
93968	-3,9623	0,	34,343	14,554
93969	-5,2559	0,	36,139	15,496
93970	-6,1587	0,	35,43	14,679
93971	-5,3386	0,	35,469	14,991
93972	-14,807	0,	-2,3323	12,323
93973	-15,163	0,	-2,8911	12,444
93974	14,874	0,	2,2622	12,357
93975	15,208	0,	2,8142	12,465
93976	4,7104	0,	35,889	15,431
93977	5,493	0,	36,512	15,685
93978	4,7808	0,	36,608	15,998
93979	-6,4538	0,	36,733	15,437
93980	-7,0245	0,	36,36	14,808
93981	-6,6675	0,	35,693	14,632
93982	20,859	0,	-9,5958	11,667
93983	21,263	0,	-8,762	12,424
93984	21,538	0,	-9,3617	11,899
93985	-17,003	0,	7,1057	11,915
93986	-16,728	0,	6,4979	12,06
93987	-14,712	0,	3,2365	12,065
93988	-15,093	0,	3,7525	12,168
93989	-17,561	0,	-7,5041	12,03
93990	-17,291	0,	-6,8974	12,207
93991	-1,9027	0,	-34,685	18,322
93992	-1,2436	0,	-34,726	18,7
93993	2,5287	0,	-34,585	17,847
93994	1,9071	0,	-34,66	18,337
93995	15,082	0,	-3,7099	12,205
93996	14,714	0,	-3,1876	12,104
93997	17,433	0,	7,4106	11,956
93998	17,209	0,	6,8124	12,147
93999	-2,607	0,	34,553	14,73
94000	-1,9446	0,	34,642	14,74
94001	-15,499	0,	-3,4426	12,502
94002	-15,838	0,	-4,003	12,559
94003	15,528	0,	3,3627	12,511
94004	15,851	0,	3,9203	12,559
94005	-20,771	0,	9,4667	11,711
94006	-20,576	0,	8,7144	12,226
94007	-21,389	0,	8,8328	12,325
94008	-21,107	0,	8,3426	12,698
94009	-21,392	0,	9,4115	11,792
94010	-16,438	0,	5,9187	12,164
94011	-16,13	0,	5,3512	12,219
94012	-15,455	0,	4,2739	12,213
94013	-15,805	0,	4,8069	12,246
94014	-17,015	0,	-6,3091	12,343
94015	-16,743	0,	-5,7172	12,451
94016	-0,60404	0,	-34,756	18,886
94017	4,3243e-002	0,	-34,765	18,96
94018	1,2992	0,	-34,718	18,639
94019	0,66866	0,	-34,753	18,888
94020	16,418	0,	-5,8765	12,224
94021	16,11	0,	-5,3166	12,269
94022	15,44	0,	-4,2356	12,252
94023	15,787	0,	-4,7742	12,289
94024	16,974	0,	6,2258	12,303
94025	16,719	0,	5,635	12,422
94026	21,033	0,	9,5276	11,693
94027	20,862	0,	8,8954	12,143
94028	21,516	0,	8,6699	12,508
94029	21,693	0,	9,315	11,91
94030	0,62873	0,	34,772	14,748
94031	-1,6297e-002	0,	34,775	14,736
94032	-1,2975	0,	34,709	14,753
94033	-0,65009	0,	34,755	14,735
94034	-16,152	0,	-4,5656	12,552
94035	-16,457	0,	-5,14	12,53
94036	-5,6836	0,	-37,027	15,805
94037	-5,0861	0,	-37,236	16,733
94038	5,5085	0,	-36,896	16,021
94039	6,3461	0,	-37,384	14,918
94040	5,6446	0,	-37,571	15,944
94041	6,1642	0,	-36,726	15,156
94042	-5,8973	0,	37,093	15,976
94043	-5,2082	0,	36,762	15,987
94044	-5,3042	0,	37,402	16,569
94045	-18,395	0,	8,7612	11,602
94046	-19,042	0,	8,4967	11,97
94047	-18,613	0,	9,4204	11,317
94048	-18,154	0,	8,0993	11,894
94049	-14,167	0,	1,39	12,056
94050	-14,569	0,	1,9021	12,247
94051	-13,561	0,	1,6927	11,691
94052	-14,748	0,	1,0393	12,457
94053	-20,079	0,	-9,4815	11,62
94054	-19,106	0,	-9,0986	11,669
94055	-19,736	0,	-8,8464	12,002
94056	-4,0602	0,	-35,18	17,01
94057	-4,0753	0,	-35,882	17,512
94058	-3,278	0,	-35,274	17,904
94059	4,4652	0,	-34,96	16,488
94060	3,8386	0,	-35,09	17,237
94061	4,329	0,	-34,251	16,249
94062	3,7415	0,	-34,384	16,778
94063	4,581	0,	-35,667	16,804
94064	19,184	0,	-8,1917	12,267
94065	18,54	0,	-8,4476	11,89
94066	14,153	0,	-1,3256	12,064
94067	14,567	0,	-1,8261	12,272
94068	13,567	0,	-1,6403	11,715
94069	14,75	0,	-0,96338	12,471
94070	19,361	0,	8,7319	11,916
94071	18,702	0,	8,9729	11,571
94072	3,9493	0,	35,255	15,098
94073	4,0149	0,	35,969	15,576
94074	3,2731	0,	35,325	15,154
94075	-15,04	0,	-1,4356	12,587
94076	-15,274	0,	-0,4599	12,798
94077	-15,617	0,	-1,1199	12,995
94078	-15,411	0,	-2,0163	12,757
94079	15,095	0,	1,3817	12,617
94080	15,254	0,	0,4251	12,783
94081	15,657	0,	1,002	13,029
94082	14,773	0,	0,85945	12,487
94083	15,477	0,	1,9334	12,797
94084	5,5683	0,	37,234	16,309
94085	6,3	0,	37,112	15,763
94086	6,1892	0,	36,393	15,337
94087	7,8006	0,	33,751	13,123
94088	7,9743	0,	34,462	13,308
94089	7,1506	0,	33,926	13,455
94090	7,3007	0,	34,641	13,754
94091	8,2802	0,	32,868	12,574
94092	8,7463	0,	31,989	12,088
94093	8,9398	0,	32,684	12,205
94094	8,102	0,	32,16	12,378
94095	8,4626	0,	33,567	12,719
94096	9,2067	0,	31,113	11,652
94097	9,6706	0,	30,241	11,254
94098	9,0183	0,	30,415	11,513
94099	9,8637	0,	30,931	11,337
94100	9,3999	0,	31,808	11,751
94101	10,14	0,	29,369	10,888
94102	10,609	0,	28,493	10,551
94103	10,802	0,	29,186	10,61
94104	10,326	0,	30,059	10,961
94105	11,071	0,	27,622	10,245
94106	11,534	0,	26,754	9,9639
94107	11,732	0,	27,441	10,
94108	10,877	0,	26,933	10,164
94109	11,269	0,	28,309	10,291
94110	12,199	0,	26,569	9,7326
94111	12,002	0,	25,884	9,7061
94112	12,941	0,	24,146	9,2649
94113	13,41	0,	23,275	9,0831
94114	13,611	0,	23,959	9,0745
94115	13,135	0,	24,827	9,27
94116	12,47	0,	25,013	9,4729
94117	13,876	0,	22,403	8,929
94118	14,343	0,	21,531	8,804
94119	14,545	0,	22,213	8,7669
94120	14,073	0,	23,082	8,9079
94121	14,81	0,	20,658	8,71
94122	15,278	0,	19,786	8,6492
94123	15,481	0,	20,467	8,577
94124	15,009	0,	21,337	8,657
94125	15,942	0,	19,593	8,533
94126	15,745	0,	18,914	8,6244
94127	16,88	0,	17,849	8,5537
94128	16,213	0,	18,043	8,6381
94129	16,679	0,	17,172	8,6936
94130	17,608	0,	15,447	8,9386
94131	18,08	0,	14,594	9,1332
94132	18,283	0,	15,252	8,9077
94133	17,403	0,	14,785	9,0994
94134	17,813	0,	16,112	8,7435
94135	17,143	0,	16,306	8,7931
94136	18,56	0,	13,751	9,3785
94137	19,048	0,	12,915	9,6799
94138	19,238	0,	13,557	9,3881
94139	18,363	0,	13,11	9,5976
94140	18,758	0,	14,398	9,1218
94141	19,541	0,	12,076	10,048
94142	20,04	0,	11,233	10,493
94143	19,362	0,	11,445	10,34
94144	20,215	0,	11,867	10,117
94145	19,725	0,	12,712	9,7172
94146	20,54	0,	10,382	11,034
94147	21,207	0,	10,17	11,187
94148	20,71	0,	11,02	10,601
94149	-7,5959	0,	33,716	13,2
94150	-7,7803	0,	34,418	13,386
94151	-7,0059	0,	34,651	13,9
94152	-8,1235	0,	32,823	12,624
94153	-8,3094	0,	33,521	12,774
94154	-7,4343	0,	32,998	12,944
94155	-8,615	0,	31,955	12,13
94156	-8,807	0,	32,649	12,252
94157	-9,1003	0,	31,09	11,685
94158	-9,2917	0,	31,778	11,787
94159	-8,4325	0,	31,254	11,961
94160	-9,7714	0,	30,915	11,369
94161	-9,5732	0,	30,222	11,284
94162	-10,715	0,	29,183	10,64
94163	-10,516	0,	28,493	10,58
94164	-10,044	0,	29,358	10,917
94165	-11,66	0,	27,448	10,024
94166	-10,987	0,	27,626	10,27
94167	-11,46	0,	26,76	9,9857
94168	-12,404	0,	25,023	9,4908
94169	-12,605	0,	25,708	9,5079
94170	-11,931	0,	25,891	9,7259
94171	-12,876	0,	24,154	9,2809
94172	-13,07	0,	24,836	9,2883
94173	-14,296	0,	21,548	8,8134
94174	-14,496	0,	22,227	8,7784
94175	-13,822	0,	22,416	8,9408
94176	-14,768	0,	20,679	8,7172
94177	-14,966	0,	21,358	8,6662
94178	-15,247	0,	19,814	8,653
94179	-15,442	0,	20,488	8,584
94180	-15,733	0,	18,951	8,6237
94181	-15,926	0,	19,623	8,534
94182	-16,205	0,	18,089	8,6342
94183	-16,408	0,	18,761	8,5203
94184	-16,872	0,	17,895	8,5485
94185	-16,666	0,	17,228	8,6868
94186	-17,587	0,	15,528	8,9212
94187	-17,798	0,	16,187	8,7282
94188	-16,916	0,	15,716	8,9117
94189	-17,127	0,	16,376	8,7812
94190	-18,047	0,	14,686	9,1087
94191	-18,26	0,	15,337	8,8864
94192	-18,502	0,	13,849	9,3475
94193	-18,721	0,	14,502	9,0909
94194	-17,831	0,	14,034	9,2953
94195	-18,953	0,	13,006	9,6461
94196	-19,173	0,	13,66	9,3528
94197	-19,4	0,	12,158	10,01
94198	-19,62	0,	12,822	9,6733
94199	-18,741	0,	12,346	9,9028
94200	-19,843	0,	11,298	10,453
94201	-20,061	0,	11,975	10,065
94202	-20,293	0,	10,416	10,998
94203	-20,491	0,	11,13	10,534
94204	-20,917	0,	10,303	11,08
94205	7,0956	0,	-35,01	13,872
94206	7,2799	0,	-35,696	13,742
94207	6,6398	0,	-35,871	14,479
94208	7,5401	0,	-34,146	13,32
94209	7,7289	0,	-34,833	13,219
94210	8,1759	0,	-33,977	12,73
94211	7,9784	0,	-33,29	12,813
94212	9,071	0,	-32,27	11,841
94213	8,4223	0,	-32,436	12,339
94214	8,8687	0,	-31,584	11,898
94215	9,979	0,	-30,572	11,061
94216	9,3187	0,	-30,737	11,488
94217	9,7747	0,	-29,885	11,104
94218	10,711	0,	-28,18	10,413
94219	10,91	0,	-28,865	10,377
94220	10,241	0,	-29,034	10,745
94221	11,176	0,	-27,324	10,111
94222	11,373	0,	-28,003	10,075
94223	10,508	0,	-27,49	10,403
94224	11,639	0,	-26,467	9,8365
94225	11,842	0,	-27,15	9,7972
94226	12,104	0,	-25,609	9,588
94227	12,303	0,	-26,286	9,5469
94228	12,773	0,	-25,432	9,3189
94229	12,568	0,	-24,751	9,3659
94230	13,5	0,	-23,034	9,0017
94231	13,703	0,	-23,71	8,9417
94232	13,033	0,	-23,891	9,1704
94233	13,965	0,	-22,173	8,862
94234	14,167	0,	-22,848	8,7933
94235	13,294	0,	-22,355	9,0238
94236	14,429	0,	-21,313	8,7525
94237	14,635	0,	-21,988	8,6716
94238	13,762	0,	-21,497	8,8933
94239	14,894	0,	-20,454	8,674
94240	15,098	0,	-21,126	8,5809
94241	15,363	0,	-19,595	8,6282
94242	15,567	0,	-20,267	8,5196
94243	15,828	0,	-18,736	8,6187
94244	16,033	0,	-19,407	8,4925
94245	15,158	0,	-18,922	8,7004
94246	16,298	0,	-17,881	8,6459
94247	16,499	0,	-18,548	8,501
94248	17,256	0,	-16,177	8,8218
94249	17,451	0,	-16,832	8,6317
94250	16,776	0,	-17,029	8,7122
94251	17,732	0,	-15,326	8,9789
94252	17,931	0,	-15,983	8,7597
94253	17,06	0,	-15,513	8,9789
94254	18,399	0,	-15,133	8,9371
94255	18,197	0,	-14,481	9,1855
94256	19,135	0,	-12,836	9,7451
94257	19,334	0,	-13,467	9,4376
94258	18,663	0,	-13,652	9,4397
94259	19,599	0,	-12,025	10,11
94260	19,804	0,	-12,645	9,7699
94261	18,946	0,	-12,208	10,013
94262	20,044	0,	-11,218	10,543
94263	20,264	0,	-11,828	10,167
94264	20,462	0,	-10,41	11,056
94265	20,705	0,	-11,007	10,645
94266	19,82	0,	-10,629	10,862
94267	21,124	0,	-10,19	11,21
94268	-20,363	0,	-10,117	11,247
94269	-20,788	0,	-9,2211	11,95
94270	-21,068	0,	-9,8933	11,429
94271	-19,958	0,	-10,991	10,675
94272	-20,622	0,	-10,768	10,801
94273	-19,541	0,	-11,852	10,2
94274	-20,208	0,	-11,636	10,28
94275	-19,3	0,	-11,22	10,503
94276	-19,093	0,	-12,702	9,8067
94277	-19,765	0,	-12,501	9,8447
94278	-18,631	0,	-13,545	9,4829
94279	-19,305	0,	-13,351	9,49
94280	-18,169	0,	-14,395	9,2161
94281	-18,841	0,	-14,199	9,2006
94282	-17,709	0,	-15,251	9,002
94283	-18,381	0,	-15,057	8,9636
94284	-17,25	0,	-16,11	8,838
94285	-17,92	0,	-15,916	8,7791
94286	-16,789	0,	-16,97	8,7214
94287	-17,46	0,	-16,778	8,6421
94288	-16,581	0,	-16,303	8,855
94289	-16,329	0,	-17,829	8,6486
94290	-16,997	0,	-17,638	8,5509
94291	-15,873	0,	-18,687	8,6161
94292	-16,541	0,	-18,496	8,4998
94293	-15,663	0,	-18,02	8,7081
94294	-15,413	0,	-19,55	8,6219
94295	-16,082	0,	-19,356	8,4875
94296	-14,483	0,	-21,276	8,7404
94297	-15,148	0,	-21,088	8,57
94298	-14,945	0,	-20,415	8,6648
94299	-14,027	0,	-22,135	8,8457
94300	-14,691	0,	-21,951	8,6572
94301	-13,823	0,	-21,458	8,8793
94302	-14,23	0,	-22,811	8,775
94303	-13,568	0,	-22,998	8,9816
94304	-13,307	0,	-24,536	9,0923
94305	-12,65	0,	-24,716	9,3364
94306	-13,107	0,	-23,86	9,1459
94307	-11,738	0,	-26,437	9,795
94308	-12,394	0,	-26,255	9,5085
94309	-12,193	0,	-25,576	9,553
94310	-11,283	0,	-27,297	10,062
94311	-11,937	0,	-27,12	9,7543
94312	-10,822	0,	-28,158	10,359
94313	-11,48	0,	-27,976	10,023
94314	-10,627	0,	-27,473	10,35
94315	-10,351	0,	-29,018	10,688
94316	-11,014	0,	-28,843	10,323
94317	-10,539	0,	-29,698	10,652
94318	-9,884	0,	-29,871	11,042
94319	-9,626	0,	-31,413	11,372
94320	-8,9768	0,	-31,589	11,828
94321	-9,4266	0,	-30,728	11,422
94322	-8,7061	0,	-33,139	12,209
94323	-8,517	0,	-32,45	12,273
94324	-8,0398	0,	-33,312	12,768
94325	-7,1023	0,	-35,034	13,87
94326	-7,7632	0,	-34,859	13,189
94327	-7,5629	0,	-34,171	13,304
94328	-6,6761	0,	-35,91	14,443
94329	-7,3109	0,	-35,725	13,711
94330	-6,2615	0,	-36,81	15,034
94331	-6,8778	0,	-36,611	14,24
94332	-6,0615	0,	37,657	16,43
94333	-6,682	0,	37,35	15,7
94334	20,89	0,	-8,2241	12,779
94335	21,388	0,	-7,91	13,242
94336	21,856	0,	-8,0019	13,332
94337	21,982	0,	-8,548	12,728
94338	-19,689	0,	8,2449	12,327
94339	-20,284	0,	7,9577	12,764
94340	-17,907	0,	7,4592	12,133
94341	-17,643	0,	6,8215	12,346
94342	-15,334	0,	2,9244	12,516
94343	-14,956	0,	2,4153	12,379
94344	-18,473	0,	-7,8583	12,203
94345	-18,201	0,	-7,2354	12,445
94346	-21,501	0,	-8,3845	12,845
94347	-21,513	0,	-9,0377	12,174
94348	-21,019	0,	-8,2265	12,823
94349	-20,446	0,	-8,5861	12,346
94350	-4,5278	0,	-37,36	17,559
94351	-3,9096	0,	-36,663	18,113
94352	-3,9133	0,	-37,43	18,576
94353	-2,607	0,	-35,338	18,473
94354	-1,9288	0,	-35,392	19,074
94355	3,2263	0,	-35,202	17,829
94356	2,5902	0,	-35,292	18,506
94357	3,1292	0,	-34,496	17,396
94358	4,7118	0,	-36,364	16,917
94359	4,8227	0,	-37,059	17,083
94360	19,823	0,	-7,9538	12,64
94361	20,418	0,	-7,7052	13,077
94362	17,938	0,	-7,3176	12,284
94363	17,642	0,	-6,7309	12,448
94364	17,01	0,	-7,0196	12,022
94365	15,295	0,	-0,54925	12,81
94366	15,859	0,	-5,2875e-002	13,202
94367	18,308	0,	7,7541	12,133
94368	18,093	0,	7,1442	12,386
94369	20,022	0,	8,4964	12,246
94370	20,678	0,	8,2554	12,657
94371	4,8561	0,	37,331	16,605
94372	4,0853	0,	36,688	16,135
94373	4,1341	0,	37,415	16,801
94374	2,6174	0,	35,387	15,175
94375	1,9489	0,	35,427	15,106
94376	1,9147	0,	34,724	14,791
94377	-2,6343	0,	35,248	15,079
94378	-3,3023	0,	35,139	15,056
94379	-4,5969	0,	36,263	15,735
94380	-4,6171	0,	36,964	16,336
94381	-15,768	0,	-2,5751	12,859
94382	-16,132	0,	-3,1363	12,971
94383	15,812	0,	2,4853	12,886
94384	16,163	0,	3,0532	12,989
94385	-21,841	0,	8,2868	12,957
94386	-22,014	0,	8,9238	12,317
94387	6,5283	0,	-38,001	14,619
94388	7,0101	0,	-37,206	14,071
94389	7,2119	0,	-37,861	13,723
94390	-17,368	0,	6,2137	12,51
94391	-17,076	0,	5,6173	12,619
94392	-15,715	0,	3,4404	12,602
94393	-16,088	0,	3,9636	12,685
94394	-15,312	0,	0,57831	12,813
94395	-15,87	0,	-0,23755	13,194
94396	-15,895	0,	0,31287	13,209
94397	-17,93	0,	-6,6288	12,64
94398	-17,667	0,	-6,0187	12,803
94399	-22,281	0,	-8,3408	13,018
94400	-21,511	0,	-7,8429	13,345
94401	-22,136	0,	-7,5483	13,973
94402	-22,527	0,	-7,967	13,54
94403	-1,2697	0,	-35,433	19,434
94404	-0,60401	0,	-35,459	19,715
94405	1,9686	0,	-35,367	18,973
94406	1,3258	0,	-35,425	19,439
94407	5,8267	0,	-38,187	15,629
94408	4,9588	0,	-37,734	16,98
94409	5,0141	0,	-38,411	16,98
94410	20,917	0,	-7,3911	13,566
94411	21,403	0,	-6,9973	14,245
94412	17,35	0,	-6,1535	12,582
94413	17,055	0,	-5,5757	12,673
94414	16,717	0,	-6,4422	12,137
94415	15,703	0,	-3,3888	12,636
94416	16,072	0,	-3,9239	12,72
94417	17,869	0,	6,546	12,595
94418	17,629	0,	5,9388	12,771
94419	22,171	0,	8,4605	12,811
94420	21,332	0,	8,0299	13,035
94421	21,99	0,	7,8	13,564
94422	1,2953	0,	35,456	15,072
94423	0,63239	0,	35,471	15,006
94424	1,2611	0,	34,753	14,756
94425	-1,9719	0,	35,337	15,091
94426	-1,3137	0,	35,41	15,034
94427	-5,4685	0,	37,965	17,
94428	-4,7132	0,	37,604	16,903
94429	-4,8358	0,	38,287	17,708
94430	-16,47	0,	-3,6967	13,008
94431	-16,803	0,	-4,2607	13,043
94432	16,486	0,	3,6108	13,016
94433	16,804	0,	4,1802	13,039
94434	16,159	0,	4,4843	12,545
94435	5,6583	0,	37,955	16,885
94436	4,914	0,	38,053	17,396
94437	-6,4399	0,	-37,516	14,785
94438	-5,816	0,	-37,723	15,688
94439	-5,2185	0,	-37,932	16,596
94440	-4,5803	0,	-38,088	17,702
94441	-1,2637e-002	0,	35,474	14,994
94442	-0,66625	0,	35,457	15,016
94443	17,097	0,	4,755	12,985
94444	17,374	0,	5,3479	12,912
94445	16,453	0,	5,0591	12,513
94446	16,747	0,	-5,0159	12,737
94447	16,419	0,	-4,4625	12,737
94448	6,0705	0,	-38,759	15,156
94449	6,7354	0,	-38,643	14,181
94450	4,327e-002	0,	-35,468	19,785
94451	0,69518	0,	-35,459	19,675
94452	-17,109	0,	-4,8351	12,998
94453	-17,395	0,	-5,4268	12,933
94454	-16,768	0,	5,0498	12,694
94455	-16,437	0,	4,4966	12,7
94456	-5,7128	0,	38,528	17,545
94457	-6,2943	0,	38,265	16,744
94458	22,655	0,	-7,8407	13,711
94459	22,601	0,	-7,305	14,528
94460	-21,559	0,	7,7967	13,372
94461	-22,331	0,	8,0886	13,272
94462	-22,104	0,	7,47	14,013
94463	-20,815	0,	7,5859	13,277
94464	-21,362	0,	7,2163	13,936
94465	21,869	0,	-6,5908	15,063
94466	22,599	0,	-6,8065	15,242
94467	22,421	0,	-6,2964	16,076
94468	-18,8	0,	7,8348	12,279
94469	-19,417	0,	7,5486	12,721
94470	-18,535	0,	7,1755	12,568
94471	-15,713	0,	1,2079	13,041
94472	-15,151	0,	1,5515	12,631
94473	-18,774	0,	-8,4735	11,961
94474	-19,404	0,	-8,2213	12,31
94475	-19,097	0,	-7,5924	12,617
94476	-3,2931	0,	-35,976	18,377
94477	-3,2942	0,	-36,704	18,997
94478	-2,628	0,	-36,048	19,177
94479	3,9544	0,	-35,797	17,526
94480	3,3029	0,	-35,904	18,379
94481	4,0449	0,	-36,492	17,91
94482	18,868	0,	-7,6325	12,491
94483	19,481	0,	-7,3555	12,937
94484	18,56	0,	-7,0319	12,719
94485	18,225	0,	-7,8884	12,099
94486	15,165	0,	-1,4639	12,66
94487	15,574	0,	-2,0086	12,859
94488	14,958	0,	-2,3413	12,41
94489	15,741	0,	-1,0857	13,08
94490	19,17	0,	8,1174	12,234
94491	18,966	0,	7,4972	12,563
94492	18,511	0,	8,3584	11,876
94493	19,83	0,	7,8709	12,662
94494	3,3387	0,	36,04	15,629
94495	3,3844	0,	36,761	16,14
94496	2,6568	0,	36,097	15,558
94497	-3,984	0,	36,401	15,901
94498	-3,977	0,	35,703	15,394
94499	-4,6795	0,	35,593	15,231
94500	-16,213	0,	-0,8976	13,375
94501	-16,827	0,	-0,65456	13,775
94502	-15,988	0,	-1,7006	13,144
94503	-16,588	0,	-1,412	13,57
94504	-16,377	0,	-2,2665	13,31
94505	16,039	0,	1,5537	13,185
94506	16,415	0,	2,1561	13,344
94507	7,0089	0,	36,965	15,257
94508	7,5886	0,	36,081	14,337
94509	7,7327	0,	36,793	14,574
94510	6,8981	0,	36,246	14,808
94511	6,39	0,	37,833	16,369
94512	7,1362	0,	37,681	15,581
94513	8,1294	0,	35,183	13,567
94514	8,8122	0,	34,982	13,048
94515	8,6362	0,	34,277	12,916
94516	8,2925	0,	35,894	13,743
94517	7,4558	0,	35,362	13,998
94518	9,5935	0,	32,504	11,874
94519	9,7847	0,	33,194	11,952
94520	9,1222	0,	33,383	12,359
94521	10,253	0,	32,314	11,503
94522	10,057	0,	31,626	11,441
94523	11,179	0,	30,561	10,727
94524	10,988	0,	29,876	10,687
94525	10,519	0,	30,748	11,048
94526	11,93	0,	28,128	10,049
94527	12,398	0,	27,256	9,7705
94528	12,597	0,	27,943	9,7766
94529	12,122	0,	28,813	10,068
94530	11,462	0,	29,002	10,353
94531	12,864	0,	26,384	9,5167
94532	13,332	0,	25,513	9,2865
94533	12,667	0,	25,699	9,4893
94534	13,532	0,	26,196	9,2705
94535	13,06	0,	27,067	9,5135
94536	13,805	0,	24,641	9,0791
94537	14,274	0,	23,767	8,8984
94538	14,475	0,	24,45	8,8572
94539	13,998	0,	25,322	9,0536
94540	14,742	0,	22,893	8,7444
94541	15,212	0,	22,02	8,618
94542	15,413	0,	22,7	8,5469
94543	14,937	0,	23,573	8,6908
94544	15,878	0,	21,824	8,4345
94545	15,681	0,	21,145	8,5218
94546	16,614	0,	19,399	8,4285
94547	17,084	0,	18,527	8,4353
94548	17,29	0,	19,202	8,2822
94549	16,417	0,	18,721	8,5228
94550	16,814	0,	20,077	8,3002
94551	16,146	0,	20,273	8,4583
94552	17,552	0,	17,653	8,4828
94553	18,022	0,	16,782	8,573
94554	18,229	0,	17,454	8,3661
94555	17,352	0,	16,976	8,6259
94556	17,754	0,	18,331	8,3045
94557	18,488	0,	15,916	8,7092
94558	18,961	0,	15,056	8,893
94559	19,164	0,	15,714	8,6262
94560	18,694	0,	16,585	8,4723
94561	19,436	0,	14,204	9,1281
94562	19,916	0,	13,354	9,4216
94563	20,112	0,	14,001	9,0845
94564	19,638	0,	14,858	8,8269
94565	20,592	0,	13,152	9,4009
94566	20,399	0,	12,504	9,7822
94567	21,867	0,	9,9577	11,396
94568	22,045	0,	10,603	10,835
94569	21,377	0,	10,809	10,747
94570	22,348	0,	9,1057	12,204
94571	22,821	0,	8,2741	13,213
94572	23,006	0,	8,9155	12,41
94573	22,53	0,	9,7552	11,538
94574	-7,2527	0,	36,977	15,089
94575	-6,9148	0,	37,958	16,045
94576	-7,5103	0,	37,681	15,276
94577	-7,5988	0,	36,003	14,289
94578	-7,8508	0,	36,699	14,44
94579	-8,0163	0,	35,103	13,6
94580	-8,248	0,	35,788	13,728
94581	-7,2419	0,	35,337	14,095
94582	-8,4938	0,	34,222	12,973
94583	-8,7037	0,	34,909	13,086
94584	-8,993	0,	33,347	12,412
94585	-9,191	0,	34,037	12,509
94586	-9,4837	0,	32,471	11,916
94587	-9,6833	0,	33,164	11,995
94588	-9,9628	0,	31,603	11,476
94589	-10,162	0,	32,291	11,539
94590	-10,437	0,	30,737	11,079
94591	-10,639	0,	31,425	11,128
94592	-10,91	0,	29,869	10,716
94593	-11,112	0,	30,555	10,753
94594	-10,238	0,	30,043	10,989
94595	-11,383	0,	29,001	10,382
94596	-11,585	0,	29,687	10,409
94597	-11,855	0,	28,132	10,075
94598	-12,058	0,	28,816	10,092
94599	-11,183	0,	28,311	10,319
94600	-12,329	0,	27,262	9,794
94601	-12,527	0,	27,946	9,8026
94602	-12,802	0,	26,391	9,5371
94603	-13,	0,	27,073	9,5347
94604	-12,129	0,	26,574	9,7542
94605	-13,474	0,	26,203	9,2906
94606	-13,271	0,	25,521	9,3057
94607	-14,218	0,	23,779	8,9143
94608	-14,421	0,	24,458	8,8742
94609	-13,55	0,	23,968	9,0905
94610	-13,744	0,	24,65	9,0975
94611	-14,692	0,	22,908	8,758
94612	-14,892	0,	23,587	8,7044
94613	-14,017	0,	23,096	8,9219
94614	-15,369	0,	22,714	8,5593
94615	-15,166	0,	22,037	8,6293
94616	-16,121	0,	20,298	8,4624
94617	-16,317	0,	20,972	8,3573
94618	-15,64	0,	21,167	8,5308
94619	-16,601	0,	19,433	8,4278
94620	-16,796	0,	20,103	8,3024
94621	-17,075	0,	18,568	8,4315
94622	-17,272	0,	19,238	8,2821
94623	-17,539	0,	17,705	8,4761
94624	-17,744	0,	18,369	8,3005
94625	-18,004	0,	16,849	8,5614
94626	-18,209	0,	17,509	8,3587
94627	-17,333	0,	17,038	8,6175
94628	-18,47	0,	15,997	8,6902
94629	-18,681	0,	16,649	8,4585
94630	-18,935	0,	15,153	8,8657
94631	-19,146	0,	15,798	8,6037
94632	-19,392	0,	14,313	9,093
94633	-19,611	0,	14,953	8,797
94634	-19,84	0,	13,477	9,377
94635	-20,065	0,	14,115	9,0439
94636	-20,281	0,	12,639	9,7251
94637	-20,512	0,	13,288	9,3461
94638	-20,949	0,	12,453	9,7199
94639	-20,709	0,	11,807	10,143
94640	-21,779	0,	10,862	10,658
94641	-21,538	0,	10,248	11,166
94642	-21,115	0,	11,017	10,616
94643	-22,504	0,	8,7255	12,621
94644	-22,693	0,	9,3381	11,944
94645	-22,017	0,	9,5025	11,799
94646	7,4684	0,	-36,372	13,57
94647	7,6724	0,	-37,042	13,291
94648	6,8283	0,	-36,548	14,296
94649	7,9132	0,	-35,519	13,099
94650	8,1132	0,	-36,198	12,879
94651	8,3647	0,	-34,664	12,638
94652	8,5604	0,	-35,348	12,465
94653	9,0137	0,	-34,496	12,055
94654	8,8139	0,	-33,812	12,201
94655	9,7221	0,	-32,108	11,39
94656	9,9205	0,	-32,794	11,285
94657	9,2651	0,	-32,96	11,786
94658	10,18	0,	-31,257	11,019
94659	10,378	0,	-31,942	10,926
94660	9,5198	0,	-31,422	11,44
94661	10,641	0,	-30,404	10,671
94662	10,843	0,	-31,086	10,584
94663	11,105	0,	-29,548	10,345
94664	11,308	0,	-30,228	10,263
94665	10,436	0,	-29,717	10,71
94666	11,572	0,	-28,688	10,042
94667	11,778	0,	-29,369	9,9622
94668	12,039	0,	-27,829	9,7638
94669	12,244	0,	-28,507	9,6852
94670	12,506	0,	-26,969	9,5092
94671	12,714	0,	-27,648	9,4288
94672	12,972	0,	-26,109	9,2787
94673	13,179	0,	-26,785	9,1967
94674	13,439	0,	-25,248	9,0716
94675	13,647	0,	-25,925	8,9855
94676	13,905	0,	-24,387	8,8894
94677	14,108	0,	-25,063	8,7998
94678	13,235	0,	-24,567	9,1183
94679	14,371	0,	-23,524	8,7327
94680	14,575	0,	-24,201	8,6351
94681	14,837	0,	-22,662	8,6019
94682	15,041	0,	-23,337	8,4952
94683	15,304	0,	-21,801	8,4986
94684	15,508	0,	-22,475	8,3802
94685	15,975	0,	-21,612	8,293
94686	15,77	0,	-20,939	8,4247
94687	16,909	0,	-19,888	8,2069
94688	16,237	0,	-20,079	8,3818
94689	16,704	0,	-19,218	8,3725
94690	17,847	0,	-18,157	8,2559
94691	17,648	0,	-17,494	8,4626
94692	16,973	0,	-17,69	8,5459
94693	17,173	0,	-18,357	8,3983
94694	19,064	0,	-14,941	8,9136
94695	19,267	0,	-15,591	8,6238
94696	18,598	0,	-15,79	8,7152
94697	19,533	0,	-14,104	9,1601
94698	19,733	0,	-14,745	8,8405
94699	18,862	0,	-14,289	9,1648
94700	20,003	0,	-13,276	9,4595
94701	20,203	0,	-13,909	9,1072
94702	20,469	0,	-12,448	9,8239
94703	20,671	0,	-13,074	9,4342
94704	20,925	0,	-11,617	10,265
94705	21,136	0,	-12,24	9,8303
94706	21,367	0,	-10,787	10,794
94707	21,589	0,	-11,4	10,314
94708	22,038	0,	-10,571	10,888
94709	21,804	0,	-9,9554	11,435
94710	22,78	0,	-8,3867	13,108
94711	22,964	0,	-8,9467	12,41
94712	22,257	0,	-9,1477	12,197
94713	-22,293	0,	-8,994	12,358
94714	-22,995	0,	-8,8464	12,529
94715	-22,814	0,	-8,307	13,209
94716	-21,793	0,	-9,7099	11,649
94717	-22,477	0,	-9,5515	11,77
94718	-21,327	0,	-10,544	10,976
94719	-22,014	0,	-10,362	11,059
94720	-20,871	0,	-11,413	10,4
94721	-21,542	0,	-11,215	10,448
94722	-20,433	0,	-12,285	9,9191
94723	-21,104	0,	-12,078	9,9342
94724	-19,977	0,	-13,15	9,5245
94725	-20,648	0,	-12,945	9,5069
94726	-19,515	0,	-14,005	9,2048
94727	-20,188	0,	-13,807	9,1576
94728	-19,052	0,	-14,861	8,9451
94729	-19,725	0,	-14,664	8,8752
94730	-18,591	0,	-15,722	8,7378
94731	-19,263	0,	-15,526	8,6474
94732	-18,13	0,	-16,584	8,5804
94733	-18,801	0,	-16,389	8,4717
94734	-18,339	0,	-17,252	8,3427
94735	-17,668	0,	-17,446	8,4689
94736	-17,417	0,	-18,976	8,2108
94737	-17,209	0,	-18,305	8,3995
94738	-16,75	0,	-19,165	8,3688
94739	-15,822	0,	-20,896	8,414
94740	-16,491	0,	-20,705	8,2246
94741	-15,619	0,	-20,223	8,5106
94742	-16,288	0,	-20,029	8,374
94743	-15,356	0,	-21,763	8,4853
94744	-16,023	0,	-21,572	8,2811
94745	-14,893	0,	-22,627	8,5854
94746	-15,562	0,	-22,437	8,3647
94747	-15,097	0,	-23,301	8,4768
94748	-14,431	0,	-23,489	8,713
94749	-13,508	0,	-25,215	9,0445
94750	-14,172	0,	-25,028	8,7748
94751	-13,969	0,	-24,353	8,8666
94752	-13,052	0,	-26,075	9,2446
94753	-13,713	0,	-25,891	8,9578
94754	-12,85	0,	-25,395	9,2882
94755	-12,594	0,	-26,938	9,4694
94756	-13,254	0,	-26,753	9,1629
94757	-12,134	0,	-27,799	9,7176
94758	-12,793	0,	-27,619	9,3913
94759	-12,333	0,	-28,478	9,64
94760	-11,673	0,	-28,662	9,99
94761	-11,396	0,	-30,203	10,212
94762	-11,203	0,	-29,523	10,291
94763	-10,734	0,	-30,378	10,615
94764	-9,828	0,	-32,102	11,317
94765	-10,479	0,	-31,921	10,859
94766	-10,278	0,	-31,236	10,956
94767	-9,368	0,	-32,967	11,71
94768	-10,024	0,	-32,789	11,211
94769	-9,1788	0,	-32,277	11,767
94770	-8,8996	0,	-33,826	12,132
94771	-9,5582	0,	-33,651	11,591
94772	-8,4336	0,	-34,686	12,578
94773	-9,0895	0,	-34,512	11,991
94774	-8,2333	0,	-33,999	12,683
94775	-7,9718	0,	-35,55	13,041
94776	-8,6238	0,	-35,374	12,406
94777	-7,5126	0,	-36,427	13,52
94778	-8,1604	0,	-36,244	12,828
94779	-7,0561	0,	-37,317	14,002
94780	-7,6949	0,	-37,122	13,256
94781	-20,573	0,	6,9396	13,76
94782	-20,011	0,	7,2615	13,186
94783	-18,271	0,	6,5378	12,804
94784	-17,995	0,	5,9087	12,983
94785	-15,937	0,	2,5969	12,94
94786	-16,332	0,	3,1182	13,076
94787	-16,296	0,	0,94243	13,417
94788	-16,887	0,	0,65365	13,81
94789	-18,569	0,	-6,3379	13,118
94790	-18,825	0,	-6,9695	12,88
94791	-20,601	0,	-7,6017	13,233
94792	-21,205	0,	-7,262	13,861
94793	-3,9657	0,	-38,158	18,684
94794	-3,2979	0,	-37,471	19,426
94795	-3,3243	0,	-38,24	19,903
94796	-1,9497	0,	-36,102	19,752
94797	-1,2813	0,	-36,134	20,272
94798	2,6668	0,	-35,995	19,025
94799	2,0097	0,	-36,07	19,733
94800	4,1557	0,	-37,188	18,043
94801	4,2215	0,	-37,861	18,254
94802	20,077	0,	-7,1069	13,395
94803	20,619	0,	-6,7931	13,966
94804	18,265	0,	-6,4452	12,905
94805	17,977	0,	-5,8503	13,048
94806	16,322	0,	-3,0634	13,106
94807	15,952	0,	-2,5338	12,982
94808	15,336	0,	-2,8666	12,552
94809	16,849	0,	0,29189	13,801
94810	16,304	0,	-0,5893	13,441
94811	16,86	0,	-0,2762	13,81
94812	16,262	0,	0,52401	13,416
94813	18,75	0,	6,8873	12,836
94814	18,52	0,	6,2642	13,081
94815	20,486	0,	7,63	13,09
94816	21,134	0,	7,3826	13,65
94817	3,4332	0,	37,487	16,803
94818	3,4674	0,	38,225	17,555
94819	4,192	0,	38,137	17,576
94820	1,9883	0,	36,137	15,492
94821	1,3092	0,	36,156	15,331
94822	-2,6538	0,	35,946	15,499
94823	-1,995	0,	36,038	15,406
94824	-4,0042	0,	37,102	16,497
94825	-4,0649	0,	37,796	17,205
94826	-17,394	0,	-0,39278	14,112
94827	-17,202	0,	-1,1689	13,955
94828	-17,787	0,	-0,83774	14,298
94829	-16,741	0,	-2,8277	13,4
94830	-17,105	0,	-3,3789	13,5
94831	17,478	0,	0,31656	14,168
94832	17,198	0,	0,99081	13,968
94833	17,795	0,	0,72883	14,309
94834	17,127	0,	3,2944	13,518
94835	16,766	0,	2,7241	13,423
94836	6,4994	0,	38,56	16,822
94837	5,7179	0,	38,675	17,705
94838	-6,584	0,	-38,215	14,502
94839	-7,2271	0,	-38,01	13,675
94840	-5,9601	0,	-38,422	15,392
94841	-5,315	0,	-38,618	16,431
94842	-4,6526	0,	39,148	18,917
94843	-4,4624	0,	39,779	19,972
94844	-4,9977	0,	39,67	19,45
94845	-2,2549e-002	0,	36,171	15,221
94846	0,64627	0,	36,17	15,266
94847	-0,67617	0,	36,153	15,243
94848	-1,3368	0,	36,111	15,352
94849	22,64	0,	7,6135	13,972
94850	23,486	0,	8,1071	13,484
94851	23,307	0,	7,5079	14,451
94852	17,745	0,	4,4476	13,512
94853	17,445	0,	3,8638	13,515
94854	18,022	0,	5,0404	13,409
94855	18,28	0,	5,657	13,283
94856	21,647	0,	-6,0597	15,627
94857	21,105	0,	-6,3993	14,698
94858	17,372	0,	-4,6969	13,202
94859	17,682	0,	-5,2726	13,163
94860	17,043	0,	-4,1435	13,226
94861	16,691	0,	-3,5984	13,169
94862	4,737	0,	-39,205	17,389
94863	5,1465	0,	-39,684	16,509
94864	4,5532	0,	-39,821	17,771
94865	5,2579	0,	-38,983	16,48
94866	5,6674	0,	-39,463	15,621
94867	6,2978	0,	-39,403	14,591
94868	5,3777e-002	0,	-36,167	20,639
94869	-0,6156	0,	-36,16	20,538
94870	0,70569	0,	-36,158	20,536
94871	1,3669	0,	-36,127	20,174
94872	-17,752	0,	-4,5209	13,518
94873	-17,438	0,	-3,9428	13,508
94874	-18,038	0,	-5,1126	13,423
94875	-18,306	0,	-5,7278	13,308
94876	-17,394	0,	4,732	13,167
94877	-17,704	0,	5,3123	13,118
94878	-17,063	0,	4,1788	13,196
94879	-16,705	0,	3,6414	13,139
94880	-22,746	0,	-7,143	14,789
94881	-23,333	0,	-6,7773	15,862
94882	-23,699	0,	-7,2998	14,882
94883	-23,137	0,	-7,5618	14,331
94884	-5,0801	0,	38,849	18,207
94885	-4,166	0,	39,121	18,911
94886	-4,1875	0,	38,479	17,986
94887	-4,0166	0,	-38,911	18,857
94888	-4,6768	0,	-38,774	17,51
94889	-5,4252	0,	39,372	18,786
94890	-5,9626	0,	39,133	17,918
94891	-17,933	0,	-3,5325e-002	14,381
94892	-17,43	0,	0,36501	14,134
94893	23,375	0,	-7,6426	14,289
94894	23,51	0,	-8,1947	13,401
94895	-7,138	0,	38,616	16,26
94896	-6,5442	0,	38,869	17,16
94897	-22,933	0,	7,8577	13,797
94898	-23,163	0,	8,4813	12,943
94899	-21,907	0,	6,8895	14,61
94900	-22,486	0,	6,6093	15,547
94901	-22,706	0,	7,2391	14,55
94902	-22,433	0,	-6,6275	15,505
94903	-21,83	0,	-6,9673	14,515
94904	4,2169	0,	-39,179	18,468
94905	4,2769	0,	-38,538	18,22
94906	22,444	0,	6,9348	14,982
94907	21,791	0,	7,1526	14,196
94908	23,186	0,	-6,5575	16,239
94909	23,321	0,	-7,107	15,105
94910	-21,696	0,	6,251	15,374
94911	-21,12	0,	6,57	14,468
94912	22,199	0,	-5,7653	16,683
94913	22,783	0,	-5,5097	18,314
94914	23,007	0,	-6,0474	17,085
94915	17,489	0,	-0,25153	14,175
94916	18,027	0,	3,6952e-002	14,43
94917	-18,883	0,	6,2333	13,299
94918	-19,152	0,	6,8893	13,036
94919	-16,12	0,	1,7441	13,21
94920	-16,533	0,	2,2675	13,395
94921	-15,558	0,	2,0877	12,821
94922	-16,705	0,	1,4263	13,635
94923	-20,34	0,	-7,0295	13,606
94924	-20,028	0,	-7,9613	12,724
94925	-19,72	0,	-7,3324	13,051
94926	-2,6292	0,	-36,776	19,766
94927	-2,6795	0,	-37,508	20,388
94928	-1,9712	0,	-36,809	20,535
94929	3,3934	0,	-36,599	18,728
94930	2,7192	0,	-36,687	19,666
94931	3,4574	0,	-37,289	19,171
94932	19,173	0,	-6,7549	13,19
94933	19,758	0,	-6,4555	13,714
94934	18,877	0,	-6,1429	13,395
94935	16,704	0,	-1,2659	13,662
94936	16,15	0,	-1,6303	13,255
94937	19,625	0,	7,2508	13,01
94938	19,396	0,	6,6176	13,347
94939	20,269	0,	6,9923	13,548
94940	2,7026	0,	36,818	16,071
94941	2,7329	0,	37,552	16,566
94942	2,0116	0,	36,841	15,812
94943	-3,3288	0,	36,534	15,98
94944	-2,6822	0,	36,648	15,906
94945	-3,3218	0,	35,837	15,474
94946	-3,375	0,	37,246	16,547
94947	-16,977	0,	-1,9779	13,715
94948	-17,589	0,	-1,6528	14,129
94949	-17,367	0,	-2,5049	13,872
94950	17,584	0,	1,5192	14,145
94951	16,611	0,	1,2229	13,603
94952	16,987	0,	1,8254	13,736
94953	7,2456	0,	38,408	16,075
94954	8,0142	0,	38,211	15,094
94955	7,8599	0,	37,509	14,926
94956	9,1487	0,	36,393	13,334
94957	8,4366	0,	36,605	14,
94958	8,9754	0,	35,694	13,239
94959	9,9687	0,	33,89	12,063
94960	10,444	0,	33,005	11,589
94961	10,635	0,	33,692	11,629
94962	10,159	0,	34,577	12,114
94963	9,4822	0,	34,785	12,604
94964	9,3062	0,	34,079	12,46
94965	11,107	0,	32,812	11,193
94966	10,91	0,	32,123	11,165
94967	11,846	0,	30,374	10,426
94968	12,316	0,	29,501	10,1
94969	12,515	0,	30,185	10,099
94970	11,655	0,	29,69	10,382
94971	12,043	0,	31,059	10,436
94972	11,374	0,	31,247	10,781
94973	12,79	0,	28,628	9,7981
94974	13,259	0,	27,754	9,5215
94975	13,46	0,	28,437	9,4998
94976	12,983	0,	29,31	9,7894
94977	13,923	0,	27,561	9,2376
94978	13,728	0,	26,88	9,2685
94979	14,864	0,	25,811	8,7753
94980	14,667	0,	25,131	8,8318
94981	14,198	0,	26,006	9,0382
94982	15,806	0,	24,06	8,406
94983	15,608	0,	23,381	8,4924
94984	15,138	0,	24,256	8,6493
94985	16,548	0,	21,63	8,2607
94986	17,019	0,	20,755	8,1895
94987	17,222	0,	21,433	8,046
94988	16,351	0,	20,951	8,3496
94989	16,748	0,	22,308	8,1385
94990	16,078	0,	22,505	8,3621
94991	17,49	0,	19,88	8,1517
94992	17,96	0,	19,006	8,149
94993	18,164	0,	19,682	7,9583
94994	17,691	0,	20,558	7,9863
94995	18,633	0,	18,808	7,9676
94996	18,43	0,	18,131	8,1852
94997	19,575	0,	17,059	8,1062
94998	18,901	0,	17,257	8,2629
94999	19,37	0,	16,384	8,3867
95000	20,517	0,	15,317	8,4313
95001	20,313	0,	14,656	8,7806
95002	19,841	0,	15,516	8,5576
95003	21,267	0,	12,95	9,4049
95004	21,747	0,	12,098	9,8278
95005	21,941	0,	12,745	9,3481
95006	21,074	0,	12,301	9,7893
95007	21,465	0,	13,6	8,9742
95008	20,788	0,	13,799	9,061
95009	22,418	0,	11,892	9,806
95010	22,226	0,	11,245	10,346
95011	21,559	0,	11,451	10,262
95012	23,188	0,	9,5649	11,74
95013	23,67	0,	8,7485	12,682
95014	23,855	0,	9,3724	11,865
95015	23,376	0,	10,203	11,039
95016	22,707	0,	10,4	10,973
95017	6,5757	0,	39,281	17,529
95018	7,3941	0,	39,114	16,294
95019	-6,7367	0,	-38,903	14,102
95020	-6,0752	0,	-39,113	15,043
95021	-3,9758	0,	39,752	19,98
95022	-4,5671	0,	40,335	20,804
95023	-4,0404	0,	40,391	21,261
95024	-2,5336e-002	0,	36,866	15,403
95025	-0,69772	0,	36,85	15,483
95026	24,168	0,	7,9528	13,864
95027	24,342	0,	8,5619	12,875
95028	23,111	0,	6,8292	15,445
95029	23,84	0,	6,8017	16,029
95030	23,989	0,	7,3535	14,819
95031	23,076	0,	6,3402	16,544
95032	23,805	0,	6,3127	17,09
95033	23,477	0,	5,8958	18,036
95034	18,664	0,	4,7356	13,986
95035	18,397	0,	4,1191	14,021
95036	21,393	0,	-5,4713	16,083
95037	21,96	0,	-5,1848	17,452
95038	17,989	0,	-4,374	13,722
95039	17,659	0,	-3,8105	13,684
95040	5,2671	0,	-40,256	16,17
95041	5,8595	0,	-40,119	15,008
95042	4,033	0,	-39,795	18,847
95043	4,6738	0,	-40,392	17,413
95044	4,0886	0,	-40,425	18,745
95045	5,439e-002	0,	-36,862	21,495
95046	0,72863	0,	-36,853	21,338
95047	-18,67	0,	-4,7902	13,993
95048	-18,398	0,	-4,1821	14,019
95049	-22,275	0,	5,9708	16,35
95050	-21,449	0,	5,6176	15,915
95051	-22,026	0,	5,3273	17,29
95052	-18,011	0,	4,4072	13,697
95053	-17,679	0,	3,8472	13,664
95054	-23,019	0,	-6,2618	16,61
95055	-23,953	0,	-6,4797	16,744
95056	-23,664	0,	-5,9298	18,365
95057	-3,445	0,	39,91	20,054
95058	-3,4602	0,	39,242	18,952
95059	23,397	0,	-5,2418	20,016
95060	22,545	0,	-4,9291	19,136
95061	23,138	0,	-4,7288	21,922
95062	23,622	0,	-5,7795	18,791
95063	23,807	0,	-6,3199	17,097
95064	22,737	0,	5,9278	17,111
95065	22,194	0,	6,271	15,737
95066	3,4779	0,	-39,925	19,944
95067	3,4837	0,	-39,255	19,879
95068	-22,769	0,	-5,7016	17,799
95069	-22,155	0,	-6,0431	16,153
95070	-22,863	0,	5,698	17,92
95071	-23,092	0,	6,3317	16,446
95072	-23,555	0,	7,6019	14,27
95073	-23,312	0,	6,9615	15,43
95074	-7,7335	0,	38,339	15,519
95075	-7,3485	0,	39,269	16,547
95076	-7,9425	0,	39,022	15,61
95077	-8,1084	0,	37,403	14,649
95078	-8,3375	0,	38,096	14,726
95079	-8,5	0,	36,484	13,899
95080	-8,7308	0,	37,18	13,967
95081	-8,9355	0,	35,594	13,23
95082	-9,153	0,	36,285	13,295
95083	-9,4009	0,	34,724	12,636
95084	-9,6118	0,	35,415	12,691
95085	-9,8813	0,	33,854	12,102
95086	-10,086	0,	34,545	12,149
95087	-10,362	0,	32,983	11,626
95088	-10,567	0,	33,672	11,662
95089	-10,839	0,	32,113	11,197
95090	-11,041	0,	32,801	11,225
95091	-11,314	0,	31,243	10,808
95092	-11,517	0,	31,929	10,825
95093	-11,787	0,	30,373	10,451
95094	-11,991	0,	31,059	10,459
95095	-12,261	0,	29,503	10,123
95096	-12,464	0,	30,186	10,121
95097	-12,729	0,	28,631	9,8223
95098	-12,937	0,	29,314	9,8091
95099	-13,198	0,	27,758	9,5452
95100	-13,406	0,	28,441	9,5218
95101	-13,672	0,	26,885	9,2895
95102	-13,88	0,	27,567	9,2552
95103	-14,146	0,	26,012	9,0572
95104	-14,353	0,	26,693	9,011
95105	-14,621	0,	25,139	8,8484
95106	-14,827	0,	25,819	8,7895
95107	-13,943	0,	25,33	9,0716
95108	-15,095	0,	24,266	8,6639
95109	-15,301	0,	24,945	8,5911
95110	-15,569	0,	23,393	8,5048
95111	-15,775	0,	24,071	8,4169
95112	-16,044	0,	22,521	8,3726
95113	-16,249	0,	23,197	8,2681
95114	-16,518	0,	21,649	8,2688
95115	-16,723	0,	22,324	8,1462
95116	-15,841	0,	21,844	8,4439
95117	-16,993	0,	20,778	8,1954
95118	-17,197	0,	21,451	8,0528
95119	-17,467	0,	19,908	8,1545
95120	-17,671	0,	20,578	7,9901
95121	-18,145	0,	19,707	7,9604
95122	-17,941	0,	19,04	8,1487
95123	-19,092	0,	17,968	8,0108
95124	-18,414	0,	18,173	8,1807
95125	-18,886	0,	17,31	8,2533
95126	-19,823	0,	15,599	8,5326
95127	-20,033	0,	16,248	8,2263
95128	-19,356	0,	16,451	8,3696
95129	-20,284	0,	14,756	8,7455
95130	-20,499	0,	15,4	8,4033
95131	-20,738	0,	13,927	9,0109
95132	-20,961	0,	14,558	8,6331
95133	-21,181	0,	13,102	9,3385
95134	-21,415	0,	13,729	8,9186
95135	-21,613	0,	12,285	9,7342
95136	-21,858	0,	12,902	9,2727
95137	-22,036	0,	11,484	10,2
95138	-22,289	0,	12,093	9,6936
95139	-21,373	0,	11,638	10,159
95140	-22,461	0,	10,701	10,746
95141	-22,717	0,	11,289	10,198
95142	-22,896	0,	9,9219	11,397
95143	-23,147	0,	10,499	10,796
95144	-22,22	0,	10,086	11,254
95145	-23,352	0,	9,0939	12,257
95146	-23,586	0,	9,6887	11,537
95147	-23,785	0,	8,2255	13,408
95148	-24,033	0,	8,8341	12,515
95149	24,088	0,	-7,4276	14,736
95150	23,942	0,	-6,8694	15,969
95151	6,4899	0,	-40,06	13,989
95152	7,1578	0,	-39,962	13,075
95153	6,9627	0,	-39,287	13,625
95154	8,083	0,	-38,368	12,553
95155	7,419	0,	-38,502	13,294
95156	7,8741	0,	-37,696	12,952
95157	8,9665	0,	-36,706	11,979
95158	8,3171	0,	-36,867	12,608
95159	8,7603	0,	-36,028	12,253
95160	9,6669	0,	-34,33	11,522
95161	9,8686	0,	-35,012	11,329
95162	9,2094	0,	-35,18	11,889
95163	10,122	0,	-33,481	11,167
95164	10,333	0,	-34,16	10,992
95165	9,4671	0,	-33,646	11,661
95166	10,577	0,	-32,628	10,827
95167	10,787	0,	-33,308	10,672
95168	11,041	0,	-31,771	10,496
95169	11,245	0,	-32,451	10,36
95170	11,511	0,	-30,911	10,18
95171	11,715	0,	-31,59	10,055
95172	11,981	0,	-30,049	9,884
95173	12,184	0,	-30,727	9,7658
95174	12,45	0,	-29,188	9,6079
95175	12,655	0,	-29,863	9,4938
95176	12,919	0,	-28,327	9,3525
95177	13,128	0,	-29,003	9,2379
95178	13,387	0,	-27,464	9,1179
95179	13,597	0,	-28,138	9,0033
95180	13,854	0,	-26,6	8,9046
95181	14,063	0,	-27,274	8,7881
95182	14,316	0,	-25,739	8,7144
95183	14,53	0,	-26,41	8,592
95184	14,778	0,	-24,877	8,5456
95185	14,991	0,	-25,547	8,4178
95186	15,245	0,	-24,013	8,3973
95187	15,458	0,	-24,682	8,262
95188	15,712	0,	-23,15	8,2728
95189	15,925	0,	-23,818	8,128
95190	16,179	0,	-22,286	8,1735
95191	16,392	0,	-22,953	8,0172
95192	16,647	0,	-21,423	8,1012
95193	16,859	0,	-22,089	7,9312
95194	17,114	0,	-20,56	8,0578
95195	17,325	0,	-21,225	7,8718
95196	16,442	0,	-20,751	8,2342
95197	17,581	0,	-19,698	8,0455
95198	17,792	0,	-20,361	7,8412
95199	18,05	0,	-18,827	8,0684
95200	18,259	0,	-19,497	7,8418
95201	17,376	0,	-19,027	8,2128
95202	18,524	0,	-17,961	8,1261
95203	18,728	0,	-18,625	7,8781
95204	19,	0,	-17,104	8,221
95205	19,2	0,	-17,766	7,9479
95206	18,325	0,	-17,297	8,3347
95207	19,47	0,	-16,246	8,3617
95208	19,669	0,	-16,905	8,0597
95209	18,8	0,	-16,444	8,4551
95210	19,936	0,	-15,395	8,5487
95211	20,14	0,	-16,048	8,2146
95212	20,403	0,	-14,549	8,7856
95213	20,606	0,	-15,194	8,4195
95214	20,871	0,	-13,706	9,0796
95215	21,073	0,	-14,347	8,6763
95216	21,338	0,	-12,866	9,4378
95217	21,541	0,	-13,501	8,9939
95218	21,801	0,	-12,023	9,8757
95219	22,008	0,	-12,658	9,3815
95220	22,259	0,	-11,184	10,404
95221	22,472	0,	-11,814	9,8548
95222	22,718	0,	-10,357	11,034
95223	22,934	0,	-10,979	10,422
95224	23,191	0,	-9,5406	11,795
95225	23,399	0,	-10,154	11,103
95226	22,484	0,	-9,7416	11,585
95227	23,694	0,	-8,7548	12,704
95228	23,883	0,	-9,3422	11,923
95229	24,223	0,	-7,9797	13,853
95230	24,394	0,	-8,5576	12,901
95231	17,738	0,	2,9705	13,956
95232	18,097	0,	3,5354	14,061
95233	-17,73	0,	-3,0561	13,944
95234	-18,084	0,	-3,6039	14,046
95235	-18,326	0,	-0,48029	14,554
95236	-18,834	0,	-4,1469e-002	14,659
95237	-18,359	0,	0,38322	14,57
95238	-18,727	0,	-0,92104	14,651
95239	-18,174	0,	-1,3216	14,453
95240	-5,642	0,	40,011	19,291
95241	-5,1023	0,	40,226	20,339
95242	-3,4357	0,	37,939	17,252
95243	-3,4818	0,	38,6	18,027
95244	-2,0234	0,	36,74	15,818
95245	-1,3583	0,	36,807	15,59
95246	1,3325	0,	36,86	15,655
95247	0,64348	0,	36,866	15,447
95248	3,5182	0,	38,961	18,552
95249	3,5825	0,	39,727	19,828
95250	4,2939	0,	39,587	19,608
95251	4,2428	0,	38,873	18,583
95252	2,8129	0,	39,096	18,183
95253	2,7671	0,	38,29	17,325
95254	5,7942	0,	39,397	18,353
95255	5,0247	0,	39,488	19,248
95256	4,9736	0,	38,773	18,181
95257	20,917	0,	6,7449	14,134
95258	21,541	0,	6,4888	14,932
95259	18,922	0,	5,3521	13,822
95260	19,165	0,	5,9945	13,622
95261	17,26	0,	-0,95277	14,006
95262	17,828	0,	-0,65997	14,323
95263	16,92	0,	-2,72	13,534
95264	17,306	0,	-3,2654	13,654
95265	18,589	0,	-5,548	13,569
95266	18,299	0,	-4,9497	13,65
95267	3,5233	0,	-37,961	19,341
95268	3,5437	0,	-38,613	19,653
95269	1,3898	0,	-36,821	20,997
95270	2,0621	0,	-36,762	20,338
95271	-1,3028	0,	-36,841	21,028
95272	-0,61499	0,	-36,854	21,399
95273	-3,3752	0,	-38,993	20,034
95274	-3,4452	0,	-39,765	19,953
95275	-4,1059	0,	-39,635	18,665
95276	-2,7059	0,	-38,276	20,822
95277	-2,6776	0,	-39,094	21,148
95278	-5,4301	0,	-39,309	16,066
95279	-4,7661	0,	-39,498	17,353
95280	-24,027	0,	-7,8157	14,114
95281	-24,32	0,	-7,0022	15,768
95282	-24,645	0,	-7,5794	14,499
95283	-23,645	0,	-8,6171	12,883
95284	-24,299	0,	-8,3882	13,157
95285	-23,464	0,	-8,0777	13,568
95286	-23,179	0,	-9,4039	11,942
95287	-23,861	0,	-9,2007	12,092
95288	-22,697	0,	-10,204	11,179
95289	-23,384	0,	-10,02	11,24
95290	-22,228	0,	-11,032	10,529
95291	-22,907	0,	-10,847	10,54
95292	-21,774	0,	-11,88	9,9797
95293	-22,449	0,	-11,69	9,9525
95294	-21,32	0,	-12,739	9,5189
95295	-21,993	0,	-12,55	9,4563
95296	-20,859	0,	-13,602	9,1374
95297	-21,531	0,	-13,414	9,0466
95298	-21,068	0,	-14,278	8,7122
95299	-20,398	0,	-14,466	8,8259
95300	-19,473	0,	-16,193	8,3793
95301	-20,141	0,	-16,005	8,2304
95302	-19,936	0,	-15,329	8,5755
95303	-19,01	0,	-17,057	8,2321
95304	-19,677	0,	-16,869	8,0688
95305	-18,547	0,	-17,921	8,1293
95306	-19,213	0,	-17,734	7,9527
95307	-18,083	0,	-18,786	8,0669
95308	-18,748	0,	-18,598	7,8779
95309	-17,876	0,	-18,115	8,2574
95310	-17,62	0,	-19,651	8,0416
95311	-18,283	0,	-19,463	7,8407
95312	-17,156	0,	-20,516	8,0503
95313	-17,819	0,	-20,328	7,8377
95314	-16,953	0,	-19,84	8,2013
95315	-16,692	0,	-21,381	8,0904
95316	-17,354	0,	-21,194	7,8661
95317	-16,229	0,	-22,246	8,1594
95318	-16,889	0,	-22,059	7,9234
95319	-15,766	0,	-23,111	8,2554
95320	-16,425	0,	-22,924	8,0074
95321	-15,303	0,	-23,976	8,3766
95322	-15,96	0,	-23,79	8,1161
95323	-14,84	0,	-24,841	8,5215
95324	-15,496	0,	-24,655	8,2479
95325	-14,636	0,	-24,165	8,6131
95326	-14,377	0,	-25,705	8,6887
95327	-15,038	0,	-25,519	8,3989
95328	-13,915	0,	-26,57	8,8772
95329	-14,574	0,	-26,384	8,5727
95330	-13,453	0,	-27,434	9,0864
95331	-14,111	0,	-27,249	8,7657
95332	-12,992	0,	-28,298	9,3158
95333	-13,648	0,	-28,114	8,9778
95334	-13,185	0,	-28,978	9,2082
95335	-12,525	0,	-29,161	9,5676
95336	-11,596	0,	-30,884	10,128
95337	-12,255	0,	-30,705	9,7238
95338	-12,058	0,	-30,023	9,8393
95339	-11,134	0,	-31,745	10,435
95340	-10,933	0,	-31,06	10,527
95341	-11,788	0,	-31,566	10,008
95342	-10,675	0,	-32,609	10,758
95343	-11,331	0,	-32,43	10,302
95344	-10,214	0,	-33,473	11,098
95345	-10,869	0,	-33,295	10,613
95346	-9,7481	0,	-34,336	11,456
95347	-10,405	0,	-34,159	10,937
95348	-9,2798	0,	-35,199	11,826
95349	-9,9367	0,	-35,023	11,272
95350	-8,8124	0,	-36,067	12,2
95351	-9,4682	0,	-35,887	11,609
95352	-8,3427	0,	-36,939	12,571
95353	-8,9971	0,	-36,755	11,942
95354	-7,8658	0,	-37,816	12,935
95355	-8,5208	0,	-37,624	12,265
95356	-7,3799	0,	-38,698	13,281
95357	-8,0412	0,	-38,498	12,561
95358	-6,8815	0,	-39,584	13,617
95359	-7,5576	0,	-39,375	12,821
95360	-20,945	0,	-6,6898	14,27
95361	-21,551	0,	-6,383	15,115
95362	-18,938	0,	-5,4054	13,838
95363	-19,197	0,	-6,0469	13,656
95364	-17,296	0,	1,1376	14,01
95365	-17,855	0,	0,78356	14,336
95366	-16,929	0,	2,7888	13,509
95367	-17,321	0,	3,3097	13,634
95368	-18,607	0,	5,6042	13,51
95369	-18,321	0,	4,9874	13,615
95370	-20,873	0,	5,9366	14,944
95371	-20,309	0,	6,2609	14,186
95372	-6,7547	0,	39,523	17,408
95373	-6,1794	0,	39,772	18,477
95374	18,343	0,	0,44922	14,562
95375	18,851	0,	3,0842e-002	14,659
95376	18,366	0,	-0,37148	14,57
95377	18,181	0,	1,2573	14,468
95378	18,746	0,	0,88532	14,672
95379	-6,9526	0,	40,188	17,748
95380	-7,5448	0,	39,943	16,625
95381	7,321	0,	40,744	17,394
95382	7,1666	0,	41,421	18,057
95383	7,8086	0,	41,319	16,7
95384	-19,21	0,	5,2804	14,053
95385	-19,478	0,	5,9268	13,87
95386	-17,118	0,	1,9497	13,798
95387	-17,53	0,	2,4495	13,972
95388	-17,704	0,	1,6063	14,197
95389	-20,684	0,	-6,0548	14,705
95390	-20,073	0,	-6,3757	13,977
95391	-6,22	0,	-39,794	14,55
95392	-7,0549	0,	-40,251	13,073
95393	-6,3659	0,	-40,472	13,983
95394	-5,5375	0,	-40,01	15,718
95395	-2,0216	0,	-37,541	21,115
95396	-2,0472	0,	-38,231	21,715
95397	-1,3083	0,	-37,532	21,792
95398	2,8164	0,	-38,053	20,6
95399	2,7833	0,	-37,376	20,066
95400	19,462	0,	-5,8436	13,956
95401	20,036	0,	-5,5204	14,577
95402	20,3	0,	-6,1418	14,329
95403	19,19	0,	-5,2245	14,102
95404	17,104	0,	-1,826	13,814
95405	17,514	0,	-2,377	13,983
95406	16,55	0,	-2,1905	13,433
95407	17,677	0,	-1,4939	14,195
95408	20,674	0,	6,0924	14,622
95409	20,04	0,	6,3591	13,916
95410	6,72	0,	40,011	17,825
95411	7,5384	0,	39,843	16,659
95412	6,7072	0,	40,682	18,556
95413	7,8525	0,	40,462	16,392
95414	5,8092	0,	40,079	19,328
95415	1,3361	0,	37,55	15,843
95416	2,0419	0,	37,575	16,315
95417	-2,7284	0,	37,36	16,476
95418	-2,0533	0,	37,434	16,153
95419	-2,7641	0,	38,046	17,008
95420	-6,3773	0,	40,436	18,766
95421	-5,8081	0,	40,674	20,048
95422	-7,1361	0,	40,861	17,784
95423	-6,543	0,	41,106	19,147
95424	-18,373	0,	-2,6982	14,425
95425	-17,979	0,	-2,1799	14,261
95426	17,975	0,	2,094	14,273
95427	18,585	0,	1,7443	14,634
95428	18,374	0,	2,6265	14,432
95429	17,378	0,	2,4001	13,889
95430	-19,235	0,	-0,48222	14,759
95431	-19,137	0,	-1,4046	14,81
95432	-19,66	0,	-0,96185	14,745
95433	19,253	0,	0,46694	14,771
95434	19,675	0,	0,94819	14,727
95435	19,151	0,	1,3724	14,824
95436	24,916	0,	-7,7545	14,179
95437	24,751	0,	-7,1766	15,408
95438	-24,431	0,	7,9694	13,773
95439	-24,137	0,	7,3522	14,946
95440	-22,614	0,	5,0545	18,913
95441	-23,471	0,	5,4144	19,431
95442	-23,19	0,	4,8208	21,679
95443	-19,272	0,	0,429	14,768
95444	-19,725	0,	-1,3839e-002	14,531
95445	-22,508	0,	-5,0928	18,634
95446	-23,133	0,	-4,8188	21,543
95447	-23,413	0,	-5,3696	19,566
95448	-2,7476	0,	-39,865	21,044
95449	-3,5553	0,	-40,533	19,762
95450	-2,9032	0,	-40,658	22,959
95451	3,5334	0,	-40,555	19,841
95452	2,851	0,	-40,047	21,003
95453	2,9269	0,	-40,722	22,945
95454	19,28	0,	-0,42859	14,757
95455	19,735	0,	7,991e-003	14,524
95456	23,139	0,	5,4834	18,675
95457	22,432	0,	5,2143	18,129
95458	23,057	0,	4,8507	21,171
95459	24,251	0,	-5,5213	20,138
95460	24,044	0,	-5,0089	23,001
95461	2,8772	0,	39,862	19,459
95462	3,6483	0,	40,458	21,206
95463	2,9669	0,	40,633	20,701
95464	-3,5096	0,	40,549	21,301
95465	-2,8226	0,	40,042	19,677
95466	-2,9048	0,	40,725	20,757
95467	-24,613	0,	-6,1648	18,189
95468	-24,929	0,	-6,7477	16,309
95469	-7,7283	0,	40,616	16,701
95470	-7,3033	0,	41,536	17,775
95471	-7,91	0,	41,295	16,503
95472	-8,1388	0,	39,695	15,719
95473	-8,3302	0,	40,379	15,618
95474	-8,5465	0,	38,779	14,842
95475	-8,7465	0,	39,465	14,792
95476	-8,9598	0,	37,873	14,066
95477	-9,1679	0,	38,562	14,041
95478	-9,3838	0,	36,981	13,382
95479	-9,5991	0,	37,671	13,368
95480	-9,8294	0,	36,106	12,771
95481	-10,042	0,	36,792	12,765
95482	-10,297	0,	35,236	12,217
95483	-10,508	0,	35,926	12,216
95484	-10,772	0,	34,363	11,718
95485	-10,982	0,	35,052	11,718
95486	-11,246	0,	33,49	11,269
95487	-11,455	0,	34,178	11,266
95488	-11,929	0,	33,303	10,852
95489	-11,72	0,	32,618	10,859
95490	-12,668	0,	30,872	10,134
95491	-12,876	0,	31,555	10,115
95492	-12,194	0,	31,745	10,482
95493	-13,141	0,	29,998	9,8113
95494	-13,349	0,	30,681	9,7836
95495	-13,614	0,	29,124	9,5118
95496	-13,822	0,	29,806	9,4744
95497	-14,087	0,	28,25	9,2343
95498	-14,295	0,	28,931	9,1864
95499	-14,561	0,	27,375	8,9786
95500	-14,768	0,	28,056	8,9189
95501	-15,034	0,	26,5	8,7446
95502	-15,241	0,	27,18	8,6722
95503	-15,508	0,	25,625	8,5329
95504	-15,714	0,	26,304	8,4465
95505	-15,981	0,	24,75	8,3443
95506	-16,187	0,	25,428	8,2427
95507	-16,455	0,	23,875	8,1799
95508	-16,661	0,	24,552	8,0617
95509	-16,928	0,	23,	8,0409
95510	-17,134	0,	23,676	7,9048
95511	-17,402	0,	22,125	7,9291
95512	-17,607	0,	22,801	7,7733
95513	-17,876	0,	21,251	7,8462
95514	-18,081	0,	21,925	7,6691
95515	-18,349	0,	20,377	7,7945
95516	-18,554	0,	21,05	7,5939
95517	-18,823	0,	19,504	7,7763
95518	-19,027	0,	20,176	7,5501
95519	-19,297	0,	18,632	7,7946
95520	-19,501	0,	19,302	7,5404
95521	-18,619	0,	18,837	7,9664
95522	-19,77	0,	17,761	7,8525
95523	-19,974	0,	18,428	7,5678
95524	-20,241	0,	16,899	7,9519
95525	-20,447	0,	17,556	7,636
95526	-19,564	0,	17,103	8,0969
95527	-20,709	0,	16,049	8,0954
95528	-20,918	0,	16,697	7,7448
95529	-21,175	0,	15,202	8,2894
95530	-21,386	0,	15,845	7,9013
95531	-21,638	0,	14,361	8,5394
95532	-21,854	0,	14,998	8,1098
95533	-22,092	0,	13,529	8,8511
95534	-22,317	0,	14,156	8,3787
95535	-22,535	0,	12,71	9,2306
95536	-22,77	0,	13,325	8,7143
95537	-23,213	0,	12,506	9,1234
95538	-22,97	0,	11,898	9,6899
95539	-23,837	0,	10,266	10,932
95540	-24,087	0,	10,858	10,25
95541	-23,402	0,	11,088	10,247
95542	-24,267	0,	9,429	11,79
95543	-24,523	0,	10,023	11,013
95544	-24,678	0,	8,578	12,878
95545	-24,943	0,	9,1786	11,966
95546	-25,055	0,	7,7163	14,273
95547	-25,347	0,	8,3178	13,156
95548	-18,925	0,	4,6636	14,204
95549	-18,629	0,	4,0608	14,192
95550	-20,624	0,	5,2807	15,328
95551	-21,196	0,	4,9684	16,351
95552	-18,262	0,	1,2523	14,504
95553	-18,797	0,	0,85369	14,674
95554	-17,922	0,	2,9704	14,07
95555	-18,297	0,	3,5008	14,199
95556	-21,291	0,	-5,748	15,606
95557	-21,894	0,	-5,4343	16,909
95558	-19,558	0,	-5,0841	14,5
95559	-19,311	0,	-4,4361	14,557
95560	-24,917	0,	-8,1519	13,545
95561	-25,566	0,	-7,9386	13,783
95562	-25,254	0,	-7,3249	15,054
95563	-24,515	0,	-8,9718	12,365
95564	-25,178	0,	-8,7705	12,51
95565	-24,066	0,	-9,817	11,39
95566	-24,74	0,	-9,6091	11,468
95567	-23,593	0,	-10,664	10,602
95568	-24,275	0,	-10,461	10,605
95569	-22,668	0,	-12,36	9,428
95570	-23,341	0,	-12,164	9,3303
95571	-23,128	0,	-11,505	9,9634
95572	-22,204	0,	-13,225	8,9831
95573	-22,878	0,	-13,028	8,8518
95574	-21,74	0,	-14,089	8,6206
95575	-22,412	0,	-13,895	8,4617
95576	-21,276	0,	-14,953	8,3283
95577	-21,948	0,	-14,759	8,149
95578	-20,811	0,	-15,817	8,0968
95579	-21,482	0,	-15,623	7,9011
95580	-20,605	0,	-15,141	8,4428
95581	-20,345	0,	-16,682	7,9188
95582	-21,017	0,	-16,488	7,7097
95583	-19,88	0,	-17,546	7,7882
95584	-20,551	0,	-17,353	7,5678
95585	-19,414	0,	-18,411	7,7001
95586	-20,085	0,	-18,218	7,4698
95587	-18,948	0,	-19,276	7,6505
95588	-19,619	0,	-19,083	7,411
95589	-18,482	0,	-20,141	7,6356
95590	-19,153	0,	-19,947	7,3876
95591	-18,016	0,	-21,006	7,6525
95592	-18,687	0,	-20,814	7,396
95593	-17,551	0,	-21,872	7,6983
95594	-18,22	0,	-21,68	7,4334
95595	-17,085	0,	-22,738	7,7707
95596	-17,754	0,	-22,546	7,4972
95597	-16,619	0,	-23,603	7,8677
95598	-17,288	0,	-23,413	7,5853
95599	-16,154	0,	-24,468	7,9874
95600	-16,822	0,	-24,278	7,6955
95601	-15,694	0,	-25,333	8,1258
95602	-16,357	0,	-25,143	7,826
95603	-15,234	0,	-26,198	8,2837
95604	-15,896	0,	-26,01	7,9737
95605	-14,77	0,	-27,063	8,4624
95606	-15,432	0,	-26,874	8,1406
95607	-14,306	0,	-27,929	8,6587
95608	-14,97	0,	-27,739	8,3224
95609	-13,842	0,	-28,794	8,8723
95610	-14,502	0,	-28,605	8,5234
95611	-13,377	0,	-29,658	9,1022
95612	-14,04	0,	-29,47	8,7357
95613	-12,914	0,	-30,523	9,3466
95614	-13,571	0,	-30,335	8,9656
95615	-12,717	0,	-29,841	9,4591
95616	-12,448	0,	-31,387	9,6075
95617	-13,111	0,	-31,2	9,2032
95618	-11,525	0,	-33,116	10,162
95619	-12,184	0,	-32,93	9,7164
95620	-11,985	0,	-32,251	9,8795
95621	-11,06	0,	-33,981	10,456
95622	-11,72	0,	-33,795	9,9868
95623	-10,594	0,	-34,846	10,757
95624	-11,253	0,	-34,66	10,263
95625	-10,125	0,	-35,71	11,059
95626	-10,786	0,	-35,524	10,54
95627	-9,6529	0,	-36,575	11,356
95628	-10,316	0,	-36,39	10,812
95629	-9,1752	0,	-37,441	11,64
95630	-9,8396	0,	-37,254	11,074
95631	-8,6961	0,	-38,306	11,895
95632	-9,3646	0,	-38,117	11,309
95633	-8,2189	0,	-39,174	12,104
95634	-8,8874	0,	-38,982	11,505
95635	-7,731	0,	-40,042	12,28
95636	-8,4119	0,	-39,843	11,653
95637	-7,2356	0,	-40,906	12,459
95638	-7,9271	0,	-40,7	11,767
95639	-4,8735	0,	-40,199	16,983
95640	-4,2159	0,	-40,403	18,493
95641	-6,5466	0,	-41,128	13,367
95642	-7,447	0,	-41,553	11,887
95643	-6,7565	0,	-41,764	12,697
95644	6,9958e-002	0,	-37,56	22,274
95645	-0,62051	0,	-37,545	22,144
95646	2,8368	0,	-38,705	20,873
95647	2,8568	0,	-39,376	20,928
95648	1,4204	0,	-37,508	21,646
95649	0,7442	0,	-37,551	22,128
95650	5,4404	0,	-41,009	15,56
95651	4,8159	0,	-41,12	17,154
95652	18,9	0,	-4,6261	14,227
95653	18,606	0,	-4,0311	14,203
95654	20,588	0,	-5,1895	15,401
95655	21,153	0,	-4,8787	16,399
95656	20,852	0,	-5,8109	15,084
95657	18,245	0,	-1,2011	14,494
95658	18,795	0,	-0,83092	14,661
95659	17,901	0,	-2,9224	14,075
95660	18,276	0,	-3,4676	14,204
95661	21,298	0,	5,8363	15,465
95662	21,888	0,	5,5575	16,667
95663	19,557	0,	5,0582	14,484
95664	19,31	0,	4,4008	14,554
95665	24,532	0,	6,6098	16,591
95666	24,349	0,	6,0593	18,396
95667	24,606	0,	-6,6184	16,628
95668	24,437	0,	-6,0617	18,485
95669	5,0396	0,	40,17	20,158
95670	4,3597	0,	40,318	21,043
95671	24,843	0,	7,7573	14,146
95672	24,681	0,	7,1616	15,401
95673	25,018	0,	8,3664	13,164
95674	25,523	0,	7,548	14,54
95675	25,691	0,	8,1623	13,364
95676	24,527	0,	9,1858	12,06
95677	25,201	0,	8,9858	12,184
95678	24,043	0,	10,01	11,163
95679	24,715	0,	9,8118	11,216
95680	23,563	0,	10,844	10,428
95681	24,235	0,	10,643	10,422
95682	23,086	0,	11,688	9,8225
95683	23,756	0,	11,479	9,7733
95684	22,894	0,	11,041	10,365
95685	22,612	0,	12,539	9,324
95686	23,285	0,	12,332	9,2288
95687	22,139	0,	13,396	8,9154
95688	22,813	0,	13,19	8,7866
95689	21,667	0,	14,256	8,584
95690	22,342	0,	14,054	8,4273
95691	21,194	0,	15,117	8,3215
95692	21,871	0,	14,92	8,1418
95693	20,991	0,	14,455	8,6724
95694	20,722	0,	15,984	8,1165
95695	21,398	0,	15,786	7,9219
95696	20,251	0,	16,858	7,9623
95697	20,926	0,	16,66	7,7553
95698	20,046	0,	16,183	8,2446
95699	19,78	0,	17,733	7,857
95700	20,454	0,	17,535	7,6397
95701	19,308	0,	18,608	7,796
95702	19,982	0,	18,41	7,5695
95703	19,106	0,	17,932	8,0154
95704	18,837	0,	19,484	7,7752
95705	19,509	0,	19,285	7,5406
95706	18,365	0,	20,359	7,7913
95707	19,037	0,	20,161	7,549
95708	17,894	0,	21,235	7,8413
95709	18,565	0,	21,037	7,5917
95710	17,422	0,	22,111	7,9226
95711	18,092	0,	21,913	7,6659
95712	16,95	0,	22,987	8,0331
95713	17,62	0,	22,789	7,7693
95714	16,479	0,	23,864	8,1707
95715	16,281	0,	23,184	8,2575
95716	17,147	0,	23,666	7,9
95717	16,008	0,	24,74	8,3338
95718	16,675	0,	24,542	8,0562
95719	15,537	0,	25,616	8,5211
95720	16,208	0,	25,42	8,234
95721	15,34	0,	24,936	8,577
95722	15,066	0,	26,492	8,7314
95723	15,737	0,	26,296	8,4367
95724	14,595	0,	27,368	8,964
95725	15,266	0,	27,172	8,6613
95726	14,4	0,	26,687	8,9932
95727	14,124	0,	28,244	9,2183
95728	14,794	0,	28,048	8,9071
95729	13,653	0,	29,119	9,4941
95730	14,323	0,	28,924	9,1734
95731	13,183	0,	29,994	9,7921
95732	13,852	0,	29,8	9,4604
95733	12,712	0,	30,87	10,113
95734	13,381	0,	30,676	9,7681
95735	12,241	0,	31,746	10,459
95736	12,91	0,	31,553	10,099
95737	11,77	0,	32,622	10,834
95738	12,438	0,	32,429	10,452
95739	11,573	0,	31,933	10,799
95740	11,299	0,	33,499	11,241
95741	11,967	0,	33,305	10,833
95742	10,826	0,	34,379	11,689
95743	11,495	0,	34,183	11,245
95744	10,344	0,	35,27	12,193
95745	11,021	0,	35,063	11,696
95746	9,8404	0,	36,177	12,782
95747	10,533	0,	35,957	12,206
95748	9,6671	0,	35,478	12,673
95749	9,3045	0,	37,089	13,484
95750	10,017	0,	36,868	12,803
95751	8,7467	0,	38,003	14,326
95752	9,4805	0,	37,773	13,501
95753	8,5924	0,	37,301	14,131
95754	8,1628	0,	38,916	15,354
95755	8,9307	0,	38,68	14,327
95756	8,3684	0,	39,576	15,308
95757	6,5527	0,	41,358	19,173
95758	6,6637	0,	42,024	19,375
95759	0,64709	0,	37,556	15,639
95760	-4,5133e-002	0,	37,566	15,531
95761	-2,8378	0,	39,374	18,561
95762	-2,8102	0,	38,706	17,79
95763	-1,3882	0,	37,501	15,931
95764	-0,71752	0,	37,549	15,611
95765	-5,2685	0,	40,89	21,018
95766	-4,7037	0,	41,06	22,262
95767	-18,727	0,	-3,246	14,487
95768	-19,039	0,	-3,828	14,642
95769	18,732	0,	3,1913	14,497
95770	19,042	0,	3,7843	14,648
95771	6,6687	0,	-40,752	13,372
95772	6,0329	0,	-40,872	14,41
95773	7,3366	0,	-40,654	12,462
95774	6,8563	0,	-41,479	12,695
95775	7,5175	0,	-41,352	11,9
95776	7,8138	0,	-39,843	12,279
95777	8,0008	0,	-40,53	11,772
95778	8,2827	0,	-39,033	12,089
95779	8,4771	0,	-39,714	11,639
95780	7,6187	0,	-39,168	12,827
95781	8,738	0,	-38,213	11,879
95782	8,9361	0,	-38,896	11,486
95783	9,1785	0,	-37,38	11,65
95784	9,3888	0,	-38,061	11,3
95785	8,5291	0,	-37,541	12,274
95786	9,623	0,	-36,54	11,389
95787	9,8272	0,	-37,224	11,091
95788	10,076	0,	-35,694	11,102
95789	10,28	0,	-36,376	10,844
95790	9,4168	0,	-35,862	11,657
95791	10,534	0,	-34,842	10,804
95792	10,741	0,	-35,523	10,576
95793	10,997	0,	-33,987	10,503
95794	11,203	0,	-34,668	10,3
95795	11,455	0,	-33,131	10,21
95796	11,667	0,	-33,81	10,023
95797	11,918	0,	-32,27	9,9229
95798	12,129	0,	-32,948	9,7524
95799	12,388	0,	-31,406	9,6438
95800	12,598	0,	-32,084	9,4855
95801	12,858	0,	-30,541	9,3787
95802	13,067	0,	-31,218	9,229
95803	13,537	0,	-30,352	8,9843
95804	13,333	0,	-29,678	9,1264
95805	14,273	0,	-27,949	8,6751
95806	14,478	0,	-28,622	8,5349
95807	13,806	0,	-28,815	8,8909
95808	14,739	0,	-27,084	8,4767
95809	14,945	0,	-27,756	8,3341
95810	15,205	0,	-26,219	8,2963
95811	15,412	0,	-26,89	8,1492
95812	15,672	0,	-25,353	8,1346
95813	15,878	0,	-26,024	7,981
95814	16,138	0,	-24,487	7,9928
95815	16,345	0,	-25,158	7,8305
95816	16,605	0,	-23,622	7,8721
95817	16,811	0,	-24,292	7,699
95818	17,278	0,	-23,426	7,5881
95819	17,071	0,	-22,756	7,7742
95820	18,004	0,	-21,025	7,6541
95821	18,211	0,	-21,694	7,4349
95822	17,538	0,	-21,891	7,7009
95823	18,47	0,	-20,16	7,6363
95824	18,678	0,	-20,829	7,3968
95825	18,937	0,	-19,295	7,6502
95826	19,144	0,	-19,963	7,3877
95827	19,403	0,	-18,431	7,6987
95828	19,611	0,	-19,098	7,4105
95829	19,869	0,	-17,566	7,7853
95830	20,077	0,	-18,232	7,4683
95831	20,34	0,	-16,706	7,9114
95832	20,544	0,	-17,367	7,5654
95833	20,81	0,	-15,847	8,0842
95834	21,014	0,	-16,507	7,7031
95835	21,276	0,	-14,991	8,3089
95836	21,48	0,	-15,644	7,8926
95837	21,743	0,	-14,142	8,5893
95838	21,948	0,	-14,791	8,1314
95839	22,211	0,	-13,294	8,936
95840	22,415	0,	-13,934	8,4366
95841	22,679	0,	-12,449	9,3586
95842	22,884	0,	-13,088	8,8075
95843	23,146	0,	-11,609	9,8712
95844	23,353	0,	-12,242	9,2644
95845	23,614	0,	-10,776	10,49
95846	23,821	0,	-11,4	9,8203
95847	24,09	0,	-9,9558	11,23
95848	24,293	0,	-10,567	10,491
95849	24,583	0,	-9,1451	12,122
95850	24,774	0,	-9,745	11,295
95851	25,087	0,	-8,3325	13,232
95852	25,269	0,	-8,9266	12,266
95853	-22,321	0,	4,4062	20,028
95854	-21,773	0,	4,6781	17,833
95855	22,27	0,	-4,3423	20,02
95856	21,72	0,	-4,5922	17,873
95857	23,821	0,	5,114	22,132
95858	24,021	0,	5,6423	19,31
95859	-3,6287	0,	41,27	22,995
95860	-4,177	0,	41,117	22,619
95861	3,6414	0,	-41,27	22,152
95862	4,2306	0,	-41,152	18,464
95863	25,587	0,	-7,5076	14,64
95864	25,765	0,	-8,1017	13,476
95865	-6,7102	0,	41,781	19,087
95866	-7,4717	0,	42,21	17,419
95867	-6,8442	0,	42,455	18,955
95868	-2,0189	0,	-39,048	22,023
95869	-1,8765	0,	-39,595	22,146
95870	-2,0468	0,	-40,093	23,555
95871	2,1111	0,	39,073	17,532
95872	1,961	0,	39,621	17,606
95873	2,1424	0,	40,116	18,234
95874	19,406	0,	2,8007	15,113
95875	18,984	0,	2,2768	14,763
95876	-18,978	0,	-2,3235	14,759
95877	-19,581	0,	-1,8531	14,94
95878	-18,583	0,	-1,8052	14,626
95879	-19,402	0,	-2,8377	15,075
95880	-5,9738	0,	41,344	20,359
95881	-5,3981	0,	41,568	21,998
95882	-6,108	0,	42,025	20,759
95883	-2,0889	0,	38,12	16,696
95884	-1,4156	0,	38,205	16,117
95885	1,3595	0,	38,242	16,19
95886	1,3548	0,	38,874	16,281
95887	2,0653	0,	38,267	16,653
95888	0,62563	0,	38,243	15,67
95889	5,7963	0,	40,751	19,975
95890	5,8825	0,	41,485	20,875
95891	5,1073	0,	40,897	21,483
95892	25,422	0,	-6,9297	15,855
95893	26,245	0,	-7,2524	14,977
95894	26,064	0,	-6,6587	16,462
95895	25,253	0,	-6,3516	17,573
95896	25,361	0,	6,9524	15,778
95897	25,197	0,	6,3656	17,526
95898	26,193	0,	7,3361	14,803
95899	26,034	0,	6,7112	16,275
95900	20,435	0,	5,4338	14,991
95901	20,184	0,	4,7404	15,201
95902	19,801	0,	5,7005	14,234
95903	21,045	0,	5,14	15,946
95904	18,088	0,	-2,0449	14,339
95905	18,508	0,	-2,5669	14,524
95906	18,674	0,	-1,6893	14,66
95907	19,764	0,	-4,9013	14,78
95908	20,339	0,	-4,5661	15,484
95909	19,504	0,	-4,2779	14,773
95910	6,2206	0,	-41,599	13,73
95911	5,5809	0,	-41,727	15,18
95912	7,028	0,	-42,185	12,11
95913	6,3631	0,	-42,325	13,203
95914	2,1257	0,	-38,126	21,511
95915	1,4407	0,	-38,209	22,291
95916	2,0926	0,	-37,449	21,02
95917	2,1474	0,	-38,81	21,801
95918	-1,3271	0,	-38,856	22,726
95919	-1,334	0,	-38,223	22,358
95920	-5,6835	0,	-40,689	15,141
95921	-5,8279	0,	-41,366	14,669
95922	-4,9911	0,	-40,937	16,663
95923	-20,428	0,	-5,4048	15,055
95924	-19,817	0,	-5,7256	14,266
95925	-20,181	0,	-4,7481	15,213
95926	-21,037	0,	-5,0887	16,023
95927	-18,115	0,	2,1062	14,347
95928	-18,532	0,	2,6075	14,536
95929	-18,696	0,	1,7296	14,68
95930	-19,792	0,	4,9586	14,744
95931	-20,369	0,	4,6235	15,468
95932	-20,06	0,	5,605	14,501
95933	-19,528	0,	4,3139	14,761
95934	-24,761	0,	7,0991	15,44
95935	-25,713	0,	7,4552	14,638
95936	-25,341	0,	6,8648	16,106
95937	-24,492	0,	6,4264	17,26
95938	-23,894	0,	6,7118	16,106
95939	1,2047	0,	39,422	16,37
95940	1,2478	0,	39,997	16,473
95941	-1,1846	0,	-39,403	22,911
95942	-1,2352	0,	-39,977	24,166
95943	-6,1171	0,	-46,195	11,261
95944	-5,1497	0,	-46,	14,409
95945	-5,4647	0,	-46,449	11,999
95946	-5,8239	0,	-45,593	12,324
95947	-6,0761	0,	-44,144	13,317
95948	-6,976	0,	-44,532	11,136
95949	-6,7606	0,	-43,891	11,706
95950	-6,2636	0,	-44,74	12,083
95951	-8,3601	0,	-42,	10,734
95952	-8,1385	0,	-41,346	11,195
95953	-7,681	0,	-42,191	11,257
95954	-9,288	0,	-40,315	10,647
95955	-8,6081	0,	-40,501	11,141
95956	-9,0804	0,	-39,65	11,054
95957	-10,029	0,	-37,931	10,745
95958	-10,231	0,	-38,606	10,411
95959	-9,5559	0,	-38,793	10,921
95960	-10,699	0,	-37,745	10,237
95961	-10,503	0,	-37,069	10,533
95962	-11,645	0,	-36,015	9,8086
95963	-10,977	0,	-36,204	10,296
95964	-11,446	0,	-35,339	10,049
95965	-12,579	0,	-34,283	9,3451
95966	-12,378	0,	-33,608	9,5451
95967	-11,913	0,	-34,474	9,7971
95968	-13,502	0,	-32,553	8,8869
95969	-12,839	0,	-32,744	9,2995
95970	-12,641	0,	-32,066	9,4593
95971	-13,304	0,	-31,879	9,0581
95972	-14,433	0,	-30,821	8,443
95973	-14,234	0,	-30,147	8,6015
95974	-13,769	0,	-31,013	8,825
95975	-15,366	0,	-29,088	8,0318
95976	-14,7	0,	-29,281	8,3889
95977	-15,166	0,	-28,416	8,1889
95978	-16,298	0,	-27,356	7,6639
95979	-15,632	0,	-27,55	8,002
95980	-16,093	0,	-26,686	7,8316
95981	-17,026	0,	-24,953	7,5344
95982	-17,231	0,	-25,623	7,3493
95983	-16,559	0,	-25,82	7,6746
95984	-17,697	0,	-24,757	7,2156
95985	-17,491	0,	-24,089	7,4131
95986	-18,891	0,	-21,488	7,1762
95987	-19,097	0,	-22,157	6,928
95988	-18,424	0,	-22,355	7,2318
95989	-19,358	0,	-20,621	7,1471
95990	-19,564	0,	-21,29	6,8767
95991	-19,824	0,	-19,755	7,1473
95992	-20,031	0,	-20,423	6,8519
95993	-20,497	0,	-19,558	6,8564
95994	-20,29	0,	-18,89	7,1799
95995	-21,43	0,	-17,825	6,968
95996	-21,223	0,	-17,159	7,3582
95997	-20,756	0,	-18,025	7,2487
95998	-22,155	0,	-15,429	7,7218
95999	-22,363	0,	-16,094	7,249
96000	-21,689	0,	-16,294	7,5138
96001	-22,83	0,	-15,228	7,4694
96002	-22,62	0,	-14,564	7,9903
96003	-23,762	0,	-13,495	8,1196
96004	-23,55	0,	-12,832	8,7545
96005	-23,086	0,	-13,698	8,3307
96006	-24,694	0,	-11,766	9,139
96007	-24,016	0,	-11,97	9,2731
96008	-23,804	0,	-11,312	9,9055
96009	-24,485	0,	-11,109	9,9096
96010	-25,403	0,	-9,4079	11,617
96011	-25,623	0,	-10,05	10,678
96012	-24,948	0,	-10,253	10,685
96013	-25,827	0,	-8,5572	12,755
96014	-26,076	0,	-9,1957	11,701
96015	-26,192	0,	-7,6939	14,154
96016	-26,502	0,	-8,3263	12,948
96017	-26,46	0,	-6,8082	15,919
96018	-26,847	0,	-7,4643	14,411
96019	-25,879	0,	-7,0802	15,41
96020	26,423	0,	-7,8465	13,823
96021	26,897	0,	-6,9952	15,333
96022	27,081	0,	-7,5989	14,099
96023	25,946	0,	-8,6958	12,515
96024	26,618	0,	-8,469	12,69
96025	25,46	0,	-9,5265	11,442
96026	26,135	0,	-9,31	11,519
96027	24,977	0,	-10,356	10,557
96028	25,653	0,	-10,145	10,548
96029	24,5	0,	-11,191	9,8217
96030	25,174	0,	-10,983	9,7424
96031	24,028	0,	-12,033	9,2135
96032	24,701	0,	-11,827	9,0775
96033	23,558	0,	-12,88	8,7132
96034	24,231	0,	-12,677	8,5338
96035	23,088	0,	-13,728	8,3081
96036	23,761	0,	-13,529	8,0948
96037	23,292	0,	-14,386	7,7417
96038	22,619	0,	-14,584	7,9786
96039	21,684	0,	-16,303	7,5112
96040	22,356	0,	-16,107	7,246
96041	22,151	0,	-15,444	7,7149
96042	21,218	0,	-17,168	7,3566
96043	21,89	0,	-16,972	7,0823
96044	20,752	0,	-18,034	7,2477
96045	21,423	0,	-17,839	6,9666
96046	20,285	0,	-18,899	7,1793
96047	20,957	0,	-18,705	6,8928
96048	19,818	0,	-19,765	7,1472
96049	20,49	0,	-19,572	6,8559
96050	19,352	0,	-20,631	7,1474
96051	20,023	0,	-20,438	6,8519
96052	18,885	0,	-21,498	7,1769
96053	19,556	0,	-21,305	6,8772
96054	18,418	0,	-22,364	7,2329
96055	19,089	0,	-22,171	6,9288
96056	17,952	0,	-23,23	7,3129
96057	18,623	0,	-23,038	7,0043
96058	17,745	0,	-22,56	7,4994
96059	17,485	0,	-24,097	7,4149
96060	18,156	0,	-23,905	7,1012
96061	17,018	0,	-24,963	7,537
96062	17,689	0,	-24,772	7,2177
96063	16,551	0,	-25,83	7,6775
96064	17,222	0,	-25,639	7,352
96065	16,085	0,	-26,696	7,8349
96066	16,755	0,	-26,506	7,5024
96067	15,618	0,	-27,563	8,008
96068	16,289	0,	-27,373	7,6674
96069	15,151	0,	-28,429	8,1957
96070	15,822	0,	-28,239	7,8458
96071	14,684	0,	-29,296	8,3971
96072	15,355	0,	-29,106	8,0364
96073	14,215	0,	-30,162	8,6114
96074	14,887	0,	-29,973	8,2383
96075	14,011	0,	-29,488	8,7509
96076	13,746	0,	-31,029	8,8375
96077	14,418	0,	-30,841	8,4504
96078	13,277	0,	-31,896	9,074
96079	13,948	0,	-31,708	8,6719
96080	12,808	0,	-32,762	9,3186
96081	13,481	0,	-32,575	8,8982
96082	12,341	0,	-33,627	9,5695
96083	13,014	0,	-33,441	9,1302
96084	11,873	0,	-34,491	9,824
96085	12,547	0,	-34,306	9,365
96086	11,409	0,	-35,35	10,076
96087	12,079	0,	-35,171	9,6004
96088	10,945	0,	-36,206	10,321
96089	11,615	0,	-36,032	9,8285
96090	10,485	0,	-37,059	10,55
96091	11,148	0,	-36,887	10,049
96092	10,038	0,	-37,904	10,745
96093	10,693	0,	-37,739	10,243
96094	9,5869	0,	-38,743	10,909
96095	10,246	0,	-38,584	10,404
96096	9,1305	0,	-39,576	11,037
96097	9,7854	0,	-39,429	10,539
96098	8,664	0,	-40,401	11,132
96099	9,3295	0,	-40,268	10,63
96100	8,1817	0,	-41,228	11,211
96101	8,8509	0,	-41,097	10,703
96102	7,6892	0,	-42,059	11,314
96103	8,3632	0,	-41,932	10,761
96104	7,1908	0,	-42,899	11,525
96105	7,8643	0,	-42,763	10,855
96106	8,3401	0,	41,037	15,724
96107	8,6232	0,	41,679	15,191
96108	8,6826	0,	40,195	15,087
96109	8,9783	0,	40,831	14,679
96110	9,1364	0,	39,339	14,311
96111	9,3796	0,	39,988	14,076
96112	9,6645	0,	38,45	13,524
96113	9,8684	0,	39,113	13,395
96114	10,192	0,	37,552	12,836
96115	10,387	0,	38,227	12,757
96116	10,709	0,	36,648	12,239
96117	10,901	0,	37,332	12,189
96118	11,21	0,	35,75	11,718
96119	11,403	0,	36,435	11,684
96120	11,69	0,	34,866	11,26
96121	11,887	0,	35,548	11,234
96122	12,163	0,	33,989	10,844
96123	12,36	0,	34,67	10,822
96124	12,635	0,	33,112	10,458
96125	12,832	0,	33,793	10,436
96126	13,305	0,	32,916	10,071
96127	13,107	0,	32,236	10,097
96128	14,051	0,	30,482	9,4408
96129	14,25	0,	31,161	9,3999
96130	13,579	0,	31,359	9,7586
96131	14,522	0,	29,606	9,1433
96132	14,721	0,	30,285	9,0919
96133	14,994	0,	28,729	8,8652
96134	15,193	0,	29,408	8,8019
96135	15,465	0,	27,852	8,6068
96136	15,666	0,	28,531	8,5302
96137	15,937	0,	26,976	8,3684
96138	16,138	0,	27,654	8,2773
96139	16,409	0,	26,099	8,1508
96140	16,61	0,	26,777	8,0438
96141	16,876	0,	25,222	7,9571
96142	17,082	0,	25,9	7,8309
96143	17,549	0,	25,022	7,6414
96144	17,343	0,	24,344	7,7857
96145	18,495	0,	23,267	7,3266
96146	18,29	0,	22,591	7,512
96147	17,817	0,	23,467	7,636
96148	19,441	0,	21,514	7,1142
96149	18,763	0,	21,715	7,4153
96150	19,236	0,	20,839	7,3482
96151	20,183	0,	19,087	7,3129
96152	20,387	0,	19,76	7,0208
96153	19,71	0,	19,963	7,3131
96154	20,656	0,	18,212	7,351
96155	20,86	0,	18,884	7,0257
96156	21,129	0,	17,337	7,4316
96157	21,333	0,	18,008	7,0698
96158	21,602	0,	16,463	7,5599
96159	21,806	0,	17,132	7,1578
96160	22,075	0,	15,589	7,7417
96161	22,278	0,	16,256	7,2956
96162	22,546	0,	14,717	7,9846
96163	22,751	0,	15,382	7,4903
96164	23,016	0,	13,848	8,2979
96165	23,222	0,	14,508	7,751
96166	23,486	0,	12,984	8,6907
96167	23,692	0,	13,637	8,089
96168	24,162	0,	12,775	8,5117
96169	23,955	0,	12,123	9,1786
96170	24,907	0,	10,444	10,477
96171	25,107	0,	11,078	9,6739
96172	24,428	0,	11,278	9,767
96173	25,389	0,	9,6118	11,344
96174	25,58	0,	10,236	10,462
96175	25,874	0,	8,7816	12,391
96176	26,065	0,	9,4058	11,401
96177	26,361	0,	7,9503	13,639
96178	26,547	0,	8,572	12,534
96179	26,849	0,	7,1154	15,1
96180	27,028	0,	7,738	13,852
96181	-5,6313	0,	46,253	18,609
96182	-5,2896	0,	47,179	17,842
96183	-5,8813	0,	46,934	16,511
96184	-5,0331	0,	46,487	22,104
96185	-6,742	0,	44,595	17,649
96186	-6,1503	0,	45,399	18,428
96187	-6,1646	0,	44,817	19,574
96188	-6,8572	0,	45,256	16,374
96189	-7,1801	0,	43,746	17,359
96190	-6,5814	0,	43,983	18,982
96191	-7,339	0,	44,401	16,274
96192	-7,6254	0,	42,868	16,852
96193	-6,9978	0,	43,114	18,358
96194	-7,7999	0,	43,533	16,023
96195	-8,0784	0,	41,968	16,175
96196	-8,257	0,	42,642	15,596
96197	-8,5119	0,	41,058	15,445
96198	-8,6992	0,	41,739	15,048
96199	-8,9379	0,	40,149	14,713
96200	-9,1328	0,	40,834	14,443
96201	-9,3679	0,	39,249	14,011
96202	-9,5634	0,	39,936	13,833
96203	-9,8072	0,	38,36	13,36
96204	-10,011	0,	39,048	13,235
96205	-10,257	0,	37,481	12,766
96206	-10,464	0,	38,167	12,679
96207	-10,72	0,	36,612	12,225
96208	-10,925	0,	37,295	12,166
96209	-11,192	0,	35,742	11,729
96210	-11,397	0,	36,425	11,688
96211	-11,666	0,	34,866	11,276
96212	-11,87	0,	35,549	11,245
96213	-12,139	0,	33,991	10,858
96214	-12,343	0,	34,672	10,832
96215	-12,612	0,	33,115	10,471
96216	-12,815	0,	33,796	10,445
96217	-13,085	0,	32,24	10,109
96218	-13,288	0,	32,92	10,081
96219	-12,403	0,	32,429	10,47
96220	-13,558	0,	31,364	9,7695
96221	-13,76	0,	32,044	9,7353
96222	-14,031	0,	30,489	9,4512
96223	-14,233	0,	31,168	9,4085
96224	-14,503	0,	29,613	9,1529
96225	-14,706	0,	30,291	9,0999
96226	-15,183	0,	29,417	8,8073
96227	-14,976	0,	28,737	8,8741
96228	-15,921	0,	26,984	8,3759
96229	-16,128	0,	27,663	8,282
96230	-15,448	0,	27,86	8,615
96231	-16,394	0,	26,107	8,1576
96232	-16,6	0,	26,786	8,0482
96233	-16,867	0,	25,231	7,9609
96234	-17,073	0,	25,908	7,8347
96235	-17,34	0,	24,354	7,7869
96236	-17,546	0,	25,031	7,6426
96237	-17,813	0,	23,477	7,637
96238	-18,018	0,	24,154	7,4731
96239	-18,286	0,	22,601	7,5128
96240	-18,491	0,	23,277	7,3274
96241	-18,759	0,	21,725	7,4159
96242	-18,964	0,	22,4	7,2074
96243	-19,232	0,	20,849	7,3485
96244	-19,437	0,	21,523	7,1147
96245	-19,705	0,	19,973	7,313
96246	-19,909	0,	20,647	7,0516
96247	-20,382	0,	19,77	7,0207
96248	-20,178	0,	19,098	7,3124
96249	-21,328	0,	18,018	7,0689
96250	-21,124	0,	17,354	7,4279
96251	-20,651	0,	18,223	7,3501
96252	-22,065	0,	15,64	7,721
96253	-22,273	0,	16,293	7,2814
96254	-21,596	0,	16,493	7,5499
96255	-22,533	0,	14,793	7,9486
96256	-22,744	0,	15,438	7,4635
96257	-23,211	0,	14,587	7,7084
96258	-22,994	0,	13,951	8,2415
96259	-23,897	0,	12,291	9,0615
96260	-24,129	0,	12,905	8,4228
96261	-23,448	0,	13,12	8,6067
96262	-24,339	0,	11,453	9,6306
96263	-24,581	0,	12,065	8,9259
96264	-23,654	0,	11,683	9,6289
96265	-24,773	0,	10,615	10,329
96266	-25,022	0,	11,221	9,5576
96267	-25,199	0,	9,773	11,187
96268	-25,459	0,	10,373	10,337
96269	-25,612	0,	8,9183	12,245
96270	-25,882	0,	9,5196	11,298
96271	-26,006	0,	8,0566	13,529
96272	-26,296	0,	8,6572	12,456
96273	-26,696	0,	7,7906	13,826
96274	-26,39	0,	7,1891	15,091
96275	-5,7987	0,	45,204	20,248
96276	-6,2462	0,	46,049	17,012
96277	-5,3091	0,	45,544	23,226
96278	-6,242	0,	42,699	20,559
96279	-6,3991	0,	43,35	20,011
96280	-2,1493	0,	39,476	17,904
96281	-2,1835	0,	40,143	18,419
96282	-6,6588e-002	0,	38,252	15,563
96283	-0,74492	0,	38,253	15,801
96284	4,4274	0,	41,045	22,266
96285	3,768	0,	41,221	23,062
96286	6,8045	0,	42,722	18,927
96287	5,9935	0,	42,15	20,982
96288	6,0559	0,	42,891	21,251
96289	6,95	0,	43,44	18,31
96290	7,6337	0,	43,345	16,568
96291	6,4852	0,	44,245	18,954
96292	7,1315	0,	44,146	17,151
96293	6,2014	0,	43,609	20,554
96294	5,9968	0,	45,02	19,663
96295	6,6274	0,	45,024	17,439
96296	5,7356	0,	44,538	22,049
96297	5,923	0,	45,842	18,326
96298	5,3231	0,	45,302	23,421
96299	25,084	0,	-5,795	19,39
96300	24,919	0,	-5,2416	22,622
96301	27,557	0,	-6,7779	15,572
96302	27,369	0,	-6,1945	16,917
96303	26,716	0,	-6,4014	16,8
96304	26,69	0,	6,4905	16,555
96305	27,341	0,	6,2811	16,699
96306	27,513	0,	6,9057	15,333
96307	22,226	0,	4,54	19,358
96308	21,636	0,	4,8612	17,239
96309	19,936	0,	4,083	15,355
96310	19,717	0,	3,3937	15,191
96311	19,224	0,	-1,3192	14,819
96312	19,748	0,	-0,9249	14,713
96313	19,21	0,	-3,683	14,81
96314	18,883	0,	-3,1121	14,615
96315	5,5038	0,	-46,107	12,33
96316	5,5486	0,	-46,92	11,215
96317	4,8873	0,	-46,274	14,541
96318	5,868	0,	-45,431	12,372
96319	6,0765	0,	-46,19	11,288
96320	5,24	0,	-45,571	15,166
96321	6,5259	0,	-43,04	12,629
96322	7,3804	0,	-43,612	11,021
96323	6,7016	0,	-43,747	11,861
96324	2,1674	0,	-39,481	21,846
96325	2,1995	0,	-40,147	23,179
96326	8,5134e-002	0,	-38,245	22,976
96327	0,76455	0,	-38,252	22,748
96328	-4,3336	0,	-41,141	18,158
96329	-3,6817	0,	-41,318	22,202
96330	-6,3252	0,	-42,622	13,14
96331	-6,0378	0,	-42,002	13,999
96332	-6,9905	0,	-42,402	12,069
96333	-21,64	0,	-4,775	17,434
96334	-22,22	0,	-4,4691	19,543
96335	-19,714	0,	-3,4197	15,156
96336	-19,935	0,	-4,1001	15,357
96337	-19,231	0,	1,3309	14,842
96338	-19,755	0,	0,92627	14,73
96339	-19,233	0,	3,7111	14,814
96340	-18,907	0,	3,1379	14,626
96341	-24,298	0,	5,7628	19,095
96342	-24,114	0,	5,1177	22,61
96343	-23,7	0,	6,0482	17,955
96344	-5,168	0,	-48,287	9,4229
96345	-4,6124	0,	-47,982	10,042
96346	-5,2026	0,	-47,356	10,872
96347	-27,293	0,	5,4935	18,863
96348	-28,039	0,	5,1865	18,995
96349	-27,083	0,	4,9749	21,216
96350	-27,607	0,	4,5436	21,867
96351	-27,572	0,	6,0718	17,142
96352	-26,488	0,	5,7502	18,917
96353	-26,818	0,	6,3376	16,896
96354	-25,072	0,	6,1921	17,897
96355	-25,687	0,	6,0113	18,599
96356	-26,018	0,	6,5987	16,534
96357	-25,059	0,	5,3937	21,805
96358	-20,105	0,	3,9788	15,582
96359	-20,702	0,	3,6485	16,378
96360	-20,941	0,	4,3112	16,609
96361	-19,862	0,	3,3164	15,299
96362	-19,113	0,	2,231	14,841
96363	-19,536	0,	2,7432	15,185
96364	-19,703	0,	1,7937	14,999
96365	-21,384	0,	-4,1071	17,673
96366	-20,79	0,	-4,432	16,287
96367	-26,116	0,	-6,1889	17,674
96368	-25,806	0,	-5,5396	20,508
96369	-25,219	0,	-5,8781	19,021
96370	-25,536	0,	-6,461	17,185
96371	-27,061	0,	-6,5644	16,208
96372	-26,631	0,	-5,8472	18,613
96373	-27,605	0,	-5,3827	18,82
96374	-27,514	0,	-6,2531	16,752
96375	-27,084	0,	-5,5359	19,147
96376	-28,08	0,	-5,0113	19,306
96377	-27,533	0,	-4,7835	21,121
96378	-5,8819	0,	-43,516	14,031
96379	-5,3379	0,	-43,769	16,26
96380	-5,2819	0,	-44,391	16,22
96381	-5,6408	0,	-42,869	15,063
96382	-6,5663	0,	-43,263	12,469
96383	-4,4844	0,	-42,018	19,786
96384	-5,1355	0,	-41,614	16,181
96385	-0,59838	0,	-38,864	23,21
96386	-0,62539	0,	-39,508	22,723
96387	0,10788	0,	-38,97	23,102
96388	-0,60533	0,	-38,23	22,847
96389	1,4624	0,	-38,894	22,562
96390	0,78729	0,	-38,976	22,886
96391	1,5088	0,	-39,625	23,508
96392	5,7234	0,	-42,453	14,656
96393	5,0586	0,	-42,551	17,592
96394	4,9563	0,	-41,838	16,763
96395	5,8159	0,	-43,188	14,421
96396	6,4782	0,	-45,317	11,45
96397	5,5708	0,	-44,764	14,694
96398	6,2514	0,	-44,587	12,271
96399	20,079	0,	-3,9427	15,57
96400	20,679	0,	-3,6171	16,344
96401	20,905	0,	-4,2553	16,597
96402	19,842	0,	-3,2947	15,278
96403	19,094	0,	-2,2113	14,818
96404	19,515	0,	-2,7239	15,153
96405	19,69	0,	-1,7848	14,963
96406	20,585	0,	3,7434	16,268
96407	20,794	0,	4,4466	16,261
96408	25,87	0,	6,1244	17,998
96409	25,672	0,	5,5446	20,616
96410	25,013	0,	5,8151	19,284
96411	26,555	0,	5,8295	18,544
96412	27,83	0,	5,4756	18,275
96413	27,999	0,	6,0808	16,858
96414	27,205	0,	5,6201	18,688
96415	28,475	0,	5,3022	18,245
96416	28,529	0,	4,7586	19,155
96417	27,734	0,	4,7896	20,817
96418	25,714	0,	-5,5049	20,698
96419	25,896	0,	-6,0807	18,16
96420	5,9397	0,	46,906	16,12
96421	6,5536	0,	45,846	16,106
96422	6,6852	0,	46,564	14,726
96423	5,4253	0,	46,227	20,525
96424	5,1935	0,	41,631	22,25
96425	5,2419	0,	42,373	23,286
96426	4,5326	0,	41,808	24,125
96427	0,62094	0,	38,875	15,764
96428	0,64591	0,	39,516	15,597
96429	-9,591e-002	0,	38,979	15,509
96430	-1,5023	0,	39,623	16,745
96431	-2,1218	0,	38,807	17,112
96432	-1,4484	0,	38,893	16,545
96433	-5,5322	0,	42,249	22,301
96434	-4,9533	0,	42,446	24,203
96435	-4,8333	0,	41,739	23,113
96436	-5,6733	0,	42,977	22,669
96437	-6,0041	0,	44,204	20,929
96438	-5,8304	0,	43,628	22,045
96439	-5,4364	0,	44,532	23,789
96440	-5,5024	0,	47,785	16,361
96441	-4,6828	0,	47,454	19,971
96442	-5,0409	0,	48,071	17,294
96443	-6,4337	0,	-46,743	10,002
96444	-6,7027	0,	-47,36	9,4474
96445	-5,7812	0,	-46,997	10,697
96446	-6,7961	0,	-45,972	10,225
96447	-7,0559	0,	-46,61	9,6835
96448	-7,2153	0,	-45,161	10,322
96449	-7,4543	0,	-45,813	9,8841
96450	-6,5029	0,	-45,37	11,308
96451	-7,6679	0,	-44,338	10,305
96452	-7,8921	0,	-44,996	9,9507
96453	-8,1306	0,	-43,499	10,282
96454	-8,3448	0,	-44,17	9,9678
96455	-7,4525	0,	-43,698	10,892
96456	-8,5889	0,	-42,653	10,258
96457	-8,8036	0,	-43,326	9,9434
96458	-7,9098	0,	-42,844	10,781
96459	-9,0444	0,	-41,815	10,24
96460	-9,2608	0,	-42,48	9,9098
96461	-9,5028	0,	-40,976	10,207
96462	-9,7198	0,	-41,64	9,8619
96463	-8,8228	0,	-41,162	10,7
96464	-9,9676	0,	-40,133	10,141
96465	-10,184	0,	-40,796	9,7931
96466	-10,435	0,	-39,282	10,039
96467	-10,646	0,	-39,95	9,6998
96468	-9,76	0,	-39,468	10,548
96469	-10,9	0,	-38,42	9,9047
96470	-11,109	0,	-39,091	9,5822
96471	-11,367	0,	-37,556	9,7393
96472	-11,574	0,	-38,229	9,4381
96473	-11,84	0,	-36,691	9,5478
96474	-12,041	0,	-37,364	9,2736
96475	-11,171	0,	-36,881	10,032
96476	-12,312	0,	-35,826	9,3415
96477	-12,513	0,	-36,499	9,0901
96478	-12,779	0,	-34,96	9,1304
96479	-12,98	0,	-35,633	8,9001
96480	-12,112	0,	-35,15	9,5792
96481	-13,246	0,	-34,093	8,9153
96482	-13,447	0,	-34,766	8,7032
96483	-13,707	0,	-33,227	8,7026
96484	-13,914	0,	-33,899	8,5027
96485	-13,044	0,	-33,418	9,1122
96486	-14,169	0,	-32,361	8,4911
96487	-14,376	0,	-33,033	8,3033
96488	-14,635	0,	-31,495	8,2802
96489	-14,842	0,	-32,166	8,1009
96490	-13,971	0,	-31,687	8,6596
96491	-15,102	0,	-30,628	8,0745
96492	-15,309	0,	-31,299	7,9005
96493	-15,569	0,	-29,761	7,8756
96494	-15,776	0,	-30,432	7,7038
96495	-14,903	0,	-29,954	8,2306
96496	-16,035	0,	-28,895	7,6849
96497	-16,243	0,	-29,565	7,5121
96498	-16,502	0,	-28,028	7,5036
96499	-16,709	0,	-28,698	7,3272
96500	-15,835	0,	-28,222	7,8401
96501	-16,969	0,	-27,161	7,3333
96502	-17,176	0,	-27,831	7,1506
96503	-17,436	0,	-26,294	7,1752
96504	-17,643	0,	-26,964	6,9838
96505	-16,763	0,	-26,491	7,4996
96506	-17,902	0,	-25,427	7,0311
96507	-18,11	0,	-26,097	6,8284
96508	-18,369	0,	-24,56	6,9025
96509	-18,577	0,	-25,23	6,6862
96510	-18,836	0,	-23,693	6,7912
96511	-19,044	0,	-24,363	6,5587
96512	-18,163	0,	-23,892	7,0996
96513	-19,303	0,	-22,826	6,699
96514	-19,514	0,	-23,492	6,4466
96515	-18,63	0,	-23,024	7,003
96516	-19,77	0,	-21,959	6,6281
96517	-19,981	0,	-22,624	6,3547
96518	-20,237	0,	-21,092	6,581
96519	-20,447	0,	-21,757	6,2838
96520	-20,704	0,	-20,226	6,5604
96521	-20,914	0,	-20,89	6,2363
96522	-21,171	0,	-19,359	6,5697
96523	-21,381	0,	-20,023	6,2152
96524	-21,638	0,	-18,492	6,6127
96525	-21,848	0,	-19,155	6,2242
96526	-20,964	0,	-18,691	6,8937
96527	-22,105	0,	-17,626	6,6941
96528	-22,315	0,	-18,288	6,2675
96529	-22,572	0,	-16,759	6,8199
96530	-22,781	0,	-17,421	6,3505
96531	-21,897	0,	-16,959	7,0844
96532	-23,039	0,	-15,893	6,9973
96533	-23,248	0,	-16,554	6,4798
96534	-23,505	0,	-15,026	7,2354
96535	-23,714	0,	-15,687	6,6639
96536	-23,972	0,	-14,16	7,5457
96537	-24,181	0,	-14,82	6,9137
96538	-23,295	0,	-14,363	7,7551
96539	-24,438	0,	-13,293	7,9427
96540	-24,647	0,	-13,953	7,2428
96541	-24,904	0,	-12,425	8,444
96542	-25,113	0,	-13,085	7,6683
96543	-24,227	0,	-12,63	8,5752
96544	-25,37	0,	-11,557	9,0716
96545	-25,579	0,	-12,218	8,2113
96546	-25,836	0,	-10,696	9,8374
96547	-26,045	0,	-11,355	8,8893
96548	-25,161	0,	-10,9	9,8385
96549	-26,296	0,	-9,8376	10,77
96550	-26,51	0,	-10,495	9,7295
96551	-26,75	0,	-8,9648	11,907
96552	-26,971	0,	-9,6278	10,766
96553	-27,158	0,	-8,0967	13,224
96554	-27,425	0,	-8,7509	12,011
96555	-27,448	0,	-7,2205	14,725
96556	-27,85	0,	-7,8862	13,411
96557	-28,072	0,	-6,4358	16,021
96558	-28,148	0,	-7,0212	14,931
96559	-28,85	0,	-5,6486	17,194
96560	-28,938	0,	-6,2907	16,114
96561	-28,766	0,	-5,0944	18,397
96562	-28,338	0,	-4,5221	20,033
96563	-29,25	0,	-4,7311	18,591
96564	-29,481	0,	-5,404	17,434
96565	-29,564	0,	-3,7865	20,006
96566	-29,828	0,	-4,4666	18,799
96567	-28,822	0,	-4,1589	20,344
96568	-30,033	0,	-2,7065	21,129
96569	-30,195	0,	-3,5207	20,192
96570	-29,283	0,	-3,1675	22,159
96571	-30,428	0,	-1,4404	22,016
96572	-30,884	0,	-1,8701	21,575
96573	-30,629	0,	-2,4361	21,344
96574	-29,814	0,	-2,0476	22,901
96575	-30,509	0,	1,2013	22,14
96576	-30,605	0,	-8,7611e-002	22,204
96577	-31,055	0,	1,1043	21,805
96578	-31,15	0,	0,44182	22,009
96579	-30,177	0,	0,42154	23,059
96580	-30,135	0,	2,2841	21,808
96581	-30,744	0,	2,1475	21,597
96582	-29,912	0,	1,5321	22,981
96583	-29,674	0,	3,1993	20,955
96584	-30,368	0,	2,9877	20,92
96585	-29,524	0,	2,4885	22,712
96586	-29,18	0,	4,0377	19,897
96587	-29,913	0,	3,8282	19,852
96588	-28,995	0,	3,3603	22,384
96589	-28,744	0,	4,8757	18,701
96590	-29,47	0,	4,6501	18,688
96591	-28,312	0,	4,2329	21,729
96592	-28,318	0,	5,7647	17,267
96593	-29,038	0,	5,5056	17,476
96594	-27,859	0,	6,659	15,688
96595	-28,59	0,	6,3955	16,003
96596	-27,411	0,	7,5264	14,178
96597	-28,128	0,	7,2728	14,483
96598	-27,106	0,	6,9248	15,419
96599	-26,986	0,	8,3912	12,766
96600	-27,689	0,	8,1395	13,001
96601	-26,567	0,	9,2584	11,515
96602	-27,26	0,	9,0096	11,642
96603	-26,143	0,	10,12	10,45
96604	-26,829	0,	9,8783	10,46
96605	-26,392	0,	10,742	9,4761
96606	-25,708	0,	10,979	9,5674
96607	-24,813	0,	12,68	8,2884
96608	-25,492	0,	12,461	8,0462
96609	-25,264	0,	11,832	8,8544
96610	-24,354	0,	13,528	7,8413
96611	-25,032	0,	13,314	7,5577
96612	-23,89	0,	14,378	7,4919
96613	-24,569	0,	14,165	7,1817
96614	-23,673	0,	13,743	8,024
96615	-23,422	0,	15,233	7,2238
96616	-24,099	0,	15,026	6,894
96617	-22,951	0,	16,091	7,024
96618	-23,629	0,	15,884	6,6846
96619	-22,479	0,	16,954	6,8821
96620	-23,154	0,	16,748	6,5379
96621	-22,006	0,	17,818	6,7913
96622	-22,682	0,	17,618	6,4413
96623	-21,802	0,	17,154	7,1508
96624	-21,532	0,	18,69	6,7433
96625	-22,208	0,	18,49	6,3927
96626	-21,059	0,	19,567	6,7327
96627	-21,735	0,	19,367	6,3822
96628	-20,855	0,	18,894	7,0252
96629	-20,587	0,	20,444	6,7585
96630	-21,262	0,	20,244	6,4086
96631	-20,114	0,	21,322	6,8172
96632	-20,789	0,	21,121	6,4679
96633	-19,642	0,	22,199	6,9058
96634	-20,316	0,	21,999	6,557
96635	-19,169	0,	23,077	7,0221
96636	-19,843	0,	22,876	6,6734
96637	-18,697	0,	23,954	7,1639
96638	-19,37	0,	23,754	6,8152
96639	-18,224	0,	24,832	7,3297
96640	-18,897	0,	24,632	6,9806
96641	-17,752	0,	25,709	7,5179
96642	-18,424	0,	25,509	7,1681
96643	-17,279	0,	26,587	7,7274
96644	-17,952	0,	26,387	7,3766
96645	-16,807	0,	27,465	7,957
96646	-17,479	0,	27,265	7,6049
96647	-16,335	0,	28,342	8,2056
96648	-17,006	0,	28,142	7,852
96649	-15,863	0,	29,22	8,4724
96650	-16,533	0,	29,02	8,1169
96651	-15,655	0,	28,54	8,5352
96652	-15,386	0,	30,095	8,759
96653	-16,061	0,	29,898	8,3986
96654	-14,908	0,	30,97	9,0625
96655	-15,583	0,	30,773	8,6985
96656	-14,435	0,	31,847	9,3801
96657	-15,11	0,	31,65	9,0112
96658	-13,963	0,	32,724	9,7136
96659	-14,637	0,	32,527	9,3379
96660	-13,491	0,	33,601	10,062
96661	-14,164	0,	33,404	9,6775
96662	-13,02	0,	34,478	10,427
96663	-13,697	0,	34,283	10,026
96664	-12,548	0,	35,355	10,81
96665	-13,225	0,	35,16	10,388
96666	-12,075	0,	36,232	11,213
96667	-12,752	0,	36,037	10,762
96668	-11,601	0,	37,108	11,64
96669	-12,279	0,	36,914	11,147
96670	-11,131	0,	37,982	12,091
96671	-11,806	0,	37,791	11,543
96672	-10,667	0,	38,856	12,567
96673	-11,336	0,	38,665	11,95
96674	-10,868	0,	39,541	12,367
96675	-10,206	0,	39,736	13,071
96676	-9,3201	0,	41,515	14,06
96677	-9,9594	0,	41,305	13,175
96678	-9,7584	0,	40,621	13,578
96679	-8,8778	0,	42,413	14,482
96680	-9,512	0,	42,198	13,516
96681	-8,4316	0,	43,306	14,779
96682	-9,0644	0,	43,09	13,756
96683	-7,9587	0,	44,187	14,947
96684	-8,6085	0,	43,98	13,85
96685	-7,4542	0,	45,062	15,002
96686	-8,1182	0,	44,857	13,834
96687	-6,9531	0,	45,906	14,959
96688	-7,5884	0,	45,722	13,791
96689	-6,4962	0,	46,73	14,915
96690	-7,1257	0,	46,56	13,652
96691	-6,0941	0,	47,54	15,028
96692	-6,6895	0,	47,394	13,721
96693	-6,2387	0,	48,213	14,141
96694	-5,4423	0,	48,218	16,047
96695	-4,9196	0,	49,809	15,899
96696	-5,3481	0,	49,256	15,372
96697	-4,8921	0,	48,957	16,732
96698	-4,3986	0,	49,49	17,08
96699	-2,8078	0,	50,149	18,117
96700	-3,406	0,	50,392	17,58
96701	-2,9363	0,	49,473	18,663
96702	-3,5759	0,	49,739	17,867
96703	-2,1386	0,	50,627	17,868
96704	-2,6981	0,	50,831	17,73
96705	-1,9969	0,	50,023	17,76
96706	-1,5889	0,	50,624	17,828
96707	-2,0233	0,	51,251	17,567
96708	-1,0312	0,	50,524	17,526
96709	-0,41786	0,	50,965	17,318
96710	-0,49663	0,	50,326	17,554
96711	-1,4472	0,	50,02	17,925
96712	0,87601	0,	50,803	17,607
96713	0,69553	0,	51,418	17,553
96714	0,20498	0,	51,127	17,369
96715	0,12621	0,	50,487	17,259
96716	1,6334	0,	50,488	17,854
96717	1,4056	0,	51,105	17,679
96718	0,97066	0,	50,159	17,433
96719	2,5129	0,	50,182	18,013
96720	2,2391	0,	50,843	17,868
96721	1,8687	0,	49,886	17,882
96722	3,4108	0,	49,95	17,834
96723	3,0933	0,	50,535	17,696
96724	3,0751	0,	49,454	18,252
96725	2,7125	0,	49,539	18,292
96726	3,9238	0,	49,403	17,856
96727	3,9447	0,	50,343	17,039
96728	4,4417	0,	49,063	17,357
96729	4,1115	0,	48,461	18,89
96730	3,5882	0,	48,907	17,974
96731	5,1847	0,	48,824	16,166
96732	5,1646	0,	49,553	15,693
96733	5,6246	0,	47,965	15,744
96734	5,7194	0,	48,904	14,872
96735	4,8546	0,	48,223	17,615
96736	6,3332	0,	47,618	14,325
96737	5,1357	0,	47,32	18,859
96738	7,2737	0,	44,925	15,649
96739	7,4081	0,	45,655	14,32
96740	7,8152	0,	44,051	15,431
96741	7,9782	0,	44,763	14,263
96742	8,3329	0,	43,203	15,07
96743	8,5058	0,	43,893	14,147
96744	8,8211	0,	42,336	14,622
96745	9,0134	0,	43,032	13,889
96746	9,2613	0,	41,473	14,164
96747	9,4862	0,	42,147	13,578
96748	9,6753	0,	40,624	13,688
96749	9,9181	0,	41,292	13,237
96750	10,112	0,	39,762	13,177
96751	10,35	0,	40,426	12,852
96752	10,591	0,	38,891	12,643
96753	10,808	0,	39,56	12,427
96754	11,096	0,	38,007	12,122
96755	11,299	0,	38,682	11,982
96756	11,596	0,	37,119	11,644
96757	11,794	0,	37,798	11,552
96758	12,08	0,	36,232	11,209
96759	12,283	0,	36,913	11,144
96760	12,557	0,	35,351	10,804
96761	12,76	0,	36,031	10,757
96762	13,029	0,	34,474	10,421
96763	13,232	0,	35,153	10,384
96764	13,502	0,	33,597	10,056
96765	13,705	0,	34,276	10,021
96766	13,975	0,	32,719	9,7068
96767	14,182	0,	33,4	9,6673
96768	14,448	0,	31,842	9,3735
96769	14,655	0,	32,522	9,3281
96770	13,777	0,	32,039	9,7265
96771	14,92	0,	30,965	9,0561
96772	15,127	0,	31,645	9,0018
96773	15,393	0,	30,087	8,7551
96774	15,6	0,	30,767	8,6895
96775	15,865	0,	29,21	8,4708
96776	16,072	0,	29,889	8,3922
96777	16,338	0,	28,333	8,2039
96778	16,544	0,	29,011	8,1107
96779	16,81	0,	27,455	7,9554
96780	17,017	0,	28,133	7,8462
96781	17,283	0,	26,578	7,7259
96782	17,489	0,	27,255	7,5995
96783	17,755	0,	25,7	7,5167
96784	17,961	0,	26,377	7,3716
96785	18,228	0,	24,822	7,3286
96786	18,434	0,	25,499	7,1636
96787	18,701	0,	23,944	7,163
96788	18,906	0,	24,621	6,9764
96789	18,022	0,	24,144	7,472
96790	19,173	0,	23,067	7,0213
96791	19,379	0,	23,743	6,8115
96792	19,646	0,	22,189	6,9052
96793	19,851	0,	22,865	6,6703
96794	18,968	0,	22,39	7,2067
96795	20,119	0,	21,312	6,8168
96796	20,324	0,	21,987	6,5544
96797	20,592	0,	20,434	6,7584
96798	20,796	0,	21,11	6,466
96799	19,914	0,	20,637	7,0514
96800	21,064	0,	19,557	6,7328
96801	21,269	0,	20,232	6,4076
96802	21,537	0,	18,68	6,7437
96803	21,741	0,	19,354	6,3822
96804	22,009	0,	17,803	6,7953
96805	22,214	0,	18,476	6,3937
96806	22,482	0,	16,926	6,8932
96807	22,686	0,	17,598	6,447
96808	22,954	0,	16,049	7,0442
96809	23,158	0,	16,721	6,5485
96810	23,426	0,	15,173	7,2572
96811	23,631	0,	15,843	6,7063
96812	23,898	0,	14,297	7,543
96813	24,102	0,	14,966	6,9307
96814	24,368	0,	13,428	7,9114
96815	24,574	0,	14,09	7,2351
96816	24,838	0,	12,571	8,3724
96817	25,046	0,	13,226	7,6248
96818	25,31	0,	11,72	8,9474
96819	25,517	0,	12,366	8,1267
96820	24,631	0,	11,92	9,0371
96821	25,78	0,	10,87	9,6637
96822	25,989	0,	11,508	8,7625
96823	26,255	0,	10,03	10,527
96824	26,459	0,	10,662	9,5463
96825	26,738	0,	9,1962	11,556
96826	26,935	0,	9,8189	10,504
96827	27,214	0,	8,3597	12,765
96828	27,411	0,	8,9788	11,645
96829	27,692	0,	7,5282	14,109
96830	27,886	0,	8,1394	12,958
96831	28,171	0,	6,7054	15,508
96832	28,372	0,	7,3031	14,383
96833	28,644	0,	5,9073	16,808
96834	28,843	0,	6,4627	15,827
96835	28,934	0,	4,9751	18,36
96836	29,294	0,	5,6266	17,117
96837	29,251	0,	4,0159	19,849
96838	29,53	0,	4,6353	18,668
96839	28,461	0,	4,1214	21,492
96840	29,723	0,	3,1588	20,953
96841	29,994	0,	3,7982	19,836
96842	29,043	0,	3,3332	22,34
96843	30,083	0,	2,2558	21,882
96844	30,388	0,	2,9202	20,998
96845	29,512	0,	2,4457	22,784
96846	30,343	0,	1,3593	22,422
96847	30,686	0,	2,0143	21,775
96848	29,822	0,	1,5168	22,975
96849	30,529	0,	0,52866	22,541
96850	30,905	0,	1,1453	22,052
96851	30,018	0,	0,6173	22,963
96852	30,133	0,	-0,2043	22,873
96853	31,062	0,	0,33425	22,023
96854	29,753	0,	-0,8303	23,098
96855	29,622	0,	-0,11566	23,235
96856	29,271	0,	-0,74938	22,998
96857	30,724	0,	-2,0034	21,502
96858	30,895	0,	-1,4908	21,713
96859	31,214	0,	-1,7899	21,34
96860	30,289	0,	-2,5753	21,296
96861	30,881	0,	-2,411	21,162
96862	30,241	0,	-1,9783	22,045
96863	30,491	0,	-3,1032	20,618
96864	29,646	0,	-2,6522	22,196
96865	29,81	0,	-3,2551	20,689
96866	29,54	0,	-4,5782	18,761
96867	28,516	0,	-4,0753	21,462
96868	28,785	0,	-4,7006	18,978
96869	29,291	0,	-3,9755	19,884
96870	28,211	0,	-6,5759	15,714
96871	28,856	0,	-6,3155	16,06
96872	28,023	0,	-5,9925	17,044
96873	28,489	0,	-5,6187	17,448
96874	27,741	0,	-7,3817	14,36
96875	28,406	0,	-7,169	14,613
96876	27,276	0,	-8,2214	12,982
96877	27,939	0,	-7,9995	13,19
96878	26,806	0,	-9,0832	11,705
96879	27,475	0,	-8,8639	11,807
96880	26,328	0,	-9,9283	10,633
96881	26,999	0,	-9,7163	10,622
96882	25,85	0,	-10,772	9,7389
96883	26,523	0,	-10,564	9,6317
96884	25,375	0,	-11,619	9,0019
96885	26,048	0,	-11,415	8,8182
96886	24,904	0,	-12,472	8,4007
96887	25,573	0,	-12,269	8,1638
96888	24,434	0,	-13,326	7,9176
96889	25,105	0,	-13,13	7,6345
96890	23,965	0,	-14,187	7,5302
96891	24,636	0,	-13,991	7,2204
96892	23,497	0,	-15,048	7,2268
96893	24,169	0,	-14,858	6,896
96894	23,028	0,	-15,909	6,9942
96895	23,7	0,	-15,719	6,6542
96896	22,824	0,	-15,246	7,4623
96897	22,562	0,	-16,776	6,8175
96898	23,233	0,	-16,586	6,4728
96899	22,095	0,	-17,643	6,6923
96900	22,766	0,	-17,453	6,3459
96901	21,628	0,	-18,51	6,6114
96902	22,298	0,	-18,32	6,2649
96903	21,161	0,	-19,377	6,5689
96904	21,831	0,	-19,187	6,2234
96905	20,694	0,	-20,244	6,5601
96906	21,364	0,	-20,054	6,2159
96907	20,227	0,	-21,111	6,5811
96908	20,896	0,	-20,922	6,2383
96909	19,761	0,	-21,979	6,6287
96910	20,429	0,	-21,789	6,2869
96911	19,294	0,	-22,846	6,7
96912	19,962	0,	-22,656	6,359
96913	18,827	0,	-23,713	6,7926
96914	19,494	0,	-23,523	6,4519
96915	18,36	0,	-24,58	6,9044
96916	19,027	0,	-24,39	6,5634
96917	17,893	0,	-25,447	7,0334
96918	18,56	0,	-25,258	6,6915
96919	17,426	0,	-26,315	7,1779
96920	18,093	0,	-26,125	6,8345
96921	16,959	0,	-27,182	7,3362
96922	17,625	0,	-26,992	6,9904
96923	16,492	0,	-28,049	7,5069
96924	17,158	0,	-27,86	7,1577
96925	16,025	0,	-28,917	7,6885
96926	16,691	0,	-28,727	7,3349
96927	15,558	0,	-29,784	7,8798
96928	16,224	0,	-29,594	7,5204
96929	15,09	0,	-30,651	8,0798
96930	15,761	0,	-30,459	7,7101
96931	14,619	0,	-31,52	8,2875
96932	15,292	0,	-31,326	7,908
96933	14,152	0,	-32,388	8,4991
96934	14,823	0,	-32,194	8,11
96935	5,4027	0,	-47,992	9,5107
96936	4,584	0,	-48,898	8,5772
96937	5,6805	0,	-48,629	8,7998
96938	4,3515	0,	-48,241	9,5816
96939	6,1213	0,	-47,002	10,065
96940	4,9787	0,	-47,272	11,429
96941	6,245	0,	-47,718	9,4637
96942	6,6867	0,	-46,077	10,285
96943	6,8602	0,	-46,812	9,743
96944	7,1336	0,	-45,186	10,386
96945	7,3426	0,	-45,914	9,9018
96946	7,5856	0,	-44,322	10,395
96947	7,794	0,	-45,037	10,012
96948	6,9068	0,	-44,456	11,257
96949	8,0539	0,	-43,476	10,346
96950	8,2582	0,	-44,183	10,014
96951	8,5383	0,	-42,636	10,301
96952	8,7298	0,	-43,337	9,9856
96953	9,0324	0,	-41,801	10,253
96954	9,219	0,	-42,496	9,9316
96955	9,5164	0,	-40,964	10,201
96956	9,7066	0,	-41,652	9,8673
96957	9,9844	0,	-40,122	10,132
96958	10,181	0,	-40,812	9,7904
96959	10,444	0,	-39,27	10,035
96960	10,642	0,	-39,957	9,7005
96961	10,902	0,	-38,419	9,904
96962	11,106	0,	-39,099	9,5821
96963	11,357	0,	-37,567	9,7451
96964	11,564	0,	-38,242	9,4431
96965	11,819	0,	-36,713	9,5596
96966	12,023	0,	-37,389	9,2822
96967	12,285	0,	-35,853	9,3565
96968	12,49	0,	-36,526	9,1021
96969	12,753	0,	-34,986	9,1446
96970	12,954	0,	-35,66	8,9142
96971	13,22	0,	-34,121	8,9289
96972	13,424	0,	-34,792	8,7156
96973	13,687	0,	-33,254	8,7129
96974	13,891	0,	-33,926	8,5142
96975	14,358	0,	-33,061	8,3114
96976	3,0908	0,	-49,697	6,9555
96977	2,3924	0,	-49,741	6,5179
96978	2,8482	0,	-49,096	7,68
96979	2,0154	0,	-49,079	5,3595
96980	20,365	0,	3,054	16,256
96981	20,014	0,	2,3474	15,285
96982	31,269	0,	-1,1301	21,581
96983	30,412	0,	-1,4658	22,182
96984	5,3042	0,	43,113	23,392
96985	5,4519	0,	43,902	23,726
96986	3,2929	0,	-50,276	6,9289
96987	3,8999	0,	-50,339	7,1283
96988	3,8577	0,	-49,634	7,6768
96989	2,7867	0,	-50,817	6,4939
96990	3,2921	0,	-50,925	6,6366
96991	2,5945	0,	-50,32	6,2393
96992	2,2127	0,	-50,973	6,1584
96993	2,6554	0,	-51,392	6,3769
96994	1,5148	0,	-50,886	5,8256
96995	1,9417	0,	-51,376	6,0958
96996	2,0204	0,	-50,476	5,9958
96997	0,73462	0,	-50,89	5,5876
96998	1,2023	0,	-51,386	5,88
96999	1,217	0,	-50,358	5,2428
97000	-0,15608	0,	-50,907	5,5393
97001	0,36313	0,	-51,417	5,7472
97002	0,37588	0,	-50,355	4,68
97003	-1,1584	0,	-50,955	5,7639
97004	-0,55029	0,	-51,458	5,7991
97005	-0,59189	0,	-50,377	4,807
97006	-31,01	0,	-0,75634	22,146
97007	-30,068	0,	-0,82903	23,226
97008	-3,4645	0,	-49,961	7,1093
97009	-2,8116	0,	-49,669	6,6135
97010	-3,3953	0,	-49,277	7,8938
97011	-4,9357	0,	-48,935	8,4424
97012	-5,4755	0,	-49,158	8,3487
97013	-4,3999	0,	-49,43	7,8952
97014	-4,8982	0,	-49,597	7,9021
97015	-4,3801	0,	-48,63	9,2308
97016	-3,9195	0,	-50,01	7,3229
97017	-4,355	0,	-50,149	7,3921
97018	-3,8502	0,	-49,326	7,9764
97019	-3,1918	0,	-50,465	6,746
97020	-3,8063	0,	-50,704	6,9344
97021	-2,1969	0,	-50,817	6,2305
97022	-2,9549	0,	-51,068	6,5167
97023	-2,5389	0,	-50,172	6,2718
97024	-2,0605	0,	-51,443	6,1261
97025	-1,5311	0,	-51,545	6,0448
97026	-1,6091	0,	-50,383	5,5676
97027	15,029	0,	-32,867	7,925
97028	14,562	0,	-33,732	8,1154
97029	15,235	0,	-33,538	7,7357
97030	15,496	0,	-32,	7,7331
97031	15,702	0,	-32,67	7,5529
97032	15,964	0,	-31,133	7,5409
97033	16,17	0,	-31,803	7,3663
97034	16,427	0,	-30,269	7,3531
97035	16,637	0,	-30,936	7,1778
97036	16,889	0,	-29,405	7,169
97037	17,1	0,	-30,071	6,9923
97038	17,357	0,	-28,538	6,9878
97039	17,568	0,	-29,204	6,8065
97040	17,824	0,	-27,67	6,8137
97041	18,035	0,	-28,336	6,6251
97042	18,292	0,	-26,803	6,6484
97043	18,502	0,	-27,469	6,4498
97044	18,76	0,	-25,935	6,4938
97045	18,97	0,	-26,601	6,2826
97046	19,227	0,	-25,068	6,3514
97047	19,438	0,	-25,734	6,1251
97048	19,695	0,	-24,201	6,2232
97049	19,905	0,	-24,866	5,9794
97050	20,163	0,	-23,333	6,1111
97051	20,373	0,	-23,999	5,8471
97052	20,63	0,	-22,466	6,0172
97053	20,84	0,	-23,131	5,7303
97054	21,098	0,	-21,599	5,9439
97055	21,308	0,	-22,264	5,631
97056	21,566	0,	-20,732	5,8938
97057	21,775	0,	-21,396	5,5517
97058	22,033	0,	-19,865	5,8701
97059	22,243	0,	-20,529	5,4951
97060	22,501	0,	-18,997	5,8767
97061	22,711	0,	-19,661	5,4645
97062	22,969	0,	-18,13	5,9186
97063	23,178	0,	-18,794	5,4641
97064	23,437	0,	-17,263	6,0018
97065	23,646	0,	-17,927	5,4994
97066	23,905	0,	-16,396	6,1342
97067	24,114	0,	-17,059	5,5771
97068	24,372	0,	-15,529	6,3258
97069	24,581	0,	-16,192	5,7064
97070	24,84	0,	-14,662	6,5897
97071	25,049	0,	-15,324	5,8987
97072	25,307	0,	-13,794	6,9424
97073	25,516	0,	-14,457	6,1699
97074	25,774	0,	-12,927	7,4044
97075	25,983	0,	-13,589	6,5393
97076	26,246	0,	-12,064	7,9895
97077	26,45	0,	-12,721	7,0318
97078	26,721	0,	-11,207	8,724
97079	26,922	0,	-11,859	7,6656
97080	27,194	0,	-10,352	9,6385
97081	27,395	0,	-11,001	8,4737
97082	27,668	0,	-9,497	10,749
97083	27,865	0,	-10,14	9,4973
97084	28,139	0,	-8,642	12,05
97085	28,339	0,	-9,2854	10,732
97086	28,604	0,	-7,7869	13,486
97087	28,806	0,	-8,4258	12,192
97088	29,051	0,	-6,9086	14,997
97089	29,27	0,	-7,5644	13,793
97090	29,445	0,	-6,0374	16,362
97091	29,708	0,	-6,6845	15,424
97092	29,833	0,	-5,2183	17,467
97093	30,107	0,	-5,8387	16,768
97094	29,078	0,	-5,3407	17,727
97095	30,264	0,	-4,4377	18,477
97096	30,535	0,	-5,0245	17,841
97097	30,697	0,	-3,6831	19,47
97098	30,98	0,	-4,2341	18,948
97099	30,015	0,	-3,835	19,727
97100	31,084	0,	-2,9389	20,314
97101	31,366	0,	-3,442	20,012
97102	31,371	0,	-2,1975	20,856
97103	31,682	0,	-2,6496	20,594
97104	31,587	0,	-1,4292	21,084
97105	31,897	0,	-1,8533	20,903
97106	31,655	0,	-0,64887	21,253
97107	32,064	0,	-1,0232	21,068
97108	31,568	0,	0,13387	21,34
97109	32,05	0,	-0,18937	21,17
97110	31,438	0,	0,95086	21,326
97111	31,976	0,	0,65482	21,18
97112	31,248	0,	1,8003	21,131
97113	31,834	0,	1,5203	21,084
97114	30,991	0,	2,6788	20,585
97115	31,621	0,	2,4078	20,794
97116	30,659	0,	3,5596	19,629
97117	31,336	0,	3,2988	20,178
97118	30,273	0,	4,4176	18,509
97119	30,971	0,	4,1762	19,025
97120	29,89	0,	5,2867	17,401
97121	30,558	0,	5,0315	17,851
97122	29,492	0,	6,1819	16,162
97123	30,158	0,	5,915	16,713
97124	29,043	0,	7,0603	14,746
97125	29,716	0,	6,807	15,228
97126	28,566	0,	7,9142	13,275
97127	29,247	0,	7,6749	13,597
97128	28,083	0,	8,7585	11,87
97129	28,765	0,	8,5286	12,016
97130	27,608	0,	9,6015	10,616
97131	28,289	0,	9,385	10,587
97132	27,138	0,	10,451	9,5396
97133	27,816	0,	10,234	9,3887
97134	26,668	0,	11,3	8,6571
97135	27,347	0,	11,094	8,3935
97136	26,196	0,	12,154	7,9498
97137	26,875	0,	11,95	7,6133
97138	25,725	0,	13,02	7,3849
97139	26,402	0,	12,818	7,0003
97140	25,252	0,	13,887	6,9526
97141	25,929	0,	13,685	6,5392
97142	24,778	0,	14,759	6,6252
97143	25,455	0,	14,557	6,1962
97144	24,307	0,	15,637	6,3812
97145	24,983	0,	15,436	5,9457
97146	23,835	0,	16,515	6,2112
97147	24,511	0,	16,314	5,7753
97148	23,362	0,	17,394	6,1024
97149	24,038	0,	17,192	5,6699
97150	22,89	0,	18,272	6,0451
97151	23,566	0,	18,071	5,6179
97152	22,418	0,	19,15	6,0317
97153	23,094	0,	18,949	5,6108
97154	21,946	0,	20,029	6,0564
97155	22,621	0,	19,827	5,642
97156	21,474	0,	20,907	6,1149
97157	22,149	0,	20,706	5,7067
97158	21,676	0,	21,584	5,8011
97159	21,001	0,	21,785	6,2036
97160	20,057	0,	23,542	6,4613
97161	20,731	0,	23,341	6,0684
97162	20,529	0,	22,663	6,3198
97163	19,584	0,	24,42	6,6264
97164	20,258	0,	24,219	6,2373
97165	19,112	0,	25,299	6,8134
97166	19,786	0,	25,098	6,4276
97167	18,64	0,	26,177	7,0212
97168	19,313	0,	25,976	6,6382
97169	18,168	0,	27,055	7,2485
97170	18,841	0,	26,854	6,8681
97171	17,695	0,	27,934	7,4943
97172	18,368	0,	27,733	7,1161
97173	17,223	0,	28,812	7,7576
97174	17,896	0,	28,611	7,3813
97175	16,751	0,	29,69	8,0374
97176	17,424	0,	29,489	7,6627
97177	16,279	0,	30,569	8,3324
97178	16,951	0,	30,368	7,9592
97179	15,807	0,	31,447	8,6415
97180	16,479	0,	31,246	8,2694
97181	15,335	0,	32,325	8,9633
97182	16,006	0,	32,124	8,5918
97183	15,534	0,	33,003	8,9244
97184	14,863	0,	33,204	9,296
97185	13,908	0,	34,955	9,9909
97186	14,584	0,	34,757	9,6119
97187	14,386	0,	34,08	9,6399
97188	13,435	0,	35,833	10,344
97189	14,111	0,	35,635	9,958
97190	12,963	0,	36,711	10,699
97191	13,639	0,	36,513	10,301
97192	12,482	0,	37,592	11,059
97193	13,166	0,	37,392	10,634
97194	12,685	0,	38,273	10,958
97195	11,997	0,	38,473	11,42
97196	11,047	0,	40,224	12,109
97197	11,73	0,	40,028	11,53
97198	11,516	0,	39,35	11,774
97199	10,593	0,	41,095	12,408
97200	11,265	0,	40,902	11,752
97201	10,143	0,	41,967	12,658
97202	10,803	0,	41,777	11,918
97203	9,6784	0,	42,843	12,85
97204	10,346	0,	42,651	12,004
97205	9,1863	0,	43,722	12,97
97206	9,8685	0,	43,532	12,018
97207	8,6688	0,	44,605	12,981
97208	9,3714	0,	44,412	11,949
97209	8,1126	0,	45,493	12,933
97210	8,8498	0,	45,296	11,805
97211	7,5397	0,	46,373	12,938
97212	8,3061	0,	46,174	11,664
97213	7,0787	0,	47,276	12,92
97214	7,7891	0,	47,041	11,609
97215	7,414	0,	47,926	11,563
97216	5,6993	0,	49,633	14,331
97217	6,2314	0,	49,84	12,883
97218	5,1471	0,	50,161	15,05
97219	5,6477	0,	50,307	13,862
97220	4,445	0,	50,61	15,923
97221	4,9946	0,	50,78	14,899
97222	3,6272	0,	50,928	16,734
97223	4,1653	0,	51,196	15,994
97224	2,8194	0,	51,196	17,166
97225	3,3387	0,	51,53	16,788
97226	2,0113	0,	51,46	17,29
97227	2,5215	0,	51,829	17,303
97228	1,2251	0,	51,719	17,356
97229	1,6867	0,	52,086	17,656
97230	0,47705	0,	51,946	17,45
97231	0,89131	0,	52,296	17,897
97232	-1,3491e-002	0,	51,655	17,508
97233	0,10109	0,	52,426	18,061
97234	-1,865	0,	51,796	17,331
97235	-1,6021	0,	52,323	17,811
97236	-2,5828	0,	51,455	17,142
97237	-2,3866	0,	52,058	17,4
97238	-3,2963	0,	51,074	16,927
97239	-3,1561	0,	51,72	16,878
97240	-4,0045	0,	50,73	16,5
97241	-3,911	0,	51,339	16,252
97242	-4,6954	0,	50,395	15,701
97243	-4,6358	0,	50,986	15,372
97244	-4,1744	0,	50,077	16,963
97245	-5,3959	0,	50,062	14,624
97246	-5,3398	0,	50,562	14,334
97247	-5,8244	0,	49,509	14,141
97248	-6,038	0,	50,145	13,101
97249	-6,2331	0,	48,798	13,723
97250	-6,3744	0,	49,399	12,904
97251	-5,4367	0,	48,802	15,673
97252	-6,8342	0,	48,067	12,821
97253	-6,9535	0,	48,735	12,03
97254	-7,319	0,	47,224	12,452
97255	-7,5132	0,	47,899	11,359
97256	-7,761	0,	46,376	12,481
97257	-7,978	0,	47,048	11,207
97258	-8,2524	0,	45,518	12,622
97259	-8,4248	0,	46,184	11,419
97260	-8,7679	0,	44,65	12,738
97261	-8,9419	0,	45,321	11,597
97262	-9,2413	0,	43,763	12,828
97263	-9,4247	0,	44,439	11,822
97264	-9,6986	0,	42,875	12,793
97265	-9,8906	0,	43,553	11,963
97266	-10,151	0,	41,987	12,636
97267	-10,349	0,	42,669	11,988
97268	-10,608	0,	41,104	12,389
97269	-10,804	0,	41,785	11,912
97270	-11,069	0,	40,225	12,088
97271	-11,27	0,	40,906	11,745
97272	-10,407	0,	40,42	12,785
97273	-11,537	0,	39,35	11,757
97274	-11,738	0,	40,028	11,522
97275	-12,011	0,	38,475	11,411
97276	-12,211	0,	39,153	11,255
97277	-12,484	0,	37,597	11,058
97278	-12,685	0,	38,275	10,958
97279	-12,957	0,	36,72	10,704
97280	-13,158	0,	37,397	10,639
97281	-13,43	0,	35,842	10,348
97282	-13,631	0,	36,52	10,305
97283	-13,902	0,	34,965	9,9951
97284	-14,103	0,	35,642	9,9628
97285	-14,37	0,	34,086	9,6488
97286	-14,576	0,	34,764	9,6168
97287	-14,838	0,	33,207	9,309
97288	-15,044	0,	33,885	9,274
97289	-15,312	0,	32,33	8,9757
97290	-15,517	0,	33,008	8,9333
97291	-15,785	0,	31,453	8,6535
97292	-15,991	0,	32,13	8,6005
97293	-16,258	0,	30,575	8,3438
97294	-16,464	0,	31,252	8,2778
97295	-16,731	0,	29,698	8,0481
97296	-16,937	0,	30,374	7,9672
97297	-17,205	0,	28,82	7,7678
97298	-17,41	0,	29,497	7,6703
97299	-17,678	0,	27,942	7,5038
97300	-17,883	0,	28,619	7,3885
97301	-18,151	0,	27,065	7,2574
97302	-18,356	0,	27,741	7,1229
97303	-18,624	0,	26,187	7,0294
97304	-18,829	0,	26,863	6,8744
97305	-19,097	0,	25,309	6,821
97306	-19,302	0,	25,985	6,6442
97307	-19,57	0,	24,432	6,6332
97308	-19,775	0,	25,107	6,4331
97309	-20,044	0,	23,554	6,4674
97310	-20,248	0,	24,229	6,2422
97311	-20,517	0,	22,676	6,3249
97312	-20,721	0,	23,352	6,0727
97313	-20,99	0,	21,799	6,2077
97314	-21,194	0,	22,474	5,9261
97315	-21,464	0,	20,921	6,1177
97316	-21,668	0,	21,596	5,8039
97317	-21,937	0,	20,044	6,0577
97318	-22,141	0,	20,718	5,7085
97319	-22,41	0,	19,167	6,0311
97320	-22,614	0,	19,841	5,6427
97321	-22,884	0,	18,289	6,0424
97322	-23,087	0,	18,963	5,6101
97323	-23,357	0,	17,412	6,0972
97324	-23,561	0,	18,086	5,6155
97325	-23,832	0,	16,541	6,1991
97326	-24,034	0,	17,208	5,6655
97327	-24,306	0,	15,677	6,3561
97328	-24,508	0,	16,336	5,7645
97329	-24,778	0,	14,812	6,5861
97330	-24,981	0,	15,467	5,9268
97331	-25,455	0,	14,6	6,1623
97332	-25,248	0,	13,951	6,9017
97333	-26,173	0,	12,234	7,8758
97334	-26,391	0,	12,873	6,9501
97335	-25,712	0,	13,095	7,3207
97336	-26,628	0,	11,368	8,5953
97337	-26,855	0,	12,003	7,5629
97338	-25,945	0,	11,605	8,677
97339	-27,078	0,	10,5	9,5004
97340	-27,312	0,	11,137	8,3565
97341	-27,522	0,	9,6295	10,608
97342	-27,766	0,	10,264	9,3694
97343	-27,963	0,	8,758	11,908
97344	-28,216	0,	9,3901	10,613
97345	-28,407	0,	7,886	13,349
97346	-28,665	0,	8,5169	12,066
97347	-28,86	0,	7,0093	14,846
97348	-29,118	0,	7,6437	13,661
97349	-29,311	0,	6,1363	16,234
97350	-29,577	0,	6,7672	15,274
97351	-29,764	0,	5,28	17,42
97352	-30,033	0,	5,9009	16,688
97353	-30,203	0,	4,4406	18,508
97354	-30,492	0,	5,0504	17,82
97355	-30,607	0,	3,6167	19,567
97356	-30,923	0,	4,2118	18,972
97357	-30,977	0,	2,8511	20,453
97358	-31,306	0,	3,3683	20,1
97359	-31,29	0,	2,0505	20,984
97360	-31,625	0,	2,596	20,666
97361	-31,633	0,	1,2794	21,177
97362	-31,911	0,	1,7096	21,017
97363	-31,728	0,	0,61685	21,246
97364	-32,19	0,	0,98386	21,033
97365	-31,555	0,	-0,22691	21,251
97366	-32,083	0,	0,1998	21,18
97367	-31,467	0,	-1,186	21,237
97368	-31,998	0,	-0,79487	21,167
97369	-31,491	0,	-1,9795	20,972
97370	-31,937	0,	-1,6998	20,986
97371	-31,236	0,	-2,5454	20,658
97372	-31,899	0,	-2,4663	20,641
97373	-30,791	0,	-3,2502	19,966
97374	-31,448	0,	-3,079	20,367
97375	-30,459	0,	-4,2008	18,786
97376	-31,09	0,	-3,9802	19,311
97377	-30,06	0,	-5,1395	17,566
97378	-30,696	0,	-4,9014	18,038
97379	-29,569	0,	-6,0462	16,343
97380	-30,255	0,	-5,8185	16,855
97381	-29,013	0,	-6,8762	15,056
97382	-29,729	0,	-6,6912	15,41
97383	-28,55	0,	-7,6869	13,674
97384	-29,214	0,	-7,5064	13,898
97385	-28,118	0,	-8,5404	12,238
97386	-28,795	0,	-8,3499	12,337
97387	-27,646	0,	-9,4138	10,897
97388	-28,322	0,	-9,2182	10,859
97389	-27,185	0,	-10,285	9,7442
97390	-27,859	0,	-10,089	9,5821
97391	-26,719	0,	-11,154	8,7952
97392	-27,393	0,	-10,957	8,536
97393	-26,254	0,	-12,016	8,0389
97394	-26,927	0,	-11,825	7,7026
97395	-25,788	0,	-12,878	7,4424
97396	-26,461	0,	-12,687	7,0596
97397	-25,322	0,	-13,746	6,9733
97398	-25,994	0,	-13,555	6,5621
97399	-24,856	0,	-14,613	6,6141
97400	-25,527	0,	-14,423	6,1881
97401	-24,39	0,	-15,481	6,3444
97402	-25,061	0,	-15,29	5,9127
97403	-23,924	0,	-16,349	6,1477
97404	-24,594	0,	-16,158	5,7165
97405	-23,457	0,	-17,216	6,011
97406	-24,128	0,	-17,026	5,5841
97407	-23,661	0,	-17,893	5,5036
97408	-22,991	0,	-18,084	5,924
97409	-22,058	0,	-19,819	5,8694
97410	-22,728	0,	-19,629	5,4643
97411	-22,525	0,	-18,952	5,8789
97412	-21,592	0,	-20,687	5,8908
97413	-22,261	0,	-20,496	5,4931
97414	-21,125	0,	-21,554	5,9388
97415	-21,794	0,	-21,364	5,5483
97416	-20,658	0,	-22,422	6,0104
97417	-21,327	0,	-22,232	5,6264
97418	-20,192	0,	-23,29	6,1027
97419	-20,86	0,	-23,099	5,7245
97420	-19,721	0,	-24,161	6,2148
97421	-20,394	0,	-23,967	5,8403
97422	-19,251	0,	-25,032	6,3433
97423	-19,923	0,	-24,838	5,9731
97424	-18,784	0,	-25,899	6,4847
97425	-19,456	0,	-25,706	6,1181
97426	-18,317	0,	-26,767	6,6385
97427	-18,989	0,	-26,573	6,2749
97428	-17,85	0,	-27,634	6,8029
97429	-18,522	0,	-27,441	6,4415
97430	-17,384	0,	-28,501	6,9763
97431	-18,056	0,	-28,308	6,6163
97432	-16,917	0,	-29,369	7,1568
97433	-17,589	0,	-29,176	6,7973
97434	-16,45	0,	-30,236	7,3428
97435	-17,122	0,	-30,043	6,9825
97436	-15,983	0,	-31,103	7,5324
97437	-16,655	0,	-30,911	7,1701
97438	-15,516	0,	-31,97	7,724
97439	-16,188	0,	-31,778	7,3581
97440	-15,05	0,	-32,837	7,9158
97441	-15,721	0,	-32,646	7,5444
97442	-14,583	0,	-33,705	8,1061
97443	-15,254	0,	-33,513	7,7272
97444	-14,116	0,	-34,572	8,2932
97445	-14,787	0,	-34,381	7,9046
97446	-13,649	0,	-35,439	8,4754
97447	-14,321	0,	-35,248	8,0751
97448	-13,182	0,	-36,305	8,6511
97449	-13,854	0,	-36,115	8,2376
97450	-12,715	0,	-37,172	8,8181
97451	-13,387	0,	-36,982	8,3914
97452	-12,248	0,	-38,037	8,9743
97453	-12,92	0,	-37,849	8,5364
97454	-11,783	0,	-38,9	9,1171
97455	-12,453	0,	-38,715	8,6733
97456	-11,32	0,	-39,759	9,2438
97457	-11,986	0,	-39,58	8,8035
97458	-10,862	0,	-40,613	9,3519
97459	-11,528	0,	-40,436	8,9257
97460	-10,401	0,	-41,459	9,448
97461	-11,071	0,	-41,289	9,0468
97462	-9,9362	0,	-42,304	9,5316
97463	-10,605	0,	-42,137	9,178
97464	-9,4755	0,	-43,153	9,5952
97465	-10,142	0,	-42,987	9,3073
97466	-9,0178	0,	-43,997	9,6283
97467	-9,6793	0,	-43,841	9,4246
97468	-8,5689	0,	-44,828	9,6087
97469	-9,2243	0,	-44,683	9,4987
97470	-8,1311	0,	-45,648	9,5031
97471	-8,778	0,	-45,516	9,4893
97472	-7,7141	0,	-46,452	9,3325
97473	-8,3397	0,	-46,343	9,3524
97474	-7,3249	0,	-47,227	9,1345
97475	-7,9236	0,	-47,152	9,1239
97476	-6,9466	0,	-47,947	8,9227
97477	-7,5217	0,	-47,939	8,8975
97478	-6,5227	0,	-48,619	8,6415
97479	-7,0651	0,	-48,62	8,6588
97480	-6,0078	0,	-49,263	8,2281
97481	-6,5561	0,	-49,294	8,2454
97482	-5,4381	0,	-49,82	7,799
97483	-5,9736	0,	-49,932	7,7893
97484	-4,8533	0,	-50,316	7,3989
97485	-5,3687	0,	-50,479	7,4036
97486	-4,2419	0,	-50,844	6,9958
97487	-4,7442	0,	-50,983	7,0581
97488	-3,5694	0,	-51,308	6,6623
97489	-4,0682	0,	-51,503	6,7362
97490	-2,8185	0,	-51,694	6,4125
97491	-3,3301	0,	-51,924	6,4979
97492	-2,1523	0,	-52,102	6,2498
97493	-2,532	0,	-52,316	6,3068
97494	-1,6229	0,	-52,205	6,145
97495	-1,9031	0,	-52,635	6,206
97496	-0,92295	0,	-52,048	6,0333
97497	-1,2409	0,	-52,574	6,1233
97498	-3,1091e-002	0,	-51,968	5,9776
97499	-0,34974	0,	-52,515	6,0592
97500	0,83078	0,	-51,912	6,0154
97501	0,55093	0,	-52,459	6,0573
97502	1,6292	0,	-51,876	6,1324
97503	1,3942	0,	-52,379	6,1246
97504	2,3845	0,	-51,795	6,2874
97505	2,1779	0,	-52,269	6,2425
97506	3,1608	0,	-51,5	6,5172
97507	2,9439	0,	-52,058	6,3926
97508	3,8991	0,	-50,988	6,8725
97509	3,7876	0,	-51,629	6,6508
97510	4,5545	0,	-50,404	7,3108
97511	4,5105	0,	-51,118	6,96
97512	4,5123	0,	-49,698	7,7948
97513	5,2018	0,	-50,574	7,3366
97514	3,6151	0,	-49,033	7,9396
97515	6,2695	0,	-49,091	8,402
97516	6,4883	0,	-49,679	7,9774
97517	6,7962	0,	-49,	8,455
97518	6,5229	0,	-48,356	8,8213
97519	7,5162	0,	-46,649	9,3203
97520	7,7128	0,	-47,352	9,0631
97521	6,984	0,	-47,527	9,0947
97522	8,0031	0,	-45,765	9,5071
97523	8,2104	0,	-46,474	9,3324
97524	8,4666	0,	-44,899	9,6235
97525	8,6794	0,	-45,604	9,4903
97526	8,934	0,	-44,044	9,6529
97527	9,1442	0,	-44,742	9,5185
97528	9,4105	0,	-43,196	9,6163
97529	9,6148	0,	-43,887	9,4473
97530	9,8932	0,	-42,347	9,5454
97531	10,092	0,	-43,035	9,3274
97532	10,371	0,	-41,499	9,4567
97533	10,57	0,	-42,179	9,1915
97534	10,838	0,	-40,648	9,3588
97535	11,042	0,	-41,324	9,0584
97536	11,303	0,	-39,786	9,2485
97537	11,507	0,	-40,464	8,9332
97538	11,768	0,	-38,923	9,1226
97539	11,974	0,	-39,598	8,8075
97540	12,23	0,	-38,064	8,9821
97541	12,435	0,	-38,735	8,6812
97542	12,694	0,	-37,202	8,8269
97543	12,899	0,	-37,874	8,5453
97544	13,159	0,	-36,333	8,6622
97545	13,368	0,	-37,005	8,3997
97546	13,833	0,	-36,136	8,2477
97547	13,624	0,	-35,465	8,4878
97548	14,768	0,	-34,403	7,9134
97549	14,094	0,	-34,597	8,3035
97550	-5,2627	0,	43,956	24,953
97551	-5,0943	0,	43,174	24,404
97552	-0,82815	0,	39,709	15,95
97553	-7,0944e-002	0,	39,619	15,342
97554	-0,77424	0,	38,979	15,748
97555	4,5809	0,	42,55	24,984
97556	4,4	0,	43,433	30,193
97557	4,3657	0,	47,578	20,877
97558	3,6106	0,	47,83	22,891
97559	27,145	0,	-4,9355	20,804
97560	26,373	0,	-5,2262	21,137
97561	27,207	0,	-5,595	18,755
97562	26,554	0,	-5,8019	18,634
97563	29,598	0,	-2,0553	22,778
97564	29,911	0,	-1,4101	22,685
97565	27,109	0,	4,934	21,13
97566	26,356	0,	5,2497	21,102
97567	21,178	0,	3,415	17,828
97568	21,129	0,	2,5471	16,941
97569	20,442	0,	-2,9691	16,197
97570	20,111	0,	-2,2973	15,261
97571	-1,9511	0,	-49,739	5,6218
97572	-2,3264	0,	-48,998	7,3494
97573	1,7226	0,	-49,949	5,3792
97574	5,3111	0,	-44,072	15,978
97575	5,1511	0,	-43,287	17,356
97576	5,9917	0,	-43,895	13,695
97577	0,83369	0,	-39,707	23,857
97578	8,0864e-002	0,	-39,614	22,63
97579	-4,7023	0,	-42,653	19,515
97580	-5,0968	0,	-43,123	17,217
97581	-5,3534	0,	-42,248	15,91
97582	-27,012	0,	-4,9366	21,35
97583	-26,321	0,	-5,1979	21,407
97584	-21,178	0,	-3,4295	17,785
97585	-20,364	0,	-3,0739	16,126
97586	-20,584	0,	-3,7544	16,174
97587	-21,13	0,	-2,5559	16,833
97588	-20,126	0,	2,3059	15,303
97589	-20,458	0,	2,9861	16,245
97590	-25,674	0,	5,2129	22,471
97591	-26,277	0,	5,2316	21,252
97592	15,441	0,	-34,208	7,5362
97593	14,978	0,	-35,071	7,6949
97594	15,908	0,	-33,341	7,3663
97595	16,376	0,	-32,473	7,189
97596	16,843	0,	-31,606	7,0061
97597	17,311	0,	-30,738	6,82
97598	17,778	0,	-29,87	6,6328
97599	18,246	0,	-29,003	6,4467
97600	18,713	0,	-28,135	6,2639
97601	19,181	0,	-27,267	6,0864
97602	19,648	0,	-26,399	5,9161
97603	20,115	0,	-25,532	5,7549
97604	20,583	0,	-24,664	5,6047
97605	21,05	0,	-23,796	5,4674
97606	21,518	0,	-22,928	5,3448
97607	21,985	0,	-22,061	5,2392
97608	22,453	0,	-21,193	5,1531
97609	22,92	0,	-20,325	5,0893
97610	23,388	0,	-19,458	5,0517
97611	23,855	0,	-18,59	5,0449
97612	24,323	0,	-17,722	5,0751
97613	24,79	0,	-16,855	5,1504
97614	25,258	0,	-15,987	5,2817
97615	25,725	0,	-15,119	5,4833
97616	26,192	0,	-14,252	5,7741
97617	26,659	0,	-13,384	6,1784
97618	27,126	0,	-12,516	6,7258
97619	27,596	0,	-11,652	7,4419
97620	28,065	0,	-10,789	8,3709
97621	28,536	0,	-9,9287	9,5355
97622	29,006	0,	-9,0693	10,949
97623	29,472	0,	-8,2034	12,592
97624	29,927	0,	-7,3403	14,323
97625	30,37	0,	-6,4858	15,924
97626	30,808	0,	-5,6449	17,186
97627	31,251	0,	-4,8209	18,276
97628	31,649	0,	-3,993	19,428
97629	31,964	0,	-3,1527	20,186
97630	32,349	0,	-3,7072	19,958
97631	32,207	0,	-2,3054	20,51
97632	32,658	0,	-2,8237	20,391
97633	32,374	0,	-1,4473	20,71
97634	32,88	0,	-1,9185	20,749
97635	32,459	0,	-0,56373	20,806
97636	33,018	0,	-1,0004	21,004
97637	32,457	0,	0,33158	20,825
97638	33,063	0,	-5,5445e-002	21,097
97639	32,372	0,	1,2243	20,742
97640	33,016	0,	0,87917	21,023
97641	32,206	0,	2,1279	20,56
97642	32,88	0,	1,8168	20,789
97643	31,966	0,	3,0279	20,24
97644	32,657	0,	2,748	20,432
97645	31,648	0,	3,9154	19,483
97646	32,352	0,	3,6582	19,995
97647	31,257	0,	4,7902	18,323
97648	30,827	0,	5,6598	17,205
97649	30,382	0,	6,5401	15,87
97650	29,447	0,	8,2893	12,43
97651	29,92	0,	7,4215	14,182
97652	28,972	0,	9,1551	10,806
97653	28,498	0,	10,017	9,4135
97654	28,025	0,	10,877	8,2792
97655	27,554	0,	11,743	7,3749
97656	27,081	0,	12,614	6,6805
97657	26,606	0,	13,484	6,1651
97658	26,133	0,	14,356	5,7892
97659	25,66	0,	15,234	5,5203
97660	25,187	0,	16,113	5,3416
97661	24,715	0,	16,991	5,2346
97662	24,242	0,	17,87	5,1854
97663	23,769	0,	18,748	5,1834
97664	23,297	0,	19,626	5,2209
97665	22,824	0,	20,505	5,2923
97666	22,351	0,	21,383	5,3933
97667	21,878	0,	22,261	5,5209
97668	21,406	0,	23,14	5,6725
97669	21,204	0,	22,462	5,9224
97670	20,933	0,	24,018	5,8465
97671	20,46	0,	24,896	6,0414
97672	19,987	0,	25,775	6,2561
97673	19,514	0,	26,653	6,4895
97674	19,042	0,	27,532	6,7407
97675	18,569	0,	28,41	7,0087
97676	18,096	0,	29,288	7,2927
97677	17,624	0,	30,167	7,5915
97678	17,151	0,	31,045	7,9036
97679	16,678	0,	31,924	8,2275
97680	16,205	0,	32,802	8,561
97681	15,733	0,	33,68	8,9014
97682	15,26	0,	34,559	9,245
97683	15,061	0,	33,881	9,2647
97684	14,787	0,	35,437	9,5872
97685	14,314	0,	36,315	9,9219
97686	13,842	0,	37,194	10,242
97687	13,369	0,	38,072	10,538
97688	12,891	0,	38,948	10,803
97689	12,418	0,	39,826	11,019
97690	12,203	0,	39,148	11,261
97691	11,949	0,	40,706	11,174
97692	11,474	0,	41,584	11,263
97693	11,006	0,	42,461	11,263
97694	10,537	0,	43,34	11,17
97695	10,054	0,	44,222	10,996
97696	9,5524	0,	45,103	10,772
97697	9,0434	0,	45,977	10,535
97698	8,5556	0,	46,842	10,333
97699	8,1245	0,	47,691	10,249
97700	7,7445	0,	48,52	10,315
97701	7,2921	0,	49,371	10,61
97702	7,9296	0,	49,209	8,8965
97703	6,765	0,	50,061	11,328
97704	7,3691	0,	50,041	9,5889
97705	6,1798	0,	50,514	12,445
97706	6,7806	0,	50,652	10,709
97707	5,4952	0,	50,926	13,699
97708	6,0913	0,	51,184	12,143
97709	4,7149	0,	51,366	14,896
97710	5,3392	0,	51,683	13,665
97711	3,8768	0,	51,799	15,963
97712	4,4974	0,	52,166	15,246
97713	3,0407	0,	52,163	16,813
97714	3,6385	0,	52,575	16,677
97715	2,1969	0,	52,455	17,488
97716	2,7579	0,	52,903	17,914
97717	1,3529	0,	52,663	17,993
97718	1,8592	0,	53,149	18,889
97719	0,51535	0,	52,777	18,295
97720	0,95515	0,	53,301	19,523
97721	-0,34902	0,	52,809	18,349
97722	4,8899e-002	0,	53,359	19,767
97723	-1,2484	0,	52,751	18,152
97724	-0,88662	0,	53,334	19,609
97725	-2,1237	0,	52,585	17,679
97726	-1,8232	0,	53,204	19,019
97727	-2,9598	0,	52,323	16,967
97728	-2,7206	0,	52,978	18,047
97729	-3,7708	0,	51,985	16,095
97730	-3,5949	0,	52,66	16,809
97731	-4,5423	0,	51,595	15,088
97732	-4,4349	0,	52,267	15,38
97733	-5,2802	0,	51,152	13,968
97734	-5,2291	0,	51,81	13,874
97735	-5,9819	0,	50,645	12,787
97736	-5,9864	0,	51,283	12,352
97737	-6,588	0,	50,036	11,825
97738	-6,6876	0,	50,684	10,933
97739	-7,0948	0,	49,336	11,195
97740	-7,2852	0,	49,984	9,8915
97741	-7,6326	0,	48,567	10,56
97742	-7,8163	0,	49,231	9,1814
97743	-8,1722	0,	47,723	10,111
97744	-8,3683	0,	48,403	8,7793
97745	-8,6418	0,	46,856	10,142
97746	-8,8451	0,	47,53	8,8434
97747	-9,1144	0,	45,987	10,393
97748	-9,3107	0,	46,658	9,0385
97749	-9,5987	0,	45,111	10,681
97750	-9,7905	0,	45,783	9,3814
97751	-10,074	0,	44,229	10,956
97752	-10,268	0,	44,903	9,815
97753	-10,541	0,	43,347	11,157
97754	-10,739	0,	44,022	10,238
97755	-11,002	0,	42,467	11,263
97756	-11,208	0,	43,143	10,569
97757	-11,467	0,	41,588	11,268
97758	-11,672	0,	42,264	10,78
97759	-11,939	0,	40,709	11,18
97760	-12,145	0,	41,386	10,856
97761	-12,412	0,	39,831	11,023
97762	-12,618	0,	40,508	10,818
97763	-12,885	0,	38,953	10,806
97764	-13,091	0,	39,63	10,685
97765	-13,358	0,	38,075	10,544
97766	-13,564	0,	38,752	10,478
97767	-13,831	0,	37,197	10,247
97768	-14,037	0,	37,873	10,214
97769	-14,304	0,	36,319	9,9274
97770	-14,51	0,	36,995	9,9119
97771	-14,777	0,	35,441	9,5925
97772	-14,983	0,	36,117	9,5837
97773	-15,25	0,	34,563	9,2504
97774	-15,456	0,	35,239	9,2404
97775	-15,723	0,	33,685	8,9068
97776	-15,928	0,	34,361	8,8901
97777	-16,196	0,	32,807	8,5664
97778	-16,401	0,	33,483	8,5391
97779	-16,669	0,	31,929	8,2328
97780	-16,874	0,	32,605	8,192
97781	-17,615	0,	30,173	7,5964
97782	-17,142	0,	31,051	7,9088
97783	-17,82	0,	30,849	7,5228
97784	-18,088	0,	29,295	7,2975
97785	-18,293	0,	29,971	7,2052
97786	-18,561	0,	28,417	7,0134
97787	-18,766	0,	29,093	6,9012
97788	-19,034	0,	27,539	6,7451
97789	-19,239	0,	28,215	6,6119
97790	-19,507	0,	26,661	6,4936
97791	-19,712	0,	27,337	6,3383
97792	-19,98	0,	25,783	6,26
97793	-20,185	0,	26,458	6,0812
97794	-20,453	0,	24,905	6,0451
97795	-20,658	0,	25,58	5,8414
97796	-20,926	0,	24,027	5,8498
97797	-21,131	0,	24,702	5,6196
97798	-21,399	0,	23,149	5,6755
97799	-21,603	0,	23,824	5,4166
97800	-21,872	0,	22,271	5,5233
97801	-22,076	0,	22,946	5,2334
97802	-22,345	0,	21,393	5,3953
97803	-22,549	0,	22,068	5,0713
97804	-22,818	0,	20,515	5,2936
97805	-23,022	0,	21,19	4,932
97806	-23,291	0,	19,637	5,2214
97807	-23,495	0,	20,312	4,8177
97808	-23,764	0,	18,759	5,1829
97809	-23,968	0,	19,434	4,7315
97810	-24,237	0,	17,881	5,1837
97811	-24,441	0,	18,556	4,6779
97812	-24,71	0,	17,003	5,2315
97813	-24,914	0,	17,678	4,6629
97814	-25,183	0,	16,126	5,3368
97815	-25,387	0,	16,8	4,695
97816	-25,658	0,	15,255	5,5063
97817	-25,86	0,	15,922	4,7859
97818	-26,132	0,	14,39	5,7592
97819	-26,335	0,	15,051	4,9442
97820	-26,603	0,	13,518	6,1316
97821	-25,924	0,	13,74	6,4926
97822	-26,807	0,	14,179	5,1999
97823	-27,073	0,	12,642	6,652
97824	-27,279	0,	13,301	5,5854
97825	-27,538	0,	11,772	7,3472
97826	-27,75	0,	12,425	6,1311
97827	-28,	0,	10,901	8,2606
97828	-28,217	0,	11,552	6,8782
97829	-28,46	0,	10,025	9,4265
97830	-28,684	0,	10,675	7,8844
97831	-28,919	0,	9,149	10,845
97832	-29,15	0,	9,7982	9,1902
97833	-29,377	0,	8,2746	12,475
97834	-29,615	0,	8,9216	10,821
97835	-29,836	0,	7,4016	14,2
97836	-30,081	0,	8,0456	12,76
97837	-30,3	0,	6,5318	15,828
97838	-30,547	0,	7,1705	14,906
97839	-30,762	0,	5,6714	17,13
97840	-31,018	0,	6,2977	17,037
97841	-31,622	0,	3,9634	19,429
97842	-31,212	0,	4,8216	18,247
97843	-31,941	0,	4,5698	19,612
97844	-31,954	0,	3,1132	20,22
97845	-32,34	0,	3,6889	19,978
97846	-32,246	0,	2,2551	20,519
97847	-32,653	0,	2,8093	20,424
97848	-32,468	0,	1,4141	20,732
97849	-32,92	0,	1,8875	20,789
97850	-32,544	0,	0,56681	20,826
97851	-33,068	0,	1,0012	21,048
97852	-32,526	0,	-0,36817	20,818
97853	-33,094	0,	5,874e-002	21,128
97854	-32,468	0,	-1,3087	20,728
97855	-33,05	0,	-0,92004	21,041
97856	-32,345	0,	-2,1867	20,551
97857	-32,939	0,	-1,8632	20,787
97858	-32,112	0,	-2,9999	20,273
97859	-32,733	0,	-2,7651	20,439
97860	-31,748	0,	-3,8091	19,591
97861	-32,418	0,	-3,6198	20,005
97862	-31,327	0,	-4,6808	18,466
97863	-30,892	0,	-5,5803	17,325
97864	-30,415	0,	-6,4635	15,993
97865	-29,93	0,	-7,3215	14,361
97866	-29,459	0,	-8,1693	12,665
97867	-28,998	0,	-9,0277	11,039
97868	-28,535	0,	-9,8935	9,6043
97869	-28,068	0,	-10,761	8,4156
97870	-27,6	0,	-11,629	7,4717
97871	-27,133	0,	-12,497	6,7424
97872	-26,666	0,	-13,364	6,1919
97873	-26,199	0,	-14,232	5,7848
97874	-25,732	0,	-15,1	5,4914
97875	-25,265	0,	-15,967	5,2875
97876	-24,799	0,	-16,835	5,1542
97877	-24,332	0,	-17,703	5,0771
97878	-23,865	0,	-18,571	5,0456
97879	-23,398	0,	-19,438	5,0512
97880	-23,195	0,	-18,761	5,466
97881	-22,931	0,	-20,306	5,0879
97882	-22,464	0,	-21,174	5,1508
97883	-21,997	0,	-22,041	5,2362
97884	-21,53	0,	-22,909	5,3412
97885	-21,062	0,	-23,777	5,4632
97886	-20,128	0,	-25,512	5,7498
97887	-20,595	0,	-24,644	5,6001
97888	-19,661	0,	-26,38	5,9105
97889	-19,195	0,	-27,248	6,0804
97890	-18,728	0,	-28,115	6,2576
97891	-18,261	0,	-28,983	6,4401
97892	-17,794	0,	-29,851	6,6259
97893	-17,327	0,	-30,718	6,8129
97894	-16,86	0,	-31,586	6,9988
97895	-16,393	0,	-32,454	7,1814
97896	-15,926	0,	-33,321	7,3585
97897	-15,459	0,	-34,189	7,5282
97898	-14,992	0,	-35,057	7,6888
97899	-14,525	0,	-35,925	7,8393
97900	-14,058	0,	-36,792	7,9798
97901	-13,591	0,	-37,66	8,1114
97902	-13,124	0,	-38,527	8,237
97903	-12,656	0,	-39,395	8,3609
97904	-12,194	0,	-40,256	8,4865
97905	-11,737	0,	-41,112	8,6215
97906	-11,275	0,	-41,966	8,7774
97907	-10,81	0,	-42,82	8,9541
97908	-10,345	0,	-43,675	9,137
97909	-9,8858	0,	-44,527	9,2948
97910	-9,4334	0,	-45,371	9,377
97911	-8,9865	0,	-46,21	9,3324
97912	-8,5492	0,	-47,042	9,1349
97913	-8,1204	0,	-47,863	8,8771
97914	-7,6401	0,	-48,612	8,6285
97915	-7,0984	0,	-49,296	8,2521
97916	-7,749	0,	-49,383	8,1107
97917	-5,9043	0,	-50,59	7,3697
97918	-6,5219	0,	-49,963	7,7837
97919	-6,5636	0,	-50,788	7,2887
97920	-5,2596	0,	-51,145	7,0348
97921	-5,8921	0,	-51,411	6,9942
97922	-4,5706	0,	-51,641	6,7659
97923	-5,1781	0,	-51,949	6,7693
97924	-3,8289	0,	-52,119	6,5355
97925	-4,4066	0,	-52,438	6,5766
97926	-3,0435	0,	-52,546	6,3557
97927	-3,5919	0,	-52,876	6,4169
97928	-2,2827	0,	-52,849	6,2447
97929	-2,7368	0,	-53,23	6,2973
97930	-1,5211	0,	-53,005	6,1663
97931	-1,9152	0,	-53,456	6,2198
97932	-0,66768	0,	-53,042	6,1178
97933	-1,0365	0,	-53,572	6,1692
97934	0,23229	0,	-53,007	6,1087
97935	-0,10957	0,	-53,587	6,1475
97936	1,1143	0,	-52,926	6,1419
97937	0,8203	0,	-53,537	6,1611
97938	1,9429	0,	-52,773	6,2124
97939	1,7248	0,	-53,412	6,2066
97940	2,7374	0,	-52,532	6,3226
97941	2,5875	0,	-53,198	6,2812
97942	4,399	0,	-51,76	6,7146
97943	3,5708	0,	-52,187	6,4865
97944	4,3053	0,	-52,488	6,5526
97945	5,1578	0,	-51,289	6,9701
97946	5,108	0,	-52,017	6,7435
97947	5,8633	0,	-50,781	7,2747
97948	5,8605	0,	-51,486	6,9612
97949	6,4891	0,	-50,224	7,6299
97950	6,5543	0,	-50,904	7,2306
97951	7,015	0,	-49,588	8,0616
97952	7,1645	0,	-50,254	7,5602
97953	7,486	0,	-48,854	8,4988
97954	7,6891	0,	-49,529	8,0018
97955	7,9415	0,	-48,034	8,7931
97956	7,2127	0,	-48,209	8,8234
97957	8,407	0,	-47,177	9,0616
97958	8,8868	0,	-46,314	9,308
97959	9,357	0,	-45,448	9,3825
97960	9,825	0,	-44,585	9,3125
97961	10,296	0,	-43,725	9,1587
97962	10,769	0,	-42,867	8,9739
97963	11,711	0,	-41,14	8,6336
97964	11,242	0,	-42,004	8,7937
97965	12,178	0,	-40,276	8,4933
97966	12,641	0,	-39,411	8,3675
97967	13,104	0,	-38,546	8,2459
97968	13,573	0,	-37,677	8,1198
97969	14,042	0,	-36,807	7,9871
97970	14,513	0,	-35,936	7,8447
97971	14,304	0,	-35,265	8,0827
97972	-4,4263	0,	46,761	24,264
97973	-4,0155	0,	47,829	20,965
97974	-3,9032	0,	47,064	30,104
97975	-4,711	0,	45,778	26,685
97976	-4,2359	0,	46,105	34,021
97977	-4,9468	0,	44,872	26,761
97978	-4,4718	0,	44,242	31,021
97979	-4,4169	0,	45,151	34,142
97980	-4,3941	0,	42,62	25,565
97981	-4,3034	0,	43,46	31,126
97982	-3,7258	0,	42,066	24,907
97983	-4,2741	0,	41,913	24,67
97984	-3,8035	0,	42,752	27,741
97985	-3,0239	0,	41,446	22,413
97986	-3,1903	0,	42,058	23,544
97987	-2,2657	0,	40,826	19,51
97988	-2,4668	0,	41,416	19,612
97989	-1,5365	0,	40,29	17,277
97990	-0,84251	0,	40,54	16,218
97991	-1,6443	0,	40,894	17,362
97992	0,68901	0,	40,091	15,694
97993	-8,531e-002	0,	40,45	15,613
97994	1,4292	0,	40,492	17,106
97995	0,77432	0,	40,67	16,131
97996	2,2321	0,	40,887	19,492
97997	1,6052	0,	40,967	17,177
97998	3,0866	0,	41,396	22,499
97999	2,4723	0,	41,404	19,669
98000	3,8732	0,	41,984	24,731
98001	3,8937	0,	42,709	27,413
98002	3,2474	0,	42,02	23,632
98003	5,0619	0,	44,82	25,832
98004	4,5476	0,	44,222	29,901
98005	4,8255	0,	45,686	25,617
98006	4,4562	0,	45,119	33,689
98007	4,6214	0,	46,641	23,326
98008	4,023	0,	47,004	29,251
98009	4,3112	0,	46,046	33,17
98010	2,8179	0,	48,984	18,129
98011	3,0873	0,	48,276	23,406
98012	-3,2405	0,	48,714	18,841
98013	-4,3736	0,	48,446	18,041
98014	-3,88	0,	48,979	18,649
98015	-3,3802	0,	48,02	23,631
98016	-2,1255	0,	49,347	17,943
98017	-2,4934	0,	48,666	19,471
98018	-0,91264	0,	49,821	17,082
98019	-1,4774	0,	49,198	16,08
98020	0,22087	0,	49,843	17,072
98021	-0,38552	0,	49,479	14,834
98022	1,206	0,	49,558	17,13
98023	0,60639	0,	49,335	14,543
98024	2,0683	0,	49,243	17,785
98025	1,5499	0,	49,079	15,871
98026	2,3638	0,	48,681	19,516
98027	27,736	0,	-4,1542	22,616
98028	28,004	0,	-4,7795	20,278
98029	26,947	0,	-4,1169	28,577
98030	28,321	0,	-3,4493	23,531
98031	27,634	0,	-3,5533	28,649
98032	28,933	0,	-2,7467	23,484
98033	28,881	0,	-2,1341	24,181
98034	29,096	0,	-3,3496	22,251
98035	28,32	0,	-2,8682	26,838
98036	29,194	0,	-1,489	24,325
98037	29,497	0,	0,77484	23,331
98038	29,292	0,	0,15509	22,428
98039	29,251	0,	1,7068	23,551
98040	29,146	0,	1,0984	23,149
98041	28,833	0,	2,6201	23,758
98042	28,818	0,	2,0164	24,906
98043	28,253	0,	3,4387	23,697
98044	28,283	0,	2,8593	26,977
98045	27,665	0,	4,1523	22,919
98046	26,908	0,	4,1167	28,775
98047	27,603	0,	3,5516	29,041
98048	25,47	0,	5,0018	23,433
98049	26,155	0,	4,4324	28,405
98050	24,612	0,	4,744	24,849
98051	24,812	0,	5,2724	22,173
98052	25,265	0,	4,4249	30,306
98053	23,74	0,	4,4813	24,629
98054	24,346	0,	4,2899	29,628
98055	22,851	0,	4,1763	22,578
98056	23,443	0,	4,0468	27,072
98057	21,978	0,	3,7969	19,962
98058	21,388	0,	4,1182	17,576
98059	21,781	0,	3,1236	20,017
98060	22,563	0,	3,6455	23,555
98061	20,116	0,	1,3993	14,912
98062	19,592	0,	1,8235	14,981
98063	20,778	0,	1,8404	16,308
98064	20,156	0,	0,48924	14,543
98065	20,625	0,	0,96693	14,689
98066	20,203	0,	-0,48832	14,546
98067	20,589	0,	9,3374e-004	14,035
98068	20,215	0,	-1,3905	14,901
98069	20,672	0,	-0,96788	14,656
98070	21,237	0,	-3,3152	17,968
98071	21,161	0,	-2,5024	16,925
98072	22,011	0,	-3,7035	20,352
98073	21,462	0,	-3,9534	18,001
98074	21,808	0,	-3,0684	20,225
98075	22,863	0,	-4,1421	22,82
98076	22,57	0,	-3,6073	23,763
98077	25,549	0,	-4,9515	23,844
98078	26,175	0,	-4,4076	28,622
98079	24,712	0,	-4,7291	25,337
98080	25,325	0,	-4,3994	30,745
98081	23,784	0,	-4,4959	24,76
98082	24,387	0,	-4,3006	29,762
98083	23,447	0,	-4,0508	27,116
98084	-1,0426	0,	-49,806	4,6447
98085	-1,47	0,	-49,257	4,7366
98086	-5,9939e-002	0,	-49,825	3,9661
98087	-0,52283	0,	-49,404	2,6599
98088	0,85824	0,	-49,823	4,3454
98089	1,3456	0,	-49,286	4,6677
98090	0,4629	0,	-49,392	2,5323
98091	3,3826	0,	-48,375	9,5859
98092	2,6782	0,	-48,533	8,3951
98093	3,9275	0,	-47,521	12,323
98094	3,3376	0,	-47,814	12,015
98095	4,3174	0,	-46,626	15,322
98096	3,8578	0,	-46,962	16,064
98097	4,6235	0,	-45,738	17,281
98098	4,1723	0,	-46,072	20,214
98099	4,9428	0,	-44,905	17,266
98100	4,4916	0,	-44,282	23,899
98101	4,393	0,	-45,145	23,167
98102	4,4432	0,	-42,671	21,14
98103	4,3317	0,	-43,496	24,668
98104	3,7516	0,	-42,075	23,916
98105	4,3409	0,	-41,957	20,358
98106	3,8243	0,	-42,767	28,254
98107	3,0349	0,	-41,438	25,211
98108	3,1953	0,	-42,052	29,567
98109	2,2754	0,	-40,823	25,241
98110	2,4728	0,	-41,413	28,653
98111	1,5409	0,	-40,291	25,018
98112	0,84317	0,	-40,541	25,047
98113	1,648	0,	-40,894	26,934
98114	-0,67601	0,	-40,083	24,087
98115	9,0347e-002	0,	-40,448	23,916
98116	-1,4056	0,	-40,476	25,724
98117	-0,76635	0,	-40,664	25,576
98118	-2,2024	0,	-40,885	25,559
98119	-1,5895	0,	-40,956	27,343
98120	-3,0296	0,	-41,443	25,337
98121	-2,4582	0,	-41,413	28,764
98122	-3,8324	0,	-42,196	23,655
98123	-4,3578	0,	-43,228	22,538
98124	-3,8959	0,	-42,882	28,09
98125	-3,2045	0,	-42,058	29,618
98126	-4,7524	0,	-43,698	20,56
98127	-4,6964	0,	-44,319	20,607
98128	-4,1748	0,	-43,938	27,688
98129	-4,7952	0,	-45,394	17,076
98130	-5,4694	0,	-44,987	15,176
98131	-4,4635	0,	-44,903	22,855
98132	-3,8304	0,	-48,526	9,4298
98133	-2,9101	0,	-48,606	7,9844
98134	-4,2501	0,	-47,527	12,196
98135	-3,5534	0,	-47,892	11,211
98136	-4,5253	0,	-46,453	15,206
98137	-4,8403	0,	-46,902	12,619
98138	-3,9646	0,	-46,891	15,994
98139	-4,2735	0,	-45,97	19,883
98140	-28,54	0,	-3,5398	22,072
98141	-29,063	0,	-2,5086	23,108
98142	-28,409	0,	-2,8392	26,466
98143	-27,792	0,	-4,2943	21,802
98144	-26,873	0,	-4,1375	28,919
98145	-27,764	0,	-3,6728	27,365
98146	-25,581	0,	-4,9444	23,735
98147	-26,182	0,	-4,3988	28,633
98148	-24,751	0,	-4,7358	25,188
98149	-24,993	0,	-5,2829	22,305
98150	-25,35	0,	-4,4011	30,553
98151	-23,8	0,	-4,517	24,694
98152	-24,08	0,	-5,0679	22,823
98153	-24,401	0,	-4,3056	29,749
98154	-22,845	0,	-4,195	22,529
98155	-23,449	0,	-4,0669	27,009
98156	-21,964	0,	-3,8012	20,02
98157	-21,78	0,	-3,1292	20,014
98158	-22,551	0,	-3,6441	23,504
98159	-20,104	0,	-1,4103	14,903
98160	-20,005	0,	-2,3673	15,214
98161	-20,771	0,	-1,8494	16,233
98162	-20,15	0,	-0,49347	14,572
98163	-20,62	0,	-0,96906	14,623
98164	-20,207	0,	0,48343	14,561
98165	-20,587	0,	-3,0381e-003	14,048
98166	-20,226	0,	1,389	14,933
98167	-20,836	0,	1,832	16,354
98168	-20,678	0,	0,9651	14,681
98169	-21,252	0,	3,3311	18,022
98170	-21,168	0,	2,5122	16,978
98171	-22,039	0,	3,7219	20,441
98172	-21,491	0,	3,9938	18,016
98173	-21,816	0,	3,0746	20,275
98174	-22,897	0,	4,1724	22,842
98175	-22,591	0,	3,6195	23,854
98176	-23,834	0,	4,5241	24,745
98177	-23,462	0,	4,069	27,071
98178	-24,875	0,	4,7486	25,15
98179	-25,976	0,	4,5727	26,093
98180	-25,454	0,	4,4089	30,359
98181	-24,422	0,	4,3106	29,78
98182	-26,579	0,	4,5914	25,151
98183	-29,453	0,	-1,4362	23,216
98184	-28,922	0,	-1,925	24,751
98185	-29,639	0,	-0,31988	23,195
98186	-29,244	0,	-0,91929	23,151
98187	-29,58	0,	0,75238	23,329
98188	-29,337	0,	0,12078	22,531
98189	-29,301	0,	1,7365	23,504
98190	-29,185	0,	1,1102	23,145
98191	-28,846	0,	2,6496	23,735
98192	-28,829	0,	2,0344	24,831
98193	-28,128	0,	3,5555	23,74
98194	-28,285	0,	2,8709	27,044
98195	-27,103	0,	4,1601	25,731
98196	-27,476	0,	3,6568	28,902
98197	-26,472	0,	4,0193	32,287
98198	-5,9938	0,	-25,639	11,336
98199	-5,379	0,	-25,767	11,524
98200	-7,0226	0,	28,615	11,513
98201	-6,5558	0,	29,465	11,898
98202	-2,8496	0,	24,929	10,564
98203	-3,6144	0,	25,558	10,784
98204	-3,6952	0,	23,308	9,9166
98205	-2,8985	0,	22,685	9,6798
98206	11,781	0,	-14,745	8,755
98207	12,639	0,	-15,243	8,8703
98208	-8,751	0,	-16,252	8,4294
98209	-7,9145	0,	-15,725	8,2189
98210	-13,966	0,	-12,682	9,3032
98211	-14,883	0,	-11,124	9,8269
98212	-14,011	0,	-10,576	9,7246
98213	-11,865	0,	-29,344	9,915
98214	-19,452	0,	-6,6785	13,386
98215	3,4352	0,	-52,894	6,3937
98216	-7,3004	0,	14,563	7,7486
98217	9,1982	0,	-13,249	8,2134
98218	1,7891	0,	-7,7559	7,2944
98219	2,5683	0,	-8,4144	7,2408
98220	-10,079	0,	-30,551	11,
98221	-13,349	0,	23,285	9,0972
98222	7,7841	0,	-32,594	12,811
98223	8,6164	0,	-33,126	12,276
98224	-10,479	0,	23,325	9,5685
98225	-7,2317	0,	-43,043	11,387
98226	-12,149	0,	-18,273	8,9305
98227	-9,4279	0,	-23,365	9,9659
98228	-10,549	0,	21,088	9,1517
98229	-17,957	0,	-23,222	7,3116
98230	18,126	0,	-16,638	8,5668
98231	12,364	0,	-24,068	9,3722
98232	-11,26	0,	26,069	9,9145
98233	-13,006	0,	-18,758	8,928
98234	28,066	0,	-5,4391	18,08
98235	-6,8401	0,	27,911	11,307
98236	-6,9294	0,	25,666	10,575
98237	-6,0141	0,	27,348	11,242
98238	-0,31757	0,	-10,646	6,8596
98239	-12,501	0,	15,474	8,7038
98240	-3,9892	0,	35,029	14,952
98241	-24,323	0,	-5,615	19,776
98242	-17,347	0,	31,727	7,8524
98243	20,83	0,	-1,8307	16,288
98244	-9,7411	0,	-10,059	8,5205
98245	-0,49217	0,	20,993	8,9983
98246	9,5749	0,	-29,196	11,09
98247	3,2886	0,	10,851	7,0071
98248	-2,743	0,	-23,264	10,643
98249	-7,1879	0,	-50,109	7,6541
98250	-31,482	0,	5,4319	18,78
98251	-13,769	0,	-23,677	8,9203
98252	-2,1193	0,	-20,428	9,3141
98253	-4,6917	0,	34,919	14,787
98254	-8,33	0,	-31,759	12,265
98255	9,9909	0,	-10,985	8,4942
98256	10,182	0,	-11,616	8,4924
98257	13,09	0,	-21,679	9,0535
98258	2,8391	0,	19,062	8,33
98259	14,282	0,	-18,434	8,8329
98260	-7,5828	0,	30,718	12,061
98261	-6,7395	0,	30,171	12,095
98262	5,6409	0,	-17,586	8,3847
98263	3,8837	0,	-13,515	7,2396
98264	1,7861	0,	8,7108	7,1372
98265	-8,1641	0,	-4,2429	9,0679
98266	5,3247	0,	-28,663	12,779
98267	1,0077	0,	-7,0851	7,3831
98268	-2,8553	0,	-21,064	9,606
98269	-4,5002	0,	-20,047	9,1893
98270	5,6936	0,	-15,4	7,8209
98271	-4,6588	0,	-13,461	7,3404
98272	-7,9937	0,	19,512	8,7784
98273	3,1255	0,	-25,364	11,668
98274	13,409	0,	-17,943	8,8938
98275	-6,5463	0,	-7,0125	8,1328
98276	18,935	0,	-10,258	10,976
98277	10,714	0,	31,434	11,097
98278	-3,8455	0,	-7,3204	7,5802
98279	2,4726	0,	8,6345	7,199
98280	13,03	0,	12,353	9,0226
98281	20,885	0,	11,654	10,219
98282	2,0196	0,	14,022	6,9879
98283	-11,361	0,	-13,347	8,6961
98284	-3,1319	0,	-9,9568	7,0956
98285	-13,949	0,	-14,866	9,0325
98286	-19,747	0,	6,5828	13,568
98287	13,497	0,	-15,742	8,9361
98288	18,119	0,	-11,758	10,175
98289	18,034	0,	9,2016	11,279
98290	-9,2346	0,	-30,037	11,409
98291	6,7653	0,	35,527	14,487
98292	-8,6936	0,	24,513	10,045
98293	17,482	0,	12,661	9,7213
98294	12,594	0,	-1,3869	11,214
98295	-6,2863	0,	-12,397	7,5471
98296	-0,31297	0,	18,869	8,1966
98297	-17,08	0,	33,281	8,1755
98298	-16,607	0,	34,159	8,533
98299	-16,844	-0,5	33,719	8,3518
98300	-2,423	0,	53,609	19,343
98301	-3,3597	0,	53,326	17,918
98302	-2,9047	-0,49994	53,476	18,683
98303	-1,4632	0,	53,8	20,363
98304	-1,9555	-0,49994	53,714	19,929
98305	7,8479	0,	-50,203	7,5087
98306	8,1235	-0,50017	-49,814	7,6965
98307	-33,63	0,	0,49374	21,229
98308	-33,63	0,	-0,49374	21,21
98309	-33,642	-0,50002	-5,6225e-003	21,245
98310	-0,95726	0,	48,884	14,641
98311	-1,8589	0,	48,542	18,671
98312	-1,4172	-0,50068	48,741	15,781
98313	-4,196e-015	0,	49,	13,635
98314	-0,48079	-0,50082	48,971	12,933
98315	0,95726	0,	48,884	14,677
98316	0,48364	-0,50054	48,971	13,011
98317	4,1747	0,	-53,206	6,4342
98318	3,2892	0,	-53,571	6,3343
98319	3,7335	-0,49585	-53,4	6,3545
98320	-29,374	0,	10,449	7,7809
98321	-29,846	0,	9,5708	9,3689
98322	-29,611	-0,5	10,009	8,4185
98323	-2,6525	0,	47,994	25,287
98324	-2,271	-0,50038	48,293	22,285
98325	-18,971	0,	29,768	6,8187
98326	-19,444	0,	28,89	6,509
98327	-19,208	-0,5	29,328	6,6555
98328	-14,242	0,	38,55	10,152
98329	-14,715	0,	37,672	9,885
98330	-14,48	-0,5	38,109	10,04
98331	-13,77	0,	39,428	10,359
98332	-14,007	-0,5	38,988	10,285
98333	6,7001	0,	51,331	10,598
98334	5,9424	0,	51,95	12,407
98335	6,3214	-0,50001	51,656	11,467
98336	-33,051	0,	3,3891	20,109
98337	-32,67	0,	4,3005	20,093
98338	-32,873	-0,49994	3,8465	19,874
98339	-33,339	0,	2,4447	20,593
98340	-33,208	-0,49999	2,9161	20,311
98341	-33,533	0,	1,4764	21,011
98342	-33,594	-0,50003	0,98083	21,144
98343	-33,449	-0,50002	1,9579	20,812
98344	-0,95726	0,	-48,884	3,499
98345	4,6858e-015	0,	-49,	1,1291
98346	-0,48404	-0,50095	-48,971	1,9395
98347	1,8589	0,	48,542	18,797
98348	1,4198	-0,50084	48,74	15,815
98349	-1,8589	0,	-48,542	7,0777
98350	-1,4198	-0,50068	-48,74	5,1649
98351	-9,514	0,	47,331	7,7415
98352	-9,9868	0,	46,453	8,0351
98353	-9,7509	-0,5	46,891	7,846
98354	-15,188	0,	36,793	9,5762
98355	-14,952	-0,5	37,231	9,7443
98356	-33,533	0,	-1,4764	20,979
98357	-33,593	-0,50001	-0,99191	21,105
98358	-33,339	0,	-2,4447	20,573
98359	-33,051	0,	-3,3891	20,081
98360	-33,205	-0,50002	-2,9259	20,294
98361	-33,447	-0,50002	-1,9685	20,78
98362	-17,552	0,	32,403	7,8224
98363	-18,025	0,	31,525	7,477
98364	-17,789	-0,5	31,962	7,6439
98365	-17,317	-0,5	32,841	7,9946
98366	-26,859	0,	3,5418	34,811
98367	-27,652	0,	2,994	31,516
98368	-27,271	-0,50039	3,2928	34,304
98369	-25,957	0,	3,8838	35,69
98370	-26,417	-0,50068	3,7405	37,126
98371	-18,498	0,	30,646	7,1418
98372	-18,735	-0,5	30,206	6,9726
98373	-18,262	-0,5	31,084	7,3026
98374	7,3936	0,	50,641	9,0498
98375	7,0489	-0,50003	51,001	9,7424
98376	8,0163	0,	49,886	7,8847
98377	7,7092	-0,50004	50,277	8,3579
98378	-28,292	0,	-2,2723	27,522
98379	-28,74	0,	-1,4184	24,166
98380	-28,543	-0,50003	-1,8573	25,627
98381	33,055	0,	3,3823	20,1
98382	32,873	-0,5	3,8481	19,872
98383	-15,661	0,	35,915	9,2408
98384	-15,425	-0,5	36,353	9,4164
98385	-16,134	0,	35,037	8,8902
98386	-16,371	-0,5	34,597	8,7117
98387	-15,898	-0,5	35,475	9,0689
98388	-28,292	0,	2,2723	27,826
98389	-28,74	0,	1,4184	24,322
98390	-28,541	-0,4998	1,8599	25,832
98391	-27,993	-0,50009	2,6536	30,212
98392	-7,2383	0,	-50,942	7,1391
98393	-7,8479	0,	-50,203	7,5083
98394	-7,5424	-0,50004	-50,592	7,2434
98395	3,2919	0,	47,272	32,717
98396	3,7401	0,	46,418	38,716
98397	3,5426	-0,5013	46,857	37,959
98398	2,6525	0,	47,994	24,746
98399	2,2732	-0,50113	48,291	22,355
98400	2,9947	-0,50142	47,652	30,311
98401	5,0202	0,	-52,755	6,5565
98402	5,8176	0,	-52,224	6,7068
98403	5,4228	-0,49596	-52,501	6,5972
98404	4,6001	-0,49584	-52,992	6,4659
98405	-3,2892	0,	-53,571	6,3267
98406	-2,3722	0,	-53,849	6,2475
98407	-2,8146	-0,5	-53,727	6,257
98408	-4,1747	0,	-53,206	6,4284
98409	-3,7176	-0,49998	-53,407	6,3461
98410	2,6525	0,	-42,006	34,652
98411	1,8589	0,	-41,458	33,429
98412	2,2734	-0,50113	-41,709	29,789
98413	-6,7001	0,	51,331	10,615
98414	-7,3936	0,	50,641	9,0676
98415	-7,0625	-0,50002	50,987	9,7401
98416	-5,9424	0,	51,95	12,407
98417	-6,3367	-0,5	51,643	11,432
98418	2,423	0,	53,609	19,33
98419	3,3597	0,	53,326	17,903
98420	2,8851	-0,49995	53,482	18,695
98421	1,4632	0,	53,8	20,356
98422	1,9354	-0,49995	53,718	19,944
98423	-31,738	0,	6,0582	18,886
98424	-31,265	0,	6,9364	16,438
98425	-31,502	-0,5	6,4961	17,908
98426	-32,211	0,	5,1801	20,169
98427	-32,447	-0,5	4,741	20,373
98428	-31,975	-0,5	5,618	20,133
98429	-13,297	0,	40,306	10,481
98430	-13,534	-0,5	39,866	10,46
98431	-12,824	0,	41,184	10,493
98432	-13,061	-0,5	40,744	10,537
98433	33,633	0,	0,49275	21,181
98434	33,536	0,	1,4735	20,954
98435	33,596	-0,50002	0,9909	21,091
98436	33,633	0,	-0,49275	21,181
98437	33,645	-0,50001	6,4933e-003	21,211
98438	33,055	0,	-3,3823	20,092
98439	33,342	0,	-2,4398	20,553
98440	33,212	-0,50005	-2,9098	20,288
98441	32,877	-0,50002	-3,8387	19,864
98442	-1,8589	0,	-41,458	33,368
98443	-2,6525	0,	-42,006	34,588
98444	-2,271	-0,50038	-41,707	29,74
98445	24,043	0,	3,8838	31,613
98446	23,141	0,	3,5418	27,848
98447	23,583	-0,50067	3,7405	30,348
98448	25,	0,	4,	34,505
98449	24,519	-0,50097	3,971	33,962
98450	0,48928	0,	53,895	20,89
98451	0,96719	-0,49995	53,861	20,734
98452	-0,48928	0,	53,895	20,893
98453	-0,98761	-0,49994	53,859	20,731
98454	-1,0279e-002	-0,49994	53,907	21,003
98455	-27,955	0,	13,083	5,0894
98456	-28,428	0,	12,205	5,7083
98457	-28,192	-0,5	12,643	5,2916
98458	-27,482	0,	13,962	4,6661
98459	-27,719	-0,5	13,521	4,7921
98460	4,2642	0,	52,953	16,192
98461	3,8071	-0,49997	53,154	17,106
98462	5,1279	0,	52,493	14,318
98463	4,6928	-0,50001	52,738	15,28
98464	5,5335	-0,50002	52,237	13,362
98465	-25,591	0,	17,474	4,1263
98466	-25,118	0,	18,352	4,1572
98467	-25,355	-0,5	17,912	4,1158
98468	-22,348	0,	-2,994	23,731
98469	-23,141	0,	-3,5418	27,775
98470	-22,729	-0,50193	-3,293	26,143
98471	-5,1279	0,	52,493	14,319
98472	-5,5503	-0,49997	52,226	13,323
98473	-4,2642	0,	52,953	16,2
98474	-4,7107	-0,49996	52,728	15,248
98475	-3,826	-0,49995	53,147	17,078
98476	27,652	0,	-2,994	31,455
98477	26,859	0,	-3,5418	33,855
98478	27,271	-0,50193	-3,293	34,155
98479	-30,792	0,	7,8145	13,804
98480	-31,029	-0,5	7,3743	15,178
98481	27,652	0,	2,994	31,681
98482	26,859	0,	3,5418	34,066
98483	27,274	-0,50185	3,291	34,548
98484	28,292	0,	2,2723	27,744
98485	27,995	-0,50214	2,6517	30,102
98486	-1,4324	0,	-54,035	6,1954
98487	-1,8845	-0,5	-53,957	6,1912
98488	-0,47901	0,	-54,129	6,171
98489	0,47901	0,	-54,129	6,1732
98490	8,2852e-003	-0,49843	-54,14	6,1408
98491	-0,94799	-0,49721	-54,094	6,1533
98492	-3,2919	0,	47,272	33,257
98493	-2,9933	-0,50009	47,653	30,963
98494	-28,971	0,	0,48215	22,134
98495	-28,883	-0,49949	0,95842	22,219
98496	22,348	0,	-2,994	23,747
98497	23,141	0,	-3,5418	27,79
98498	22,726	-0,50057	-3,2908	26,133
98499	1,8589	0,	-48,542	7,3157
98500	2,6525	0,	-47,994	11,448
98501	2,2708	-0,50177	-48,293	9,4228
98502	1,4324	0,	-54,035	6,2016
98503	0,9536	-0,4967	-54,094	6,1578
98504	2,3722	0,	-53,849	6,2556
98505	2,831	-0,49594	-53,722	6,2646
98506	1,9015	-0,49613	-53,954	6,199
98507	3,9708	0,	45,482	40,698
98508	3,884	-0,50159	45,956	42,588
98509	3,9708	0,	44,518	38,152
98510	4,	-0,50188	44,998	41,726
98511	-5,0202	0,	-52,755	6,5523
98512	-4,5852	-0,49997	-53,	6,4588
98513	4,6858e-015	0,	41,	16,082
98514	0,95726	0,	41,116	16,238
98515	0,48018	-0,50123	41,029	16,505
98516	-0,95726	0,	41,116	16,327
98517	-0,48364	-0,50096	41,029	16,449
98518	3,7401	0,	43,582	32,56
98519	3,8832	-0,50218	44,041	36,51
98520	8,2961	-0,5	49,491	7,3907
98521	-3,7401	0,	-46,418	20,748
98522	-3,2919	0,	-47,272	15,782
98523	-3,5426	-0,49986	-46,857	18,473
98524	-3,9708	0,	-45,482	25,402
98525	-3,8842	-0,49959	-45,955	23,176
98526	-27,652	0,	-2,994	31,024
98527	-26,859	0,	-3,5418	33,853
98528	-27,274	-0,50057	-3,2908	33,929
98529	-27,995	-0,5003	-2,6511	29,917
98530	-11,405	0,	43,819	9,6606
98531	-10,933	0,	44,697	9,1123
98532	-11,17	-0,5	44,257	9,4235
98533	-9,0411	0,	48,209	7,5117
98534	-9,2779	-0,5	47,77	7,6722
98535	-5,8176	0,	-52,224	6,7035
98536	-5,4089	-0,5	-52,51	6,5914
98537	-6,5594	0,	-51,618	6,8894
98538	-6,1811	-0,50002	-51,942	6,7536
98539	-6,8945	-0,50001	-51,301	6,9565
98540	-28,901	0,	11,327	6,5828
98541	-29,138	-0,5	10,887	7,0321
98542	-28,665	-0,5	11,765	6,0151
98543	-22,281	0,	23,621	4,9794
98544	-22,754	0,	22,743	4,7854
98545	-22,518	-0,5	23,181	4,8707
98546	-21,26	0,	-1,4184	16,287
98547	-21,029	0,	-0,48215	14,356
98548	-21,117	-0,50275	-0,95908	15,112
98549	3,2919	0,	-42,728	34,654
98550	2,9947	-0,50142	-42,348	32,374
98551	-20,39	0,	27,134	5,9338
98552	-20,862	0,	26,256	5,6698
98553	-20,627	-0,5	26,694	5,7922
98554	-19,917	0,	28,012	6,2138
98555	-20,154	-0,5	27,572	6,0645
98556	-19,681	-0,5	28,45	6,3526
98557	-26,064	0,	16,596	4,1444
98558	-26,537	0,	15,718	4,2257
98559	-26,301	-0,5	16,156	4,1443
98560	-25,828	-0,5	17,034	4,1031
98561	-25,	0,	4,	34,32
98562	-25,481	-0,50097	3,971	36,004
98563	-24,043	0,	3,8838	31,64
98564	-24,516	-0,50126	3,9706	34,074
98565	21,029	0,	-0,48215	14,366
98566	21,26	0,	-1,4184	16,312
98567	21,116	-0,49975	-0,95538	15,132
98568	21,029	0,	0,48215	14,403
98569	21,	-0,49948	1,5483e-003	14,085
98570	-8,5622	0,	49,074	7,3949
98571	-8,8047	-0,5	48,648	7,3501
98572	-8,0163	0,	49,886	7,9029
98573	-8,3049	-0,5	49,478	7,4122
98574	-7,7206	-0,50001	50,263	8,3344
98575	-21,708	0,	-2,2723	19,798
98576	-21,459	-0,50248	-1,8605	17,995
98577	-22,007	-0,5022	-2,6539	22,121
98578	7,2383	0,	-50,942	7,143
98579	7,55	-0,49785	-50,583	7,2569
98580	6,5594	0,	-51,618	6,8932
98581	6,9048	-0,49675	-51,291	6,9606
98582	6,1934	-0,49608	-51,932	6,7614
98583	-0,95726	0,	-41,116	30,805
98584	-1,4172	-0,50068	-41,259	26,165
98585	-4,196e-015	0,	-41,	28,208
98586	-0,48082	-0,50082	-41,029	22,691
98587	-24,043	0,	-3,8838	31,598
98588	-23,583	-0,50166	-3,7407	30,314
98589	-25,	0,	-4,	34,513
98590	-24,52	-0,50139	-3,9711	33,979
98591	-11,878	0,	42,94	10,091
98592	-11,642	-0,5	43,378	9,9306
98593	-12,351	0,	42,062	10,369
98594	-12,588	-0,5	41,622	10,489
98595	-12,115	-0,5	42,5	10,29
98596	3,2919	0,	42,728	26,521
98597	3,5411	-0,5019	43,14	30,064
98598	2,6525	0,	42,006	20,9
98599	2,9928	-0,50205	42,346	23,318
98600	-24,645	0,	19,23	4,2273
98601	-24,882	-0,5	18,79	4,1709
98602	-24,172	0,	20,109	4,3293
98603	-24,409	-0,5	19,668	4,2603
98604	-21,808	0,	24,499	5,192
98605	-22,045	-0,5	24,059	5,0746
98606	-21,335	0,	25,377	5,4223
98607	-21,572	-0,5	24,937	5,2966
98608	-21,099	-0,5	25,815	5,536
98609	-21,708	0,	2,2723	19,857
98610	-22,348	0,	2,994	23,809
98611	-22,005	-0,50214	2,6517	22,147
98612	-23,699	0,	20,987	4,4584
98613	-23,937	-0,5	20,546	4,3782
98614	-23,227	0,	21,865	4,6112
98615	-23,464	-0,5	21,425	4,5209
98616	-22,991	-0,5	22,303	4,6857
98617	-10,46	0,	45,575	8,5299
98618	-10,697	-0,5	45,135	8,8289
98619	-10,224	-0,5	46,013	8,2587
98620	-3,9708	0,	-44,518	29,805
98621	-4,	-0,49932	-44,998	27,517
98622	-3,7401	0,	-43,582	32,991
98623	-3,8835	-0,49933	-44,042	31,188
98624	-3,2919	0,	42,728	26,516
98625	-2,6525	0,	42,006	20,838
98626	-2,9954	-0,50014	42,349	23,27
98627	-3,7401	0,	43,582	33,089
98628	-3,5424	-0,49986	43,142	30,
98629	-28,971	0,	-0,48215	22,077
98630	-28,884	-0,49975	-0,95539	22,073
98631	-29,	-0,49948	1,5452e-003	20,75
98632	33,536	0,	-1,4735	20,954
98633	33,597	-0,49998	-0,97809	21,087
98634	33,452	-0,49997	-1,9533	20,754
98635	28,971	0,	-0,48215	21,959
98636	28,971	0,	0,48215	22,09
98637	29,	-0,50302	-1,7335e-003	20,705
98638	28,74	0,	-1,4184	23,895
98639	28,883	-0,50274	-0,95908	21,842
98640	28,74	0,	1,4184	24,3
98641	28,542	-0,50243	1,8577	25,795
98642	28,884	-0,50272	0,95619	22,218
98643	33,342	0,	2,4398	20,557
98644	33,208	-0,50002	2,9211	20,292
98645	33,45	-0,50002	1,9656	20,749
98646	0,95726	0,	-48,884	3,6162
98647	1,4167	-0,5015	-48,741	5,2835
98648	0,48032	-0,50123	-48,971	2,0321
98649	-25,957	0,	-3,8838	35,108
98650	-25,484	-0,50111	-3,9706	36,507
98651	-26,42	-0,50084	-3,7394	35,552
98652	-32,87	-0,50003	-3,8548	19,842
98653	3,7401	0,	-43,582	32,177
98654	3,5426	-0,50129	-43,143	32,738
98655	3,9708	0,	-44,518	29,157
98656	3,884	-0,50159	-44,044	30,335
98657	28,292	0,	-2,2723	27,465
98658	28,541	-0,50247	-1,8605	25,41
98659	27,993	-0,5022	-2,6539	29,935
98660	-21,26	0,	1,4184	16,36
98661	-21,458	-0,50243	1,8577	18,076
98662	-21,029	0,	0,48215	14,385
98663	-21,116	-0,50273	0,95619	15,158
98664	-21,	-0,50302	-1,7328e-003	14,105
98665	-27,009	0,	14,84	4,3903
98666	-27,246	-0,5	14,399	4,461
98667	-26,774	-0,5	15,278	4,2557
98668	-3,2919	0,	-42,728	34,535
98669	-3,5412	-0,4998	-43,14	32,668
98670	-2,9933	-0,50009	-42,347	32,317
98671	-2,6525	0,	-47,994	11,225
98672	-2,2735	-0,50041	-48,291	9,3063
98673	-2,9953	-0,50013	-47,651	13,41
98674	21,708	0,	-2,2723	19,789
98675	22,005	-0,5003	-2,6511	22,072
98676	21,457	-0,50002	-1,8573	17,994
98677	0,95726	0,	-41,116	30,056
98678	0,48378	-0,50054	-41,029	22,273
98679	1,4195	-0,50084	-41,26	26,348
98680	3,2919	0,	-47,272	15,886
98681	3,7401	0,	-46,418	20,736
98682	3,5411	-0,5019	-46,86	18,377
98683	2,9928	-0,50204	-47,654	13,658
98684	-23,141	0,	3,5418	27,833
98685	-23,581	-0,50156	3,7397	30,322
98686	-22,726	-0,50185	3,291	26,21
98687	-3,7401	0,	46,418	39,175
98688	-3,9708	0,	45,482	40,842
98689	-3,8835	-0,49933	45,958	42,737
98690	-3,5412	-0,4998	46,86	38,791
98691	-8,1191	-0,50008	-49,821	7,6913
98692	-30,319	0,	8,6927	11,386
98693	-30,556	-0,5	8,2524	12,522
98694	-30,084	-0,5	9,1306	10,241
98695	3,9708	0,	-45,482	25,49
98696	4,	-0,50188	-45,002	27,575
98697	3,8833	-0,50217	-45,959	23,174
98698	21,26	0,	1,4184	16,417
98699	21,117	-0,49949	0,9584	15,266
98700	21,708	0,	2,2723	19,851
98701	21,459	-0,4998	1,86	18,253
98702	25,957	0,	-3,8838	35,204
98703	26,417	-0,50166	-3,7407	35,921
98704	25,	0,	-4,	34,568
98705	25,48	-0,50138	-3,9711	36,36
98706	24,043	0,	-3,8838	31,639
98707	24,516	-0,50111	-3,9706	34,095
98708	23,58	-0,50084	-3,7394	30,295
98709	22,348	0,	2,994	23,837
98710	22,007	-0,50009	2,6534	22,183
98711	22,729	-0,50038	3,2927	26,229
98712	-1,8589	0,	41,458	17,469
98713	-1,4199	-0,50068	41,261	16,737
98714	-2,2734	-0,50041	41,709	18,335
98715	1,8589	0,	41,458	17,362
98716	2,2708	-0,50178	41,707	18,369
98717	1,4168	-0,5015	41,259	16,536
98718	-3,9708	0,	44,518	38,768
98719	-3,8843	-0,49959	44,045	37,212
98720	-4,	-0,49932	45,002	41,947
98721	25,957	0,	3,8838	34,987
98722	25,483	-0,50126	3,9707	36,508
98723	26,419	-0,50155	3,7397	35,779
98724	13,761	-5,	9,6553e-002	11,899
98725	14,117	-5,	0,41711	12,106
98726	13,134	-5,	3,2828e-002	11,55
98727	13,478	-5,	0,61209	11,719
98728	14,283	-5,	-0,1066	12,214
98729	13,707	-5,	-0,35127	11,865
98730	14,639	-5,	0,21396	12,414
98731	15,034	-5,	0,58906	12,658
98732	14,449	-5,	0,86628	12,271
98733	15,135	-5,	-0,10105	12,737
98734	14,601	-5,	-0,4022	12,39
98735	15,529	-5,	0,27404	12,968
98736	15,387	-5,	1,0069	12,837
98737	15,947	-5,	0,67156	13,229
98738	16,012	-5,	-9,0383e-002	13,291
98739	15,498	-5,	-0,45989	12,946
98740	10,952	-5,	-4,272	10,041
98741	11,095	-5,	-4,6917	10,012
98742	11,673	-5,	-4,3165	10,339
98743	11,326	-5,	-3,8619	10,266
98744	10,498	-5,	-4,5376	9,8114
98745	10,621	-5,	-3,9371	9,9654
98746	10,641	-5,	-4,9572	9,7877
98747	10,785	-5,	-5,4817	9,7295
98748	11,419	-5,	-5,1161	10,067
98749	10,058	-5,	-5,1328	9,5307
98750	10,042	-5,	-4,4459	9,6517
98751	-5,7182	-5,	47,324	16,492
98752	-5,4652	-5,	48,222	15,907
98753	-6,2258	-5,	47,747	14,483
98754	-5,9688	-5,	48,451	14,592
98755	30,197	-5,	1,4257	22,559
98756	30,481	-5,	1,0788	22,46
98757	29,795	-5,	1,4152	23,251
98758	29,961	-5,	0,86271	23,101
98759	30,152	-5,	1,9372	22,218
98760	30,606	-5,	1,7037	21,974
98761	-1,2129	-5,	-14,161	7,1107
98762	-1,2465	-5,	-14,753	7,2365
98763	-1,5864	-5,	-13,95	7,0919
98764	-1,767	-5,	-14,659	7,2401
98765	-0,99345	-5,	-13,598	7,0076
98766	-0,78154	-5,	-14,131	7,0904
98767	-7,3894	-5,	48,049	11,558
98768	-7,0511	-5,	47,628	12,672
98769	-7,5763	-5,	47,24	11,884
98770	-7,8339	-5,	47,879	10,66
98771	-7,0086	-5,	48,507	12,086
98772	-7,517	-5,	48,65	10,715
98773	-7,0308	-5,	7,8157	8,0706
98774	-6,2639	-5,	7,1448	8,0284
98775	-6,9064	-5,	7,1405	8,172
98776	-6,393	-5,	7,8699	7,9178
98777	-7,8229	-5,	8,43	8,1546
98778	-7,1696	-5,	8,4992	7,9817
98779	-7,6757	-5,	7,8269	8,2279
98780	-7,958	-5,	9,0681	8,083
98781	-8,4963	-5,	8,4033	8,3399
98782	-8,619	-5,	8,9572	8,2764
98783	-28,688	-5,	5,5566	17,435
98784	-28,661	-5,	4,9223	18,91
98785	-29,602	-5,	4,7226	18,298
98786	-29,287	-5,	5,4073	17,516
98787	-30,659	-5,	-0,12504	22,394
98788	-30,543	-5,	0,78603	22,327
98789	-31,082	-5,	0,20818	22,037
98790	-30,156	-5,	0,20122	23,059
98791	2,021	-5,	-52,185	6,2292
98792	1,9232	-5,	-51,674	6,1183
98793	2,5469	-5,	-51,789	6,3496
98794	2,4394	-5,	-52,417	6,2829
98795	1,4866	-5,	-52,289	6,1294
98796	1,8249	-5,	-52,725	6,1999
98797	9,2971e-002	-5,	15,186	7,1236
98798	0,35072	-5,	14,561	7,0076
98799	0,57017	-5,	15,145	7,1197
98800	7,8939e-002	-5,	19,666	8,4867
98801	0,53395	-5,	19,625	8,4734
98802	0,3196	-5,	19,081	8,2724
98803	9,0199	-5,	8,9566	8,3919
98804	9,3325	-5,	8,489	8,5641
98805	9,6828	-5,	8,9541	8,586
98806	-11,003	-5,	1,3854	10,442
98807	-10,93	-5,	0,68173	10,454
98808	-11,443	-5,	0,68757	10,681
98809	-11,665	-5,	1,1457	10,766
98810	5,3557	-5,	37,57	16,698
98811	5,1069	-5,	36,918	16,179
98812	4,9349	-5,	37,593	16,867
98813	5,6808	-5,	37,143	16,13
98814	16,402	-5,	-0,47601	13,515
98815	16,429	-5,	0,30713	13,536
98816	16,906	-5,	-8,0427e-002	13,843
98817	4,3215	-5,	-48,349	9,4583
98818	4,8263	-5,	-48,142	9,6819
98819	5,0144	-5,	-48,637	8,8457
98820	4,3628	-5,	-48,767	8,7263
98821	23,036	-5,	-7,8288	13,862
98822	23,506	-5,	-8,0924	13,568
98823	22,968	-5,	-8,4049	13,1
98824	4,0305	-5,	-47,907	11,087
98825	3,7554	-5,	-48,353	9,3804
98826	-0,47871	-5,	-4,9704	7,7941
98827	-0,49982	-5,	-4,1586	7,9488
98828	-0,89377	-5,	-3,903	7,9946
98829	-0,95154	-5,	-4,8873	7,8176
98830	-1,5146	-5,	-3,9413	8,0145
98831	-1,6815	-5,	-4,6957	7,892
98832	-0,29338	-5,	-2,238	8,22
98833	-0,41771	-5,	-2,9889	8,1283
98834	0,26032	-5,	-2,5682	8,1875
98835	-3,7649e-002	-5,	-6,0982	7,5623
98836	-0,51562	-5,	-6,4672	7,4958
98837	-0,55177	-5,	-7,051	7,3773
98838	0,15423	-5,	-7,0699	7,369
98839	-0,7628	-5,	8,4103	7,1439
98840	-0,14649	-5,	8,5681	7,1082
98841	-0,70678	-5,	9,1555	7,0195
98842	-1,8004e-002	-5,	9,1821	7,0072
98843	-0,5867	-5,	7,6725	7,2782
98844	2,9603e-002	-5,	7,8303	7,2407
98845	0,27063	-5,	6,8942	7,4277
98846	0,51135	-5,	7,6107	7,2898
98847	-0,48651	-5,	6,8853	7,4327
98848	-1,5231	-5,	8,3198	7,1899
98849	-1,4223	-5,	7,591	7,3212
98850	-0,33438	-5,	-5,4331	7,7035
98851	0,54154	-5,	-5,9557	7,599
98852	0,40573	-5,	-5,0347	7,7795
98853	0,21805	-5,	4,3882	7,9256
98854	0,23939	-5,	5,2317	7,7675
98855	0,98877	-5,	5,2442	7,7782
98856	1,0013	-5,	4,4959	7,9214
98857	0,2113	-5,	2,874	8,16
98858	0,15159	-5,	3,599	8,0591
98859	0,79111	-5,	2,8708	8,1702
98860	0,93485	-5,	3,7067	8,0535
98861	7,3749e-002	-5,	2,0835	8,2477
98862	-0,50861	-5,	2,5496	8,2095
98863	-0,56831	-5,	3,2745	8,1075
98864	-0,54542	-5,	4,3033	7,9456
98865	0,22451	-5,	6,0281	7,6067
98866	-0,52408	-5,	5,1468	7,7865
98867	-0,53263	-5,	6,0192	7,6125
98868	-0,29772	-5,	-3,637	8,0335
98869	0,38031	-5,	-3,2164	8,0914
98870	0,38462	-5,	-4,223	7,9331
98871	-0,48965	-5,	-0,39972	8,3506
98872	0,26974	-5,	0,34986	8,3505
98873	0,10418	-5,	-0,58957	8,3362
98874	-0,33366	-5,	0,54413	8,3423
98875	-0,65531	-5,	-1,3217	8,3051
98876	-0,80513	-5,	-2,2984	8,2244
98877	-6,1478e-002	-5,	-1,5116	8,2907
98878	0,44206	-5,	1,2096	8,3179
98879	0,65357	-5,	2,0803	8,2576
98880	-0,16134	-5,	1,4039	8,3096
98881	-0,92946	-5,	-3,0492	8,1332
98882	-0,81236	-5,	-5,8021	7,6335
98883	-1,1616	-5,	-6,4598	7,5154
98884	-1,355	-5,	-5,5939	7,6994
98885	-1,1977	-5,	-7,0436	7,3976
98886	-0,58127	-5,	-7,7456	7,2439
98887	-1,2873	-5,	-7,6853	7,279
98888	0,54618	-5,	8,5032	7,1242
98889	-1,9041	-5,	-6,9391	7,4583
98890	-1,7043	-5,	-6,2517	7,5815
98891	0,97389	-5,	6,0406	7,6179
98892	1,0429	-5,	6,7812	7,4692
98893	1,6792	-5,	6,0468	7,6459
98894	1,9171	-5,	5,3659	7,8002
98895	0,12472	-5,	-7,7645	7,2353
98896	0,73342	-5,	-6,9274	7,4042
98897	0,82738	-5,	-7,7991	7,2407
98898	-0,67059	-5,	-8,3716	7,1353
98899	3,4063e-002	-5,	-8,4436	7,1145
98900	0,86499	-5,	-9,9443	6,9261
98901	0,31575	-5,	-9,8749	6,9212
98902	0,53359	-5,	-9,2126	7,0029
98903	1,3006	-5,	-9,3316	7,015
98904	0,68707	-5,	-10,583	6,8705
98905	1,3722	-5,	-10,19	6,9256
98906	1,2364	-5,	-10,622	6,8883
98907	0,13783	-5,	-10,514	6,8664
98908	-0,46044	-5,	-10,474	6,8724
98909	-0,3153	-5,	-9,7704	6,9321
98910	-1,4671	-5,	9,065	7,0619
98911	-0,60042	-5,	9,9506	6,9095
98912	-1,3034	-5,	9,8187	6,9488
98913	-2,1799	-5,	8,9965	7,1167
98914	-2,2979	-5,	8,3027	7,2427
98915	1,3386	-5,	-6,8141	7,4511
98916	1,1916	-5,	-5,9151	7,6256
98917	-1,0805	-5,	-0,1656	8,3625
98918	-1,2341	-5,	-1,1688	8,3375
98919	0,87129	-5,	0,16448	8,3572
98920	1,0715	-5,	1,1052	8,3429
98921	-1,5503	-5,	-3,0875	8,1526
98922	-1,3839	-5,	-2,1455	8,2568
98923	1,283	-5,	1,9759	8,2827
98924	1,4854	-5,	2,8948	8,1925
98925	1,6292	-5,	3,7307	8,0768
98926	1,9296	-5,	4,6177	7,9414
98927	2,3048	-5,	6,2132	7,6545
98928	2,5426	-5,	5,5323	7,8074
98929	2,943	-5,	6,157	7,7215
98930	8,8356e-002	-5,	9,9772	6,9004
98931	0,80772	-5,	9,8314	6,9294
98932	0,67467	-5,	9,1173	7,024
98933	1,5495	-5,	8,2166	7,21
98934	1,2836	-5,	7,4976	7,333
98935	1,0279	-5,	8,2836	7,1737
98936	2,4262	-5,	6,7848	7,5464
98937	1,7482	-5,	6,7874	7,499
98938	-1,4507	-5,	-8,9628	7,0727
98939	-1,3766	-5,	-8,3112	7,1709
98940	-0,80212	-5,	-9,0361	7,0345
98941	0,73672	-5,	-8,4783	7,1193
98942	-9,7466e-002	-5,	-9,1081	7,0131
98943	7,6084e-002	-5,	-11,187	6,8371
98944	0,68776	-5,	-11,199	6,8456
98945	4,6224e-002	-5,	11,034	6,808
98946	-0,59239	-5,	10,741	6,8337
98947	0,31144	-5,	10,635	6,8376
98948	-2,0161	-5,	9,7501	6,9984
98949	-2,6614	-5,	9,6671	7,0605
98950	-2,9613	-5,	9,0476	7,1782
98951	2,1158	-5,	-7,611	7,3439
98952	1,9921	-5,	-6,7546	7,4997
98953	1,4326	-5,	-7,6859	7,2859
98954	-1,251	-5,	3,1528	8,1472
98955	-1,3339	-5,	2,1177	8,2762
98956	-0,7437	-5,	1,8699	8,2709
98957	-2,0109	-5,	5,9256	7,692
98958	-1,9474	-5,	5,0484	7,861
98959	-1,2489	-5,	5,0987	7,8168
98960	-1,2575	-5,	5,9711	7,6426
98961	-2,0755	-5,	6,7583	7,5256
98962	-2,1971	-5,	7,5739	7,3717
98963	-1,3221	-5,	6,8038	7,4753
98964	1,8451	-5,	-5,8556	7,673
98965	1,739	-5,	-4,9529	7,8434
98966	1,0557	-5,	-4,9941	7,8052
98967	1,008	-5,	-3,0454	8,1358
98968	1,0904	-5,	-2,0317	8,2621
98969	0,49222	-5,	-1,8417	8,2578
98970	-1,5147	-5,	1,026	8,3589
98971	-1,6766	-5,	-6,0968e-003	8,3947
98972	-0,92448	-5,	0,77826	8,3542
98973	1,3039	-5,	-0,96487	8,3469
98974	1,495	-5,	1,6909e-002	8,3857
98975	0,70574	-5,	-0,77496	8,3429
98976	1,6952	-5,	0,95764	8,3713
98977	1,9107	-5,	1,8858	8,3265
98978	-2,1718	-5,	-2,9298	8,2073
98979	-2,3481	-5,	-3,7957	8,094
98980	2,1131	-5,	2,8047	8,2367
98981	2,3466	-5,	3,6878	8,1309
98982	-2,5151	-5,	-4,5502	7,9725
98983	-2,7852	-5,	-5,296	7,8578
98984	-2,085	-5,	-5,4024	7,7757
98985	2,647	-5,	4,5748	7,9977
98986	3,0125	-5,	5,3365	7,8921
98987	-0,52218	-5,	-11,148	6,8427
98988	0,12722	-5,	-11,828	6,8373
98989	-0,59515	-5,	-11,849	6,844
98990	3,0645	-5,	6,7285	7,6147
98991	3,4129	-5,	5,9611	7,8065
98992	3,6829	-5,	6,6417	7,702
98993	-2,7286	-5,	-7,5223	7,413
98994	-1,9936	-5,	-7,5807	7,3394
98995	-2,5812	-5,	-6,8325	7,531
98996	-4,5445e-002	-5,	11,855	6,7814
98997	-0,68405	-5,	11,561	6,7944
98998	-0,77735	-5,	12,34	6,7964
98999	-9,1699e-003	-5,	12,562	6,7936
99000	0,66385	-5,	11,961	6,7888
99001	0,56705	-5,	11,25	6,8026
99002	1,439	-5,	9,7372	6,9655
99003	1,6149	-5,	10,436	6,8985
99004	1,0308	-5,	10,489	6,8666
99005	1,8276	-5,	8,9561	7,099
99006	2,0296	-5,	9,6645	7,0104
99007	1,306	-5,	9,0231	7,0607
99008	2,4107	-5,	8,8854	7,1531
99009	2,1896	-5,	8,1849	7,255
99010	3,2428	-5,	7,4093	7,499
99011	2,6016	-5,	7,4633	7,425
99012	-1,0666	-5,	-10,415	6,8941
99013	-1,1906	-5,	-11,119	6,8653
99014	-1,5701	-5,	-9,638	6,9913
99015	-1,6761	-5,	-10,335	6,9317
99016	-0,9215	-5,	-9,7113	6,953
99017	-2,1423	-5,	-8,8703	7,1315
99018	-2,1769	-5,	-9,5658	7,0427
99019	1,8078	-5,	-9,577	7,0131
99020	2,1869	-5,	-8,5223	7,1887
99021	2,3036	-5,	-9,3283	7,0827
99022	1,5037	-5,	-8,5972	7,1315
99023	2,0814	-5,	-10,318	6,9619
99024	1,6049	-5,	-10,531	6,9142
99025	0,7389	-5,	-11,839	6,8475
99026	1,3444	-5,	-11,84	6,8713
99027	1,2371	-5,	-11,237	6,865
99028	0,25137	-5,	-12,505	6,8705
99029	0,85032	-5,	-12,508	6,8828
99030	-0,10229	-5,	-13,224	6,9398
99031	-0,471	-5,	-12,526	6,8744
99032	0,41878	-5,	-13,196	6,9388
99033	-1,2954	-5,	10,609	6,8671
99034	-1,963	-5,	10,438	6,92
99035	-1,3453	-5,	11,366	6,8238
99036	-2,7857	-5,	-8,8149	7,1984
99037	-2,8031	-5,	-8,1603	7,3049
99038	-2,0682	-5,	-8,2187	7,2304
99039	-3,2073	-5,	9,8068	7,0993
99040	-3,2243	-5,	10,358	7,0397
99041	-2,6083	-5,	10,355	6,9785
99042	-1,4386	-5,	12,144	6,8183
99043	-0,94206	-5,	13,067	6,8374
99044	-1,6036	-5,	12,9	6,8541
99045	2,8571	-5,	-8,3676	7,2769
99046	2,7899	-5,	-7,5398	7,4154
99047	-1,9266	-5,	4,1313	8,0285
99048	-1,9318	-5,	3,1847	8,1769
99049	-1,2281	-5,	4,1816	7,9846
99050	-2,8466	-5,	6,7534	7,5893
99051	-2,7233	-5,	5,8734	7,7562
99052	-2,9681	-5,	7,569	7,4387
99053	-3,0793	-5,	8,3538	7,3039
99054	2,6662	-5,	-6,6834	7,5702
99055	2,5397	-5,	-5,7894	7,7363
99056	1,6956	-5,	-4,0107	8,014
99057	1,7061	-5,	-3,0497	8,1648
99058	1,0123	-5,	-4,052	7,9763
99059	-2,0146	-5,	2,1496	8,3053
99060	-2,1123	-5,	1,1415	8,3906
99061	1,7885	-5,	-2,036	8,2908
99062	1,9126	-5,	-1,0462	8,3761
99063	-2,2742	-5,	0,10938	8,4261
99064	-2,4551	-5,	-0,86359	8,4234
99065	-1,8302	-5,	-1,0093	8,3697
99066	2,1037	-5,	-6,4469e-002	8,4147
99067	2,32	-5,	0,86131	8,4184
99068	-2,6304	-5,	-1,8421	8,3652
99069	-2,8257	-5,	-2,7436	8,2897
99070	-2,0055	-5,	-1,9878	8,3114
99071	2,5354	-5,	1,7895	8,3738
99072	2,7574	-5,	2,7234	8,2991
99073	-3,5073	-5,	9,1874	7,2163
99074	-3,7971	-5,	9,7956	7,1714
99075	-2,8203	-5,	-9,5104	7,1088
99076	-3,3907	-5,	-9,549	7,1694
99077	-3,5701	-5,	-8,8598	7,2839
99078	-3,0021	-5,	-3,6096	8,1764
99079	-3,2342	-5,	-4,417	8,0696
99080	2,9909	-5,	3,6065	8,1942
99081	3,3001	-5,	4,3993	8,0971
99082	-3,5043	-5,	-5,1628	7,9565
99083	-3,7691	-5,	-5,92	7,8455
99084	-3,0815	-5,	-6,0387	7,7375
99085	3,6656	-5,	5,161	7,9929
99086	3,9754	-5,	5,8762	7,8936
99087	3,8613	-5,	7,3224	7,5877
99088	4,2454	-5,	6,5568	7,791
99089	4,4952	-5,	7,2162	7,698
99090	-0,27897	-5,	14,923	7,0724
99091	8,047e-002	-5,	15,785	7,2574
99092	-0,45575	-5,	15,698	7,2393
99093	0,36751	-5,	13,61	6,8749
99094	-2,1219e-002	-5,	14,297	6,9624
99095	0,7574	-5,	14,317	6,9744
99096	0,70012	-5,	12,668	6,8066
99097	-0,17388	-5,	13,289	6,8403
99098	0,90626	-5,	13,349	6,8592
99099	1,2929	-5,	11,873	6,8106
99100	1,4368	-5,	12,586	6,8296
99101	1,7801	-5,	11,11	6,8592
99102	1,9383	-5,	11,809	6,8469
99103	1,1961	-5,	11,163	6,8262
99104	2,3878	-5,	11,061	6,9058
99105	2,2055	-5,	10,363	6,9441
99106	3,0222	-5,	8,8254	7,2186
99107	3,2191	-5,	9,5153	7,1373
99108	2,6127	-5,	9,5938	7,0659
99109	3,4423	-5,	8,0708	7,3946
99110	3,644	-5,	8,7435	7,3028
99111	2,8012	-5,	8,1249	7,3181
99112	4,0736	-5,	7,9851	7,4911
99113	-0,61296	-5,	-13,412	6,9702
99114	9,7752e-002	-5,	-13,964	7,0503
99115	-0,40105	-5,	-13,944	7,0501
99116	-0,98167	-5,	-12,715	6,904
99117	-1,367	-5,	-13,387	6,9934
99118	-1,2636	-5,	-11,82	6,8671
99119	-1,4776	-5,	-12,488	6,9079
99120	-1,9592	-5,	-11,73	6,9075
99121	-1,8	-5,	-11,039	6,9022
99122	-2,8812	-5,	-10,192	7,0464
99123	-2,2829	-5,	-10,263	6,9825
99124	-4,0052	-5,	-6,6603	7,7283
99125	-4,2298	-5,	-7,39	7,6238
99126	-3,465	-5,	-7,4689	7,503
99127	-3,3176	-5,	-6,7791	7,6185
99128	2,5772	-5,	-10,069	7,0256
99129	2,9738	-5,	-9,1736	7,1679
99130	3,0996	-5,	-9,9811	7,0894
99131	2,2593	-5,	-10,967	6,9397
99132	2,7708	-5,	-10,829	6,9936
99133	1,8901	-5,	-11,782	6,9037
99134	2,4481	-5,	-11,681	6,9471
99135	1,7828	-5,	-11,179	6,8977
99136	1,4558	-5,	-12,509	6,9091
99137	2,0427	-5,	-12,465	6,9435
99138	1,0177	-5,	-13,198	6,9551
99139	1,5985	-5,	-13,185	6,9807
99140	0,61882	-5,	-13,937	7,0523
99141	1,1678	-5,	-13,911	7,0644
99142	0,21057	-5,	-14,698	7,1989
99143	0,75607	-5,	-14,687	7,2049
99144	-0,29156	-5,	-15,443	7,3855
99145	0,28612	-5,	-15,449	7,3869
99146	-0,28823	-5,	-14,678	7,1952
99147	-2,0984	-5,	11,972	6,8572
99148	-2,013	-5,	11,195	6,8702
99149	-0,56261	-5,	13,977	6,922
99150	-1,1448	-5,	13,801	6,9152
99151	-0,7722	-5,	14,742	7,0463
99152	3,4859	-5,	-9,178	7,2281
99153	3,6368	-5,	-8,2982	7,3797
99154	-2,2633	-5,	12,728	6,8881
99155	-2,44	-5,	13,453	6,9535
99156	-1,8064	-5,	13,634	6,9286
99157	-0,31457	-5,	-16,18	7,6022
99158	0,26311	-5,	-16,185	7,6033
99159	0,20834	-5,	-16,903	7,8417
99160	-0,40429	-5,	-16,897	7,8404
99161	-2,6598	-5,	4,9962	7,9243
99162	-2,6199	-5,	4,0936	8,0833
99163	-3,6763	-5,	7,5151	7,5283
99164	-3,5418	-5,	6,6941	7,6732
99165	-3,7875	-5,	8,3	7,3952
99166	-4,0209	-5,	9,0004	7,3109
99167	3,3365	-5,	-6,6276	7,6499
99168	3,5695	-5,	-7,4704	7,5177
99169	2,4336	-5,	-4,8867	7,9057
99170	2,3802	-5,	-3,9804	8,0632
99171	-2,6251	-5,	3,147	8,231
99172	-2,6655	-5,	2,1997	8,3494
99173	2,4519	-5,	-2,0794	8,3325
99174	2,3908	-5,	-3,0193	8,2133
99175	-2,7631	-5,	1,1915	8,4341
99176	-2,8947	-5,	0,21976	8,4802
99177	2,576	-5,	-1,0897	8,4173
99178	2,7331	-5,	-0,15472	8,4652
99179	-3,267	-5,	-1,6846	8,444
99180	-3,0757	-5,	-0,75321	8,4773
99181	2,9493	-5,	0,77106	8,4688
99182	3,1655	-5,	1,6817	8,4427
99183	-3,4623	-5,	-2,5861	8,3687
99184	-3,6847	-5,	-3,4324	8,284
99185	3,3875	-5,	2,6156	8,3683
99186	3,649	-5,	3,4502	8,2916
99187	-3,9168	-5,	-4,2399	8,1777
99188	-4,1862	-5,	-5,0245	8,0758
99189	3,9582	-5,	4,243	8,1955
99190	4,272	-5,	5,0029	8,105
99191	-4,451	-5,	-5,7816	7,9664
99192	-4,721	-5,	-6,5225	7,8676
99193	4,8717	-5,	6,4117	7,9172
99194	4,5817	-5,	5,7181	8,0067
99195	4,7074	-5,	7,8789	7,6028
99196	5,1215	-5,	7,0711	7,825
99197	5,3547	-5,	7,756	7,7359
99198	-3,268	-5,	11,091	6,9897
99199	-3,8141	-5,	10,347	7,1122
99200	-3,9032	-5,	11,014	7,0716
99201	-3,921	-5,	-9,7046	7,2237
99202	-3,4515	-5,	-10,231	7,1102
99203	-4,0814	-5,	-10,239	7,1967
99204	-4,5386	-5,	-9,6098	7,3295
99205	-4,1004	-5,	-9,0154	7,3343
99206	0,55767	-5,	15,744	7,2518
99207	1,77e-002	-5,	16,486	7,437
99208	0,63874	-5,	16,462	7,4354
99209	0,97684	-5,	14,901	7,0814
99210	1,1295	-5,	15,635	7,2398
99211	1,5243	-5,	14,8	7,0831
99212	1,2961	-5,	14,056	6,9549
99213	2,0822	-5,	12,521	6,866
99214	2,2639	-5,	13,221	6,9194
99215	1,6429	-5,	13,267	6,8837
99216	2,546	-5,	11,759	6,8947
99217	2,7165	-5,	12,459	6,9151
99218	2,9887	-5,	10,989	6,9659
99219	3,1688	-5,	11,685	6,9564
99220	3,4127	-5,	10,213	7,0758
99221	3,598	-5,	10,907	7,0394
99222	2,8063	-5,	10,291	7,0034
99223	3,8408	-5,	9,4334	7,2228
99224	4,0288	-5,	10,12	7,1641
99225	4,9099	-5,	8,5508	7,5175
99226	4,2752	-5,	8,6577	7,4009
99227	-0,81847	-5,	-15,488	7,4067
99228	-0,90913	-5,	-16,165	7,607
99229	-1,3918	-5,	-15,461	7,4178
99230	-0,81514	-5,	-14,723	7,2148
99231	-1,8629	-5,	-13,16	6,9945
99232	-2,1145	-5,	-13,867	7,1107
99233	-2,1732	-5,	-12,398	6,9496
99234	-2,4012	-5,	-13,079	7,0257
99235	-2,5886	-5,	-11,652	6,9602
99236	-2,7821	-5,	-12,329	7,0004
99237	-3,0277	-5,	-10,89	7,0189
99238	-3,2121	-5,	-11,584	7,0265
99239	-2,4295	-5,	-10,961	6,955
99240	-3,6411	-5,	-10,849	7,0961
99241	-4,9457	-5,	-7,2522	7,7643
99242	-5,1505	-5,	-7,9048	7,6858
99243	-4,3523	-5,	-8,1263	7,5105
99244	4,0337	-5,	-9,29	7,2899
99245	4,7181	-5,	-9,1866	7,4124
99246	4,1846	-5,	-8,4102	7,4372
99247	3,6117	-5,	-9,9855	7,1525
99248	4,2141	-5,	-9,9048	7,2472
99249	3,2931	-5,	-10,741	7,0568
99250	3,8738	-5,	-10,668	7,1375
99251	2,9596	-5,	-11,543	6,9978
99252	3,5163	-5,	-11,444	7,0643
99253	2,6007	-5,	-12,363	6,9849
99254	3,1685	-5,	-12,267	7,0389
99255	2,1854	-5,	-13,141	7,0157
99256	2,767	-5,	-13,063	7,0578
99257	1,7485	-5,	-13,898	7,0923
99258	2,3346	-5,	-13,837	7,1226
99259	1,8916	-5,	-14,609	7,2365
99260	1,305	-5,	-14,661	7,2183
99261	0,8929	-5,	-16,161	7,6055
99262	0,83162	-5,	-15,438	7,3938
99263	-2,7373	-5,	11,865	6,9107
99264	-3,3783	-5,	11,758	6,9783
99265	-2,6519	-5,	11,088	6,9271
99266	-2,8837	-5,	12,56	6,9341
99267	-0,94897	-5,	15,518	7,2083
99268	-1,4764	-5,	15,357	7,1912
99269	-1,3544	-5,	14,567	7,0354
99270	-0,51852	-5,	16,399	7,4169
99271	-1,0956	-5,	16,3	7,4023
99272	2,3143e-002	-5,	17,223	7,6503
99273	-0,64328	-5,	17,135	7,628
99274	-4,3107	-5,	9,6086	7,2646
99275	-4,4066	-5,	10,241	7,2055
99276	-4,699	-5,	-10,145	7,3028
99277	-4,271	-5,	-10,857	7,187
99278	-4,9064	-5,	-10,769	7,2958
99279	-5,0348	-5,	-9,3632	7,4435
99280	-5,3071	-5,	-10,	7,4259
99281	0,11792	-5,	-17,641	8,1112
99282	0,83814	-5,	-16,88	7,8412
99283	0,73341	-5,	-17,604	8,1031
99284	-3,4185	-5,	5,8141	7,8384
99285	-3,346	-5,	4,9687	7,9951
99286	-4,4962	-5,	8,1842	7,5158
99287	-4,3369	-5,	7,4139	7,6352
99288	3,1314	-5,	-4,8359	7,9791
99289	3,21	-5,	-5,7335	7,8142
99290	-3,2974	-5,	3,1591	8,292
99291	-3,3061	-5,	4,0661	8,1527
99292	3,1352	-5,	-2,0838	8,3916
99293	3,2294	-5,	-1,1649	8,4765
99294	3,3865	-5,	-0,22996	8,5239
99295	3,5752	-5,	0,6821	8,54
99296	-4,1131	-5,	-2,4609	8,468
99297	-3,8961	-5,	-1,5889	8,52
99298	3,7913	-5,	1,5927	8,514
99299	4,0341	-5,	2,4614	8,4675
99300	-4,3355	-5,	-3,3072	8,3841
99301	-4,5975	-5,	-4,1192	8,2993
99302	4,5886	-5,	4,0649	8,3179
99303	4,2956	-5,	3,296	8,3912
99304	-4,8668	-5,	-4,9038	8,1992
99305	-5,1396	-5,	-5,6433	8,1101
99306	-5,6897	-5,	-7,0859	7,9365
99307	-5,4097	-5,	-6,3843	8,0129
99308	5,4958	-5,	6,2409	8,0561
99309	5,7603	-5,	6,9404	7,9689
99310	5,5572	-5,	8,4279	7,6512
99311	5,9936	-5,	7,6253	7,8806
99312	6,2195	-5,	8,2877	7,807
99313	-4,7295	-5,	8,8846	7,4332
99314	-4,8707	-5,	9,5198	7,3635
99315	-0,14747	-5,	17,935	7,8758
99316	0,8326	-5,	17,89	7,8676
99317	0,32171	-5,	18,163	7,9529
99318	0,64419	-5,	17,199	7,6477
99319	1,677	-5,	15,535	7,2397
99320	1,8335	-5,	16,252	7,4183
99321	1,2106	-5,	16,353	7,4206
99322	2,0864	-5,	14,72	7,1003
99323	2,2731	-5,	15,439	7,2515
99324	2,4792	-5,	13,929	7,0095
99325	2,677	-5,	14,638	7,1281
99326	1,8582	-5,	13,975	6,9719
99327	2,8981	-5,	13,159	6,9691
99328	3,09	-5,	13,855	7,0536
99329	3,3393	-5,	12,386	6,9768
99330	3,5223	-5,	13,084	7,0284
99331	3,7781	-5,	11,604	7,0299
99332	3,9605	-5,	12,3	7,0498
99333	4,3965	-5,	11,506	7,1174
99334	4,214	-5,	10,814	7,1277
99335	5,0997	-5,	9,2272	7,4426
99336	5,2766	-5,	9,9091	7,3837
99337	4,465	-5,	9,3341	7,3254
99338	4,653	-5,	10,021	7,267
99339	5,738	-5,	9,1011	7,5776
99340	-0,49471	-5,	-17,634	8,1119
99341	4,7538e-002	-5,	-18,377	8,4032
99342	-0,60051	-5,	-18,361	8,3989
99343	-0,99885	-5,	-16,882	7,8464
99344	-1,1243	-5,	-17,572	8,0978
99345	-1,4825	-5,	-16,138	7,6185
99346	-1,6086	-5,	-16,829	7,8463
99347	-1,9123	-5,	-15,367	7,4197
99348	-2,0728	-5,	-16,066	7,6242
99349	-2,2951	-5,	-14,577	7,258
99350	-2,4774	-5,	-15,277	7,4321
99351	-2,6529	-5,	-13,786	7,1425
99352	-2,8674	-5,	-14,488	7,2862
99353	-3,0101	-5,	-13,01	7,0778
99354	-3,2272	-5,	-13,699	7,1854
99355	-3,4056	-5,	-12,26	7,0674
99356	-3,6143	-5,	-12,937	7,1399
99357	-3,8255	-5,	-11,542	7,1055
99358	-4,0214	-5,	-12,193	7,1453
99359	-4,455	-5,	-11,478	7,1992
99360	-5,3949	-5,	-8,5474	7,6248
99361	-5,6397	-5,	-9,1884	7,5829
99362	-4,5967	-5,	-8,7688	7,4502
99363	-5,8946	-5,	-7,7386	7,8582
99364	-6,1059	-5,	-8,3655	7,7997
99365	5,5005	-5,	-9,6572	7,4984
99366	5,1659	-5,	-8,9106	7,5266
99367	4,8984	-5,	-9,8014	7,3703
99368	4,6888	-5,	-11,269	7,2407
99369	4,4762	-5,	-10,587	7,234
99370	4,097	-5,	-11,371	7,1459
99371	3,3348	-5,	-12,967	7,1097
99372	3,9244	-5,	-12,869	7,1745
99373	3,7252	-5,	-12,167	7,1041
99374	2,9162	-5,	-13,759	7,1633
99375	3,5089	-5,	-13,669	7,2129
99376	2,4776	-5,	-14,548	7,2662
99377	3,0804	-5,	-14,459	7,3008
99378	2,0254	-5,	-15,348	7,4217
99379	2,6301	-5,	-15,25	7,4371
99380	1,5001	-5,	-16,124	7,6148
99381	2,1591	-5,	-16,07	7,6302
99382	1,4389	-5,	-15,401	7,4039
99383	1,54	-5,	-16,893	7,866
99384	0,66303	-5,	-18,34	8,3919
99385	1,4353	-5,	-17,618	8,1239
99386	1,2101	-5,	-18,364	8,4098
99387	-2,6554e-003	-5,	-19,158	8,7327
99388	0,69022	-5,	-19,073	8,6986
99389	-5,3096	-5,	8,7651	7,5508
99390	-5,1428	-5,	8,0652	7,6406
99391	-5,4508	-5,	9,4003	7,4802
99392	-6,0668	-5,	9,2997	7,6127
99393	-5,9209	-5,	8,6315	7,6871
99394	-4,9667	-5,	10,153	7,3033
99395	-5,5831	-5,	10,067	7,4211
99396	-4,4958	-5,	10,909	7,1626
99397	-5,1097	-5,	10,809	7,2678
99398	-4,0135	-5,	11,682	7,0592
99399	-4,6449	-5,	11,58	7,1524
99400	-4,1637	-5,	12,344	7,0776
99401	-3,5247	-5,	12,453	6,9997
99402	-2,5819	-5,	14,23	7,0582
99403	-3,2705	-5,	13,951	7,083
99404	-3,0604	-5,	13,285	6,9946
99405	-2,0701	-5,	15,202	7,1901
99406	-2,8703	-5,	14,835	7,1779
99407	-2,66	-5,	15,215	7,2323
99408	-1,9482	-5,	14,411	7,0398
99409	-1,623	-5,	16,139	7,3807
99410	-2,1544	-5,	16,003	7,3733
99411	-1,2204	-5,	17,036	7,612
99412	-1,7908	-5,	16,925	7,5998
99413	-0,49887	-5,	18,642	8,1188
99414	-0,99866	-5,	18,571	8,1003
99415	-0,81389	-5,	17,848	7,8545
99416	-0,27034	-5,	19,454	8,4095
99417	-0,7063	-5,	19,398	8,3911
99418	-2,9686e-002	-5,	18,87	8,1959
99419	0,10722	-5,	20,237	8,7037
99420	-0,41095	-5,	20,192	8,6875
99421	3,7566	-5,	-3,9119	8,2147
99422	3,078	-5,	-3,9296	8,1355
99423	3,8071	-5,	-4,7898	8,0669
99424	7,6866e-002	-5,	-20,702	9,4312
99425	0,61122	-5,	-20,468	9,3251
99426	0,31981	-5,	-21,209	9,6767
99427	0,79273	-5,	-21,253	9,6949
99428	-3,9705	-5,	3,1535	8,3703
99429	-3,9912	-5,	2,2506	8,4831
99430	-3,3377	-5,	2,2118	8,4094
99431	3,7527	-5,	-3,006	8,3513
99432	3,7898	-5,	-2,1149	8,4622
99433	3,0741	-5,	-3,0237	8,2733
99434	-4,0713	-5,	1,3047	8,5693
99435	-4,1858	-5,	0,37406	8,6231
99436	-3,4179	-5,	1,2658	8,4965
99437	-3,5495	-5,	0,29406	8,5421
99438	-4,7508	-5,	-2,3649	8,5674
99439	-4,9956	-5,	-3,1929	8,5073
99440	-5,2577	-5,	-4,0049	8,4239
99441	-5,5345	-5,	-4,7545	8,3492
99442	5,2354	-5,	3,9383	8,4386
99443	5,5426	-5,	4,689	8,3671
99444	4,9024	-5,	4,8248	8,2281
99445	5,846	-5,	5,4116	8,2855
99446	6,1453	-5,	6,1021	8,2125
99447	5,2058	-5,	5,5474	8,145
99448	-6,3803	-5,	-6,9093	8,113
99449	-6,6644	-5,	-7,5784	8,0578
99450	6,4098	-5,	6,8016	8,1264
99451	6,6773	-5,	7,4821	8,0543
99452	6,4003	-5,	8,9609	7,7327
99453	6,9032	-5,	8,1445	7,981
99454	7,0531	-5,	8,8221	7,9
99455	-4,9835	-5,	7,2948	7,7599
99456	-4,2024	-5,	6,5928	7,7793
99457	-4,8714	-5,	6,533	7,891
99458	-5,625	-5,	7,2066	7,8898
99459	-5,7541	-5,	7,9317	7,7775
99460	4,9451	-5,	-7,2133	7,7733
99461	4,7131	-5,	-6,4527	7,8777
99462	4,0306	-5,	-6,5319	7,7597
99463	4,2637	-5,	-7,3747	7,6299
99464	5,9592	-5,	-7,8163	7,8604
99465	5,6144	-5,	-7,0992	7,9164
99466	5,3138	-5,	-7,9728	7,7014
99467	0,56223	-5,	20,196	8,69
99468	0,12231	-5,	21,018	9,0078
99469	0,71724	-5,	20,883	8,9565
99470	0,91429	-5,	19,372	8,3851
99471	1,0962	-5,	20,07	8,6468
99472	1,2108	-5,	18,556	8,1002
99473	1,4561	-5,	19,265	8,3553
99474	0,69994	-5,	18,828	8,1856
99475	1,5337	-5,	17,75	7,8413
99476	1,757	-5,	18,44	8,0744
99477	1,9681	-5,	16,957	7,618
99478	2,1521	-5,	17,653	7,8338
99479	1,3453	-5,	17,059	7,6218
99480	2,4295	-5,	16,156	7,4285
99481	2,6047	-5,	16,86	7,6243
99482	2,8637	-5,	15,358	7,2784
99483	3,0482	-5,	16,062	7,4489
99484	3,2879	-5,	14,565	7,1719
99485	3,476	-5,	15,269	7,3141
99486	3,7142	-5,	13,78	7,1125
99487	3,9041	-5,	14,476	7,2229
99488	4,1435	-5,	12,998	7,1004
99489	4,3342	-5,	13,688	7,179
99490	4,5789	-5,	12,202	7,136
99491	4,7693	-5,	12,893	7,1826
99492	5,0221	-5,	11,399	7,2195
99493	5,2094	-5,	12,089	7,2348
99494	5,4633	-5,	10,595	7,347
99495	5,6481	-5,	11,286	7,3333
99496	4,8396	-5,	10,707	7,231
99497	5,9149	-5,	9,783	7,5179
99498	6,0908	-5,	10,477	7,4768
99499	6,5441	-5,	9,6558	7,6635
99500	-0,3307	-5,	-20,054	9,134
99501	-0,71974	-5,	-20,688	9,4263
99502	-0,31759	-5,	-20,895	9,5248
99503	0,20366	-5,	-19,819	9,0229
99504	-0,8607	-5,	-19,819	9,0265
99505	-0,65071	-5,	-19,142	8,7289
99506	-1,8791	-5,	-18,215	8,3672
99507	-1,2301	-5,	-18,299	8,385
99508	-1,734	-5,	-17,519	8,098
99509	-2,6379	-5,	-15,976	7,6352
99510	-2,8049	-5,	-16,673	7,8582
99511	-2,1989	-5,	-16,758	7,8511
99512	-3,0497	-5,	-15,188	7,459
99513	-3,2314	-5,	-15,884	7,6545
99514	-3,4417	-5,	-14,402	7,3283
99515	-3,6424	-5,	-15,096	7,4939
99516	-3,8313	-5,	-13,627	7,2476
99517	-4,0371	-5,	-14,31	7,3797
99518	-4,23	-5,	-12,869	7,2182
99519	-4,4364	-5,	-13,539	7,3169
99520	-4,6509	-5,	-12,128	7,2396
99521	-4,8494	-5,	-12,782	7,3053
99522	-5,0904	-5,	-11,389	7,3078
99523	-5,2799	-5,	-12,033	7,3438
99524	-5,5146	-5,	-10,624	7,417
99525	-5,721	-5,	-11,273	7,4286
99526	-6,1344	-5,	-10,488	7,5525
99527	-5,912	-5,	-9,8251	7,5637
99528	-6,8757	-5,	-8,2054	7,9996
99529	-7,0106	-5,	-8,8586	7,9304
99530	-6,3507	-5,	-9,0065	7,7569
99531	6,3484	-5,	-8,5478	7,8233
99532	6,4802	-5,	-7,5847	8,0111
99533	7,0256	-5,	-7,6971	8,1249
99534	7,0302	-5,	-8,4129	8,0044
99535	6,0375	-5,	-9,4509	7,6311
99536	6,6447	-5,	-9,2903	7,7862
99537	5,7029	-5,	-8,7043	7,6628
99538	5,6868	-5,	-10,331	7,4716
99539	6,289	-5,	-10,178	7,6102
99540	5,2974	-5,	-11,157	7,3515
99541	5,9065	-5,	-11,022	7,4745
99542	5,0848	-5,	-10,475	7,346
99543	4,9021	-5,	-11,965	7,2769
99544	5,5061	-5,	-11,843	7,3825
99545	4,5094	-5,	-12,769	7,2519
99546	5,1075	-5,	-12,658	7,34
99547	4,3102	-5,	-12,067	7,1834
99548	4,0986	-5,	-13,571	7,2752
99549	4,7023	-5,	-13,47	7,348
99550	3,6731	-5,	-14,369	7,3482
99551	4,2788	-5,	-14,269	7,4038
99552	3,2329	-5,	-15,161	7,4696
99553	3,8513	-5,	-15,058	7,5085
99554	2,7638	-5,	-15,971	7,643
99555	3,3954	-5,	-15,854	7,6607
99556	2,199	-5,	-16,839	7,8784
99557	2,9166	-5,	-16,664	7,863
99558	1,9252	-5,	-17,761	8,1956
99559	2,3942	-5,	-17,509	8,1203
99560	1,7	-5,	-18,507	8,4798
99561	2,284	-5,	-18,412	8,4592
99562	1,2373	-5,	-19,097	8,7169
99563	1,8264	-5,	-19,089	8,7223
99564	0,89654	-5,	-19,735	8,9926
99565	1,4426	-5,	-19,757	9,0058
99566	1,103	-5,	-20,451	9,3174
99567	-6,1991	-5,	9,9662	7,5529
99568	-6,6777	-5,	9,2214	7,7533
99569	-6,815	-5,	9,8687	7,6954
99570	-5,726	-5,	10,723	7,385
99571	-6,3442	-5,	10,617	7,5152
99572	-5,2588	-5,	11,48	7,2561
99573	-5,8787	-5,	11,374	7,372
99574	-4,7951	-5,	12,242	7,1691
99575	-5,4193	-5,	12,133	7,2703
99576	-4,3362	-5,	13,006	7,1269
99577	-4,9668	-5,	12,9	7,2131
99578	-3,9073	-5,	13,782	7,1355
99579	-4,5235	-5,	13,667	7,2025
99580	-3,6972	-5,	13,115	7,0509
99581	-3,5589	-5,	14,556	7,1983
99582	-4,1286	-5,	14,451	7,2458
99583	-3,2014	-5,	15,315	7,2986
99584	-3,7684	-5,	15,214	7,3333
99585	-2,7442	-5,	16,017	7,4161
99586	-3,3629	-5,	16,	7,4603
99587	-2,8947	-5,	16,706	7,6012
99588	-2,3221	-5,	16,789	7,5891
99589	-2,1377	-5,	18,396	8,0738
99590	-1,5695	-5,	18,494	8,0881
99591	-1,3847	-5,	17,77	7,8417
99592	-1,955	-5,	17,659	7,8282
99593	-0,84691	-5,	20,135	8,6696
99594	-1,381	-5,	20,069	8,6511
99595	-1,2061	-5,	19,327	8,3737
99596	-0,39586	-5,	20,973	8,9905
99597	-0,96428	-5,	20,876	8,9552
99598	6,2308e-002	-5,	21,961	9,3835
99599	0,29171	-5,	21,646	9,2562
99600	-0,48157	-5,	21,754	9,3006
99601	-4,6993	-5,	4,8951	8,185
99602	-4,0975	-5,	5,7685	7,9297
99603	-4,7665	-5,	5,7087	8,0396
99604	-4,025	-5,	4,9232	8,0848
99605	6,1354	-5,	-6,8676	8,0698
99606	6,8327	-5,	-6,7508	8,2509
99607	-0,10825	-5,	-22,004	10,065
99608	0,4162	-5,	-21,99	10,059
99609	-7,464e-002	-5,	-21,402	9,7684
99610	-7,3046	-5,	9,1374	7,909
99611	-6,5318	-5,	8,5533	7,827
99612	-4,6536	-5,	4,0324	8,3309
99613	-4,6348	-5,	3,166	8,4616
99614	-3,9793	-5,	4,0605	8,2324
99615	4,4281	-5,	-3,8742	8,3124
99616	4,4125	-5,	-3,0111	8,4389
99617	7,8593	-5,	-7,611	8,3536
99618	7,3781	-5,	-6,8632	8,3615
99619	7,9142	-5,	-6,8643	8,5088
99620	0,48841	-5,	22,187	9,4757
99621	-4,3983e-002	-5,	22,76	9,7074
99622	0,59478	-5,	22,917	9,7712
99623	-4,6555	-5,	2,2631	8,573
99624	-4,707	-5,	1,3547	8,6587
99625	4,4495	-5,	-2,12	8,5485
99626	4,5227	-5,	-1,2369	8,6327
99627	3,884	-5,	-1,196	8,5462
99628	-4,8215	-5,	0,42405	8,7118
99629	-4,9732	-5,	-0,49531	8,7363
99630	-4,3411	-5,	-0,57744	8,6339
99631	4,6567	-5,	-0,32937	8,6866
99632	4,8361	-5,	0,55027	8,7144
99633	4,0179	-5,	-0,28851	8,6008
99634	4,2067	-5,	0,62355	8,6168
99635	-5,1659	-5,	-1,4108	8,7214
99636	-4,5338	-5,	-1,4929	8,6188
99637	-5,3961	-5,	-2,2726	8,6907
99638	5,0557	-5,	1,4146	8,707
99639	5,3103	-5,	2,237	8,6849
99640	4,4263	-5,	1,4879	8,6092
99641	4,669	-5,	2,3566	8,563
99642	-5,9211	-5,	-3,8752	8,5763
99643	-5,6409	-5,	-3,1006	8,6317
99644	5,5836	-5,	3,0499	8,6334
99645	4,9423	-5,	3,1694	8,5109
99646	5,8786	-5,	3,8284	8,5792
99647	-6,1978	-5,	-4,6248	8,503
99648	-6,4887	-5,	-5,3363	8,4408
99649	-5,8072	-5,	-5,4941	8,2613
99650	6,4969	-5,	5,2692	8,4511
99651	6,1858	-5,	4,5791	8,5094
99652	-6,7817	-5,	-6,0499	8,3696
99653	-7,0932	-5,	-6,7401	8,3163
99654	-6,1003	-5,	-6,2077	8,189
99655	6,7962	-5,	5,9597	8,3794
99656	7,0991	-5,	6,645	8,3159
99657	7,6535	-5,	8,0006	8,1889
99658	7,3666	-5,	7,3255	8,2444
99659	7,1968	-5,	9,517	7,8288
99660	7,8033	-5,	8,6782	8,107
99661	7,8151	-5,	9,4399	7,9886
99662	7,8639	-5,	-8,3268	8,2327
99663	8,5012	-5,	-7,512	8,5552
99664	8,5587	-5,	-8,2064	8,4473
99665	-7,6472	-5,	-8,0545	8,2199
99666	-7,3773	-5,	-7,4092	8,2616
99667	-6,1704	-5,	6,4209	8,1529
99668	-5,5129	-5,	6,4448	8,02
99669	5,3824	-5,	-6,3387	8,019
99670	5,245	-5,	-5,5377	8,1472
99671	4,5681	-5,	-5,6083	8,0198
99672	6,0675	-5,	-6,2204	8,1766
99673	1,0385	-5,	22,207	9,484
99674	0,88663	-5,	21,51	9,2061
99675	1,638	-5,	19,963	8,6173
99676	1,8228	-5,	20,67	8,8867
99677	1,2512	-5,	20,757	8,9134
99678	2,0023	-5,	19,149	8,3302
99679	2,2122	-5,	19,864	8,5933
99680	2,3754	-5,	18,343	8,0675
99681	2,5806	-5,	19,049	8,3142
99682	2,7886	-5,	17,556	7,8394
99683	2,9866	-5,	18,254	8,0675
99684	3,2233	-5,	16,767	7,6433
99685	3,4113	-5,	17,465	7,8515
99686	3,6606	-5,	15,974	7,4831
99687	3,8502	-5,	16,671	7,6686
99688	4,0922	-5,	15,18	7,3633
99689	4,2824	-5,	15,873	7,5223
99690	4,524	-5,	14,384	7,2875
99691	4,7205	-5,	15,073	7,4183
99692	4,96	-5,	13,583	7,259
99693	5,1525	-5,	14,271	7,359
99694	5,3998	-5,	12,78	7,2791
99695	5,5899	-5,	13,468	7,3478
99696	5,8354	-5,	11,976	7,3467
99697	6,0306	-5,	12,662	7,3853
99698	6,4684	-5,	11,855	7,4702
99699	6,2757	-5,	11,167	7,4614
99700	7,349	-5,	10,238	7,7739
99701	6,72	-5,	10,35	7,6208
99702	-0,61514	-5,	-22,09	10,107
99703	-0,11817	-5,	-22,827	10,48
99704	-0,71472	-5,	-22,788	10,456
99705	-0,98369	-5,	-21,281	9,7119
99706	-1,1603	-5,	-21,987	10,052
99707	-0,58154	-5,	-21,488	9,8087
99708	-1,2497	-5,	-20,454	9,323
99709	-1,4977	-5,	-21,166	9,6534
99710	-1,5801	-5,	-19,683	8,9778
99711	-1,8092	-5,	-20,374	9,2864
99712	-2,0191	-5,	-18,921	8,6602
99713	-2,2079	-5,	-19,613	8,9548
99714	-1,3701	-5,	-19,005	8,6779
99715	-2,4949	-5,	-18,145	8,3658
99716	-2,6662	-5,	-18,841	8,6446
99717	-3,5708	-5,	-17,274	8,1106
99718	-2,9559	-5,	-17,364	8,1027
99719	-3,3984	-5,	-16,581	7,8757
99720	-4,4315	-5,	-15,692	7,7253
99721	-4,2378	-5,	-15,004	7,5435
99722	-3,8242	-5,	-15,792	7,6874
99723	-5,0557	-5,	-13,451	7,4027
99724	-5,2589	-5,	-14,12	7,5216
99725	-4,6421	-5,	-14,222	7,4475
99726	-5,4784	-5,	-12,686	7,408
99727	-5,679	-5,	-13,345	7,495
99728	-6,1063	-5,	-12,57	7,5183
99729	-5,9105	-5,	-11,917	7,4624
99730	-6,9649	-5,	-11,004	7,705
99731	-6,7498	-5,	-10,335	7,7003
99732	-6,3409	-5,	-11,136	7,5616
99733	-7,7821	-5,	-8,7077	8,1491
99734	-7,8117	-5,	-9,4195	8,0565
99735	-7,1873	-5,	-9,5246	7,8854
99736	7,3266	-5,	-9,1555	7,9676
99737	7,9893	-5,	-9,028	8,1577
99738	6,8963	-5,	-10,017	7,7626
99739	7,5261	-5,	-9,8713	7,9308
99740	6,5087	-5,	-10,869	7,6098
99741	7,1247	-5,	-10,72	7,7589
99742	6,1152	-5,	-11,708	7,5024
99743	6,7241	-5,	-11,57	7,6319
99744	5,7116	-5,	-12,536	7,4425
99745	6,3204	-5,	-12,402	7,554
99746	5,3004	-5,	-13,359	7,433
99747	5,9093	-5,	-13,232	7,5259
99748	4,8825	-5,	-14,167	7,4736
99749	5,4946	-5,	-14,057	7,5501
99750	4,457	-5,	-14,958	7,5613
99751	5,071	-5,	-14,856	7,621
99752	4,0138	-5,	-15,752	7,6967
99753	4,6365	-5,	-15,646	7,7381
99754	3,5481	-5,	-16,548	7,8777
99755	4,1863	-5,	-16,445	7,9029
99756	3,1117	-5,	-17,335	8,1028
99757	3,73	-5,	-17,236	8,1095
99758	3,3254	-5,	-18,031	8,3619
99759	2,753	-5,	-18,161	8,3834
99760	2,0317	-5,	-19,749	9,0145
99761	2,6064	-5,	-19,679	8,9926
99762	2,4104	-5,	-18,994	8,7015
99763	1,6491	-5,	-20,473	9,3345
99764	2,2139	-5,	-20,428	9,3152
99765	1,2845	-5,	-21,236	9,6899
99766	1,8255	-5,	-21,191	9,6652
99767	0,88912	-5,	-22,034	10,079
99768	1,4377	-5,	-21,986	10,049
99769	0,40627	-5,	-22,814	10,473
99770	0,99222	-5,	-22,798	10,459
99771	-7,5513	-5,	7,1516	8,325
99772	-8,3491	-5,	7,8002	8,41
99773	-8,1956	-5,	7,2102	8,4855
99774	-7,4419	-5,	9,7847	7,8511
99775	-8,0839	-5,	9,6714	8,0247
99776	-6,96	-5,	10,52	7,6568
99777	-7,5858	-5,	10,405	7,8118
99778	-6,4968	-5,	11,268	7,5005
99779	-7,1233	-5,	11,15	7,6411
99780	-6,0391	-5,	12,027	7,3842
99781	-6,6627	-5,	11,909	7,5082
99782	-5,5909	-5,	12,791	7,3121
99783	-6,2132	-5,	12,675	7,4196
99784	-5,1541	-5,	13,561	7,2866
99785	-5,7753	-5,	13,449	7,3775
99786	-4,7448	-5,	14,336	7,3108
99787	-5,3496	-5,	14,229	7,3833
99788	-4,3381	-5,	15,109	7,379
99789	-4,9506	-5,	15,02	7,4396
99790	-4,5251	-5,	15,8	7,5338
99791	-3,93	-5,	15,899	7,4926
99792	-3,0971	-5,	17,474	7,8342
99793	-3,687	-5,	17,391	7,851
99794	-3,5134	-5,	16,689	7,6458
99795	-2,7072	-5,	18,295	8,0676
99796	-3,2828	-5,	18,199	8,0672
99797	-2,5246	-5,	17,557	7,823
99798	-2,8915	-5,	19,033	8,3221
99799	-2,3165	-5,	19,134	8,3353
99800	-2,0816	-5,	20,712	8,9076
99801	-1,9232	-5,	19,973	8,6273
99802	-1,4984	-5,	20,81	8,9367
99803	-0,58786	-5,	22,553	9,6236
99804	-1,1855	-5,	22,383	9,5555
99805	-1,05	-5,	21,657	9,2649
99806	-5,3654	-5,	4,8568	8,3026
99807	-5,3159	-5,	4,0381	8,4385
99808	-6,8129	-5,	6,4166	8,293
99809	-7,4521	-5,	6,4789	8,4367
99810	5,1554	-5,	-4,6815	8,2921
99811	5,0893	-5,	-3,8529	8,4212
99812	4,4785	-5,	-4,7521	8,1662
99813	6,7649	-5,	-6,1036	8,3577
99814	7,4858	-5,	-6,0391	8,5504
99815	-4,1727e-002	-5,	23,539	10,027
99816	-0,71864	-5,	23,264	9,9123
99817	-0,19389	-5,	-23,533	10,844
99818	0,45943	-5,	-23,581	10,867
99819	-8,4196	-5,	-8,7122	8,3214
99820	-8,9896	-5,	-8,9576	8,4537
99821	-9,1205	-5,	-9,4346	8,4191
99822	-8,4492	-5,	-9,424	8,2312
99823	-9,0229	-5,	7,7785	8,6088
99824	-9,2236	-5,	8,3026	8,5662
99825	-5,2982	-5,	2,2939	8,676
99826	-5,2971	-5,	3,1718	8,5671
99827	-8,8694	-5,	7,1885	8,6807
99828	-8,0964	-5,	6,5375	8,5912
99829	-8,6878	-5,	6,5776	8,7517
99830	5,0738	-5,	-2,9898	8,5461
99831	5,0976	-5,	-2,1403	8,6502
99832	8,5561	-5,	-6,7653	8,7124
99833	8,5153	-5,	-5,9995	8,8484
99834	8,0219	-5,	-6,0402	8,6959
99835	-5,3498	-5,	1,3854	8,7604
99836	-5,4452	-5,	0,4805	8,8194
99837	5,1708	-5,	-1,2572	8,7333
99838	5,2854	-5,	-0,38659	8,7914
99839	-5,5969	-5,	-0,43885	8,8436
99840	-5,7938	-5,	-1,3263	8,847
99841	5,4648	-5,	0,49304	8,8188
99842	5,6903	-5,	1,3273	8,8296
99843	5,9449	-5,	2,1497	8,8079
99844	6,2291	-5,	2,9395	8,7795
99845	-6,5691	-5,	-3,7599	8,7296
99846	-6,8625	-5,	-4,4827	8,6832
99847	-7,1533	-5,	-5,1942	8,6222
99848	-7,4683	-5,	-5,8705	8,5798
99849	7,1418	-5,	5,1151	8,6253
99850	7,4584	-5,	5,7876	8,577
99851	8,4374	-5,	8,6969	8,2676
99852	8,7499	-5,	8,2292	8,4453
99853	8,3479	-5,	7,7732	8,4139
99854	-8,7198	-5,	-8,269	8,4863
99855	-8,3464	-5,	-7,828	8,4499
99856	-8,0765	-5,	-7,1827	8,4944
99857	-7,7798	-5,	-6,5607	8,5266
99858	9,1093	-5,	-6,66	8,9029
99859	9,1947	-5,	-7,3601	8,7944
99860	-6,0901	-5,	5,6466	8,2892
99861	-6,0337	-5,	4,8546	8,4304
99862	-5,4326	-5,	5,6705	8,1591
99863	-6,7514	-5,	5,671	8,4288
99864	5,9301	-5,	-5,4195	8,304
99865	5,8251	-5,	-4,6318	8,4263
99866	6,603	-5,	-5,3551	8,462
99867	0,59703	-5,	23,696	10,092
99868	0,18224	-5,	24,613	10,471
99869	-0,23194	-5,	24,176	10,288
99870	0,72946	-5,	24,405	10,381
99871	1,1449	-5,	22,937	9,7809
99872	1,2793	-5,	23,657	10,072
99873	1,5557	-5,	22,149	9,4645
99874	1,724	-5,	22,867	9,7507
99875	1,9754	-5,	21,365	9,1594
99876	2,1396	-5,	22,072	9,436
99877	1,4038	-5,	21,452	9,1856
99878	2,397	-5,	20,571	8,863
99879	2,5731	-5,	21,282	9,1345
99880	2,7905	-5,	19,764	8,5774
99881	2,9868	-5,	20,475	8,8405
99882	3,1918	-5,	18,96	8,314
99883	3,3878	-5,	19,667	8,5644
99884	3,6093	-5,	18,163	8,0788
99885	3,802	-5,	18,865	8,3135
99886	4,0383	-5,	17,368	7,8751
99887	4,226	-5,	18,069	8,092
99888	4,4721	-5,	16,57	7,7056
99889	4,6605	-5,	17,267	7,9012
99890	4,9107	-5,	15,766	7,5746
99891	5,1014	-5,	16,458	7,7457
99892	5,349	-5,	14,961	7,4868
99893	5,548	-5,	15,647	7,6317
99894	5,7824	-5,	14,156	7,4446
99895	5,9841	-5,	14,839	7,5615
99896	6,4188	-5,	14,031	7,5374
99897	6,2207	-5,	13,349	7,4508
99898	7,1011	-5,	11,734	7,6072
99899	7,3062	-5,	12,414	7,6364
99900	6,6637	-5,	12,541	7,506
99901	7,5373	-5,	10,935	7,7524
99902	7,7415	-5,	11,608	7,7546
99903	6,9083	-5,	11,047	7,6009
99904	7,9673	-5,	10,161	7,9336
99905	8,1827	-5,	10,828	7,9156
99906	8,4492	-5,	9,4586	8,1526
99907	8,6145	-5,	10,086	8,1078
99908	9,1287	-5,	9,4405	8,3399
99909	0,2267	-5,	-25,074	11,673
99910	0,48586	-5,	-26,025	12,202
99911	-1,5796e-002	-5,	-25,803	12,072
99912	0,95675	-5,	-25,079	11,657
99913	1,0992	-5,	-25,724	11,995
99914	-0,79043	-5,	-23,494	10,82
99915	-0,25779	-5,	-24,26	11,23
99916	-0,91375	-5,	-24,194	11,181
99917	-1,2599	-5,	-22,685	10,401
99918	-1,4104	-5,	-23,413	10,764
99919	-1,6743	-5,	-21,872	9,9945
99920	-1,843	-5,	-22,59	10,339
99921	-2,0572	-5,	-21,085	9,6199
99922	-2,2585	-5,	-21,802	9,9519
99923	-2,437	-5,	-20,304	9,2661
99924	-2,641	-5,	-21,006	9,579
99925	-3,0495	-5,	-20,23	9,2381
99926	-2,855	-5,	-19,532	8,9401
99927	-3,7352	-5,	-17,966	8,3661
99928	-3,1202	-5,	-18,056	8,3598
99929	-3,2915	-5,	-18,752	8,638
99930	-3,9145	-5,	-18,66	8,6285
99931	-4,1771	-5,	-17,176	8,1295
99932	-4,3584	-5,	-17,869	8,3709
99933	-4,612	-5,	-16,384	7,932
99934	-4,7934	-5,	-17,073	8,1491
99935	-4,0047	-5,	-16,484	7,8968
99936	-5,0379	-5,	-15,591	7,7775
99937	-5,2287	-5,	-16,276	7,9686
99938	-5,4611	-5,	-14,801	7,6699
99939	-5,6563	-5,	-15,48	7,8326
99940	-4,8442	-5,	-14,903	7,5986
99941	-5,8822	-5,	-14,014	7,611
99942	-6,0801	-5,	-14,684	7,7435
99943	-6,3069	-5,	-13,229	7,6022
99944	-6,5121	-5,	-13,893	7,7054
99945	-6,739	-5,	-12,445	7,6436
99946	-6,9427	-5,	-13,104	7,7167
99947	-7,1672	-5,	-11,659	7,7314
99948	-7,3786	-5,	-12,318	7,7777
99949	-6,5432	-5,	-11,791	7,591
99950	-7,5868	-5,	-10,877	7,8607
99951	-7,804	-5,	-11,537	7,8821
99952	-8,2232	-5,	-10,769	8,0269
99953	-7,9962	-5,	-10,103	8,0281
99954	-7,3718	-5,	-10,208	7,8582
99955	8,684	-5,	-8,9075	8,3707
99956	9,2521	-5,	-8,0545	8,6832
99957	9,3322	-5,	-8,7721	8,5834
99958	8,836	-5,	-9,6109	8,3136
99959	8,1888	-5,	-9,7438	8,1192
99960	7,9634	-5,	-11,277	7,9315
99961	7,7545	-5,	-10,574	7,9241
99962	7,34	-5,	-11,42	7,7769
99963	6,5181	-5,	-13,097	7,6329
99964	6,9293	-5,	-12,263	7,6793
99965	7,1315	-5,	-12,959	7,7469
99966	6,7156	-5,	-13,794	7,7322
99967	6,1035	-5,	-13,929	7,6385
99968	5,4354	-5,	-16,23	7,9817
99969	4,8089	-5,	-16,339	7,941
99970	5,2505	-5,	-15,543	7,7944
99971	3,9437	-5,	-17,932	8,3679
99972	4,5532	-5,	-17,827	8,3715
99973	4,3681	-5,	-17,133	8,1324
99974	3,1676	-5,	-19,554	8,9578
99975	3,5441	-5,	-18,74	8,6446
99976	2,9716	-5,	-18,87	8,6668
99977	3,7474	-5,	-19,44	8,9248
99978	2,7886	-5,	-20,358	9,2945
99979	3,3692	-5,	-20,257	9,2547
99980	2,3904	-5,	-21,145	9,6476
99981	2,9657	-5,	-21,057	9,6027
99982	1,9787	-5,	-21,941	10,026
99983	2,552	-5,	-21,856	9,9736
99984	1,5408	-5,	-22,751	10,43
99985	2,1281	-5,	-22,67	10,374
99986	1,0454	-5,	-23,566	10,853
99987	1,6614	-5,	-23,488	10,795
99988	0,39552	-5,	-24,309	11,251
99989	1,1256	-5,	-24,314	11,24
99990	-0,40565	-5,	-24,958	11,6
99991	-8,7449	-5,	9,5605	8,217
99992	-9,3463	-5,	8,8565	8,5028
99993	-9,3991	-5,	9,4104	8,4237
99994	-8,2277	-5,	10,292	7,9839
99995	-8,8828	-5,	10,159	8,1708
99996	-7,749	-5,	11,035	7,7942
99997	-8,3881	-5,	10,905	7,96
99998	-7,2892	-5,	11,791	7,6462
99999	-7,9241	-5,	11,664	7,7944
100000	-6,8368	-5,	12,557	7,5408
100001	-7,4636	-5,	12,428	7,6701
100002	-6,3975	-5,	13,333	7,482
100003	-7,0213	-5,	13,209	7,5934
100004	-6,5839	-5,	13,998	7,5636
100005	-5,9708	-5,	14,118	7,4713
100006	-5,1376	-5,	15,711	7,5921
100007	-5,7455	-5,	15,602	7,6505
100008	-5,5555	-5,	14,913	7,5094
100009	-4,7137	-5,	16,507	7,7159
100010	-5,3193	-5,	16,403	7,7588
100011	-4,2921	-5,	17,308	7,8805
100012	-4,8972	-5,	17,207	7,9085
100013	-4,1185	-5,	16,606	7,6772
100014	-3,8726	-5,	18,117	8,0827
100015	-4,4746	-5,	18,015	8,0955
100016	-3,4671	-5,	18,937	8,3206
100017	-4,0566	-5,	18,831	8,318
100018	-3,0644	-5,	19,77	8,5897
100019	-3,6514	-5,	19,66	8,5738
100020	-2,6478	-5,	20,609	8,8834
100021	-3,2355	-5,	20,499	8,857
100022	-2,4894	-5,	19,87	8,6037
100023	-2,2168	-5,	21,444	9,1934
100024	-2,8092	-5,	21,337	9,1597
100025	-1,7692	-5,	22,268	9,5134
100026	-2,371	-5,	22,165	9,4744
100027	-1,6336	-5,	21,542	9,2227
100028	-1,3163	-5,	23,093	9,8444
100029	-1,9272	-5,	22,981	9,7964
100030	-1,4931	-5,	23,792	10,126
100031	-0,90886	-5,	23,9	10,175
100032	9,6109	-5,	-5,8324	9,2319
100033	9,5385	-5,	-5,0997	9,351
100034	10,202	-5,	-5,6573	9,4754
100035	9,0685	-5,	-5,8941	9,0403
100036	9,7358	-5,	-6,4825	9,1444
100037	-9,5146	-5,	7,1415	8,8903
100038	-9,7594	-5,	7,6579	8,8601
100039	-0,21079	-5,	25,071	10,659
100040	-0,77431	-5,	25,287	10,746
100041	-0,62497	-5,	24,633	10,477
100042	-0,15491	-5,	25,648	10,898
100043	0,47901	-5,	25,362	10,778
100044	-7,3906	-5,	5,7333	8,567
100045	-8,0508	-5,	5,8815	8,7156
100046	5,7271	-5,	-2,9867	8,6664
100047	5,759	-5,	-3,8032	8,5536
100048	0,17811	-5,	-26,759	12,619
100049	0,66769	-5,	-26,995	12,752
100050	0,93046	-5,	-26,618	12,517
100051	-0,71843	-5,	25,864	10,986
100052	-1,2624	-5,	25,224	10,716
100053	-1,3499	-5,	25,915	10,998
100054	-5,9563	-5,	2,3154	8,7951
100055	-5,9789	-5,	1,429	8,8786
100056	-9,333	-5,	6,5306	8,9584
100057	-8,6422	-5,	5,9216	8,8718
100058	-9,3147	-5,	6,0718	9,0543
100059	5,751	-5,	-2,1372	8,7691
100060	5,8188	-5,	-1,3011	8,8521
100061	8,4298	-5,	-5,1865	8,9779
100062	8,996	-5,	-5,1615	9,1601
100063	-6,0743	-5,	0,52411	8,9366
100064	-6,2178	-5,	-0,36663	8,9728
100065	5,9334	-5,	-0,4305	8,9093
100066	6,1013	-5,	0,41069	8,9483
100067	-10,02	-5,	8,6839	8,7382
100068	-9,9602	-5,	8,1819	8,8182
100069	-9,2898	-5,	-8,5145	8,6138
100070	-9,6386	-5,	-8,9703	8,6467
100071	-6,4148	-5,	-1,2541	8,9762
100072	-6,6571	-5,	-2,0765	8,9714
100073	-6,024	-5,	-2,1881	8,8169
100074	6,3268	-5,	1,245	8,9589
100075	6,5821	-5,	2,0532	8,9571
100076	-6,922	-5,	-2,8737	8,9389
100077	-7,2207	-5,	-3,6335	8,9112
100078	-6,2889	-5,	-2,9853	8,784
100079	6,8663	-5,	2,843	8,9295
100080	7,1666	-5,	3,5653	8,9051
100081	6,5241	-5,	3,718	8,7265
100082	-7,5141	-5,	-4,3563	8,8658
100083	-7,8245	-5,	-5,0213	8,836
100084	7,4731	-5,	4,2722	8,8618
100085	7,8	-5,	4,9483	8,8291
100086	6,8307	-5,	4,425	8,6828
100087	9,8971	-5,	-7,8934	8,9195
100088	9,8213	-5,	-7,1826	9,0318
100089	8,1166	-5,	5,6208	8,7812
100090	8,4418	-5,	6,2522	8,749
100091	7,7613	-5,	6,4729	8,5138
100092	-9,8343	-5,	-8,3661	8,8115
100093	-9,4511	-5,	-7,9167	8,7693
100094	-9,0777	-5,	-7,4757	8,7368
100095	-8,7654	-5,	-6,9621	8,7357
100096	-9,733	-5,	6,3565	9,1244
100097	-10,193	-5,	6,9489	9,1562
100098	9,8626	-5,	8,3188	8,7601
100099	9,4623	-5,	7,856	8,7246
100100	-0,78191	-5,	26,566	11,275
100101	-5,4953e-002	-5,	26,338	11,185
100102	-0,69796	-5,	27,198	11,539
100103	-0,49293	-5,	27,82	11,803
100104	7,1832e-002	-5,	27,682	11,748
100105	2,9002e-002	-5,	26,97	11,45
100106	-8,4687	-5,	-6,3401	8,7697
100107	-8,1395	-5,	-5,6976	8,7938
100108	9,7916	-5,	9,4379	8,5368
100109	10,466	-5,	9,3118	8,7624
100110	10,213	-5,	8,7839	8,7807
100111	-1,201	-5,	27,457	11,642
100112	-1,5467	-5,	28,135	11,913
100113	-0,99602	-5,	28,08	11,904
100114	-10,419	-5,	-9,3451	8,8309
100115	-10,183	-5,	-8,822	8,8438
100116	-9,7695	-5,	-9,4473	8,6152
100117	-10,073	-5,	9,2378	8,6551
100118	-10,698	-5,	9,0229	8,8898
100119	-10,83	-5,	8,5146	9,0362
100120	-6,6949	-5,	4,879	8,5661
100121	-6,6577	-5,	4,063	8,704
100122	-5,9842	-5,	4,0359	8,5636
100123	-7,3684	-5,	4,9504	8,7176
100124	7,1487	-5,	-4,5184	8,7457
100125	6,498	-5,	-4,5675	8,5824
100126	7,3239	-5,	-5,2906	8,652
100127	1,2277	-5,	25,894	10,991
100128	1,0262	-5,	25,154	10,691
100129	0,57897	-5,	26,053	11,065
100130	1,8584	-5,	23,587	10,043
100131	2,0252	-5,	24,3	10,327
100132	1,4117	-5,	24,366	10,363
100133	2,3079	-5,	22,79	9,7232
100134	2,4719	-5,	23,504	10,003
100135	2,7373	-5,	21,989	9,4116
100136	2,9109	-5,	22,7	9,6859
100137	3,1629	-5,	21,186	9,1118
100138	3,3387	-5,	21,896	9,3796
100139	3,584	-5,	20,378	8,8271
100140	3,77	-5,	21,085	9,086
100141	3,998	-5,	19,572	8,5631
100142	4,1858	-5,	20,276	8,8111
100143	4,6117	-5,	19,468	8,5585
100144	4,4187	-5,	18,771	8,3253
100145	5,481	-5,	17,85	8,1375
100146	4,8482	-5,	17,968	8,1158
100147	5,2898	-5,	17,155	7,9382
100148	6,3806	-5,	16,211	7,855
100149	6,1832	-5,	15,526	7,7026
100150	5,7388	-5,	16,339	7,7993
100151	7,0638	-5,	13,901	7,6459
100152	7,2695	-5,	14,58	7,7448
100153	6,6205	-5,	14,714	7,6503
100154	7,5084	-5,	13,092	7,6902
100155	6,8658	-5,	13,219	7,5634
100156	7,715	-5,	13,761	7,7602
100157	8,1556	-5,	12,955	7,8233
100158	7,9466	-5,	12,288	7,7806
100159	8,83	-5,	10,753	8,0903
100160	9,0419	-5,	11,383	8,0864
100161	8,3868	-5,	11,501	7,9162
100162	9,2941	-5,	10,068	8,2982
100163	9,4965	-5,	10,653	8,2777
100164	9,9759	-5,	9,9775	8,5041
100165	-0,32354	-5,	-26,537	12,495
100166	2,7725e-002	-5,	-27,448	13,034
100167	-0,50042	-5,	-27,31	12,939
100168	-0,86491	-5,	-26,443	12,418
100169	-0,64814	-5,	-25,686	12,005
100170	-1,5337	-5,	-24,114	11,127
100171	-1,6933	-5,	-24,826	11,488
100172	-1,0616	-5,	-24,891	11,555
100173	-1,9935	-5,	-23,318	10,704
100174	-2,1524	-5,	-24,027	11,05
100175	-2,5999	-5,	-23,23	10,633
100176	-2,4272	-5,	-22,52	10,298
100177	-3,447	-5,	-21,636	9,8597
100178	-3,2535	-5,	-20,933	9,5525
100179	-2,8423	-5,	-21,722	9,9129
100180	-4,2858	-5,	-20,056	9,188
100181	-3,6687	-5,	-20,148	9,2186
100182	-3,4741	-5,	-19,45	8,9202
100183	-4,0971	-5,	-19,357	8,9099
100184	-5,1631	-5,	-18,456	8,6287
100185	-4,9747	-5,	-17,765	8,3879
100186	-4,5377	-5,	-18,562	8,6315
100187	-5,847	-5,	-16,164	8,02
100188	-6,0399	-5,	-16,848	8,2148
100189	-5,41	-5,	-16,965	8,1824
100190	-6,2753	-5,	-15,362	7,9021
100191	-6,4763	-5,	-16,041	8,071
100192	-6,9067	-5,	-15,234	7,9732
100193	-6,71	-5,	-14,563	7,8336
100194	-7,7899	-5,	-13,632	7,9298
100195	-7,1479	-5,	-13,768	7,8157
100196	-7,5823	-5,	-12,976	7,8467
100197	-8,4403	-5,	-11,429	8,0462
100198	-8,6601	-5,	-12,069	8,0791
100199	-8,0154	-5,	-12,196	7,9252
100200	-8,8653	-5,	-10,703	8,2055
100201	-9,0908	-5,	-11,322	8,2182
100202	-9,527	-5,	-10,618	8,3944
100203	-9,3097	-5,	-10,047	8,3982
100204	-8,6384	-5,	-10,037	8,2063
100205	10,566	-5,	-7,6255	9,1987
100206	9,9772	-5,	-8,6111	8,8151
100207	10,572	-5,	-8,4838	9,0312
100208	9,0331	-5,	-10,304	8,2898
100209	9,673	-5,	-10,168	8,4863
100210	9,4842	-5,	-9,4755	8,5233
100211	9,2325	-5,	-10,996	8,28
100212	8,5948	-5,	-11,14	8,1018
100213	8,3859	-5,	-10,437	8,0982
100214	8,376	-5,	-12,668	8,0115
100215	8,1707	-5,	-11,977	7,9636
100216	7,5473	-5,	-12,121	7,8138
100217	7,7495	-5,	-12,817	7,8762
100218	7,5311	-5,	-14,346	7,9499
100219	6,9111	-5,	-14,489	7,8583
100220	7,329	-5,	-13,656	7,8409
100221	6,0569	-5,	-16,121	8,037
100222	6,6857	-5,	-16,	8,0913
100223	6,488	-5,	-15,313	7,9252
100224	5,872	-5,	-15,434	7,8537
100225	5,6163	-5,	-16,922	8,1924
100226	6,2432	-5,	-16,804	8,2264
100227	5,8	-5,	-17,608	8,4059
100228	5,1749	-5,	-17,725	8,3917
100229	4,9898	-5,	-17,031	8,1553
100230	4,9487	-5,	-19,217	8,8869
100231	4,1439	-5,	-18,629	8,6291
100232	4,7534	-5,	-18,524	8,6311
100233	4,3472	-5,	-19,328	8,9084
100234	3,5462	-5,	-20,956	9,5631
100235	4,1388	-5,	-20,844	9,5107
100236	3,9489	-5,	-20,142	9,2215
100237	3,1273	-5,	-21,767	9,9294
100238	3,7179	-5,	-21,659	9,8659
100239	3,2962	-5,	-22,474	10,246
100240	2,7014	-5,	-22,584	10,322
100241	1,7416	-5,	-24,236	11,183
100242	2,3911	-5,	-24,127	11,089
100243	2,2487	-5,	-23,407	10,739
100244	1,8484	-5,	-24,949	11,547
100245	-9,537	-5,	10,009	8,3745
100246	-10,174	-5,	9,837	8,5846
100247	-9,6904	-5,	10,628	8,3348
100248	-9,0431	-5,	10,772	8,1444
100249	-8,7431	-5,	12,168	7,9678
100250	-8,0985	-5,	12,301	7,815
100251	-8,5632	-5,	11,534	7,9573
100252	-7,2077	-5,	13,873	7,671
100253	-7,8409	-5,	13,739	7,7842
100254	-7,6481	-5,	13,08	7,7189
100255	-6,7783	-5,	14,679	7,6726
100256	-7,4008	-5,	14,544	7,7647
100257	-6,3553	-5,	15,487	7,7216
100258	-6,9805	-5,	15,358	7,7963
100259	-6,1652	-5,	14,799	7,5843
100260	-5,9272	-5,	16,293	7,8136
100261	-6,5461	-5,	16,167	7,8693
100262	-5,5029	-5,	17,103	7,9483
100263	-6,1183	-5,	16,982	7,9868
100264	-5,6906	-5,	17,797	8,1437
100265	-5,0797	-5,	17,914	8,1209
100266	-4,241	-5,	19,554	8,5697
100267	-4,8412	-5,	19,437	8,562
100268	-4,6586	-5,	18,729	8,3287
100269	-3,8226	-5,	20,39	8,8398
100270	-4,419	-5,	20,271	8,8185
100271	-3,3969	-5,	21,227	9,1325
100272	-3,9968	-5,	21,109	9,1005
100273	-3,5643	-5,	21,946	9,4013
100274	-2,9633	-5,	22,058	9,4405
100275	-2,7027	-5,	23,588	10,035
100276	-2,104	-5,	23,679	10,079
100277	-2,5291	-5,	22,878	9,7579
100278	-1,8521	-5,	25,173	10,684
100279	-1,6973	-5,	24,462	10,399
100280	-1,113	-5,	24,571	10,446
100281	0,5173	-5,	-27,684	13,165
100282	1,0668	-5,	-27,069	12,778
100283	1,0371	-5,	-27,752	13,181
100284	-4,9187e-002	-5,	-28,23	13,513
100285	0,48534	-5,	-28,331	13,57
100286	-6,6288	-5,	3,2204	8,8256
100287	-6,6041	-5,	2,355	8,9305
100288	-5,9552	-5,	3,1933	8,6883
100289	-8,0286	-5,	5,0986	8,8578
100290	-8,7067	-5,	5,1759	9,0463
100291	6,3934	-5,	-2,9518	8,8093
100292	6,3989	-5,	-2,1495	8,9035
100293	7,761	-5,	-4,455	8,9186
100294	8,3831	-5,	-4,4301	9,1028
100295	7,9363	-5,	-5,2272	8,8269
100296	-10,636	-5,	-9,8682	8,8204
100297	-10,204	-5,	-10,541	8,6014
100298	-10,882	-5,	-10,41	8,8164
100299	-9,9862	-5,	-9,9704	8,6051
100300	1,5686	-5,	-26,999	12,7
100301	1,5438	-5,	-26,318	12,321
100302	-1,4134	-5,	26,617	11,288
100303	-1,6568	-5,	27,299	11,559
100304	-1,9397	-5,	25,864	10,967
100305	-2,0889	-5,	26,55	11,239
100306	-6,6267	-5,	1,4687	9,012
100307	-6,6956	-5,	0,58145	9,074
100308	6,4667	-5,	-1,3135	8,9853
100309	6,5758	-5,	-0,49135	9,048
100310	-6,8392	-5,	-0,30928	9,1094
100311	-7,038	-5,	-1,1664	9,1311
100312	6,7438	-5,	0,34984	9,0864
100313	6,957	-5,	1,1602	9,1118
100314	-7,2803	-5,	-1,9889	9,1264
100315	-7,5633	-5,	-2,7575	9,1226
100316	7,2123	-5,	1,9684	9,1102
100317	7,5083	-5,	2,7254	9,1092
100318	-7,862	-5,	-3,5174	9,0956
100319	-8,174	-5,	-4,1966	9,0822
100320	7,8086	-5,	3,4477	9,0855
100321	8,1265	-5,	4,1156	9,071
100322	10,327	-5,	-6,3075	9,3844
100323	10,49	-5,	-6,9148	9,3203
100324	-10,438	-5,	7,4653	9,1241
100325	-10,77	-5,	8,0126	9,1188
100326	8,4534	-5,	4,7916	9,0386
100327	8,7858	-5,	5,4141	9,0221
100328	9,111	-5,	6,0455	8,9887
100329	8,7416	-5,	6,8775	8,7056
100330	9,439	-5,	6,6056	8,9793
100331	-11,064	-5,	-9,1742	9,0712
100332	-11,31	-5,	-9,7085	9,0564
100333	-10,828	-5,	-8,6511	9,0869
100334	-10,513	-5,	-8,1366	9,0778
100335	-10,129	-5,	-7,6871	9,0374
100336	-9,7826	-5,	-7,1968	9,0147
100337	-9,3793	-5,	5,326	9,2197
100338	-10,036	-5,	5,4654	9,4229
100339	-10,318	-5,	6,1119	9,3839
100340	10,65	-5,	9,8513	8,7285
100341	11,323	-5,	9,6952	8,963
100342	11,087	-5,	9,1359	8,9952
100343	10,834	-5,	8,6081	9,0161
100344	10,512	-5,	8,0877	9,0156
100345	10,111	-5,	7,6248	8,9818
100346	9,0602	-5,	7,4	8,6975
100347	9,7577	-5,	7,1281	8,9681
100348	-0,57733	-5,	-28,092	13,419
100349	-0,60955	-5,	-28,874	13,911
100350	-5,4907e-002	-5,	-28,957	13,983
100351	-2,0025	-5,	27,976	11,833
100352	-1,599	-5,	28,685	12,142
100353	-2,1834	-5,	28,669	12,108
100354	-1,0483	-5,	28,63	12,133
100355	-0,4774	-5,	28,529	12,1
100356	0,70212	-5,	27,544	11,685
100357	8,7365e-002	-5,	28,391	12,044
100358	0,63787	-5,	28,313	12,008
100359	-9,4702	-5,	-6,6832	9,0172
100360	-9,1411	-5,	-6,123	9,0164
100361	-8,8119	-5,	-5,4805	9,0424
100362	-8,4845	-5,	-4,8616	9,0525
100363	11,137	-5,	-7,528	9,4187
100364	11,67	-5,	-7,6984	9,5862
100365	11,807	-5,	-8,2544	9,5083
100366	11,144	-5,	-8,3862	9,2483
100367	-2,3324	-5,	27,232	11,514
100368	-2,5588	-5,	27,924	11,781
100369	-11,229	-5,	9,0568	9,0602
100370	-11,361	-5,	8,5485	9,2046
100371	-11,752	-5,	9,063	9,2321
100372	-11,408	-5,	9,5514	9,0142
100373	-10,799	-5,	9,6221	8,8127
100374	1,539	-5,	-27,682	13,103
100375	2,2211	-5,	-26,998	12,634
100376	2,0191	-5,	-27,675	13,044
100377	-7,3312	-5,	4,1344	8,8504
100378	-7,2828	-5,	3,2708	8,9781
100379	-8,0055	-5,	4,1951	9,023
100380	7,0761	-5,	-3,7193	8,8597
100381	7,0568	-5,	-2,9378	8,9669
100382	6,4254	-5,	-3,7683	8,6981
100383	7,7245	-5,	-3,6911	9,0339
100384	1,3081	-5,	26,673	11,313
100385	1,3388	-5,	27,483	11,647
100386	0,65929	-5,	26,832	11,388
100387	1,8016	-5,	25,823	10,954
100388	1,9775	-5,	26,556	11,246
100389	2,2136	-5,	25,017	10,617
100390	2,384	-5,	25,738	10,901
100391	1,6	-5,	25,083	10,651
100392	2,8149	-5,	24,932	10,566
100393	2,6388	-5,	24,217	10,289
100394	3,6875	-5,	23,316	9,9197
100395	3,5122	-5,	22,607	9,6541
100396	3,0749	-5,	23,414	9,9666
100397	4,5607	-5,	21,687	9,3195
100398	3,9458	-5,	21,796	9,3534
100399	4,3718	-5,	20,984	9,0692
100400	5,2337	-5,	19,363	8,566
100401	5,4222	-5,	20,059	8,7935
100402	4,7995	-5,	20,172	8,8051
100403	5,6734	-5,	18,549	8,3535
100404	5,8636	-5,	19,245	8,5677
100405	5,0406	-5,	18,667	8,3346
100406	6,3142	-5,	18,417	8,3683
100407	6,1194	-5,	17,724	8,1713
100408	7,2162	-5,	16,769	8,0792
100409	7,0217	-5,	16,08	7,9247
100410	6,57	-5,	16,901	8,0272
100411	8,1257	-5,	15,116	7,9578
100412	7,4733	-5,	15,261	7,8667
100413	7,9206	-5,	14,441	7,8544
100414	8,8058	-5,	12,819	7,9718
100415	9,0135	-5,	13,474	8,0207
100416	8,3622	-5,	13,623	7,8889
100417	9,2519	-5,	12,035	8,1008
100418	8,5968	-5,	12,152	7,9331
100419	9,4611	-5,	12,672	8,1246
100420	9,7085	-5,	11,284	8,2727
100421	9,9146	-5,	11,897	8,274
100422	10,178	-5,	10,563	8,4836
100423	10,383	-5,	11,156	8,4665
100424	10,858	-5,	10,422	8,6987
100425	-1,0418	-5,	-27,216	12,867
100426	-1,1537	-5,	-27,999	13,322
100427	-1,459	-5,	-26,368	12,353
100428	-1,6298	-5,	-27,128	12,764
100429	-1,8739	-5,	-25,545	11,871
100430	-2,0569	-5,	-26,277	12,246
100431	-1,2422	-5,	-25,611	11,933
100432	-2,312	-5,	-24,738	11,415
100433	-2,4892	-5,	-25,45	11,763
100434	-2,7589	-5,	-23,938	10,981
100435	-2,931	-5,	-24,645	11,314
100436	-3,1994	-5,	-23,142	10,571
100437	-3,3731	-5,	-23,846	10,89
100438	-3,6313	-5,	-22,346	10,183
100439	-3,8153	-5,	-23,049	10,489
100440	-3,0267	-5,	-22,433	10,235
100441	-4,0562	-5,	-21,552	9,8196
100442	-4,2445	-5,	-22,252	10,112
100443	-4,4798	-5,	-20,756	9,4809
100444	-3,8626	-5,	-20,848	9,5116
100445	-4,6725	-5,	-21,453	9,7603
100446	-4,9091	-5,	-19,956	9,169
100447	-5,102	-5,	-20,651	9,4344
100448	-5,3458	-5,	-19,152	8,887
100449	-5,5374	-5,	-19,844	9,1369
100450	-4,7204	-5,	-19,258	8,892
100451	-5,9801	-5,	-19,031	8,8708
100452	-5,7889	-5,	-18,343	8,6389
100453	-6,6693	-5,	-16,725	8,2614
100454	-6,8672	-5,	-17,407	8,4523
100455	-6,2304	-5,	-17,536	8,4299
100456	-7,1077	-5,	-15,912	8,1374
100457	-7,311	-5,	-16,588	8,3042
100458	-7,75	-5,	-15,776	8,2025
100459	-7,5469	-5,	-15,104	8,0617
100460	-8,4367	-5,	-13,502	8,0607
100461	-8,6439	-5,	-14,158	8,1468
100462	-7,9922	-5,	-14,297	8,0361
100463	-8,8739	-5,	-12,72	8,1322
100464	-9,0878	-5,	-13,364	8,1926
100465	-8,2291	-5,	-12,846	7,9822
100466	-9,3106	-5,	-11,962	8,2486
100467	-9,5278	-5,	-12,587	8,2849
100468	-9,7524	-5,	-11,236	8,4062
100469	-9,971	-5,	-11,837	8,4219
100470	-10,424	-5,	-11,115	8,6002
100471	10,307	-5,	-10,035	8,6957
100472	10,946	-5,	-9,884	8,9119
100473	10,118	-5,	-9,3429	8,7359
100474	10,713	-5,	-9,2156	8,9487
100475	9,8725	-5,	-10,86	8,4726
100476	10,516	-5,	-10,711	8,6701
100477	9,4375	-5,	-11,688	8,2934
100478	10,078	-5,	-11,539	8,4698
100479	9,0051	-5,	-12,523	8,1625
100480	9,6397	-5,	-12,373	8,3164
100481	8,7998	-5,	-11,832	8,12
100482	9,2084	-5,	-13,206	8,2148
100483	8,5785	-5,	-13,36	8,0837
100484	7,7324	-5,	-15,037	8,0832
100485	8,3572	-5,	-14,885	8,1681
100486	8,1541	-5,	-14,199	8,0573
100487	7,3101	-5,	-15,868	8,1583
100488	7,9438	-5,	-15,724	8,2231
100489	7,1124	-5,	-15,18	7,9974
100490	6,8719	-5,	-16,683	8,2762
100491	7,5114	-5,	-16,552	8,322
100492	6,4269	-5,	-17,49	8,436
100493	7,0597	-5,	-17,362	8,4603
100494	5,9907	-5,	-18,294	8,6379
100495	6,6135	-5,	-18,17	8,6418
100496	5,5609	-5,	-19,104	8,8804
100497	5,3656	-5,	-18,411	8,6268
100498	6,1779	-5,	-18,98	8,864
100499	5,7501	-5,	-19,795	9,125
100500	5,1412	-5,	-19,917	9,1597
100501	4,3106	-5,	-21,547	9,8133
100502	4,9155	-5,	-21,429	9,7459
100503	4,7296	-5,	-20,73	9,4712
100504	3,8868	-5,	-22,367	10,183
100505	4,4856	-5,	-22,25	10,102
100506	4,0651	-5,	-23,072	10,485
100507	3,4565	-5,	-23,191	10,581
100508	2,4979	-5,	-24,84	11,454
100509	3,17	-5,	-24,724	11,333
100510	3,0042	-5,	-24,021	11,007
100511	1,9908	-5,	-25,594	11,89
100512	2,6852	-5,	-25,541	11,792
100513	2,1963	-5,	-26,316	12,254
100514	-10,497	-5,	11,102	8,5045
100515	-10,327	-5,	10,456	8,5401
100516	-9,8517	-5,	11,248	8,3145
100517	-8,9293	-5,	12,811	8,0004
100518	-9,5757	-5,	12,667	8,1522
100519	-9,3843	-5,	12,026	8,1342
100520	-8,4775	-5,	13,603	7,9123
100521	-8,2847	-5,	12,944	7,8516
100522	-9,1192	-5,	13,456	8,0435
100523	-8,034	-5,	14,409	7,8731
100524	-8,6684	-5,	14,26	7,9826
100525	-7,6029	-5,	15,224	7,8836
100526	-8,2307	-5,	15,081	7,9724
100527	-7,8031	-5,	15,902	8,0101
100528	-7,1712	-5,	16,039	7,9395
100529	-6,9347	-5,	17,541	8,2113
100530	-6,3061	-5,	17,676	8,1786
100531	-6,7372	-5,	16,855	8,0384
100532	-5,448	-5,	19,322	8,567
100533	-5,8763	-5,	18,498	8,3559
100534	-6,0637	-5,	19,194	8,5666
100535	-5,2654	-5,	18,614	8,3362
100536	-5,0192	-5,	20,154	8,8089
100537	-5,6306	-5,	20,025	8,7933
100538	-4,5932	-5,	20,99	9,0777
100539	-5,2003	-5,	20,864	9,0493
100540	-4,1642	-5,	21,828	9,3684
100541	-4,7693	-5,	21,705	9,3292
100542	-3,7344	-5,	22,661	9,6748
100543	-4,3437	-5,	22,542	9,627
100544	-3,307	-5,	23,483	9,9915
100545	-3,9142	-5,	23,373	9,9388
100546	-3,1334	-5,	22,773	9,7141
100547	-2,8779	-5,	24,296	10,316
100548	-3,4834	-5,	24,195	10,26
100549	-2,4341	-5,	25,099	10,645
100550	-3,0506	-5,	25,002	10,587
100551	-2,2793	-5,	24,387	10,359
100552	-2,5901	-5,	25,801	10,92
100553	1,0052	-5,	-28,399	13,586
100554	1,5318	-5,	-28,404	13,537
100555	-7,2582	-5,	2,4054	9,0796
100556	-7,2639	-5,	1,5174	9,1649
100557	-8,6837	-5,	4,2724	9,2044
100558	-9,4212	-5,	4,3138	9,4401
100559	7,0622	-5,	-2,1355	9,0596
100560	7,1045	-5,	-1,3414	9,1357
100561	8,9494	-5,	-4,4051	9,2828
100562	9,5224	-5,	-4,4128	9,476
100563	8,3466	-5,	-3,6662	9,2159
100564	8,9965	-5,	-3,6578	9,4238
100565	-2,7394	-5,	26,487	11,194
100566	-2,932	-5,	27,172	11,455
100567	-11,102	-5,	-10,984	8,8125
100568	-11,556	-5,	-10,251	9,0494
100569	-11,779	-5,	-10,823	9,0272
100570	-7,3328	-5,	0,63019	9,2252
100571	-7,4567	-5,	-0,23612	9,2694
100572	7,2137	-5,	-0,51928	9,1975
100573	7,3707	-5,	0,28237	9,2455
100574	-7,6555	-5,	-1,0932	9,2906
100575	-7,9088	-5,	-1,8841	9,3112
100576	7,584	-5,	1,0928	9,2707
100577	7,8452	-5,	1,8623	9,2922
100578	-8,1918	-5,	-2,6528	9,3076
100579	-8,5045	-5,	-3,359	9,314
100580	8,1412	-5,	2,6193	9,2914
100581	8,4562	-5,	3,3029	9,2977
100582	10,981	-5,	-5,9523	9,7085
100583	11,144	-5,	-6,5596	9,6333
100584	11,483	-5,	-6,87	9,7038
100585	-11,135	-5,	7,237	9,4219
100586	-10,778	-5,	6,7043	9,4118
100587	-11,467	-5,	7,7843	9,4131
100588	-11,842	-5,	8,3079	9,4284
100589	-11,931	-5,	9,5576	9,1892
100590	-12,233	-5,	8,8224	9,45
100591	-12,536	-5,	9,3795	9,4259
100592	8,7741	-5,	3,9708	9,2833
100593	9,1178	-5,	4,6005	9,285
100594	9,4503	-5,	5,2229	9,2675
100595	9,7881	-5,	5,7954	9,2672
100596	-11,478	-5,	-8,4496	9,3521
100597	-11,75	-5,	-8,9789	9,338
100598	-11,163	-5,	-7,9351	9,3461
100599	-10,825	-5,	-7,4244	9,3308
100600	-10,077	-5,	4,4532	9,6311
100601	-10,668	-5,	4,7992	9,7964
100602	-10,844	-5,	5,3067	9,7535
100603	11,531	-5,	10,266	8,9302
100604	12,204	-5,	10,092	9,1678
100605	11,981	-5,	9,5152	9,2143
100606	11,745	-5,	8,9559	9,25
100607	11,463	-5,	8,4108	9,2725
100608	11,141	-5,	7,8903	9,2747
100609	10,804	-5,	7,3706	9,2713
100610	-1,1859	-5,	-28,781	13,815
100611	-1,1374	-5,	-29,572	14,334
100612	-0,59892	-5,	-29,627	14,418
100613	-1,0855	-5,	29,306	12,417
100614	-1,6813	-5,	29,337	12,41
100615	-0,51457	-5,	29,204	12,384
100616	4,8948e-002	-5,	29,135	12,358
100617	0,59946	-5,	29,057	12,321
100618	1,1174	-5,	29,048	12,307
100619	1,2745	-5,	28,252	11,97
100620	1,5774	-5,	29,155	12,337
100621	2,1176	-5,	29,096	12,288
100622	1,7345	-5,	28,36	12,002
100623	-3,1584	-5,	27,864	11,726
100624	-2,7397	-5,	28,617	12,059
100625	-3,3384	-5,	28,563	11,99
100626	-10,478	-5,	-6,934	9,3118
100627	-10,144	-5,	-6,4188	9,297
100628	-9,8152	-5,	-5,8586	9,3001
100629	-9,4789	-5,	-5,2808	9,2946
100630	12,016	-5,	-7,0404	9,8628
100631	12,266	-5,	-7,5809	9,8367
100632	12,01	-5,	-8,9306	9,4411
100633	12,403	-5,	-8,137	9,7569
100634	12,668	-5,	-8,7483	9,7104
100635	1,0304	-5,	-29,1	14,03
100636	0,47962	-5,	-29,058	14,041
100637	-12,202	-5,	10,114	9,1634
100638	-11,563	-5,	10,242	8,9451
100639	2,6773	-5,	-27,151	12,665
100640	2,4753	-5,	-27,827	13,072
100641	3,0324	-5,	-27,809	12,962
100642	-7,9572	-5,	3,3315	9,1457
100643	-7,8552	-5,	2,4314	9,2362
100644	-8,613	-5,	3,3636	9,3361
100645	7,7052	-5,	-2,9096	9,1395
100646	7,714	-5,	-2,1457	9,2306
100647	8,3673	-5,	-2,9144	9,3319
100648	2,7125	-5,	27,208	11,482
100649	2,0082	-5,	27,366	11,58
100650	2,56	-5,	26,471	11,195
100651	3,4262	-5,	24,839	10,516
100652	3,5995	-5,	25,556	10,784
100653	2,9854	-5,	25,654	10,851
100654	3,8626	-5,	24,026	10,191
100655	3,25	-5,	24,124	10,238
100656	4,0436	-5,	24,736	10,451
100657	4,3033	-5,	23,212	9,8781
100658	4,4793	-5,	23,92	10,132
100659	4,7431	-5,	22,395	9,578
100660	4,1281	-5,	22,503	9,6125
100661	4,9268	-5,	23,1	9,8245
100662	5,177	-5,	21,578	9,2952
100663	5,3648	-5,	22,278	9,5331
100664	5,6107	-5,	20,761	9,0327
100665	5,8	-5,	21,46	9,2616
100666	4,9881	-5,	20,874	9,046
100667	6,0521	-5,	19,941	8,7928
100668	6,2427	-5,	20,634	9,0096
100669	6,5043	-5,	19,113	8,5791
100670	6,6967	-5,	19,805	8,7831
100671	6,9578	-5,	18,284	8,397
100672	7,1527	-5,	18,972	8,5849
100673	7,4092	-5,	17,459	8,2514
100674	7,6054	-5,	18,143	8,4211
100675	6,763	-5,	17,591	8,2039
100676	8,0619	-5,	17,311	8,294
100677	7,8631	-5,	16,628	8,1444
100678	8,7716	-5,	14,965	8,0622
100679	8,9761	-5,	15,64	8,1642
100680	8,321	-5,	15,795	8,0808
100681	9,2178	-5,	14,14	8,0908
100682	9,4211	-5,	14,805	8,1658
100683	8,5665	-5,	14,29	7,9644
100684	9,8758	-5,	13,981	8,2176
100685	9,6688	-5,	13,327	8,1686
100686	10,589	-5,	11,77	8,465
100687	10,793	-5,	12,388	8,4646
100688	10,124	-5,	12,535	8,2939
100689	11,063	-5,	11,015	8,6788
100690	11,265	-5,	11,617	8,6579
100691	11,737	-5,	10,848	8,8941
100692	-1,7418	-5,	-27,911	13,223
100693	-1,8192	-5,	-28,707	13,687
100694	-2,2278	-5,	-27,036	12,662
100695	-2,3828	-5,	-27,784	13,053
100696	-2,6721	-5,	-26,181	12,143
100697	-2,8623	-5,	-26,894	12,488
100698	-3,1082	-5,	-25,356	11,666
100699	-3,2971	-5,	-26,069	11,995
100700	-3,5453	-5,	-24,553	11,225
100701	-3,7296	-5,	-25,26	11,538
100702	-3,989	-5,	-23,753	10,809
100703	-4,1698	-5,	-24,456	11,107
100704	-4,4285	-5,	-22,954	10,419
100705	-4,6116	-5,	-23,654	10,704
100706	-5,0487	-5,	-22,848	10,325
100707	-4,8609	-5,	-22,153	10,053
100708	-5,7303	-5,	-20,538	9,401
100709	-5,9254	-5,	-21,23	9,6474
100710	-5,2948	-5,	-21,348	9,7134
100711	-6,1716	-5,	-19,724	9,1184
100712	-6,3672	-5,	-20,411	9,3503
100713	-6,6151	-5,	-18,908	8,8707
100714	-6,8096	-5,	-19,592	9,0865
100715	-7,0607	-5,	-18,092	8,6605
100716	-7,2585	-5,	-18,773	8,8589
100717	-6,4239	-5,	-18,22	8,642
100718	-7,5089	-5,	-17,271	8,4903
100719	-7,7074	-5,	-17,95	8,6694
100720	-7,9533	-5,	-16,452	8,3641
100721	-8,1534	-5,	-17,125	8,5209
100722	-8,6014	-5,	-16,307	8,4184
100723	-8,3979	-5,	-15,637	8,2849
100724	-9,295	-5,	-14,021	8,2733
100725	-9,5009	-5,	-14,678	8,3553
100726	-8,8465	-5,	-14,827	8,2546
100727	-9,7417	-5,	-13,232	8,3407
100728	-9,9507	-5,	-13,871	8,3968
100729	-10,401	-5,	-13,09	8,4866
100730	-10,188	-5,	-12,463	8,4545
100731	-11,316	-5,	-11,571	8,8036
100732	-10,642	-5,	-11,716	8,6129
100733	11,58	-5,	-9,7308	9,1429
100734	12,235	-5,	-9,553	9,3869
100735	11,347	-5,	-9,0624	9,1836
100736	11,155	-5,	-10,56	8,8818
100737	11,807	-5,	-10,388	9,1006
100738	10,721	-5,	-11,39	8,6623
100739	11,372	-5,	-11,224	8,8574
100740	10,933	-5,	-12,058	8,6603
100741	10,28	-5,	-12,224	8,4873
100742	10,055	-5,	-13,727	8,4144
100743	9,843	-5,	-13,057	8,3626
100744	9,4103	-5,	-13,891	8,2898
100745	8,5686	-5,	-15,571	8,3018
100746	9,2002	-5,	-15,408	8,3765
100747	8,9835	-5,	-14,73	8,2695
100748	8,1451	-5,	-16,409	8,3812
100749	8,7847	-5,	-16,251	8,4339
100750	8,3472	-5,	-17,09	8,5345
100751	7,6992	-5,	-17,231	8,5012
100752	7,4332	-5,	-18,72	8,8538
100753	6,8006	-5,	-18,856	8,8646
100754	7,2463	-5,	-18,043	8,662
100755	5,9431	-5,	-20,488	9,3834
100756	6,559	-5,	-20,359	9,3331
100757	6,367	-5,	-19,671	9,1061
100758	5,5201	-5,	-21,309	9,6936
100759	6,135	-5,	-21,181	9,625
100760	5,3342	-5,	-20,61	9,4197
100761	5,0906	-5,	-22,132	10,035
100762	5,7018	-5,	-22,006	9,9489
100763	4,6639	-5,	-22,956	10,404
100764	5,2712	-5,	-22,832	10,303
100765	4,2381	-5,	-23,779	10,801
100766	4,8457	-5,	-23,656	10,684
100767	3,7953	-5,	-24,602	11,224
100768	4,4217	-5,	-24,482	11,092
100769	3,6295	-5,	-23,899	10,896
100770	3,9807	-5,	-25,305	11,527
100771	3,3573	-5,	-25,425	11,675
100772	3,1274	-5,	-26,942	12,472
100773	2,8906	-5,	-26,263	12,163
100774	-11,326	-5,	11,584	8,6782
100775	-10,676	-5,	11,733	8,4913
100776	-11,124	-5,	10,958	8,7042
100777	-10,42	-5,	13,162	8,3384
100778	-10,222	-5,	12,52	8,3189
100779	-9,7656	-5,	13,313	8,1905
100780	-8,865	-5,	14,931	8,0762
100781	-9,5068	-5,	14,774	8,1798
100782	-9,3101	-5,	14,113	8,1084
100783	-8,4308	-5,	15,759	8,0936
100784	-9,0687	-5,	15,606	8,1757
100785	-7,9974	-5,	16,583	8,1551
100786	-8,6346	-5,	16,437	8,2177
100787	-7,5631	-5,	17,405	8,2578
100788	-8,1987	-5,	17,258	8,3004
100789	-7,3656	-5,	16,719	8,0894
100790	-7,123	-5,	18,232	8,3997
100791	-7,7586	-5,	18,088	8,4237
100792	-7,3124	-5,	18,918	8,5835
100793	-6,4943	-5,	18,367	8,3711
100794	-6,6817	-5,	19,063	8,5783
100795	-5,8117	-5,	20,736	9,0314
100796	-6,433	-5,	20,596	9,0047
100797	-6,2463	-5,	19,897	8,79
100798	-5,3764	-5,	21,58	9,2992
100799	-5,9949	-5,	21,443	9,2595
100800	-4,9488	-5,	22,419	9,5869
100801	-5,5619	-5,	22,289	9,5367
100802	-5,1332	-5,	23,133	9,833
100803	-4,5235	-5,	23,254	9,8908
100804	-3,656	-5,	24,901	10,533
100805	-4,2702	-5,	24,793	10,464
100806	-4,0906	-5,	24,085	10,208
100807	-3,2066	-5,	25,704	10,863
100808	-3,8324	-5,	25,606	10,793
100809	-3,3809	-5,	26,401	11,125
100810	2,0119	-5,	-28,396	13,479
100811	2,5624	-5,	-28,403	13,383
100812	1,5571	-5,	-29,105	13,983
100813	2,1129	-5,	-29,097	13,884
100814	-11,996	-5,	-9,5132	9,319
100815	-12,232	-5,	-10,07	9,2883
100816	-7,9621	-5,	0,7039	9,3979
100817	-7,8609	-5,	1,5434	9,3194
100818	7,8453	-5,	-0,56262	9,3677
100819	7,7564	-5,	-1,3516	9,3053
100820	9,5695	-5,	-3,6655	9,6143
100821	9,0171	-5,	-2,906	9,5376
100822	9,794	-5,	-2,9375	9,8085
100823	-3,5735	-5,	27,086	11,389
100824	-3,763	-5,	27,786	11,645
100825	-9,1514	-5,	-4,6618	9,3061
100826	-8,8165	-5,	-4,0382	9,3001
100827	-8,0859	-5,	-0,16241	9,4404
100828	-8,2766	-5,	-0,98343	9,4806
100829	-9,3505	-5,	3,4051	9,5656
100830	-10,033	-5,	3,2831	9,8225
100831	-10,374	-5,	3,9013	9,8626
100832	8,212	-5,	1,0024	9,4574
100833	8,0023	-5,	0,23904	9,4151
100834	-8,5298	-5,	-1,7743	9,5003
100835	-8,8252	-5,	-2,518	9,526
100836	8,4733	-5,	1,7719	9,4787
100837	8,7794	-5,	2,4866	9,5068
100838	10,165	-5,	-3,8454	9,81
100839	11,615	-5,	-5,5867	10,037
100840	11,932	-5,	-5,9575	10,093
100841	-12,41	-5,	10,698	9,1232
100842	-12,807	-5,	9,9364	9,3961
100843	-13,055	-5,	10,524	9,3454
100844	-12,142	-5,	7,5386	9,7251
100845	-11,814	-5,	7,0055	9,7293
100846	-12,517	-5,	8,0622	9,7357
100847	-12,845	-5,	8,6109	9,7173
100848	9,0943	-5,	3,1703	9,5128
100849	9,4314	-5,	3,7952	9,5333
100850	9,7751	-5,	4,4249	9,5341
100851	10,128	-5,	5,0048	9,5506
100852	-11,841	-5,	-7,7116	9,6433
100853	-12,146	-5,	-8,2393	9,6373
100854	-10,965	-5,	4,2474	10,017
100855	-11,375	-5,	4,6972	10,097
100856	12,411	-5,	10,674	9,1274
100857	13,09	-5,	10,49	9,3624
100858	12,872	-5,	9,898	9,4254
100859	12,649	-5,	9,3215	9,4767
100860	12,394	-5,	8,7535	9,5232
100861	12,112	-5,	8,2083	9,5497
100862	11,813	-5,	7,6718	9,5681
100863	-11,126	-5,	5,9532	9,7146
100864	-11,457	-5,	6,4729	9,7228
100865	-1,6378	-5,	-30,323	14,777
100866	-1,1074	-5,	-30,352	14,883
100867	-1,7706	-5,	-29,498	14,206
100868	-2,1139	-5,	-30,413	14,749
100869	-2,658	-5,	-30,316	14,535
100870	-2,2468	-5,	-29,587	14,179
100871	-0,54284	-5,	29,917	12,687
100872	-1,1394	-5,	29,96	12,693
100873	2,068e-002	-5,	29,848	12,66
100874	0,57978	-5,	29,813	12,642
100875	1,6494	-5,	29,781	12,599
100876	1,0978	-5,	29,803	12,628
100877	2,5524	-5,	28,835	12,161
100878	2,1895	-5,	29,721	12,551
100879	2,7463	-5,	29,588	12,457
100880	-2,2657	-5,	29,321	12,378
100881	-2,8768	-5,	29,302	12,329
100882	-11,503	-5,	-7,201	9,6317
100883	-11,171	-5,	-6,6895	9,6169
100884	11,477	-5,	7,152	9,5678
100885	11,141	-5,	6,633	9,5622
100886	10,451	-5,	6,8739	9,2605
100887	1,6325	-5,	-29,805	14,422
100888	1,0636	-5,	-29,805	14,505
100889	0,51276	-5,	-29,763	14,513
100890	-4,4281e-002	-5,	-29,709	14,49
100891	-10,837	-5,	-6,1742	9,6057
100892	-10,496	-5,	-5,6482	9,585
100893	10,806	-5,	6,1146	9,5596
100894	10,466	-5,	5,5772	9,548
100895	10,116	-5,	6,3555	9,2548
100896	12,271	-5,	-6,2679	10,153
100897	12,566	-5,	-6,7977	10,147
100898	13,053	-5,	-7,9198	10,056
100899	12,816	-5,	-7,3382	10,114
100900	12,893	-5,	-9,3707	9,6511
100901	13,318	-5,	-8,5311	10,003
100902	13,556	-5,	-9,1595	9,9246
100903	-12,67	-5,	-9,3201	9,5824
100904	-12,418	-5,	-8,7686	9,6186
100905	3,4825	-5,	-27,601	12,775
100906	3,1195	-5,	-28,384	13,277
100907	3,6855	-5,	-28,303	13,09
100908	-9,1911	-5,	2,4916	9,6399
100909	-8,511	-5,	2,4635	9,4226
100910	9,0332	-5,	-2,1871	9,6293
100911	8,3761	-5,	-2,1505	9,4209
100912	2,8737	-5,	27,941	11,775
100913	3,0775	-5,	28,664	12,05
100914	2,1694	-5,	28,099	11,87
100915	3,479	-5,	27,83	11,684
100916	3,3061	-5,	27,115	11,416
100917	4,3904	-5,	26,166	10,974
100918	3,7678	-5,	26,28	11,062
100919	4,217	-5,	25,453	10,72
100920	5,2846	-5,	24,512	10,316
100921	5,1027	-5,	23,808	10,078
100922	4,6604	-5,	24,63	10,392
100923	5,9878	-5,	22,16	9,4984
100924	6,1807	-5,	22,854	9,7184
100925	5,5485	-5,	22,983	9,779
100926	6,432	-5,	21,333	9,2367
100927	6,6241	-5,	22,027	9,4488
100928	7,076	-5,	21,19	9,1988
100929	6,8874	-5,	20,498	8,9972
100930	7,9938	-5,	19,517	8,7796
100931	7,8004	-5,	18,831	8,605
100932	7,3451	-5,	19,664	8,7854
100933	8,7147	-5,	17,156	8,3504
100934	8,9171	-5,	17,839	8,4899
100935	8,2582	-5,	17,995	8,4589
100936	9,171	-5,	16,318	8,2839
100937	9,3699	-5,	16,997	8,4013
100938	8,5159	-5,	16,474	8,2063
100939	9,6257	-5,	15,48	8,2617
100940	9,8276	-5,	16,158	8,3562
100941	10,079	-5,	14,646	8,2866
100942	10,283	-5,	15,311	8,3554
100943	10,537	-5,	13,826	8,3608
100944	10,74	-5,	14,48	8,4034
100945	10,999	-5,	13,024	8,4833
100946	11,202	-5,	13,664	8,5001
100947	10,33	-5,	13,172	8,3173
100948	11,67	-5,	12,861	8,6458
100949	11,468	-5,	12,235	8,6532
100950	12,617	-5,	11,271	9,079
100951	11,94	-5,	11,45	8,8687
100952	-3,1723	-5,	-28,374	13,244
100953	-3,0173	-5,	-27,641	12,884
100954	-2,4602	-5,	-28,581	13,522
100955	-4,1029	-5,	-26,681	12,172
100956	-3,4872	-5,	-26,781	12,345
100957	-3,9185	-5,	-25,973	11,871
100958	-4,7924	-5,	-24,357	11,004
100959	-4,9789	-5,	-25,057	11,274
100960	-4,354	-5,	-25,163	11,423
100961	-5,2319	-5,	-23,547	10,611
100962	-5,419	-5,	-24,245	10,869
100963	-5,8645	-5,	-23,427	10,489
100964	-5,6752	-5,	-22,735	10,244
100965	-6,5623	-5,	-21,103	9,5953
100966	-6,7552	-5,	-21,792	9,8174
100967	-6,118	-5,	-21,922	9,9057
100968	-7,0051	-5,	-20,28	9,3161
100969	-7,2021	-5,	-20,968	9,5256
100970	-7,453	-5,	-19,457	9,0715
100971	-7,645	-5,	-20,143	9,2669
100972	-7,9052	-5,	-18,632	8,8637
100973	-8,1008	-5,	-19,316	9,0432
100974	-8,3518	-5,	-17,805	8,6951
100975	-8,5519	-5,	-18,487	8,857
100976	-8,8014	-5,	-16,981	8,5697
100977	-9,0023	-5,	-17,657	8,7111
100978	-9,2536	-5,	-16,162	8,4903
100979	-9,457	-5,	-16,83	8,6095
100980	-9,7045	-5,	-15,343	8,4573
100981	-9,0501	-5,	-15,492	8,3627
100982	-9,9111	-5,	-16,007	8,5534
100983	-10,157	-5,	-14,528	8,4727
100984	-10,362	-5,	-15,183	8,5437
100985	-10,61	-5,	-13,729	8,5374
100986	-10,818	-5,	-14,371	8,5835
100987	-11,272	-5,	-13,57	8,6714
100988	-11,066	-5,	-12,944	8,6499
100989	-11,993	-5,	-11,409	9,0137
100990	-12,198	-5,	-12,009	8,9901
100991	-11,527	-5,	-12,172	8,809
100992	-12,455	-5,	-10,642	9,2612
100993	-12,667	-5,	-11,233	9,2204
100994	-12,907	-5,	-9,8765	9,5466
100995	-13,13	-5,	-10,451	9,4931
100996	12,462	-5,	-10,21	9,3391
100997	13,123	-5,	-10,011	9,582
100998	12,025	-5,	-11,053	9,0704
100999	12,685	-5,	-10,865	9,2846
101000	11,584	-5,	-11,892	8,8495
101001	12,241	-5,	-11,718	9,0358
101002	11,797	-5,	-12,556	8,8393
101003	11,143	-5,	-12,727	8,678
101004	10,263	-5,	-14,401	8,4863
101005	10,91	-5,	-14,232	8,598
101006	10,703	-5,	-13,563	8,5566
101007	9,8351	-5,	-15,243	8,4689
101008	10,475	-5,	-15,072	8,5548
101009	9,6185	-5,	-14,565	8,3685
101010	10,055	-5,	-15,919	8,5634
101011	9,4163	-5,	-16,089	8,5023
101012	8,5349	-5,	-17,765	8,7016
101013	9,1897	-5,	-17,613	8,7184
101014	8,9868	-5,	-16,932	8,5814
101015	8,0738	-5,	-18,584	8,861
101016	8,7218	-5,	-18,439	8,8556
101017	7,8868	-5,	-17,907	8,6734
101018	8,2658	-5,	-19,257	9,0327
101019	7,625	-5,	-19,403	9,0609
101020	7,3767	-5,	-20,911	9,5031
101021	6,7509	-5,	-21,051	9,573
101022	7,1844	-5,	-20,226	9,2995
101023	5,8824	-5,	-22,706	10,217
101024	6,5063	-5,	-22,571	10,108
101025	6,3167	-5,	-21,878	9,8794
101026	5,453	-5,	-23,533	10,583
101027	6,0727	-5,	-23,403	10,457
101028	5,0294	-5,	-24,359	10,976
101029	5,6461	-5,	-24,229	10,832
101030	4,6071	-5,	-25,185	11,398
101031	5,2241	-5,	-25,058	11,237
101032	4,8	-5,	-25,883	11,67
101033	4,1819	-5,	-26,009	11,847
101034	4,0112	-5,	-27,5	12,597
101035	3,7953	-5,	-26,808	12,306
101036	-11,973	-5,	11,451	8,8779
101037	-12,631	-5,	11,293	9,0797
101038	-11,771	-5,	10,825	8,9073
101039	-11,525	-5,	12,22	8,6691
101040	-12,184	-5,	12,062	8,8498
101041	-11,073	-5,	13,011	8,5013
101042	-10,876	-5,	12,37	8,4868
101043	-11,732	-5,	12,85	8,6613
101044	-11,275	-5,	13,649	8,5163
101045	-10,616	-5,	13,81	8,3778
101046	-9,7104	-5,	15,449	8,2733
101047	-10,357	-5,	15,283	8,3663
101048	-10,159	-5,	14,622	8,3009
101049	-9,2725	-5,	16,283	8,2942
101050	-9,918	-5,	16,122	8,3657
101051	-8,836	-5,	17,112	8,3579
101052	-9,4804	-5,	16,959	8,4096
101053	-8,3943	-5,	17,941	8,4615
101054	-9,042	-5,	17,786	8,4931
101055	-7,948	-5,	18,774	8,6032
101056	-8,5926	-5,	18,623	8,6158
101057	-7,5018	-5,	19,611	8,7803
101058	-8,1444	-5,	19,458	8,7739
101059	-7,6925	-5,	20,301	8,966
101060	-7,0579	-5,	20,454	8,9906
101061	-6,8712	-5,	19,756	8,7788
101062	-6,1804	-5,	22,153	9,4955
101063	-6,8026	-5,	22,007	9,442
101064	-6,6162	-5,	21,303	9,2305
101065	-6,3707	-5,	22,859	9,716
101066	-5,7464	-5,	23,003	9,782
101067	-4,8811	-5,	24,676	10,399
101068	-5,3113	-5,	23,846	10,085
101069	-4,7015	-5,	23,968	10,143
101070	-5,4956	-5,	24,555	10,32
101071	-5,0646	-5,	25,383	10,64
101072	-4,4466	-5,	25,498	10,725
101073	-4,1921	-5,	27,004	11,307
101074	-4,0067	-5,	26,303	11,056
101075	-8,5855	-5,	0,76277	9,5783
101076	-8,7025	-5,	-7,3061e-002	9,6351
101077	-10,519	-5,	2,23	10,158
101078	-9,8739	-5,	2,3696	9,8986
101079	-10,751	-5,	2,8589	10,179
101080	-3,9429	-5,	28,485	11,912
101081	-4,3816	-5,	27,704	11,565
101082	-4,5606	-5,	28,417	11,814
101083	-4,1028	-5,	29,191	12,171
101084	-3,4754	-5,	29,249	12,262
101085	-8,8932	-5,	-0,89408	9,6737
101086	-9,1513	-5,	-1,6587	9,7187
101087	8,8402	-5,	0,93202	9,6518
101088	9,1038	-5,	1,6566	9,6969
101089	11,997	-5,	-4,7409	10,386
101090	12,313	-5,	-5,1925	10,433
101091	-9,8073	-5,	-4,4783	9,5602
101092	-10,16	-5,	-5,0704	9,5818
101093	-13,148	-5,	9,168	9,6879
101094	-13,432	-5,	9,7433	9,6389
101095	-13,138	-5,	7,8414	10,03
101096	-12,818	-5,	7,2972	10,051
101097	-13,277	-5,	11,119	9,2972
101098	-13,68	-5,	10,331	9,5827
101099	-13,924	-5,	10,933	9,5109
101100	9,4098	-5,	2,3713	9,7244
101101	9,743	-5,	3,0065	9,7666
101102	-13,583	-5,	-9,6788	9,8057
101103	-13,348	-5,	-9,1097	9,8689
101104	10,08	-5,	3,6314	9,7858
101105	10,441	-5,	4,2196	9,8235
101106	-11,092	-5,	3,4771	10,208
101107	-11,517	-5,	3,9737	10,31
101108	13,296	-5,	11,087	9,3087
101109	13,979	-5,	10,897	9,5338
101110	13,763	-5,	10,292	9,6178
101111	13,545	-5,	9,7003	9,6865
101112	13,308	-5,	9,1111	9,7588
101113	12,772	-5,	7,9861	9,852
101114	13,053	-5,	8,5431	9,8106
101115	-11,55	-5,	5,2047	10,055
101116	-11,842	-5,	5,7168	10,059
101117	-2,2019	-5,	-31,045	15,153
101118	-1,6404	-5,	-31,099	15,342
101119	-2,746	-5,	-30,949	14,946
101120	-3,3064	-5,	-30,775	14,619
101121	-3,0935	-5,	-30,015	14,244
101122	-0,57463	-5,	30,601	12,979
101123	1,9547e-002	-5,	30,571	12,969
101124	2,2879	-5,	30,41	12,836
101125	1,6995	-5,	30,486	12,9
101126	-1,7353	-5,	29,99	12,687
101127	-2,3518	-5,	29,988	12,653
101128	-1,7942	-5,	30,655	12,968
101129	-1,1712	-5,	30,643	12,985
101130	3,2713	-5,	29,417	12,349
101131	2,8447	-5,	30,277	12,744
101132	3,4322	-5,	30,146	12,633
101133	1,1478	-5,	30,509	12,928
101134	0,57865	-5,	30,536	12,952
101135	-12,505	-5,	-7,4852	9,9521
101136	-12,192	-5,	-6,9629	9,9541
101137	12,473	-5,	7,4496	9,875
101138	12,161	-5,	6,9176	9,8868
101139	3,2465	-5,	-29,063	13,618
101140	2,6633	-5,	-29,103	13,793
101141	2,2765	-5,	-30,485	14,748
101142	1,6845	-5,	-30,503	14,904
101143	2,1883	-5,	-29,796	14,327
101144	1,1155	-5,	-30,504	14,983
101145	0,54243	-5,	-30,492	15,035
101146	-0,56891	-5,	-30,406	14,967
101147	-1,4612e-002	-5,	-30,439	15,011
101148	-12,173	-5,	6,2365	10,064
101149	-12,49	-5,	6,7641	10,061
101150	-11,86	-5,	-6,4514	9,9438
101151	-11,523	-5,	-5,9376	9,9224
101152	11,825	-5,	6,3985	9,8851
101153	11,489	-5,	5,8813	9,8732
101154	12,63	-5,	-5,5633	10,481
101155	12,938	-5,	-6,0459	10,498
101156	13,981	-5,	-8,3158	10,306
101157	13,737	-5,	-7,7139	10,384
101158	13,786	-5,	-9,8002	9,8483
101159	14,219	-5,	-8,9441	10,22
101160	14,451	-5,	-9,5789	10,115
101161	-9,4467	-5,	-2,4024	9,7435
101162	-9,7802	-5,	-3,0465	9,7896
101163	-9,1379	-5,	-3,2242	9,5319
101164	-10,418	-5,	1,4706	10,197
101165	-11,224	-5,	1,9544	10,493
101166	-9,1645	-5,	1,6303	9,7164
101167	-9,1831	-5,	0,80365	9,7756
101168	-8,4844	-5,	1,6023	9,502
101169	-9,773	-5,	1,6103	9,9342
101170	9,81	-5,	-2,2186	9,8968
101171	10,389	-5,	-3,1174	9,9956
101172	10,896	-5,	-2,6493	10,287
101173	10,526	-5,	-2,2	10,175
101174	9,6929	-5,	-1,468	9,9238
101175	9,0419	-5,	-1,4182	9,6953
101176	3,6828	-5,	28,553	11,962
101177	3,8642	-5,	29,281	12,232
101178	4,1137	-5,	27,71	11,592
101179	4,2933	-5,	28,429	11,848
101180	4,5634	-5,	26,881	11,236
101181	4,7439	-5,	27,59	11,479
101182	3,9408	-5,	26,995	11,322
101183	5,0151	-5,	26,051	10,892
101184	5,1952	-5,	26,758	11,126
101185	5,4659	-5,	25,22	10,561
101186	5,6496	-5,	25,923	10,787
101187	4,8417	-5,	25,337	10,637
101188	6,1046	-5,	25,089	10,464
101189	5,9137	-5,	24,391	10,247
101190	6,8169	-5,	22,72	9,6677
101191	6,364	-5,	23,557	9,9481
101192	7,0097	-5,	23,415	9,8685
101193	7,2681	-5,	21,885	9,4089
101194	7,4606	-5,	22,577	9,6012
101195	7,7248	-5,	21,047	9,1738
101196	7,9159	-5,	21,737	9,3557
101197	8,1849	-5,	20,209	8,9657
101198	8,3768	-5,	20,894	9,1354
101199	7,5362	-5,	20,355	8,9749
101200	8,6461	-5,	19,365	8,7869
101201	8,8415	-5,	20,05	8,9436
101202	9,1116	-5,	18,522	8,6426
101203	8,4527	-5,	18,678	8,6165
101204	9,3062	-5,	19,205	8,7833
101205	9,7731	-5,	18,36	8,6586
101206	9,5722	-5,	17,68	8,5355
101207	10,69	-5,	16,666	8,5249
101208	10,026	-5,	16,836	8,4677
101209	10,485	-5,	15,989	8,4435
101210	11,405	-5,	14,318	8,5368
101211	11,607	-5,	14,975	8,5678
101212	10,944	-5,	15,145	8,466
101213	11,873	-5,	13,5	8,657
101214	12,073	-5,	14,143	8,6621
101215	12,542	-5,	13,322	8,8055
101216	12,341	-5,	12,686	8,8257
101217	13,497	-5,	11,701	9,2414
101218	12,817	-5,	11,881	9,0437
101219	-3,8236	-5,	-28,23	13,033
101220	-4,0042	-5,	-28,947	13,343
101221	-3,3942	-5,	-29,079	13,609
101222	-4,2843	-5,	-27,397	12,5
101223	-4,4624	-5,	-28,107	12,787
101224	-3,6687	-5,	-27,497	12,668
101225	-4,725	-5,	-26,575	12,013
101226	-4,9075	-5,	-27,279	12,279
101227	-5,1655	-5,	-25,761	11,562
101228	-5,3561	-5,	-26,458	11,81
101229	-4,5406	-5,	-25,867	11,707
101230	-5,7961	-5,	-25,644	11,378
101231	-5,6055	-5,	-24,945	11,141
101232	-6,4985	-5,	-23,307	10,385
101233	-6,691	-5,	-23,996	10,598
101234	-6,0516	-5,	-24,125	10,748
101235	-6,9463	-5,	-22,484	10,051
101236	-6,3091	-5,	-22,614	10,14
101237	-7,1397	-5,	-23,175	10,255
101238	-7,5875	-5,	-22,344	9,9383
101239	-7,3949	-5,	-21,658	9,7462
101240	-8,4916	-5,	-20,684	9,4032
101241	-7,8419	-5,	-20,831	9,4742
101242	-8,2929	-5,	-20,002	9,2354
101243	-9,4042	-5,	-19,015	9,0056
101244	-9,2024	-5,	-18,338	8,8683
101245	-8,7475	-5,	-19,17	9,0325
101246	-10,318	-5,	-17,344	8,7657
101247	-9,6579	-5,	-17,506	8,7455
101248	-10,114	-5,	-16,675	8,6667
101249	-11,024	-5,	-15,026	8,6483
101250	-11,233	-5,	-15,68	8,7024
101251	-10,569	-5,	-15,847	8,6336
101252	-11,481	-5,	-14,212	8,7115
101253	-11,689	-5,	-14,86	8,7414
101254	-12,145	-5,	-14,045	8,8283
101255	-11,938	-5,	-13,407	8,8229
101256	-12,873	-5,	-11,832	9,1912
101257	-13,075	-5,	-12,445	9,1489
101258	-12,403	-5,	-12,618	8,983
101259	-13,342	-5,	-11,042	9,4464
101260	-13,545	-5,	-11,648	9,3827
101261	-13,806	-5,	-10,253	9,7464
101262	-14,016	-5,	-10,848	9,6654
101263	13,346	-5,	-10,666	9,5206
101264	14,013	-5,	-10,452	9,7552
101265	13,565	-5,	-11,325	9,4462
101266	12,901	-5,	-11,53	9,2431
101267	12,664	-5,	-13,044	8,9931
101268	12,006	-5,	-13,223	8,8476
101269	12,454	-5,	-12,382	9,0191
101270	10,695	-5,	-15,748	8,6427
101271	11,338	-5,	-15,572	8,7111
101272	11,122	-5,	-14,903	8,6596
101273	10,27	-5,	-16,599	8,6741
101274	10,911	-5,	-16,421	8,7171
101275	9,8339	-5,	-17,449	8,7506
101276	10,486	-5,	-17,28	8,7703
101277	9,631	-5,	-16,768	8,6193
101278	9,3767	-5,	-18,287	8,8674
101279	10,034	-5,	-18,125	8,8644
101280	8,9139	-5,	-19,112	9,0232
101281	9,5676	-5,	-18,959	8,998
101282	8,4599	-5,	-19,937	9,2181
101283	9,1069	-5,	-19,785	9,1698
101284	8,0113	-5,	-20,768	9,4506
101285	8,6553	-5,	-20,616	9,3799
101286	7,819	-5,	-20,082	9,2496
101287	7,5672	-5,	-21,603	9,7189
101288	8,2023	-5,	-21,453	9,6265
101289	7,1311	-5,	-22,436	10,019
101290	7,7584	-5,	-22,292	9,9069
101291	6,9415	-5,	-21,743	9,7905
101292	6,6965	-5,	-23,268	10,349
101293	7,3235	-5,	-23,128	10,217
101294	6,2657	-5,	-24,098	10,708
101295	6,8858	-5,	-23,963	10,557
101296	5,8408	-5,	-24,927	11,095
101297	6,4586	-5,	-24,795	10,926
101298	5,417	-5,	-25,755	11,512
101299	6,0355	-5,	-25,625	11,322
101300	5,6135	-5,	-26,453	11,749
101301	5,0038	-5,	-26,577	11,954
101302	4,7982	-5,	-28,094	12,686
101303	4,6016	-5,	-27,394	12,424
101304	4,2142	-5,	-28,202	12,918
101305	3,3576	-5,	-29,733	13,994
101306	3,9601	-5,	-29,668	13,746
101307	3,8125	-5,	-28,983	13,437
101308	-12,843	-5,	11,904	9,0471
101309	-13,503	-5,	11,728	9,2384
101310	-13,057	-5,	12,523	9,006
101311	-12,391	-5,	12,692	8,8369
101312	-11,472	-5,	14,297	8,55
101313	-12,136	-5,	14,131	8,6745
101314	-11,934	-5,	13,488	8,6708
101315	-11,013	-5,	15,119	8,4766
101316	-10,814	-5,	14,458	8,4173
101317	-11,67	-5,	14,947	8,5781
101318	-11,213	-5,	15,782	8,5306
101319	-10,565	-5,	15,956	8,4526
101320	-9,6864	-5,	17,633	8,5397
101321	-10,334	-5,	17,473	8,576
101322	-10,126	-5,	16,797	8,4754
101323	-9,2403	-5,	18,468	8,6426
101324	-9,8893	-5,	18,31	8,6593
101325	-9,4378	-5,	19,147	8,7792
101326	-8,7889	-5,	19,307	8,7823
101327	-7,8793	-5,	20,998	9,1626
101328	-8,5228	-5,	20,836	9,1224
101329	-8,335	-5,	20,148	8,956
101330	-7,4311	-5,	21,856	9,3994
101331	-8,0661	-5,	21,695	9,3428
101332	-7,2447	-5,	21,151	9,1901
101333	-6,9929	-5,	22,714	9,661
101334	-7,6224	-5,	22,558	9,5909
101335	-6,5583	-5,	23,568	9,9434
101336	-7,1842	-5,	23,42	9,8618
101337	-6,7468	-5,	24,275	10,152
101338	-5,934	-5,	23,711	10,01
101339	-6,1183	-5,	24,42	10,245
101340	-5,2478	-5,	26,089	10,887
101341	-5,87	-5,	25,965	10,781
101342	-5,6791	-5,	25,263	10,561
101343	-4,8151	-5,	26,905	11,223
101344	-5,4358	-5,	26,795	11,116
101345	-4,6297	-5,	26,204	10,971
101346	-4,9985	-5,	27,615	11,461
101347	-2,4108	-5,	30,653	12,935
101348	-3,0552	-5,	30,639	12,879
101349	-2,9628	-5,	29,97	12,605
101350	-9,3001	-5,	-3,2177e-002	9,8312
101351	-9,4975	-5,	-0,81102	9,89
101352	9,4606	-5,	0,84148	9,8726
101353	8,6306	-5,	0,1687	9,6102
101354	9,2565	-5,	0,1082	9,8147
101355	-5,1774	-5,	28,327	11,713
101356	-4,7205	-5,	29,123	12,076
101357	-5,3515	-5,	29,044	11,949
101358	-9,7556	-5,	-1,5756	9,9341
101359	-10,077	-5,	-2,2353	10,002
101360	12,286	-5,	-3,948	10,68
101361	12,641	-5,	-4,4046	10,762
101362	-10,115	-5,	-3,677	9,8113
101363	-10,473	-5,	-4,2708	9,8522
101364	-9,4724	-5,	-3,8547	9,5556
101365	10,995	-5,	-3,527	10,198
101366	10,794	-5,	4,7995	9,8378
101367	11,149	-5,	5,3439	9,865
101368	11,939	-5,	-3,4934	10,617
101369	11,502	-5,	-3,0589	10,479
101370	-13,466	-5,	8,3901	10,006
101371	-13,766	-5,	8,9583	9,9569
101372	-14,092	-5,	8,1631	10,309
101373	-13,794	-5,	7,6037	10,36
101374	-14,049	-5,	9,5336	9,902
101375	-14,315	-5,	10,129	9,8217
101376	2,8626	-5,	-30,461	14,59
101377	3,4754	-5,	-30,414	14,339
101378	2,7744	-5,	-29,773	14,162
101379	-14,392	-5,	8,7313	10,252
101380	-14,676	-5,	9,3166	10,17
101381	9,7241	-5,	1,566	9,9167
101382	10,042	-5,	2,2124	9,9794
101383	-14,483	-5,	-10,056	9,9944
101384	-14,262	-5,	-9,466	10,09
101385	-10,411	-5,	-2,8795	10,045
101386	-10,773	-5,	-3,4789	10,11
101387	10,375	-5,	2,8476	10,02
101388	10,736	-5,	3,4373	10,079
101389	-14,027	-5,	-8,8969	10,159
101390	-13,761	-5,	-8,3323	10,221
101391	-13,095	-5,	-8,5583	9,9107
101392	-2,4701	-5,	31,317	13,218
101393	-1,8229	-5,	31,322	13,255
101394	-11,456	-5,	2,5834	10,507
101395	-11,775	-5,	3,1153	10,581
101396	14,179	-5,	11,511	9,4607
101397	14,862	-5,	11,316	9,6674
101398	14,658	-5,	10,692	9,7817
101399	14,443	-5,	10,087	9,872
101400	14,211	-5,	9,4855	9,9698
101401	11,097	-5,	4,0254	10,114
101402	11,464	-5,	4,5692	10,164
101403	-11,926	-5,	4,4236	10,385
101404	-12,26	-5,	4,9522	10,421
101405	-2,8603	-5,	-31,647	15,357
101406	-2,2642	-5,	-31,758	15,672
101407	-3,8292	-5,	-30,572	14,324
101408	-3,4207	-5,	-31,474	15,04
101409	-4,0075	-5,	-31,309	14,649
101410	-1,1998	-5,	31,311	13,272
101411	-0,58413	-5,	31,3	13,278
101412	2,9679	-5,	30,989	13,036
101413	2,3575	-5,	31,093	13,126
101414	4,0251	-5,	30,009	12,518
101415	3,5554	-5,	30,858	12,927
101416	4,1745	-5,	30,73	12,794
101417	1,769	-5,	31,169	13,189
101418	1,1699	-5,	31,22	13,232
101419	-13,476	-5,	-7,7869	10,258
101420	-13,177	-5,	-7,246	10,283
101421	-12,81	-5,	-8,0129	9,9409
101422	13,434	-5,	7,7595	10,169
101423	13,139	-5,	7,2092	10,205
101424	12,531	-5,	-3,1591	10,941
101425	12,906	-5,	-3,6235	11,055
101426	2,9598	-5,	-31,142	14,98
101427	2,3435	-5,	-31,176	15,225
101428	1,7514	-5,	-31,195	15,375
101429	1,1538	-5,	-31,211	15,514
101430	-1,1099	-5,	-31,127	15,446
101431	-0,5494	-5,	-31,154	15,534
101432	-12,552	-5,	5,4644	10,42
101433	-12,851	-5,	5,9879	10,42
101434	1,005e-002	-5,	31,27	13,268
101435	0,60074	-5,	31,248	13,255
101436	-12,864	-5,	-6,7237	10,291
101437	-12,543	-5,	-6,2046	10,285
101438	12,505	-5,	6,1539	10,223
101439	12,827	-5,	6,6772	10,223
101440	12,958	-5,	-4,8562	10,8
101441	13,285	-5,	-5,3275	10,845
101442	14,884	-5,	-8,7098	10,523
101443	14,645	-5,	-8,0884	10,634
101444	14,678	-5,	-10,231	10,013
101445	15,115	-5,	-9,3446	10,408
101446	15,341	-5,	-9,9926	10,268
101447	13,5	-5,	-7,1323	10,448
101448	13,233	-5,	-6,5757	10,487
101449	-15,02	-5,	8,5032	10,553
101450	-14,729	-5,	7,9254	10,638
101451	-13,474	-5,	7,0595	10,387
101452	-13,168	-5,	6,5155	10,411
101453	0,58065	-5,	-31,2	15,563
101454	4,9027e-003	-5,	-31,187	15,578
101455	12,169	-5,	5,6366	10,216
101456	11,818	-5,	5,1137	10,188
101457	11,685	-5,	-2,3123	10,662
101458	12,094	-5,	-2,7245	10,813
101459	-11,182	-5,	-5,4116	9,9055
101460	-10,826	-5,	-4,8628	9,8711
101461	10,409	-5,	-1,4494	10,201
101462	11,314	-5,	-1,863	10,557
101463	11,	-5,	-1,4647	10,446
101464	4,0779	-5,	-30,348	14,099
101465	4,2013	-5,	-31,032	14,404
101466	3,5725	-5,	-31,094	14,738
101467	-14,941	-5,	9,9125	10,082
101468	-15,305	-5,	9,0886	10,463
101469	-15,575	-5,	9,6897	10,342
101470	-9,7915	-5,	0,78358	9,9932
101471	-9,8878	-5,	1,2232e-002	10,048
101472	-10,345	-5,	0,76701	10,207
101473	10,335	-5,	-0,72797	10,21
101474	9,7506	-5,	-0,70296	9,9826
101475	4,4746	-5,	29,157	12,12
101476	4,6455	-5,	29,876	12,377
101477	4,9234	-5,	28,309	11,738
101478	5,102	-5,	29,024	11,978
101479	5,3756	-5,	27,467	11,372
101480	5,5562	-5,	28,175	11,598
101481	6,0116	-5,	27,332	11,237
101482	5,8297	-5,	26,63	11,023
101483	6,7438	-5,	24,955	10,375
101484	6,9335	-5,	25,652	10,57
101485	6,2883	-5,	25,792	10,69
101486	7,3867	-5,	24,811	10,265
101487	6,5529	-5,	24,257	10,158
101488	7,1986	-5,	24,114	10,078
101489	8,1083	-5,	22,429	9,546
101490	8,3042	-5,	23,119	9,7143
101491	7,6534	-5,	23,271	9,8008
101492	8,5678	-5,	21,584	9,3147
101493	8,7641	-5,	22,272	9,4733
101494	9,0334	-5,	20,736	9,1099
101495	9,2255	-5,	21,422	9,2573
101496	9,6962	-5,	20,571	9,0693
101497	9,5015	-5,	19,89	8,9359
101498	10,431	-5,	18,191	8,6886
101499	10,632	-5,	18,872	8,7912
101500	9,9677	-5,	19,043	8,7946
101501	10,893	-5,	17,341	8,6222
101502	11,091	-5,	18,017	8,7051
101503	10,23	-5,	17,511	8,5707
101504	11,356	-5,	16,493	8,5983
101505	11,56	-5,	17,166	8,6604
101506	11,814	-5,	15,645	8,6187
101507	12,02	-5,	16,315	8,6579
101508	11,151	-5,	15,815	8,5231
101509	12,275	-5,	14,8	8,6868
101510	12,48	-5,	15,464	8,7011
101511	12,742	-5,	13,965	8,8045
101512	12,945	-5,	14,618	8,7926
101513	13,215	-5,	13,141	8,9721
101514	13,417	-5,	13,789	8,9336
101515	13,694	-5,	12,324	9,1905
101516	13,891	-5,	12,959	9,1254
101517	13,014	-5,	12,504	8,9984
101518	14,375	-5,	12,141	9,3689
101519	-4,2262	-5,	-29,68	13,682
101520	-4,4161	-5,	-30,408	13,97
101521	-3,6162	-5,	-29,812	13,938
101522	-4,643	-5,	-28,825	13,104
101523	-4,8328	-5,	-29,538	13,364
101524	-5,0856	-5,	-27,99	12,572
101525	-5,2713	-5,	-28,695	12,812
101526	-5,7205	-5,	-27,862	12,304
101527	-5,5385	-5,	-27,163	12,081
101528	-6,4329	-5,	-25,52	11,213
101529	-6,6241	-5,	-26,212	11,408
101530	-5,9867	-5,	-26,341	11,629
101531	-6,8817	-5,	-24,693	10,825
101532	-7,0742	-5,	-25,387	11,012
101533	-6,2423	-5,	-24,822	10,973
101534	-7,5234	-5,	-24,552	10,644
101535	-7,3322	-5,	-23,865	10,468
101536	-8,2345	-5,	-22,201	9,8451
101537	-8,4322	-5,	-22,884	10,002
101538	-7,781	-5,	-23,036	10,142
101539	-8,6916	-5,	-21,369	9,5812
101540	-8,8872	-5,	-22,049	9,728
101541	-8,0419	-5,	-21,515	9,6543
101542	-9,1485	-5,	-20,532	9,3504
101543	-9,346	-5,	-21,212	9,486
101544	-9,6064	-5,	-19,694	9,155
101545	-9,8026	-5,	-20,372	9,2779
101546	-8,9497	-5,	-19,849	9,1856
101547	-10,064	-5,	-18,855	8,9973
101548	-10,265	-5,	-19,532	9,1055
101549	-10,523	-5,	-18,016	8,8796
101550	-10,724	-5,	-18,688	8,9709
101551	-9,8627	-5,	-18,178	8,8645
101552	-11,185	-5,	-17,85	8,8776
101553	-10,98	-5,	-17,181	8,8045
101554	-11,897	-5,	-15,514	8,7893
101555	-12,104	-5,	-16,177	8,8202
101556	-11,441	-5,	-16,346	8,7739
101557	-12,353	-5,	-14,693	8,8521
101558	-12,561	-5,	-15,343	8,8597
101559	-12,813	-5,	-13,879	8,9633
101560	-13,019	-5,	-14,52	8,9468
101561	-13,278	-5,	-13,067	9,124
101562	-13,478	-5,	-13,696	9,0828
101563	-12,606	-5,	-13,241	8,964
101564	-13,948	-5,	-12,887	9,2682
101565	-13,747	-5,	-12,26	9,3343
101566	-14,694	-5,	-10,651	9,9073
101567	-14,894	-5,	-11,262	9,7946
101568	-14,219	-5,	-11,454	9,5954
101569	14,232	-5,	-11,112	9,673
101570	14,901	-5,	-10,893	9,8902
101571	13,78	-5,	-11,988	9,3879
101572	14,444	-5,	-11,784	9,5701
101573	13,326	-5,	-12,855	9,1593
101574	13,993	-5,	-12,66	9,3122
101575	13,116	-5,	-12,192	9,1924
101576	13,538	-5,	-13,522	9,1114
101577	12,874	-5,	-13,708	8,9865
101578	11,986	-5,	-15,4	8,7985
101579	12,639	-5,	-15,219	8,8709
101580	11,77	-5,	-14,73	8,7535
101581	12,427	-5,	-14,555	8,867
101582	11,554	-5,	-16,245	8,7792
101583	12,198	-5,	-16,068	8,826
101584	11,127	-5,	-17,102	8,8072
101585	11,768	-5,	-16,924	8,8288
101586	10,686	-5,	-17,956	8,8787
101587	11,339	-5,	-17,786	8,8769
101588	10,225	-5,	-18,798	8,9903
101589	10,887	-5,	-18,634	8,9651
101590	9,7606	-5,	-19,632	9,1407
101591	10,42	-5,	-19,474	9,093
101592	9,3023	-5,	-20,464	9,3286
101593	9,9524	-5,	-20,305	9,2576
101594	8,8462	-5,	-21,302	9,5535
101595	9,4947	-5,	-21,142	9,4592
101596	8,3935	-5,	-22,142	9,813
101597	9,0377	-5,	-21,985	9,6965
101598	7,9509	-5,	-22,984	10,105
101599	8,5908	-5,	-22,83	9,966
101600	8,1514	-5,	-23,671	10,265
101601	7,5128	-5,	-23,823	10,426
101602	7,2751	-5,	-25,352	10,955
101603	7,0787	-5,	-24,659	10,776
101604	6,6533	-5,	-25,492	11,155
101605	5,8131	-5,	-27,152	12,001
101606	6,4244	-5,	-27,023	11,761
101607	6,232	-5,	-26,323	11,563
101608	5,4	-5,	-27,975	12,47
101609	6,009	-5,	-27,851	12,208
101610	5,2034	-5,	-27,276	12,202
101611	4,9809	-5,	-28,789	12,974
101612	5,5877	-5,	-28,676	12,693
101613	4,5445	-5,	-29,583	13,515
101614	4,3969	-5,	-28,898	13,199
101615	5,1505	-5,	-29,488	13,218
101616	4,6938	-5,	-30,271	13,783
101617	-14,559	-5,	10,731	9,7436
101618	-15,2	-5,	10,518	9,9724
101619	-14,15	-5,	11,542	9,4466
101620	-14,802	-5,	11,342	9,6466
101621	-13,717	-5,	12,346	9,192
101622	-14,379	-5,	12,158	9,3668
101623	-13,932	-5,	12,972	9,1317
101624	-13,264	-5,	13,146	8,9817
101625	-12,998	-5,	14,606	8,8017
101626	-12,801	-5,	13,958	8,8158
101627	-12,333	-5,	14,781	8,6967
101628	-12,076	-5,	16,275	8,6628
101629	-11,423	-5,	16,453	8,6036
101630	-11,871	-5,	15,611	8,6259
101631	-10,537	-5,	18,15	8,6905
101632	-11,191	-5,	17,976	8,7072
101633	-10,982	-5,	17,303	8,6267
101634	-10,087	-5,	18,989	8,7913
101635	-10,742	-5,	18,825	8,7892
101636	-9,6324	-5,	19,829	8,9273
101637	-10,287	-5,	19,662	8,9056
101638	-9,1713	-5,	20,676	9,0974
101639	-9,8268	-5,	20,51	9,0571
101640	-8,9835	-5,	19,989	8,9345
101641	-8,7097	-5,	21,532	9,2998
101642	-9,3619	-5,	21,362	9,2408
101643	-8,2575	-5,	22,397	9,5323
101644	-8,9017	-5,	22,229	9,4571
101645	-8,4532	-5,	23,099	9,7
101646	-7,8137	-5,	23,265	9,7903
101647	-6,933	-5,	24,983	10,367
101648	-7,5647	-5,	24,832	10,254
101649	-7,3727	-5,	24,128	10,07
101650	-6,4954	-5,	25,83	10,681
101651	-7,1226	-5,	25,687	10,559
101652	-6,3045	-5,	25,127	10,461
101653	-6,058	-5,	26,671	11,011
101654	-6,6849	-5,	26,534	10,881
101655	-5,6191	-5,	27,505	11,356
101656	-6,2421	-5,	27,381	11,223
101657	-5,7989	-5,	28,221	11,58
101658	-4,8757	-5,	29,829	12,325
101659	-4,2297	-5,	29,885	12,442
101660	-3,1146	-5,	31,304	13,163
101661	-3,7859	-5,	31,289	13,085
101662	-3,6947	-5,	30,611	12,807
101663	-12,206	-5,	-5,6908	10,268
101664	-11,851	-5,	-5,1623	10,231
101665	-10,085	-5,	-0,76661	10,106
101666	-10,377	-5,	-1,4486	10,19
101667	10,071	-5,	0,77459	10,098
101668	10,351	-5,	1,4445	10,173
101669	-11,494	-5,	-4,6135	10,202
101670	-11,132	-5,	-4,0727	10,148
101671	-15,372	-5,	-10,453	10,137
101672	-15,165	-5,	-9,8429	10,27
101673	-10,699	-5,	-2,1083	10,256
101674	-11,056	-5,	-2,6895	10,345
101675	10,668	-5,	2,0909	10,234
101676	11,022	-5,	2,6644	10,317
101677	-14,943	-5,	-9,2528	10,373
101678	-14,693	-5,	-8,6697	10,471
101679	-3,1695	-5,	31,967	13,452
101680	-2,4971	-5,	31,982	13,508
101681	-12,169	-5,	2,2546	10,896
101682	-11,886	-5,	1,7148	10,81
101683	15,057	-5,	11,947	9,5695
101684	15,735	-5,	11,747	9,7509
101685	15,538	-5,	11,111	9,8969
101686	15,335	-5,	10,486	10,018
101687	15,112	-5,	9,8674	10,15
101688	14,88	-5,	9,2653	10,255
101689	14,631	-5,	8,6698	10,359
101690	13,974	-5,	8,8963	10,049
101691	11,383	-5,	3,2541	10,373
101692	11,757	-5,	3,7965	10,447
101693	12,035	-5,	-1,5348	10,908
101694	12,363	-5,	-1,9762	11,04
101695	-12,199	-5,	3,6118	10,674
101696	-12,575	-5,	4,1344	10,753
101697	-3,564	-5,	-32,194	15,41
101698	-2,9518	-5,	-32,332	15,832
101699	-4,5944	-5,	-31,145	14,306
101700	-4,1508	-5,	-32,03	15,032
101701	-4,762	-5,	-31,869	14,568
101702	-1,8498	-5,	31,987	13,545
101703	-1,2111	-5,	31,993	13,565
101704	3,6726	-5,	31,573	13,221
101705	3,0406	-5,	31,686	13,337
101706	4,7949	-5,	30,597	12,656
101707	4,2918	-5,	31,445	13,091
101708	4,9355	-5,	31,315	12,924
101709	2,4302	-5,	31,79	13,426
101710	1,8107	-5,	31,865	13,49
101711	-14,427	-5,	-8,105	10,54
101712	-14,145	-5,	-7,5439	10,599
101713	14,371	-5,	8,09	10,439
101714	14,095	-5,	7,518	10,509
101715	13,715	-5,	8,3165	10,121
101716	12,773	-5,	-2,3884	11,182
101717	13,158	-5,	-2,8347	11,326
101718	4,8171	-5,	-30,955	14,097
101719	4,9474	-5,	-31,644	14,349
101720	4,3017	-5,	-31,713	14,767
101721	3,6729	-5,	-31,775	15,091
101722	3,0313	-5,	-31,824	15,438
101723	2,415	-5,	-31,858	15,674
101724	1,7999	-5,	-31,89	15,909
101725	-1,1199	-5,	-31,858	16,03
101726	-1,7026	-5,	-31,812	15,854
101727	-12,909	-5,	4,663	10,781
101728	-13,231	-5,	5,1957	10,805
101729	-0,59542	-5,	31,982	13,571
101730	1,6066e-002	-5,	31,973	13,57
101731	1,2116	-5,	31,916	13,532
101732	0,60676	-5,	31,951	13,557
101733	-13,846	-5,	-7,003	10,632
101734	-13,531	-5,	-6,4662	10,647
101735	13,262	-5,	-4,0801	11,127
101736	13,605	-5,	-4,5607	11,196
101737	12,835	-5,	5,3832	10,566
101738	13,172	-5,	5,9034	10,585
101739	15,779	-5,	-9,0923	10,704
101740	15,545	-5,	-8,4505	10,856
101741	16,005	-5,	-9,7404	10,554
101742	16,238	-5,	-10,418	10,369
101743	15,564	-5,	-10,654	10,136
101744	14,4	-5,	-7,4866	10,721
101745	14,146	-5,	-6,9034	10,792
101746	-15,938	-5,	8,8599	10,757
101747	-15,66	-5,	8,2635	10,884
101748	-14,431	-5,	7,366	10,697
101749	-14,142	-5,	6,8074	10,75
101750	1,2022	-5,	-31,907	16,042
101751	0,60104	-5,	-31,917	16,144
101752	-0,55937	-5,	-31,886	16,116
101753	2,5293e-002	-5,	-31,903	16,157
101754	-13,53	-5,	5,7192	10,796
101755	-13,836	-5,	6,2633	10,782
101756	13,593	-5,	-5,81	10,856
101757	13,879	-5,	-6,3467	10,839
101758	12,124	-5,	4,3403	10,492
101759	12,484	-5,	4,8603	10,543
101760	-15,834	-5,	10,295	10,224
101761	-16,208	-5,	9,461	10,627
101762	-16,473	-5,	10,077	10,464
101763	-13,209	-5,	-5,9472	10,647
101764	-12,872	-5,	-5,4254	10,623
101765	10,926	-5,	-0,74326	10,453
101766	11,435	-5,	-0,74771	10,677
101767	11,721	-5,	-1,1365	10,804
101768	-10,441	-5,	-4,3384e-003	10,263
101769	-10,677	-5,	-0,70323	10,352
101770	-11,	-5,	4,4914e-002	10,502
101771	10,451	-5,	1,6294e-002	10,267
101772	10,676	-5,	0,72651	10,347
101773	9,867	-5,	4,1312e-002	10,041
101774	11,02	-5,	-4,8922e-002	10,511
101775	5,2728	-5,	29,743	12,238
101776	5,4335	-5,	30,459	12,481
101777	5,7348	-5,	28,89	11,841
101778	5,912	-5,	29,599	12,062
101779	6,1922	-5,	28,04	11,465
101780	6,3785	-5,	28,741	11,668
101781	6,6529	-5,	27,197	11,111
101782	6,841	-5,	27,893	11,3
101783	7,1162	-5,	26,355	10,776
101784	7,3055	-5,	27,051	10,955
101785	6,471	-5,	26,495	10,895
101786	7,5765	-5,	25,507	10,46
101787	7,7689	-5,	26,201	10,629
101788	8,0343	-5,	24,661	10,165
101789	8,2306	-5,	25,352	10,325
101790	8,4969	-5,	23,812	9,8913
101791	8,689	-5,	24,506	10,043
101792	7,8461	-5,	23,965	9,9788
101793	8,96	-5,	22,962	9,6399
101794	9,1556	-5,	23,651	9,7818
101795	9,4218	-5,	22,111	9,4135
101796	9,6204	-5,	22,797	9,5451
101797	9,8883	-5,	21,257	9,2135
101798	10,084	-5,	21,941	9,3342
101799	10,827	-5,	19,553	8,9057
101800	10,357	-5,	20,405	9,0433
101801	11,021	-5,	20,231	8,9989
101802	10,163	-5,	19,724	8,9136
101803	11,292	-5,	18,698	8,8027
101804	11,495	-5,	19,378	8,8802
101805	11,757	-5,	17,843	8,7378
101806	11,955	-5,	18,518	8,7965
101807	12,224	-5,	16,988	8,7141
101808	12,428	-5,	17,663	8,7527
101809	12,686	-5,	16,134	8,7341
101810	12,891	-5,	16,806	8,7501
101811	13,151	-5,	15,283	8,8006
101812	13,355	-5,	15,95	8,7922
101813	13,619	-5,	14,442	8,9157
101814	13,821	-5,	15,099	8,8813
101815	14,093	-5,	13,608	9,0808
101816	14,294	-5,	14,261	9,0194
101817	14,572	-5,	12,776	9,2981
101818	14,766	-5,	13,42	9,2083
101819	15,25	-5,	12,586	9,451
101820	-5,0227	-5,	-30,266	13,662
101821	-5,2066	-5,	-30,986	13,89
101822	-5,4611	-5,	-29,409	13,08
101823	-5,6481	-5,	-30,118	13,285
101824	-5,9063	-5,	-28,567	12,551
101825	-6,0965	-5,	-29,269	12,738
101826	-6,3564	-5,	-27,737	12,067
101827	-6,5451	-5,	-28,43	12,24
101828	-6,8118	-5,	-26,909	11,621
101829	-7,0036	-5,	-27,601	11,783
101830	-6,1744	-5,	-27,038	11,838
101831	-7,4592	-5,	-26,767	11,362
101832	-7,2653	-5,	-26,079	11,211
101833	-8,1718	-5,	-24,41	10,486
101834	-8,368	-5,	-25,095	10,621
101835	-7,716	-5,	-25,247	10,834
101836	-8,6318	-5,	-23,571	10,169
101837	-8,8258	-5,	-24,256	10,297
101838	-7,9806	-5,	-23,723	10,308
101839	-9,0848	-5,	-22,732	9,8839
101840	-9,2882	-5,	-23,413	10,002
101841	-9,74	-5,	-22,57	9,7407
101842	-9,5416	-5,	-21,892	9,6309
101843	-10,461	-5,	-20,209	9,2249
101844	-10,658	-5,	-20,887	9,3137
101845	-10,	-5,	-21,052	9,4108
101846	-10,925	-5,	-19,364	9,0749
101847	-11,125	-5,	-20,043	9,1506
101848	-11,386	-5,	-18,521	8,9642
101849	-11,588	-5,	-19,192	9,0237
101850	-11,848	-5,	-17,681	8,8943
101851	-12,053	-5,	-18,35	8,9367
101852	-12,307	-5,	-16,844	8,8671
101853	-12,512	-5,	-17,506	8,8904
101854	-11,643	-5,	-17,012	8,8265
101855	-12,768	-5,	-16,007	8,8846
101856	-12,974	-5,	-16,669	8,887
101857	-13,683	-5,	-14,338	9,0601
101858	-13,891	-5,	-14,988	9,0165
101859	-13,227	-5,	-15,17	8,9484
101860	-14,148	-5,	-13,517	9,2211
101861	-14,35	-5,	-14,156	9,1527
101862	-14,619	-5,	-12,703	9,4325
101863	-14,82	-5,	-13,339	9,3379
101864	-15,094	-5,	-11,883	9,6975
101865	-15,286	-5,	-12,514	9,5757
101866	-14,419	-5,	-12,076	9,5046
101867	-15,573	-5,	-11,063	10,017
101868	-15,765	-5,	-11,689	9,8692
101869	14,657	-5,	-12,456	9,487
101870	15,321	-5,	-12,253	9,642
101871	15,113	-5,	-11,565	9,7791
101872	14,205	-5,	-13,327	9,2574
101873	14,87	-5,	-13,138	9,3814
101874	13,752	-5,	-14,185	9,084
101875	14,415	-5,	-14,	9,1811
101876	13,299	-5,	-15,036	8,9631
101877	13,962	-5,	-14,852	9,0349
101878	13,088	-5,	-14,371	8,9657
101879	13,506	-5,	-15,702	8,9388
101880	12,851	-5,	-15,888	8,8923
101881	12,628	-5,	-17,425	8,8896
101882	11,98	-5,	-17,608	8,893
101883	12,412	-5,	-16,747	8,8698
101884	11,746	-5,	-19,143	9,013
101885	11,539	-5,	-18,463	8,9584
101886	11,081	-5,	-19,31	9,0636
101887	10,145	-5,	-20,982	9,3854
101888	10,802	-5,	-20,819	9,2897
101889	10,612	-5,	-20,147	9,2064
101890	9,6861	-5,	-21,825	9,6002
101891	10,338	-5,	-21,659	9,481
101892	9,235	-5,	-22,672	9,8484
101893	9,8824	-5,	-22,51	9,707
101894	8,7913	-5,	-23,517	10,127
101895	9,4333	-5,	-23,358	9,9634
101896	8,9894	-5,	-24,203	10,249
101897	8,3493	-5,	-24,36	10,436
101898	7,4715	-5,	-26,048	11,145
101899	8,1016	-5,	-25,896	10,914
101900	7,9072	-5,	-25,205	10,776
101901	7,0422	-5,	-26,888	11,545
101902	7,6665	-5,	-26,743	11,291
101903	6,8498	-5,	-26,188	11,342
101904	6,6202	-5,	-27,722	11,973
101905	7,2385	-5,	-27,585	11,697
101906	6,1967	-5,	-28,552	12,437
101907	6,8106	-5,	-28,424	12,137
101908	6,3784	-5,	-29,255	12,614
101909	5,7574	-5,	-29,375	12,943
101910	5,4486	-5,	-30,872	13,714
101911	5,2998	-5,	-30,176	13,494
101912	-15,443	-5,	11,128	9,8684
101913	-16,088	-5,	10,914	10,076
101914	-15,682	-5,	11,754	9,7385
101915	-15,03	-5,	11,958	9,5607
101916	-14,808	-5,	13,42	9,2149
101917	-14,593	-5,	12,783	9,3007
101918	-14,137	-5,	13,607	9,0882
101919	-13,197	-5,	15,261	8,8072
101920	-13,864	-5,	15,082	8,8874
101921	-13,667	-5,	14,43	8,9237
101922	-12,737	-5,	16,1	8,7392
101923	-13,401	-5,	15,925	8,797
101924	-12,532	-5,	15,436	8,7082
101925	-12,288	-5,	16,946	8,7174
101926	-12,947	-5,	16,766	8,7534
101927	-11,844	-5,	17,798	8,7391
101928	-12,498	-5,	17,619	8,7538
101929	-11,635	-5,	17,125	8,664
101930	-11,397	-5,	18,651	8,801
101931	-12,051	-5,	18,473	8,7952
101932	-11,603	-5,	19,33	8,8749
101933	-10,942	-5,	19,498	8,8992
101934	-10,017	-5,	21,195	9,1973
101935	-10,677	-5,	21,023	9,1355
101936	-10,482	-5,	20,342	9,0315
101937	-10,211	-5,	21,881	9,3148
101938	-9,5539	-5,	22,059	9,3955
101939	-8,6499	-5,	23,801	9,8748
101940	-9,0974	-5,	22,931	9,623
101941	-9,2955	-5,	23,629	9,7629
101942	-8,2024	-5,	24,671	10,15
101943	-8,8467	-5,	24,501	10,024
101944	-8,0104	-5,	23,967	9,9662
101945	-7,7543	-5,	25,536	10,446
101946	-8,3934	-5,	25,375	10,309
101947	-7,3122	-5,	26,391	10,76
101948	-7,9474	-5,	26,236	10,612
101949	-6,869	-5,	27,244	11,094
101950	-7,4997	-5,	27,098	10,938
101951	-6,4219	-5,	28,098	11,449
101952	-7,0527	-5,	27,955	11,283
101953	-6,6063	-5,	28,808	11,649
101954	-5,973	-5,	28,938	11,819
101955	-5,0022	-5,	30,525	12,593
101956	-5,6637	-5,	30,459	12,437
101957	-5,5066	-5,	29,75	12,201
101958	-12,517	-5,	-4,8969	10,593
101959	-12,157	-5,	-4,3777	10,535
101960	-16,255	-5,	-10,864	10,221
101961	-16,051	-5,	-10,239	10,394
101962	-10,969	-5,	-1,3852	10,436
101963	-11,339	-5,	-1,9301	10,559
101964	-11,513	-5,	5,0753e-002	10,728
101965	-12,006	-5,	0,36828	10,966
101966	11,309	-5,	1,9258	10,533
101967	10,955	-5,	1,3964	10,422
101968	11,529	-5,	-5,3372e-002	10,735
101969	12,142	-5,	-0,29736	11,038
101970	-4,4474	-5,	31,258	12,987
101971	-5,1327	-5,	31,231	12,853
101972	-4,3563	-5,	30,581	12,707
101973	-15,843	-5,	-9,6286	10,536
101974	-15,609	-5,	-9,0223	10,679
101975	-11,418	-5,	-3,2889	10,405
101976	-11,795	-5,	-3,8369	10,486
101977	-3,8408	-5,	31,952	13,375
101978	-4,5481	-5,	31,948	13,269
101979	-3,8881	-5,	32,613	13,674
101980	-3,1925	-5,	32,625	13,75
101981	15,928	-5,	12,386	9,6262
101982	16,414	-5,	11,533	9,9583
101983	16,604	-5,	12,182	9,7761
101984	16,217	-5,	10,897	10,111
101985	16,002	-5,	10,267	10,279
101986	15,779	-5,	9,6475	10,419
101987	15,538	-5,	9,0345	10,562
101988	11,663	-5,	2,4994	10,613
101989	12,035	-5,	3,0295	10,713
101990	12,428	-5,	-0,68618	11,154
101991	12,721	-5,	-1,1914	11,295
101992	-12,488	-5,	2,7865	10,96
101993	-12,84	-5,	3,3111	11,054
101994	-4,2941	-5,	-32,75	15,336
101995	-3,6605	-5,	-32,901	15,861
101996	-5,3742	-5,	-31,711	14,164
101997	-4,9054	-5,	-32,589	14,887
101998	-5,5388	-5,	-32,424	14,35
101999	-1,8633	-5,	32,661	13,84
102000	-2,5201	-5,	32,64	13,806
102001	3,7524	-5,	32,279	13,535
102002	4,4041	-5,	32,163	13,389
102003	5,574	-5,	31,178	12,754
102004	5,0478	-5,	32,033	13,226
102005	5,7169	-5,	31,893	13,011
102006	3,1203	-5,	32,392	13,649
102007	2,4793	-5,	32,484	13,735
102008	-15,358	-5,	-8,4392	10,786
102009	-15,091	-5,	-7,8586	10,886
102010	15,289	-5,	8,439	10,675
102011	15,027	-5,	7,8465	10,784
102012	12,409	-5,	3,5719	10,781
102013	12,786	-5,	4,0862	10,864
102014	13,049	-5,	-1,6327	11,416
102015	13,404	-5,	-2,0865	11,569
102016	5,5788	-5,	-31,561	13,976
102017	5,0585	-5,	-32,327	14,655
102018	5,7248	-5,	-32,253	14,153
102019	3,7545	-5,	-32,453	15,513
102020	4,4128	-5,	-32,396	15,06
102021	3,1129	-5,	-32,502	15,847
102022	2,4656	-5,	-32,545	16,202
102023	-13,216	-5,	3,8337	11,123
102024	-13,556	-5,	4,3698	11,178
102025	-0,59365	-5,	32,675	13,868
102026	-1,2246	-5,	32,667	13,86
102027	1,8598	-5,	32,559	13,797
102028	1,2361	-5,	32,615	13,835
102029	-14,81	-5,	-7,2975	10,954
102030	-14,511	-5,	-6,7426	11,003
102031	14,75	-5,	7,2745	10,862
102032	14,461	-5,	6,7119	10,922
102033	13,801	-5,	6,9677	10,553
102034	13,533	-5,	-3,2992	11,429
102035	13,895	-5,	-3,7697	11,534
102036	13,494	-5,	5,1198	10,949
102037	13,146	-5,	4,6062	10,908
102038	16,669	-5,	-9,4764	10,834
102039	16,438	-5,	-8,8291	11,03
102040	16,902	-5,	-10,154	10,638
102041	16,45	-5,	-11,118	10,191
102042	17,166	-5,	-10,879	10,4
102043	15,056	-5,	-7,2241	11,086
102044	15,305	-5,	-7,829	10,978
102045	-16,846	-5,	9,2342	10,905
102046	-16,571	-5,	8,62	11,08
102047	-15,369	-5,	7,6856	10,977
102048	-15,086	-5,	7,1139	11,064
102049	1,8505	-5,	-32,577	16,428
102050	1,2318	-5,	-32,606	16,639
102051	-1,1634	-5,	-32,566	16,603
102052	-0,56108	-5,	-32,598	16,736
102053	-13,878	-5,	4,9025	11,192
102054	-14,196	-5,	5,4504	11,197
102055	13,932	-5,	-5,032	11,231
102056	14,243	-5,	-5,5437	11,246
102057	1,7834e-002	-5,	32,666	13,867
102058	0,63131	-5,	32,649	13,859
102059	-14,195	-5,	-6,2059	11,026
102060	-13,872	-5,	-5,6765	11,024
102061	-13,178	-5,	-4,6333	10,959
102062	-13,534	-5,	-5,1548	11,009
102063	14,154	-5,	6,1709	10,955
102064	13,831	-5,	5,64	10,96
102065	13,494	-5,	6,4267	10,577
102066	14,53	-5,	-6,0804	11,219
102067	14,803	-5,	-6,6409	11,168
102068	-14,502	-5,	5,9945	11,173
102069	-14,796	-5,	6,5552	11,127
102070	0,63064	-5,	-32,616	16,736
102071	2,3589e-002	-5,	-32,616	16,777
102072	-16,447	-5,	-11,49	10,067
102073	-17,125	-5,	-11,294	10,235
102074	-16,938	-5,	-10,646	10,458
102075	-16,726	-5,	10,696	10,308
102076	-17,11	-5,	9,8501	10,732
102077	-17,373	-5,	10,479	10,521
102078	-11,235	-5,	-0,65398	10,59
102079	-11,594	-5,	-1,1837	10,739
102080	-11,852	-5,	-0,41939	10,893
102081	11,876	-5,	0,44021	10,901
102082	11,245	-5,	0,66129	10,588
102083	6,0727	-5,	30,316	12,309
102084	6,2351	-5,	31,027	12,535
102085	6,7308	-5,	30,157	12,092
102086	6,5557	-5,	29,45	11,893
102087	7,4935	-5,	27,746	11,146
102088	7,6836	-5,	28,445	11,311
102089	7,0273	-5,	28,594	11,506
102090	7,9582	-5,	26,897	10,81
102091	8,1461	-5,	27,593	10,963
102092	8,6127	-5,	26,739	10,637
102093	8,423	-5,	26,046	10,495
102094	9,3476	-5,	24,344	9,9333
102095	9,5451	-5,	25,032	10,055
102096	8,8854	-5,	25,197	10,203
102097	9,816	-5,	23,486	9,6856
102098	10,01	-5,	24,172	9,7986
102099	10,484	-5,	23,317	9,5664
102100	10,282	-5,	22,627	9,4637
102101	11,418	-5,	21,599	9,1825
102102	10,552	-5,	21,087	9,1515
102103	11,216	-5,	20,913	9,1036
102104	10,748	-5,	21,771	9,2693
102105	12,361	-5,	19,878	8,9181
102106	11,689	-5,	20,056	8,9693
102107	12,158	-5,	19,198	8,8694
102108	13,095	-5,	17,481	8,7832
102109	13,298	-5,	18,156	8,7937
102110	12,626	-5,	18,338	8,8064
102111	13,56	-5,	16,622	8,8024
102112	13,764	-5,	17,297	8,7909
102113	14,229	-5,	16,44	8,831
102114	14,025	-5,	15,766	8,867
102115	15,17	-5,	14,733	9,0516
102116	14,967	-5,	14,073	9,1409
102117	14,495	-5,	14,917	8,9792
102118	16,123	-5,	13,037	9,4767
102119	15,443	-5,	13,23	9,3554
102120	-5,832	-5,	-30,838	13,524
102121	-6,0136	-5,	-31,548	13,683
102122	-6,2834	-5,	-29,978	12,952
102123	-6,47	-5,	-30,681	13,095
102124	-6,7353	-5,	-29,132	12,434
102125	-6,9246	-5,	-29,83	12,566
102126	-7,1923	-5,	-28,294	11,962
102127	-7,38	-5,	-28,989	12,085
102128	-7,6511	-5,	-27,459	11,528
102129	-7,8415	-5,	-28,151	11,643
102130	-8,1078	-5,	-26,624	11,131
102131	-8,2986	-5,	-27,313	11,239
102132	-8,566	-5,	-25,783	10,766
102133	-8,7583	-5,	-26,47	10,866
102134	-7,9139	-5,	-25,936	10,977
102135	-9,022	-5,	-24,94	10,433
102136	-9,2222	-5,	-25,625	10,525
102137	-9,4822	-5,	-24,098	10,13
102138	-9,6788	-5,	-24,783	10,217
102139	-10,143	-5,	-23,936	9,9373
102140	-9,9433	-5,	-23,251	9,8582
102141	-10,858	-5,	-21,564	9,4114
102142	-11,062	-5,	-22,245	9,4727
102143	-10,398	-5,	-22,408	9,6191
102144	-10,2	-5,	-21,73	9,5107
102145	-11,321	-5,	-20,72	9,2364
102146	-11,525	-5,	-21,392	9,2864
102147	-11,788	-5,	-19,872	9,0957
102148	-11,987	-5,	-20,55	9,1348
102149	-12,254	-5,	-19,021	8,992
102150	-12,457	-5,	-19,694	9,0163
102151	-12,924	-5,	-18,843	8,9358
102152	-12,716	-5,	-18,175	8,928
102153	-14,099	-5,	-15,645	8,9909
102154	-14,308	-5,	-16,309	8,9385
102155	-13,435	-5,	-15,827	8,9285
102156	-13,642	-5,	-16,489	8,9254
102157	-14,766	-5,	-15,464	9,0275
102158	-14,557	-5,	-14,807	9,1034
102159	-15,693	-5,	-13,798	9,348
102160	-15,022	-5,	-13,979	9,264
102161	-15,486	-5,	-13,151	9,4752
102162	-16,635	-5,	-12,132	9,8789
102163	-15,957	-5,	-12,32	9,7414
102164	15,534	-5,	-12,934	9,5294
102165	16,194	-5,	-12,738	9,6485
102166	15,984	-5,	-12,042	9,8218
102167	15,08	-5,	-13,811	9,2988
102168	15,745	-5,	-13,62	9,3898
102169	14,625	-5,	-14,667	9,126
102170	15,289	-5,	-14,482	9,1906
102171	14,169	-5,	-15,519	9,0048
102172	14,834	-5,	-15,337	9,0448
102173	14,377	-5,	-16,186	8,9486
102174	13,719	-5,	-16,375	8,932
102175	13,492	-5,	-17,914	8,8912
102176	13,279	-5,	-17,239	8,9055
102177	12,843	-5,	-18,104	8,9228
102178	11,937	-5,	-19,82	9,0795
102179	12,606	-5,	-19,646	9,0002
102180	12,401	-5,	-18,967	8,9813
102181	11,462	-5,	-20,659	9,2141
102182	12,127	-5,	-20,492	9,1136
102183	11,272	-5,	-19,987	9,1338
102184	11,656	-5,	-21,327	9,2602
102185	10,995	-5,	-21,495	9,3828
102186	10,081	-5,	-23,196	9,8212
102187	10,734	-5,	-23,025	9,6529
102188	10,535	-5,	-22,344	9,5862
102189	9,6315	-5,	-24,044	10,086
102190	10,282	-5,	-23,876	9,8947
102191	9,1863	-5,	-24,893	10,38
102192	9,831	-5,	-24,728	10,167
102193	8,7406	-5,	-25,741	10,705
102194	9,3834	-5,	-25,578	10,467
102195	8,5462	-5,	-25,05	10,566
102196	8,2966	-5,	-26,591	11,061
102197	8,933	-5,	-26,431	10,8
102198	7,8629	-5,	-27,439	11,446
102199	8,4909	-5,	-27,283	11,161
102200	8,06	-5,	-28,133	11,55
102201	7,4289	-5,	-28,287	11,865
102202	6,5445	-5,	-29,957	12,817
102203	7,1779	-5,	-29,827	12,44
102204	6,9922	-5,	-29,127	12,32
102205	6,0722	-5,	-30,772	13,368
102206	6,7152	-5,	-30,658	12,954
102207	5,9235	-5,	-30,076	13,139
102208	6,2316	-5,	-31,468	13,521
102209	-16,327	-5,	11,54	9,9395
102210	-16,977	-5,	11,329	10,118
102211	-15,909	-5,	12,383	9,624
102212	-16,565	-5,	12,181	9,7711
102213	-15,472	-5,	13,224	9,3606
102214	-16,137	-5,	13,024	9,4818
102215	-15,257	-5,	12,587	9,4525
102216	-15,012	-5,	14,062	9,1479
102217	-15,684	-5,	13,874	9,2433
102218	-14,538	-5,	14,902	8,985
102219	-14,341	-5,	14,249	9,027
102220	-15,212	-5,	14,713	9,058
102221	-14,068	-5,	15,746	8,8715
102222	-14,735	-5,	15,56	8,9218
102223	-13,61	-5,	16,59	8,8059
102224	-14,273	-5,	16,414	8,8342
102225	-13,157	-5,	17,438	8,7845
102226	-13,815	-5,	17,261	8,7924
102227	-12,705	-5,	18,294	8,8049
102228	-13,361	-5,	18,113	8,7927
102229	-12,258	-5,	19,152	8,8646
102230	-12,911	-5,	18,971	8,8326
102231	-11,802	-5,	20,003	8,9598
102232	-12,464	-5,	19,829	8,9094
102233	-11,998	-5,	20,676	9,0202
102234	-11,337	-5,	20,851	9,0885
102235	-11,142	-5,	20,171	8,988
102236	-10,408	-5,	22,575	9,4423
102237	-11,064	-5,	22,39	9,3381
102238	-10,871	-5,	21,709	9,2501
102239	-10,604	-5,	23,263	9,5419
102240	-9,7505	-5,	22,753	9,5253
102241	-9,9485	-5,	23,45	9,6637
102242	-9,0376	-5,	25,204	10,182
102243	-9,6869	-5,	25,028	10,032
102244	-9,4922	-5,	24,328	9,9111
102245	-9,2304	-5,	25,906	10,313
102246	-8,5864	-5,	26,076	10,476
102247	-7,6833	-5,	27,808	11,129
102248	-8,322	-5,	27,647	10,941
102249	-8,1349	-5,	26,943	10,791
102250	-7,2371	-5,	28,665	11,486
102251	-7,8743	-5,	28,509	11,288
102252	-6,7835	-5,	29,516	11,867
102253	-7,4233	-5,	29,369	11,66
102254	-6,3072	-5,	30,355	12,273
102255	-6,9602	-5,	30,223	12,06
102256	-6,1502	-5,	29,647	12,034
102257	-5,7942	-5,	31,164	12,702
102258	-6,468	-5,	31,064	12,492
102259	-5,2335	-5,	31,92	13,139
102260	-5,9378	-5,	31,876	12,951
102261	-4,5954	-5,	32,609	13,57
102262	-5,3544	-5,	32,63	13,424
102263	-16,734	-5,	-10,02	10,638
102264	-16,509	-5,	-9,3958	10,83
102265	-12,07	-5,	-3,0478	10,75
102266	-11,696	-5,	-2,5113	10,644
102267	-3,9056	-5,	33,26	13,986
102268	-4,6741	-5,	33,279	13,88
102269	-12,833	-5,	0,3634	11,392
102270	-12,228	-5,	0,82643	11,042
102271	-12,346	-5,	-0,10186	11,121
102272	16,889	-5,	10,672	10,353
102273	17,092	-5,	11,319	10,141
102274	16,673	-5,	10,042	10,529
102275	16,437	-5,	9,4139	10,716
102276	11,942	-5,	1,7627	10,834
102277	12,307	-5,	2,2772	10,958
102278	12,489	-5,	0,19622	11,197
102279	13,08	-5,	-0,41499	11,519
102280	-12,826	-5,	1,914	11,255
102281	-13,164	-5,	2,4716	11,369
102282	-4,4106	-5,	-33,462	15,715
102283	-5,058	-5,	-33,305	15,102
102284	3,8395	-5,	32,986	13,858
102285	3,1733	-5,	33,092	13,974
102286	-16,02	-5,	-8,188	11,13
102287	-16,275	-5,	-8,7895	10,983
102288	16,196	-5,	8,8009	10,868
102289	15,944	-5,	8,1889	11,021
102290	12,678	-5,	2,8073	11,052
102291	13,06	-5,	3,3138	11,163
102292	13,372	-5,	-0,92018	11,649
102293	13,698	-5,	-1,337	11,815
102294	3,8453	-5,	-33,131	15,86
102295	3,1789	-5,	-33,184	16,343
102296	-2,4204	-5,	-33,141	16,699
102297	-2,3557	-5,	-32,442	16,136
102298	-3,0483	-5,	-33,038	16,268
102299	-13,517	-5,	2,9962	11,452
102300	-13,864	-5,	3,5328	11,538
102301	-12,819	-5,	-4,1142	10,909
102302	-12,446	-5,	-3,5957	10,825
102303	1,8921	-5,	33,254	14,105
102304	2,5323	-5,	33,184	14,058
102305	-15,753	-5,	-7,6074	11,241
102306	-15,466	-5,	-7,0333	11,331
102307	15,682	-5,	7,5964	11,14
102308	15,407	-5,	7,012	11,243
102309	13,789	-5,	-2,5328	11,703
102310	14,163	-5,	-2,9881	11,844
102311	17,57	-5,	-9,8593	10,909
102312	17,331	-5,	-9,2001	11,153
102313	-17,48	-5,	8,9972	11,215
102314	-17,759	-5,	9,627	10,987
102315	-18,278	-5,	10,895	10,502
102316	-18,022	-5,	10,256	10,767
102317	-17,623	-5,	11,112	10,323
102318	-16,293	-5,	8,0236	11,217
102319	-16,015	-5,	7,4321	11,347
102320	2,5316	-5,	-33,227	16,684
102321	1,8834	-5,	-33,269	17,034
102322	-1,8108	-5,	-33,218	16,986
102323	-1,1865	-5,	-33,272	17,252
102324	-1,7462	-5,	-32,519	16,434
102325	-14,535	-5,	4,6162	11,617
102326	-14,204	-5,	4,0689	11,581
102327	14,238	-5,	-4,2503	11,592
102328	14,572	-5,	-4,7439	11,645
102329	-0,60271	-5,	33,362	14,164
102330	2,7279e-002	-5,	33,366	14,165
102331	1,2684	-5,	33,31	14,142
102332	0,64076	-5,	33,349	14,156
102333	-15,168	-5,	-6,4784	11,391
102334	-14,854	-5,	-5,9306	11,421
102335	15,118	-5,	6,4495	11,313
102336	14,817	-5,	5,8975	11,356
102337	14,147	-5,	4,8474	11,343
102338	14,494	-5,	5,3666	11,371
102339	1,2647	-5,	-33,297	17,236
102340	0,64194	-5,	-33,319	17,397
102341	-0,58418	-5,	-33,304	17,38
102342	3,4883e-002	-5,	-33,319	17,435
102343	-14,853	-5,	5,1642	11,611
102344	-15,161	-5,	5,7265	11,587
102345	14,883	-5,	-5,2556	11,647
102346	15,178	-5,	-5,7964	11,628
102347	-17,312	-5,	-11,936	10,042
102348	-17,799	-5,	-11,079	10,438
102349	-17,985	-5,	-11,74	10,17
102350	-17,613	-5,	-10,43	10,667
102351	-17,405	-5,	-9,7857	10,915
102352	-12,592	-5,	-1,4788	11,206
102353	-11,964	-5,	-1,7286	10,857
102354	-12,211	-5,	-0,94913	11,035
102355	17,557	-5,	10,451	10,571
102356	17,761	-5,	11,098	10,351
102357	18,215	-5,	10,214	10,826
102358	18,431	-5,	10,878	10,531
102359	17,333	-5,	9,8033	10,81
102360	12,22	-5,	1,0122	11,031
102361	12,574	-5,	1,534	11,179
102362	11,589	-5,	1,2333	10,725
102363	12,834	-5,	0,77548	11,372
102364	-13,147	-5,	0,9112	11,512
102365	-13,474	-5,	1,576	11,658
102366	-12,542	-5,	1,3742	11,181
102367	7,0602	-5,	31,579	12,523
102368	6,8932	-5,	30,869	12,322
102369	6,378	-5,	31,743	12,796
102370	8,3362	-5,	28,291	11,13
102371	8,5302	-5,	28,987	11,265
102372	7,8684	-5,	29,142	11,493
102373	8,8006	-5,	27,434	10,792
102374	8,9929	-5,	28,128	10,915
102375	9,2721	-5,	26,579	10,477
102376	9,4623	-5,	27,271	10,59
102377	9,7423	-5,	25,722	10,187
102378	9,0825	-5,	25,886	10,334
102379	9,9337	-5,	26,41	10,289
102380	10,408	-5,	25,552	10,012
102381	10,207	-5,	24,86	9,9201
102382	11,15	-5,	23,145	9,4614
102383	11,349	-5,	23,831	9,5324
102384	10,678	-5,	24,004	9,6783
102385	11,619	-5,	22,283	9,2713
102386	11,813	-5,	22,964	9,3313
102387	10,948	-5,	22,455	9,3604
102388	12,088	-5,	21,421	9,1099
102389	12,283	-5,	22,105	9,1578
102390	12,557	-5,	20,558	8,9792
102391	12,753	-5,	21,237	9,0125
102392	11,886	-5,	20,735	9,0339
102393	13,027	-5,	19,696	8,8816
102394	13,225	-5,	20,377	8,8992
102395	13,497	-5,	18,833	8,8199
102396	13,692	-5,	19,512	8,8196
102397	12,825	-5,	19,015	8,837
102398	13,967	-5,	17,973	8,7966
102399	14,167	-5,	18,65	8,7759
102400	14,433	-5,	17,115	8,8143
102401	14,635	-5,	17,789	8,7716
102402	14,902	-5,	16,255	8,8761
102403	15,105	-5,	16,929	8,8088
102404	15,373	-5,	15,397	8,9846
102405	15,578	-5,	16,067	8,891
102406	14,699	-5,	15,581	8,9175
102407	15,845	-5,	14,541	9,1427
102408	16,048	-5,	15,21	9,0204
102409	16,322	-5,	13,688	9,3534
102410	16,522	-5,	14,351	9,2011
102411	15,642	-5,	13,881	9,2375
102412	16,799	-5,	12,833	9,6206
102413	16,997	-5,	13,493	9,436
102414	17,282	-5,	11,968	9,952
102415	17,474	-5,	12,628	9,7316
102416	17,958	-5,	11,759	10,094
102417	-6,3469	-5,	-32,966	13,982
102418	-5,6914	-5,	-33,139	14,581
102419	-6,1782	-5,	-32,261	13,882
102420	-7,3033	-5,	-31,228	12,792
102421	-7,1111	-5,	-30,533	12,718
102422	-6,6516	-5,	-31,391	13,265
102423	-8,2252	-5,	-29,537	11,837
102424	-8,0292	-5,	-28,847	11,772
102425	-7,5693	-5,	-29,687	12,223
102426	-8,9491	-5,	-27,16	10,977
102427	-9,147	-5,	-27,85	11,035
102428	-8,489	-5,	-28,006	11,357
102429	-9,4146	-5,	-26,312	10,627
102430	-9,6088	-5,	-26,997	10,682
102431	-10,078	-5,	-26,148	10,358
102432	-9,879	-5,	-25,467	10,31
102433	-10,803	-5,	-23,771	9,7674
102434	-11,006	-5,	-24,451	9,8033
102435	-10,34	-5,	-24,621	10,024
102436	-11,266	-5,	-22,923	9,5413
102437	-11,466	-5,	-23,599	9,5708
102438	-10,603	-5,	-23,086	9,6887
102439	-11,729	-5,	-22,072	9,3459
102440	-11,931	-5,	-22,749	9,3669
102441	-12,191	-5,	-21,222	9,1824
102442	-12,395	-5,	-21,894	9,1933
102443	-12,858	-5,	-21,046	9,0522
102444	-12,656	-5,	-20,372	9,0522
102445	-13,591	-5,	-18,667	8,8986
102446	-13,795	-5,	-19,337	8,8693
102447	-13,126	-5,	-19,516	8,9564
102448	-14,052	-5,	-17,825	8,8803
102449	-14,258	-5,	-18,488	8,8336
102450	-13,384	-5,	-17,999	8,895
102451	-14,514	-5,	-16,976	8,9032
102452	-14,72	-5,	-17,644	8,8367
102453	-13,847	-5,	-17,157	8,895
102454	-14,975	-5,	-16,127	8,97
102455	-15,186	-5,	-16,789	8,8818
102456	-15,438	-5,	-15,287	9,0821
102457	-15,645	-5,	-15,948	8,9699
102458	-15,9	-5,	-14,449	9,2419
102459	-16,114	-5,	-15,103	9,1049
102460	-15,229	-5,	-14,63	9,1629
102461	-16,363	-5,	-13,609	9,4533
102462	-16,573	-5,	-14,263	9,2882
102463	-16,833	-5,	-12,773	9,7181
102464	-17,037	-5,	-13,422	9,5239
102465	-16,156	-5,	-12,961	9,5858
102466	-17,507	-5,	-12,588	9,8136
102467	16,86	-5,	-12,528	9,7954
102468	16,65	-5,	-11,833	9,9756
102469	17,513	-5,	-12,356	9,8945
102470	17,367	-5,	-11,594	10,176
102471	17,068	-5,	-13,236	9,58
102472	16,405	-5,	-13,423	9,5029
102473	15,499	-5,	-15,152	9,1041
102474	16,168	-5,	-14,959	9,1326
102475	15,955	-5,	-14,291	9,276
102476	15,042	-5,	-16,004	8,9835
102477	15,709	-5,	-15,819	8,9876
102478	14,591	-5,	-16,859	8,9093
102479	15,251	-5,	-16,672	8,8913
102480	14,146	-5,	-17,724	8,8788
102481	14,798	-5,	-17,534	8,8389
102482	13,933	-5,	-17,049	8,8979
102483	13,707	-5,	-18,593	8,8898
102484	14,357	-5,	-18,4	8,8274
102485	13,263	-5,	-19,462	8,9407
102486	13,922	-5,	-19,275	8,8547
102487	13,058	-5,	-18,784	8,9257
102488	12,796	-5,	-20,317	9,0311
102489	13,463	-5,	-20,136	8,9223
102490	12,99	-5,	-20,987	9,0271
102491	12,321	-5,	-21,16	9,1572
102492	11,388	-5,	-22,85	9,5063
102493	12,045	-5,	-22,675	9,3346
102494	11,849	-5,	-22,001	9,3162
102495	11,188	-5,	-22,169	9,4408
102496	10,935	-5,	-23,706	9,7259
102497	11,591	-5,	-23,53	9,5317
102498	10,482	-5,	-24,56	9,9758
102499	11,137	-5,	-24,386	9,7582
102500	10,028	-5,	-25,414	10,255
102501	10,681	-5,	-25,243	10,014
102502	9,5758	-5,	-26,268	10,564
102503	10,228	-5,	-26,097	10,298
102504	9,1273	-5,	-27,123	10,902
102505	9,7728	-5,	-26,955	10,612
102506	8,688	-5,	-27,978	11,268
102507	9,3239	-5,	-27,811	10,954
102508	8,2499	-5,	-28,833	11,667
102509	8,8874	-5,	-28,67	11,322
102510	7,8045	-5,	-29,686	12,105
102511	8,443	-5,	-29,531	11,726
102512	7,6189	-5,	-28,986	11,978
102513	7,3486	-5,	-30,529	12,585
102514	7,9929	-5,	-30,382	12,167
102515	6,8745	-5,	-31,354	13,116
102516	7,5287	-5,	-31,225	12,654
102517	7,0426	-5,	-32,047	13,196
102518	6,3775	-5,	-32,16	13,71
102519	-17,452	-5,	12,618	9,7337
102520	-16,793	-5,	12,823	9,623
102521	-17,215	-5,	11,97	9,9428
102522	-16,557	-5,	14,335	9,2059
102523	-16,349	-5,	13,675	9,3587
102524	-15,883	-5,	14,524	9,148
102525	-15,608	-5,	16,037	8,8949
102526	-14,94	-5,	16,228	8,8791
102527	-15,408	-5,	15,372	8,9893
102528	-14,683	-5,	17,753	8,7713
102529	-14,477	-5,	17,084	8,8158
102530	-14,019	-5,	17,935	8,7959
102531	-13,773	-5,	19,465	8,8122
102532	-13,118	-5,	19,648	8,8736
102533	-13,567	-5,	18,79	8,816
102534	-12,859	-5,	21,177	8,9953
102535	-12,659	-5,	20,502	8,9664
102536	-12,193	-5,	21,352	9,0918
102537	-11,26	-5,	23,079	9,4358
102538	-11,921	-5,	22,889	9,3051
102539	-11,725	-5,	22,208	9,2486
102540	-10,799	-5,	23,96	9,6517
102541	-11,457	-5,	23,768	9,5047
102542	-10,338	-5,	24,847	9,895
102543	-10,995	-5,	24,656	9,7318
102544	-10,143	-5,	24,147	9,7747
102545	-9,8796	-5,	25,73	10,162
102546	-10,534	-5,	25,545	9,9849
102547	-10,076	-5,	26,425	10,261
102548	-9,4221	-5,	26,607	10,453
102549	-8,5129	-5,	28,347	11,103
102550	-8,9653	-5,	27,48	10,767
102551	-9,1609	-5,	28,176	10,885
102552	-8,0604	-5,	29,212	11,465
102553	-8,7073	-5,	29,045	11,233
102554	-7,6	-5,	30,076	11,857
102555	-8,2492	-5,	29,912	11,611
102556	-7,1209	-5,	30,933	12,283
102557	-7,7847	-5,	30,781	12,022
102558	-7,2901	-5,	31,642	12,475
102559	-6,6115	-5,	31,776	12,746
102560	-6,1922	-5,	33,307	13,516
102561	-6,0588	-5,	32,586	13,242
102562	-5,4331	-5,	33,301	13,739
102563	-3,8888	-5,	33,862	14,301
102564	-3,2179	-5,	33,937	14,389
102565	-3,2101	-5,	33,273	14,061
102566	5,2601	-5,	33,456	13,857
102567	5,9694	-5,	33,323	13,591
102568	5,1671	-5,	32,749	13,52
102569	5,8362	-5,	32,609	13,31
102570	4,5843	-5,	33,578	14,046
102571	3,9029	-5,	33,682	14,202
102572	4,4913	-5,	32,87	13,714
102573	-13,277	-5,	-0,18592	11,614
102574	-13,77	-5,	0,62299	11,898
102575	-13,825	-5,	0,14447	11,946
102576	17,097	-5,	9,1754	11,007
102577	16,848	-5,	8,548	11,208
102578	12,938	-5,	2,0485	11,297
102579	13,316	-5,	2,5488	11,435
102580	14,025	-5,	-0,64687	12,047
102581	5,2793	-5,	-33,693	15,155
102582	5,9816	-5,	-33,633	14,505
102583	5,1824	-5,	-33,013	14,869
102584	5,8487	-5,	-32,94	14,381
102585	4,6004	-5,	-33,753	15,692
102586	3,9119	-5,	-33,805	16,301
102587	4,5036	-5,	-33,073	15,423
102588	-13,813	-5,	2,1335	11,758
102589	-14,162	-5,	2,6826	11,88
102590	18,623	-5,	-11,553	10,316
102591	18,902	-5,	-10,773	10,716
102592	19,297	-5,	-11,319	10,45
102593	18,227	-5,	-11,134	10,458
102594	-13,834	-5,	-4,3516	11,364
102595	-13,471	-5,	-3,8403	11,286
102596	-12,709	-5,	-2,803	11,09
102597	-13,099	-5,	-3,3218	11,211
102598	-12,964	-5,	-2,0167	11,331
102599	-13,345	-5,	-2,5094	11,479
102600	-12,335	-5,	-2,2665	10,991
102601	18,875	-5,	-12,142	10,044
102602	18,184	-5,	-12,299	9,9749
102603	18,037	-5,	-11,537	10,255
102604	-2,5449	-5,	33,974	14,441
102605	-1,8916	-5,	34,017	14,451
102606	-1,8803	-5,	33,331	14,147
102607	-2,5371	-5,	33,31	14,113
102608	-16,679	-5,	-7,9376	11,479
102609	-16,405	-5,	-7,3395	11,622
102610	16,596	-5,	7,936	11,372
102611	16,332	-5,	7,33	11,525
102612	14,053	-5,	-1,7908	11,958
102613	14,424	-5,	-2,2182	12,129
102614	18,508	-5,	-10,222	10,929
102615	18,244	-5,	-9,5727	11,217
102616	17,834	-5,	-10,584	10,656
102617	17,1	-5,	-8,5527	11,363
102618	16,858	-5,	-7,9136	11,564
102619	16,204	-5,	-8,1872	11,195
102620	-17,206	-5,	8,383	11,401
102621	-16,931	-5,	7,7705	11,584
102622	3,2455	-5,	-33,858	16,766
102623	2,5785	-5,	-33,912	17,271
102624	-2,4991	-5,	-33,839	17,209
102625	-1,8498	-5,	-33,922	17,645
102626	14,525	-5,	-3,4587	11,937
102627	14,877	-5,	-3,9353	12,03
102628	-1,245	-5,	34,04	14,461
102629	-1,2336	-5,	33,354	14,156
102630	-0,60552	-5,	34,058	14,452
102631	1,9307	-5,	33,946	14,428
102632	1,2849	-5,	34,005	14,438
102633	-15,817	-5,	-6,197	11,799
102634	-16,119	-5,	-6,7654	11,726
102635	-14,477	-5,	-4,0528	11,769
102636	-14,19	-5,	-4,873	11,403
102637	-14,841	-5,	-4,5785	11,834
102638	16,057	-5,	6,7456	11,64
102639	15,773	-5,	6,1696	11,728
102640	14,437	-5,	4,0558	11,711
102641	14,796	-5,	4,5648	11,772
102642	13,799	-5,	4,3338	11,311
102643	16,614	-5,	-7,2857	11,732
102644	16,361	-5,	-6,6703	11,875
102645	15,712	-5,	-6,9544	11,468
102646	15,96	-5,	-7,5593	11,348
102647	1,2841	-5,	-33,996	17,927
102648	1,9302	-5,	-33,954	17,605
102649	-0,59017	-5,	-34,009	18,097
102650	-1,2255	-5,	-33,976	17,899
102651	-15,508	-5,	4,8778	12,058
102652	-15,182	-5,	4,3155	12,048
102653	0,65724	-5,	34,044	14,453
102654	2,4462e-002	-5,	34,061	14,453
102655	-15,503	-5,	-5,6492	11,842
102656	-14,53	-5,	-5,4013	11,43
102657	-15,181	-5,	-5,1067	11,848
102658	-16,103	-5,	6,0172	11,953
102659	-15,816	-5,	5,4402	12,02
102660	-15,455	-5,	6,2872	11,53
102661	0,66129	-5,	-34,017	18,08
102662	2,8889e-002	-5,	-34,024	18,15
102663	-18,29	-5,	-10,196	10,918
102664	-18,469	-5,	-10,869	10,605
102665	-4,9923	-5,	35,145	14,878
102666	-5,4587	-5,	35,472	14,95
102667	-4,9575	-5,	35,776	15,31
102668	20,665	-5,	9,0445	11,996
102669	21,017	-5,	8,6247	12,407
102670	20,341	-5,	8,3552	12,457
102671	20,88	-5,	7,9888	12,955
102672	-4,5228	-5,	34,481	14,562
102673	-4,478	-5,	35,165	14,979
102674	-5,3984	-5,	34,652	14,454
102675	-3,8708	-5,	34,524	14,663
102676	-4,6573	-5,	33,881	14,196
102677	5,3438	-5,	34,174	14,204
102678	4,6392	-5,	34,285	14,427
102679	6,0531	-5,	34,041	13,945
102680	5,43	-5,	34,878	14,606
102681	6,2087	-5,	34,743	14,24
102682	-18,083	-5,	-9,5519	11,176
102683	-18,96	-5,	-9,9752	11,133
102684	-18,742	-5,	-9,2981	11,482
102685	-17,841	-5,	-8,9101	11,441
102686	-17,181	-5,	-9,1613	11,117
102687	-13,172	-5,	-1,1809	11,523
102688	-13,584	-5,	-1,706	11,718
102689	-12,791	-5,	-0,65118	11,364
102690	-13,734	-5,	-0,8241	11,877
102691	17,991	-5,	9,5663	11,074
102692	18,634	-5,	9,3077	11,383
102693	18,883	-5,	9,9786	11,055
102694	17,745	-5,	8,9195	11,334
102695	13,188	-5,	1,2973	11,512
102696	13,568	-5,	1,7929	11,682
102697	13,81	-5,	1,0613	11,892
102698	5,3839	-5,	-34,377	15,323
102699	6,0862	-5,	-34,317	14,691
102700	5,4757	-5,	-35,058	15,562
102701	6,2306	-5,	-35,031	14,714
102702	4,6647	-5,	-34,422	16,055
102703	-4,538	-5,	-34,176	15,978
102704	-3,8751	-5,	-34,313	16,672
102705	-3,7769	-5,	-33,613	16,222
102706	-4,6461	-5,	-34,888	16,324
102707	-5,1854	-5,	-34,019	15,385
102708	-5,3294	-5,	-34,729	15,523
102709	-14,098	-5,	1,2878	12,028
102710	-14,293	-5,	0,40578	12,194
102711	-14,693	-5,	0,92411	12,433
102712	-14,449	-5,	1,804	12,19
102713	6,6621	-5,	33,168	13,32
102714	6,8193	-5,	33,87	13,562
102715	7,2111	-5,	32,29	12,764
102716	7,3784	-5,	32,992	12,964
102717	6,529	-5,	32,454	13,032
102718	7,7348	-5,	31,413	12,267
102719	7,9088	-5,	32,117	12,435
102720	8,2366	-5,	30,544	11,821
102721	8,42	-5,	31,243	11,962
102722	7,5678	-5,	30,704	12,061
102723	8,7179	-5,	29,684	11,42
102724	8,9101	-5,	30,375	11,538
102725	8,0561	-5,	29,839	11,644
102726	9,187	-5,	28,824	11,053
102727	9,3798	-5,	29,518	11,159
102728	9,6547	-5,	27,965	10,716
102729	9,8508	-5,	28,652	10,807
102730	10,324	-5,	27,796	10,484
102731	10,124	-5,	27,103	10,403
102732	11,074	-5,	25,379	9,8515
102733	11,271	-5,	26,067	9,9116
102734	10,6	-5,	26,241	10,115
102735	11,738	-5,	25,196	9,6633
102736	11,544	-5,	24,514	9,6133
102737	10,872	-5,	24,687	9,7599
102738	12,679	-5,	23,464	9,242
102739	12,013	-5,	23,65	9,401
102740	12,478	-5,	22,786	9,216
102741	13,619	-5,	21,734	8,9293
102742	13,421	-5,	21,057	8,9295
102743	12,949	-5,	21,922	9,0579
102744	14,562	-5,	20,003	8,7374
102745	13,89	-5,	20,194	8,8337
102746	14,362	-5,	19,329	8,7718
102747	15,308	-5,	17,603	8,7617
102748	15,51	-5,	18,274	8,685
102749	14,836	-5,	18,466	8,7468
102750	15,781	-5,	16,741	8,8191
102751	15,986	-5,	17,405	8,7183
102752	16,459	-5,	16,547	8,7943
102753	16,253	-5,	15,88	8,9222
102754	17,197	-5,	14,156	9,2788
102755	17,405	-5,	14,822	9,0901
102756	16,726	-5,	15,019	9,074
102757	17,671	-5,	13,289	9,5415
102758	17,873	-5,	13,948	9,3204
102759	18,15	-5,	12,419	9,8675
102760	18,35	-5,	13,083	9,6077
102761	18,629	-5,	11,539	10,266
102762	18,828	-5,	12,208	9,9638
102763	19,302	-5,	11,319	10,4
102764	19,099	-5,	10,643	10,751
102765	-6,509	-5,	-33,674	14,11
102766	-6,6848	-5,	-34,373	14,114
102767	-5,8535	-5,	-33,848	14,694
102768	-5,9975	-5,	-34,558	14,851
102769	-7,0032	-5,	-32,796	13,462
102770	-7,185	-5,	-33,493	13,471
102771	-7,4861	-5,	-31,928	12,887
102772	-7,6731	-5,	-32,623	12,898
102773	-6,8344	-5,	-32,092	13,35
102774	-7,9582	-5,	-31,074	12,374
102775	-8,153	-5,	-31,764	12,383
102776	-8,422	-5,	-30,229	11,912
102777	-8,6153	-5,	-30,915	11,924
102778	-7,766	-5,	-30,379	12,291
102779	-8,8845	-5,	-29,383	11,488
102780	-9,0821	-5,	-30,069	11,499
102781	-9,3465	-5,	-28,537	11,099
102782	-9,5435	-5,	-29,219	11,11
102783	-8,6885	-5,	-28,693	11,417
102784	-9,8067	-5,	-27,687	10,743
102785	-10,009	-5,	-28,37	10,751
102786	-10,272	-5,	-26,833	10,415
102787	-10,469	-5,	-27,516	10,423
102788	-10,74	-5,	-25,983	10,116
102789	-10,938	-5,	-26,663	10,12
102790	-11,207	-5,	-25,132	9,8462
102791	-11,403	-5,	-25,811	9,8479
102792	-10,541	-5,	-25,302	10,067
102793	-11,67	-5,	-24,279	9,6066
102794	-11,87	-5,	-24,96	9,602
102795	-12,332	-5,	-24,102	9,3843
102796	-12,131	-5,	-23,424	9,3956
102797	-13,061	-5,	-21,718	9,0612
102798	-13,265	-5,	-22,39	9,0323
102799	-12,597	-5,	-22,571	9,2129
102800	-13,529	-5,	-20,863	8,9402
102801	-13,734	-5,	-21,535	8,9001
102802	-13,997	-5,	-20,01	8,8527
102803	-14,201	-5,	-20,677	8,7997
102804	-13,328	-5,	-20,189	8,9428
102805	-14,462	-5,	-19,157	8,8009
102806	-14,665	-5,	-19,829	8,7329
102807	-14,926	-5,	-18,307	8,7863
102808	-15,134	-5,	-18,969	8,7009
102809	-15,391	-5,	-17,456	8,8111
102810	-15,596	-5,	-18,124	8,7062
102811	-15,856	-5,	-16,609	8,8776
102812	-16,066	-5,	-17,265	8,7516
102813	-16,322	-5,	-15,763	8,9884
102814	-16,527	-5,	-16,427	8,8375
102815	-16,787	-5,	-14,917	9,1468
102816	-16,996	-5,	-15,576	8,9695
102817	-17,248	-5,	-14,076	9,3544
102818	-17,457	-5,	-14,734	9,1488
102819	-17,711	-5,	-13,237	9,615
102820	-17,921	-5,	-13,889	9,3801
102821	-18,18	-5,	-12,392	9,9365
102822	-18,381	-5,	-13,052	9,6644
102823	-18,655	-5,	-11,53	10,33
102824	-18,847	-5,	-12,2	10,016
102825	-19,139	-5,	-10,647	10,811
102826	-19,313	-5,	-11,335	10,443
102827	-19,656	-5,	-9,7129	11,422
102828	-19,799	-5,	-10,449	10,965
102829	17,285	-5,	-13,915	9,4004
102830	17,951	-5,	-13,727	9,4324
102831	17,721	-5,	-13,064	9,6747
102832	16,835	-5,	-14,77	9,18
102833	17,502	-5,	-14,58	9,1891
102834	16,622	-5,	-14,102	9,3281
102835	16,378	-5,	-15,626	9,0115
102836	17,047	-5,	-15,434	8,9982
102837	15,918	-5,	-16,486	8,8912
102838	16,586	-5,	-16,295	8,856
102839	16,124	-5,	-17,155	8,7607
102840	15,458	-5,	-17,346	8,8167
102841	15,222	-5,	-18,882	8,6935
102842	15,009	-5,	-18,211	8,7836
102843	14,572	-5,	-19,082	8,7887
102844	14,321	-5,	-20,621	8,7765
102845	13,657	-5,	-20,806	8,9157
102846	14,123	-5,	-19,949	8,8332
102847	12,71	-5,	-22,499	9,182
102848	13,374	-5,	-22,317	9,0029
102849	13,183	-5,	-21,652	9,033
102850	12,514	-5,	-21,824	9,1652
102851	12,248	-5,	-23,355	9,3591
102852	12,907	-5,	-23,177	9,1609
102853	11,793	-5,	-24,21	9,5638
102854	12,451	-5,	-24,032	9,344
102855	11,336	-5,	-25,069	9,7974
102856	11,992	-5,	-24,895	9,5562
102857	10,881	-5,	-25,927	10,059
102858	11,535	-5,	-25,75	9,7941
102859	10,425	-5,	-26,784	10,348
102860	11,08	-5,	-26,611	10,059
102861	10,62	-5,	-27,468	10,353
102862	9,9693	-5,	-27,643	10,667
102863	9,0805	-5,	-29,368	11,385
102864	9,7229	-5,	-29,193	11,015
102865	9,5233	-5,	-28,504	11,011
102866	8,6314	-5,	-30,227	11,795
102867	9,2759	-5,	-30,061	11,391
102868	8,8221	-5,	-30,915	11,799
102869	8,173	-5,	-31,078	12,244
102870	7,1972	-5,	-32,742	13,303
102871	7,8695	-5,	-32,606	12,751
102872	7,6968	-5,	-31,917	12,743
102873	6,665	-5,	-33,549	13,944
102874	7,3571	-5,	-33,435	13,317
102875	6,5321	-5,	-32,855	13,806
102876	6,8117	-5,	-34,244	13,965
102877	-18,107	-5,	12,403	9,8712
102878	-18,768	-5,	12,185	9,9721
102879	-18,525	-5,	11,537	10,258
102880	-17,87	-5,	11,754	10,087
102881	-18,338	-5,	13,06	9,6162
102882	-17,676	-5,	13,272	9,5472
102883	-16,757	-5,	14,995	9,0788
102884	-17,43	-5,	14,8	9,0949
102885	-17,226	-5,	14,137	9,284
102886	-16,283	-5,	15,848	8,9264
102887	-16,957	-5,	15,659	8,9209
102888	-16,083	-5,	15,184	9,0256
102889	-15,813	-5,	16,703	8,822
102890	-16,482	-5,	16,511	8,7982
102891	-15,351	-5,	17,563	8,762
102892	-15,145	-5,	16,895	8,811
102893	-16,022	-5,	17,372	8,7189
102894	-14,893	-5,	18,423	8,7439
102895	-15,56	-5,	18,234	8,6828
102896	-14,435	-5,	19,281	8,765
102897	-14,229	-5,	18,606	8,7726
102898	-15,101	-5,	19,093	8,6865
102899	-13,98	-5,	20,143	8,8221
102900	-14,643	-5,	19,954	8,7268
102901	-13,525	-5,	21,	8,9128
102902	-13,324	-5,	20,325	8,8868
102903	-14,193	-5,	20,82	8,8004
102904	-13,058	-5,	21,852	9,0359
102905	-13,729	-5,	21,671	8,9076
102906	-12,588	-5,	22,708	9,1894
102907	-13,258	-5,	22,523	9,0455
102908	-12,392	-5,	22,027	9,1348
102909	-12,118	-5,	23,579	9,3726
102910	-12,783	-5,	23,387	9,2134
102911	-11,652	-5,	24,464	9,584
102912	-12,313	-5,	24,268	9,4096
102913	-11,848	-5,	25,161	9,6326
102914	-11,191	-5,	25,354	9,8217
102915	-10,925	-5,	26,937	10,152
102916	-10,27	-5,	27,121	10,37
102917	-10,73	-5,	26,24	10,084
102918	-8,896	-5,	29,745	11,382
102919	-9,5477	-5,	29,567	11,117
102920	-9,3553	-5,	28,874	11,017
102921	-8,4339	-5,	30,618	11,78
102922	-9,0867	-5,	30,44	11,496
102923	-7,9539	-5,	31,49	12,22
102924	-8,6212	-5,	31,318	11,913
102925	-8,1312	-5,	32,191	12,377
102926	-7,4577	-5,	32,361	12,707
102927	-7,0637	-5,	33,925	13,49
102928	-6,9125	-5,	33,216	13,253
102929	-6,292	-5,	34,058	13,877
102930	-6,1809	-5,	35,754	14,855
102931	-5,6065	-5,	36,048	15,33
102932	-5,8648	-5,	34,979	14,536
102933	-4,4432	-5,	35,795	15,41
102934	-4,4945	-5,	36,511	15,96
102935	-5,1053	-5,	36,351	15,68
102936	-3,1998	-5,	34,599	14,752
102937	-2,5486	-5,	34,659	14,769
102938	3,9578	-5,	34,389	14,579
102939	3,2802	-5,	34,472	14,668
102940	3,2367	-5,	33,787	14,316
102941	-20,368	-5,	-8,8364	12,168
102942	-19,438	-5,	-9,0359	11,784
102943	-20,016	-5,	-8,6716	12,186
102944	-20,368	-5,	-9,5041	11,643
102945	-17,594	-5,	-8,2879	11,657
102946	-17,32	-5,	-7,6725	11,855
102947	-16,934	-5,	-8,5391	11,32
102948	-13,965	-5,	-2,1987	11,854
102949	-14,357	-5,	-2,7024	12,011
102950	-13,734	-5,	-3,0282	11,588
102951	-14,816	-5,	-4,4235e-002	12,544
102952	-14,282	-5,	-0,49371	12,19
102953	20,177	-5,	9,4494	11,603
102954	19,268	-5,	9,0527	11,674
102955	19,854	-5,	8,7601	12,03
102956	19,517	-5,	9,7235	11,333
102957	17,496	-5,	8,2921	11,548
102958	17,238	-5,	7,666	11,756
102959	14,35	-5,	-1,0637	12,203
102960	14,686	-5,	-1,4884	12,38
102961	13,945	-5,	2,2932	11,811
102962	14,328	-5,	2,7754	11,956
102963	13,698	-5,	3,0552	11,538
102964	19,206	-5,	-9,9191	11,225
102965	19,549	-5,	-10,508	10,911
102966	18,005	-5,	-8,9136	11,476
102967	17,756	-5,	-8,2658	11,733
102968	-19,607	-5,	10,446	10,898
102969	-18,937	-5,	10,671	10,717
102970	-18,68	-5,	10,033	10,989
102971	-19,329	-5,	9,7983	11,255
102972	-18,121	-5,	8,7627	11,518
102973	-17,84	-5,	8,1323	11,761
102974	3,9762	-5,	-34,474	16,643
102975	3,2903	-5,	-34,535	17,304
102976	-3,2252	-5,	-34,437	17,223
102977	-2,557	-5,	-34,533	17,832
102978	-3,1271	-5,	-33,736	16,795
102979	-4,7778	-5,	-35,601	16,489
102980	-5,6218	-5,	-36,143	15,697
102981	-4,8939	-5,	-36,313	16,723
102982	-5,4611	-5,	-35,441	15,711
102983	-14,797	-5,	2,353	12,295
102984	-15,143	-5,	2,9025	12,406
102985	-14,509	-5,	3,2192	11,953
102986	14,798	-5,	-2,6735	12,257
102987	15,16	-5,	-3,1438	12,386
102988	20,422	-5,	10,133	11,193
102989	21,002	-5,	9,2216	11,935
102990	21,084	-5,	9,9279	11,359
102991	-1,8953	-5,	34,702	14,78
102992	-1,249	-5,	34,736	14,749
102993	2,6143	-5,	34,56	14,733
102994	1,952	-5,	34,638	14,738
102995	2,5708	-5,	33,875	14,382
102996	-14,737	-5,	-3,2157	12,111
102997	-15,113	-5,	-3,7418	12,214
102998	-14,114	-5,	-3,5416	11,704
102999	16,974	-5,	7,0599	11,924
103000	16,699	-5,	6,4627	12,061
103001	14,705	-5,	3,2702	12,054
103002	15,079	-5,	3,7634	12,156
103003	14,075	-5,	3,5501	11,649
103004	17,514	-5,	-7,6267	11,951
103005	17,263	-5,	-6,9907	12,15
103006	-17,565	-5,	7,5198	11,958
103007	-17,295	-5,	6,9058	12,143
103008	-16,653	-5,	7,179	11,727
103009	1,3062	-5,	34,697	14,749
103010	0,661	-5,	34,737	14,728
103011	-16,144	-5,	-5,3479	12,276
103012	-16,46	-5,	-5,9116	12,232
103013	15,438	-5,	4,2724	12,204
103014	15,78	-5,	4,7947	12,236
103015	15,143	-5,	5,084	11,788
103016	17,009	-5,	-6,3753	12,312
103017	16,744	-5,	-5,7739	12,427
103018	16,1	-5,	-6,0729	11,987
103019	-17,022	-5,	6,3171	12,287
103020	-16,749	-5,	5,7237	12,4
103021	-16,38	-5,	6,5903	11,855
103022	1,3171	-5,	-34,682	18,595
103023	0,66771	-5,	-34,711	18,841
103024	-16,155	-5,	4,5741	12,512
103025	-16,461	-5,	5,1467	12,485
103026	16,165	-5,	-4,6523	12,53
103027	16,465	-5,	-5,2013	12,51
103028	15,527	-5,	-4,9595	12,086
103029	15,821	-5,	-5,5003	12,052
103030	-5,7726	-5,	-36,853	15,692
103031	-5,0447	-5,	-37,024	16,689
103032	-5,1627	-5,	-37,758	16,71
103033	-5,9528	-5,	-37,548	15,462
103034	-21,107	-5,	-8,6305	12,47
103035	-20,457	-5,	-8,2823	12,597
103036	-21,044	-5,	-7,9947	13,061
103037	-3,826	-5,	35,208	15,081
103038	-3,8401	-5,	35,912	15,541
103039	-3,2022	-5,	35,289	15,13
103040	4,7254	-5,	34,989	14,822
103041	3,9963	-5,	35,074	14,978
103042	5,5851	-5,	35,613	15,001
103043	4,7553	-5,	35,664	15,27
103044	-18,5	-5,	-8,6563	11,761
103045	-19,116	-5,	-8,3726	12,13
103046	-18,238	-5,	-8,0109	12,038
103047	-14,571	-5,	-1,8473	12,272
103048	-14,146	-5,	-1,3493	12,056
103049	18,388	-5,	8,6609	11,656
103050	19,015	-5,	8,3712	12,035
103051	18,129	-5,	8,0178	11,928
103052	14,964	-5,	-0,76104	12,61
103053	14,571	-5,	2,0145	12,23
103054	14,19	-5,	1,5569	12,052
103055	18,943	-5,	-9,2696	11,528
103056	18,665	-5,	-8,6239	11,84
103057	19,937	-5,	-9,6002	11,518
103058	19,606	-5,	-8,9757	11,882
103059	-18,754	-5,	8,5138	11,867
103060	-18,399	-5,	9,3925	11,279
103061	-19,048	-5,	9,1582	11,555
103062	4,7565	-5,	-35,103	16,27
103063	4,8094	-5,	-35,766	16,597
103064	5,6277	-5,	-35,832	15,591
103065	4,0247	-5,	-35,144	17,094
103066	-3,9832	-5,	-35,025	16,994
103067	-3,2982	-5,	-35,132	17,773
103068	-4,0694	-5,	-35,728	17,422
103069	-15,044	-5,	1,4403	12,577
103070	-15,216	-5,	0,47409	12,759
103071	-15,621	-5,	1,0531	13,001
103072	-15,423	-5,	2,0254	12,75
103073	15,057	-5,	-1,9158	12,539
103074	15,3	-5,	-1,1858	12,775
103075	15,677	-5,	-1,5896	12,98
103076	15,43	-5,	-2,3539	12,71
103077	5,4964	-5,	36,274	15,509
103078	6,63	-5,	36,146	14,885
103079	6,0703	-5,	36,499	15,475
103080	6,3639	-5,	35,478	14,651
103081	7,5355	-5,	33,694	13,216
103082	7,7196	-5,	34,385	13,402
103083	6,975	-5,	34,572	13,87
103084	8,076	-5,	32,819	12,642
103085	8,2619	-5,	33,512	12,793
103086	8,594	-5,	31,947	12,136
103087	8,7802	-5,	32,642	12,261
103088	9,0935	-5,	31,074	11,684
103089	9,2839	-5,	31,77	11,788
103090	9,572	-5,	30,209	11,281
103091	9,7693	-5,	30,898	11,365
103092	10,044	-5,	29,346	10,915
103093	10,241	-5,	30,038	10,987
103094	10,52	-5,	28,482	10,577
103095	10,713	-5,	29,167	10,638
103096	10,993	-5,	27,618	10,267
103097	11,19	-5,	28,306	10,317
103098	11,465	-5,	26,751	9,983
103099	11,661	-5,	27,435	10,022
103100	10,793	-5,	26,925	10,185
103101	11,935	-5,	25,883	9,7238
103102	12,135	-5,	26,57	9,7518
103103	12,407	-5,	25,015	9,489
103104	12,6	-5,	25,698	9,5081
103105	12,88	-5,	24,148	9,2795
103106	13,081	-5,	24,831	9,2851
103107	12,213	-5,	24,334	9,4393
103108	13,352	-5,	23,279	9,096
103109	13,547	-5,	23,96	9,0907
103110	13,822	-5,	22,414	8,9408
103111	14,027	-5,	23,092	8,9195
103112	13,151	-5,	22,602	9,0713
103113	14,294	-5,	21,545	8,8136
103114	14,491	-5,	22,224	8,7793
103115	14,769	-5,	20,678	8,7171
103116	14,973	-5,	21,353	8,6647
103117	14,096	-5,	20,868	8,8163
103118	15,241	-5,	19,81	8,6542
103119	15,44	-5,	20,487	8,5844
103120	15,716	-5,	18,943	8,6265
103121	15,92	-5,	19,615	8,5357
103122	15,041	-5,	19,136	8,6919
103123	16,39	-5,	18,752	8,5242
103124	16,189	-5,	18,076	8,6377
103125	17,34	-5,	17,019	8,6198
103126	17,136	-5,	16,35	8,7853
103127	16,663	-5,	17,211	8,6896
103128	18,081	-5,	14,614	9,1271
103129	17,61	-5,	15,486	8,9292
103130	18,288	-5,	15,286	8,8973
103131	18,552	-5,	13,743	9,382
103132	18,757	-5,	14,408	9,1185
103133	19,028	-5,	12,872	9,6988
103134	19,232	-5,	13,543	9,3935
103135	19,502	-5,	11,988	10,091
103136	19,703	-5,	12,664	9,7406
103137	19,965	-5,	11,084	10,577
103138	20,173	-5,	11,775	10,168
103139	20,63	-5,	10,861	10,701
103140	19,762	-5,	10,408	10,936
103141	-6,3251	-5,	-35,96	14,857
103142	-6,5075	-5,	-36,657	14,688
103143	-6,8516	-5,	-35,074	14,129
103144	-7,0355	-5,	-35,772	14,007
103145	-6,1644	-5,	-35,259	14,85
103146	-7,3608	-5,	-34,191	13,488
103147	-7,5501	-5,	-34,889	13,392
103148	-7,855	-5,	-33,32	12,917
103149	-8,0485	-5,	-34,013	12,841
103150	-8,34	-5,	-32,458	12,403
103151	-8,5331	-5,	-33,148	12,342
103152	-8,81	-5,	-31,605	11,94
103153	-9,008	-5,	-32,296	11,888
103154	-9,2754	-5,	-30,755	11,517
103155	-9,4708	-5,	-31,442	11,474
103156	-9,7411	-5,	-29,904	11,126
103157	-9,9408	-5,	-30,592	11,086
103158	-10,206	-5,	-29,052	10,766
103159	-10,403	-5,	-29,736	10,73
103160	-10,671	-5,	-28,2	10,434
103161	-10,873	-5,	-28,883	10,398
103162	-11,335	-5,	-28,026	10,095
103163	-11,135	-5,	-27,346	10,131
103164	-12,065	-5,	-25,639	9,6045
103165	-12,267	-5,	-26,314	9,5632
103166	-11,601	-5,	-26,492	9,8541
103167	-12,533	-5,	-24,782	9,3799
103168	-12,736	-5,	-25,459	9,3338
103169	-12,999	-5,	-23,924	9,1825
103170	-13,204	-5,	-24,597	9,13
103171	-13,465	-5,	-23,066	9,0125
103172	-13,67	-5,	-23,742	8,9529
103173	-12,798	-5,	-23,247	9,1942
103174	-13,937	-5,	-22,206	8,8696
103175	-14,139	-5,	-22,879	8,8017
103176	-14,406	-5,	-21,35	8,7575
103177	-14,61	-5,	-22,022	8,6779
103178	-14,87	-5,	-20,496	8,6775
103179	-15,076	-5,	-21,163	8,5848
103180	-15,337	-5,	-19,641	8,6301
103181	-15,542	-5,	-20,309	8,5224
103182	-15,804	-5,	-18,786	8,6178
103183	-16,012	-5,	-19,449	8,4928
103184	-16,27	-5,	-17,933	8,6432
103185	-16,477	-5,	-18,596	8,4987
103186	-16,945	-5,	-17,744	8,5418
103187	-16,736	-5,	-17,083	8,7082
103188	-17,667	-5,	-15,393	8,968
103189	-17,878	-5,	-16,047	8,7511
103190	-17,201	-5,	-16,24	8,815
103191	-18,13	-5,	-14,546	9,1708
103192	-18,34	-5,	-15,2	8,9245
103193	-18,806	-5,	-14,354	9,1479
103194	-18,591	-5,	-13,704	9,4258
103195	-19,504	-5,	-12,005	10,124
103196	-19,715	-5,	-12,668	9,7662
103197	-19,048	-5,	-12,86	9,7395
103198	-19,972	-5,	-11,136	10,591
103199	-20,163	-5,	-11,819	10,178
103200	-20,613	-5,	-10,972	10,669
103201	-20,511	-5,	-10,24	11,178
103202	20,28	-5,	-10,189	11,191
103203	20,614	-5,	-9,3142	11,854
103204	20,963	-5,	-9,9423	11,387
103205	20,594	-5,	-10,809	10,774
103206	19,945	-5,	-11,054	10,636
103207	19,086	-5,	-12,737	9,7912
103208	19,769	-5,	-12,531	9,8287
103209	19,549	-5,	-11,908	10,171
103210	18,625	-5,	-13,557	9,4793
103211	19,304	-5,	-13,369	9,483
103212	18,394	-5,	-12,894	9,7246
103213	18,169	-5,	-14,392	9,2173
103214	18,84	-5,	-14,203	9,1989
103215	17,714	-5,	-15,244	9,0036
103216	18,384	-5,	-15,051	8,9653
103217	16,793	-5,	-16,964	8,722
103218	17,464	-5,	-16,771	8,643
103219	17,255	-5,	-16,103	8,839
103220	16,331	-5,	-17,825	8,6488
103221	16,999	-5,	-17,634	8,5512
103222	15,878	-5,	-18,688	8,615
103223	16,54	-5,	-18,496	8,5
103224	15,665	-5,	-18,016	8,7082
103225	15,436	-5,	-19,56	8,6162
103226	16,089	-5,	-19,361	8,4851
103227	14,984	-5,	-20,433	8,6551
103228	15,643	-5,	-20,24	8,5037
103229	14,786	-5,	-19,76	8,7143
103230	14,516	-5,	-21,291	8,732
103231	15,178	-5,	-21,102	8,5616
103232	14,043	-5,	-22,141	8,8416
103233	14,71	-5,	-21,962	8,6516
103234	13,852	-5,	-21,475	8,8732
103235	13,571	-5,	-22,995	8,9807
103236	14,237	-5,	-22,813	8,7726
103237	13,109	-5,	-23,854	9,1453
103238	13,77	-5,	-23,673	8,9198
103239	12,649	-5,	-24,716	9,3366
103240	13,308	-5,	-24,532	9,092
103241	12,191	-5,	-25,576	9,5537
103242	12,849	-5,	-25,399	9,2889
103243	11,275	-5,	-27,295	10,066
103244	11,734	-5,	-26,435	9,7961
103245	11,932	-5,	-27,121	9,7563
103246	10,368	-5,	-29,018	10,679
103247	11,018	-5,	-28,841	10,321
103248	10,819	-5,	-28,154	10,36
103249	10,169	-5,	-28,329	10,671
103250	9,9183	-5,	-29,886	11,025
103251	10,565	-5,	-29,703	10,639
103252	9,4665	-5,	-30,749	11,401
103253	10,115	-5,	-30,572	10,982
103254	9,0055	-5,	-31,608	11,812
103255	9,6586	-5,	-31,433	11,353
103256	8,529	-5,	-32,46	12,267
103257	9,1918	-5,	-32,294	11,76
103258	8,3564	-5,	-31,771	12,25
103259	8,0294	-5,	-33,299	12,775
103260	8,7085	-5,	-33,144	12,208
103261	7,5038	-5,	-34,13	13,352
103262	8,1982	-5,	-33,986	12,71
103263	6,956	-5,	-34,957	14,007
103264	7,6741	-5,	-34,822	13,267
103265	7,1595	-5,	-35,668	13,863
103266	6,3826	-5,	-35,804	14,771
103267	-20,279	-5,	10,214	11,128
103268	-20,656	-5,	9,3154	11,807
103269	-20,965	-5,	9,9868	11,311
103270	-20,001	-5,	9,5663	11,495
103271	-19,865	-5,	11,094	10,568
103272	-20,545	-5,	10,88	10,688
103273	-19,438	-5,	11,968	10,101
103274	-20,11	-5,	11,758	10,18
103275	-19,195	-5,	11,32	10,394
103276	-18,999	-5,	12,843	9,7115
103277	-19,664	-5,	12,63	9,7593
103278	-18,556	-5,	13,723	9,3887
103279	-19,22	-5,	13,51	9,4082
103280	-18,099	-5,	14,597	9,1311
103281	-18,767	-5,	14,393	9,1229
103282	-17,894	-5,	13,934	9,3247
103283	-18,305	-5,	15,263	8,9018
103284	-17,63	-5,	15,464	8,9328
103285	-17,359	-5,	16,981	8,6241
103286	-17,156	-5,	16,322	8,7887
103287	-16,691	-5,	17,179	8,6912
103288	-16,437	-5,	18,714	8,52
103289	-16,231	-5,	18,042	8,636
103290	-15,768	-5,	18,903	8,6219
103291	-15,518	-5,	20,443	8,5705
103292	-14,855	-5,	20,631	8,7023
103293	-15,309	-5,	19,766	8,6451
103294	-14,601	-5,	22,16	8,7532
103295	-13,929	-5,	22,342	8,9152
103296	-14,397	-5,	21,491	8,7929
103297	-13,646	-5,	23,88	9,0598
103298	-13,453	-5,	23,201	9,068
103299	-12,978	-5,	24,076	9,2495
103300	-12,041	-5,	25,859	9,6922
103301	-12,703	-5,	25,657	9,4742
103302	-12,508	-5,	24,965	9,4579
103303	-11,579	-5,	26,75	9,9503
103304	-11,384	-5,	26,053	9,881
103305	-12,24	-5,	26,551	9,7179
103306	-11,12	-5,	27,634	10,232
103307	-11,779	-5,	27,439	9,9852
103308	-10,663	-5,	28,514	10,538
103309	-11,319	-5,	28,323	10,277
103310	-10,465	-5,	27,818	10,448
103311	-10,858	-5,	29,203	10,594
103312	-10,202	-5,	29,388	10,871
103313	-10,009	-5,	28,694	10,768
103314	-9,274	-5,	31,14	11,634
103315	-9,9311	-5,	30,955	11,316
103316	-9,7385	-5,	30,262	11,235
103317	-8,7985	-5,	32,019	12,077
103318	-9,4634	-5,	31,834	11,731
103319	-8,2952	-5,	32,898	12,578
103320	-8,9777	-5,	32,714	12,197
103321	-7,7729	-5,	33,776	13,146
103322	-7,6217	-5,	33,067	12,9
103323	-8,467	-5,	33,596	12,727
103324	-7,2684	-5,	34,652	13,777
103325	-7,9544	-5,	34,477	13,325
103326	-6,8128	-5,	35,561	14,488
103327	-7,4713	-5,	35,367	13,993
103328	-6,4967	-5,	34,785	14,149
103329	-6,3899	-5,	36,531	15,335
103330	-7,0179	-5,	36,299	14,77
103331	-21,67	-5,	-8,3495	12,905
103332	-21,792	-5,	-8,911	12,344
103333	-21,106	-5,	-9,2983	11,936
103334	21,59	-5,	8,369	12,815
103335	21,702	-5,	9,0488	12,149
103336	-4,5798	-5,	37,222	16,557
103337	-3,8914	-5,	36,629	16,087
103338	-3,9512	-5,	37,355	16,737
103339	-2,5509	-5,	35,348	15,148
103340	-1,9054	-5,	35,403	15,09
103341	3,3187	-5,	35,157	15,066
103342	2,6363	-5,	35,248	15,079
103343	5,2391	-5,	38,161	17,371
103344	5,7213	-5,	37,968	16,881
103345	4,6665	-5,	36,324	15,777
103346	4,5704	-5,	36,991	16,353
103347	-19,693	-5,	-8,0084	12,56
103348	-20,276	-5,	-7,6779	13,041
103349	-17,964	-5,	-7,3955	12,254
103350	-17,671	-5,	-6,7863	12,435
103351	-17,046	-5,	-7,0745	12,014
103352	-14,963	-5,	-2,351	12,412
103353	-15,356	-5,	-2,8827	12,562
103354	-15,26	-5,	-0,50527	12,788
103355	-15,811	-5,	-6,3429e-003	13,172
103356	19,601	-5,	8,0786	12,412
103357	20,182	-5,	7,7555	12,883
103358	17,87	-5,	7,3917	12,153
103359	17,606	-5,	6,7712	12,353
103360	14,953	-5,	2,4967	12,362
103361	15,337	-5,	2,9693	12,506
103362	18,416	-5,	-7,9761	12,114
103363	18,159	-5,	-7,327	12,377
103364	20,283	-5,	-8,6897	12,234
103365	21,395	-5,	-9,0633	12,142
103366	20,92	-5,	-8,3918	12,667
103367	-18,474	-5,	7,8833	12,125
103368	-18,198	-5,	7,2496	12,375
103369	-20,339	-5,	8,6598	12,213
103370	-21,369	-5,	9,0781	12,073
103371	-20,954	-5,	8,3847	12,627
103372	4,8098	-5,	-36,405	16,801
103373	4,7325	-5,	-37,042	17,203
103374	5,2758	-5,	-36,973	16,37
103375	5,6281	-5,	-36,47	15,82
103376	3,3387	-5,	-35,205	17,731
103377	2,6561	-5,	-35,269	18,432
103378	2,6232	-5,	-34,589	17,789
103379	-2,63	-5,	-35,228	18,356
103380	-1,9454	-5,	-35,299	18,969
103381	-1,9077	-5,	-34,615	18,249
103382	-4,1854	-5,	-36,441	17,622
103383	-4,2627	-5,	-37,115	17,933
103384	-15,768	-5,	2,5748	12,842
103385	-16,119	-5,	3,1309	12,943
103386	-15,485	-5,	3,4515	12,463
103387	15,791	-5,	-2,8243	12,823
103388	16,147	-5,	-3,3042	12,938
103389	15,512	-5,	-3,6204	12,464
103390	-1,2591	-5,	35,437	15,061
103391	-0,61341	-5,	35,45	14,998
103392	-0,60958	-5,	34,754	14,741
103393	1,974	-5,	35,326	15,085
103394	1,3179	-5,	35,392	15,027
103395	4,8183	-5,	38,185	17,539
103396	4,3983	-5,	37,666	17,046
103397	4,3321	-5,	38,347	17,84
103398	-21,607	-5,	-7,7137	13,518
103399	-20,863	-5,	-7,3903	13,53
103400	-21,455	-5,	-7,1123	14,161
103401	-15,732	-5,	-3,4088	12,646
103402	-16,099	-5,	-3,9463	12,729
103403	-15,476	-5,	-4,2674	12,264
103404	17,331	-5,	6,174	12,51
103405	17,044	-5,	5,5899	12,614
103406	16,414	-5,	5,8868	12,164
103407	15,711	-5,	3,4625	12,593
103408	16,074	-5,	3,9655	12,676
103409	15,889	-5,	-0,84551	13,186
103410	17,909	-5,	-6,691	12,597
103411	17,653	-5,	-6,0635	12,774
103412	21,901	-5,	-8,7053	12,567
103413	22,116	-5,	-8,1768	13,188
103414	21,427	-5,	-8,0338	13,123
103415	21,984	-5,	-7,6836	13,744
103416	-17,928	-5,	6,6356	12,579
103417	-17,664	-5,	6,0205	12,75
103418	1,9962	-5,	-35,321	18,909
103419	1,3343	-5,	-35,369	19,373
103420	1,9633	-5,	-34,641	18,288
103421	-1,2856	-5,	-35,354	19,34
103422	-0,61795	-5,	-35,392	19,634
103423	-0,61259	-5,	-34,704	18,827
103424	-1,2479	-5,	-34,671	18,639
103425	-16,463	-5,	3,6912	12,978
103426	-16,797	-5,	4,26	13,008
103427	-15,83	-5,	4,0118	12,519
103428	16,484	-5,	-3,8055	12,985
103429	16,809	-5,	-4,3306	13,023
103430	15,85	-5,	-4,1216	12,53
103431	-6,5723	-5,	37,273	15,713
103432	-5,9307	-5,	37,518	16,385
103433	-5,8155	-5,	36,824	15,791
103434	-5,3058	-5,	37,757	16,861
103435	-4,6513	-5,	37,945	17,335
103436	-5,1906	-5,	37,063	16,289
103437	6,4016	-5,	-37,551	14,842
103438	5,8122	-5,	-37,843	15,685
103439	5,7002	-5,	-37,298	15,835
103440	6,0524	-5,	-36,795	15,284
103441	4,5824	-5,	-37,653	17,563
103442	5,2377	-5,	-38,13	16,579
103443	4,6073	-5,	-38,307	17,682
103444	5,1257	-5,	-37,585	16,741
103445	0,68489	-5,	-35,398	19,607
103446	2,9949e-002	-5,	-35,406	19,711
103447	3,5312e-002	-5,	-34,718	18,908
103448	-4,3807	-5,	-37,849	17,91
103449	-4,7881	-5,	-38,741	17,342
103450	-5,3943	-5,	-38,444	16,306
103451	-4,2893	-5,	-38,443	18,248
103452	-6,1844	-5,	-38,234	15,086
103453	-6,8967	-5,	-38,041	14,104
103454	-6,6877	-5,	-37,353	14,478
103455	-21,936	-5,	8,7097	12,539
103456	-21,521	-5,	8,0163	13,126
103457	-22,319	-5,	8,2974	13,031
103458	-22,09	-5,	7,6597	13,765
103459	-17,103	-5,	4,8326	12,958
103460	-17,391	-5,	5,4271	12,886
103461	17,109	-5,	-4,8797	12,981
103462	17,388	-5,	-5,4621	12,914
103463	16,739	-5,	5,0315	12,685
103464	16,416	-5,	4,4878	12,69
103465	16,109	-5,	5,3284	12,216
103466	-16,776	-5,	-5,042	12,744
103467	-16,444	-5,	-4,4843	12,744
103468	-15,821	-5,	-4,8054	12,298
103469	2,4388e-002	-5,	35,449	14,985
103470	0,67262	-5,	35,431	15,007
103471	2,822e-002	-5,	34,754	14,728
103472	5,3492	-5,	38,675	17,858
103473	4,8161	-5,	38,816	18,379
103474	5,8314	-5,	38,482	17,389
103475	6,3321	-5,	38,17	16,637
103476	6,0464	-5,	37,542	16,325
103477	-22,287	-5,	-8,0293	13,384
103478	-22,142	-5,	-7,4347	14,13
103479	7,091	-5,	36,831	15,117
103480	6,8169	-5,	37,812	16,012
103481	7,3948	-5,	37,546	15,286
103482	6,5312	-5,	37,184	15,678
103483	21,454	-5,	7,7331	13,381
103484	22,186	-5,	8,1588	13,151
103485	22,037	-5,	7,474	13,982
103486	20,721	-5,	7,3891	13,414
103487	21,297	-5,	7,0733	14,062
103488	-4,3727	-5,	-39,243	18,107
103489	-3,8739	-5,	-38,945	19,031
103490	-3,8316	-5,	-39,51	19,252
103491	-3,2163	-5,	35,993	15,589
103492	-3,2578	-5,	36,717	16,084
103493	-2,5791	-5,	36,057	15,524
103494	4,0262	-5,	35,748	15,423
103495	3,3314	-5,	35,836	15,473
103496	3,9992	-5,	36,418	15,907
103497	-18,854	-5,	-7,7272	12,427
103498	-19,458	-5,	-7,4199	12,881
103499	-18,583	-5,	-7,0992	12,69
103500	-15,152	-5,	-1,4528	12,652
103501	-15,567	-5,	-1,9985	12,857
103502	-15,723	-5,	-1,0534	13,071
103503	-14,727	-5,	-0,95474	12,456
103504	18,756	-5,	7,7281	12,327
103505	19,359	-5,	7,4232	12,779
103506	18,489	-5,	7,0971	12,591
103507	15,183	-5,	1,7418	12,627
103508	15,574	-5,	2,1875	12,812
103509	15,784	-5,	1,4207	13,058
103510	14,802	-5,	1,2841	12,462
103511	19,328	-5,	-8,33	12,211
103512	19,06	-5,	-7,6719	12,55
103513	19,968	-5,	-8,0302	12,652
103514	-19,39	-5,	8,2662	12,214
103515	-19,101	-5,	7,6151	12,545
103516	-20,01	-5,	7,9983	12,634
103517	-19,683	-5,	8,9107	11,887
103518	4,0777	-5,	-35,807	17,394
103519	4,0818	-5,	-36,462	17,842
103520	3,369	-5,	-35,875	18,286
103521	-3,3844	-5,	-35,835	18,169
103522	-2,6779	-5,	-35,908	19,005
103523	-3,431	-5,	-36,525	18,707
103524	-16,387	-5,	2,2389	13,311
103525	-16,	-5,	1,6382	13,148
103526	16,831	-5,	-0,88713	13,767
103527	16,266	-5,	-1,2493	13,375
103528	16,418	-5,	-2,4886	13,292
103529	16,049	-5,	-2,0276	13,134
103530	7,4401	-5,	35,927	14,353
103531	7,7157	-5,	36,609	14,492
103532	7,9186	-5,	35,071	13,64
103533	8,1458	-5,	35,752	13,774
103534	7,174	-5,	35,258	14,092
103535	8,4459	-5,	34,203	12,99
103536	8,65	-5,	34,89	13,109
103537	9,161	-5,	34,023	12,521
103538	8,9662	-5,	33,334	12,421
103539	9,9597	-5,	31,594	11,475
103540	10,161	-5,	32,285	11,538
103541	9,4701	-5,	32,465	11,921
103542	10,438	-5,	30,726	11,076
103543	10,638	-5,	31,414	11,126
103544	10,91	-5,	29,859	10,713
103545	11,114	-5,	30,547	10,751
103546	11,383	-5,	28,991	10,38
103547	11,585	-5,	29,677	10,408
103548	11,859	-5,	28,124	10,073
103549	12,061	-5,	28,809	10,09
103550	12,332	-5,	27,254	9,792
103551	12,534	-5,	27,938	9,7986
103552	12,8	-5,	26,384	9,5369
103553	13,003	-5,	27,067	9,5331
103554	13,273	-5,	25,514	9,3043
103555	13,472	-5,	26,195	9,2906
103556	13,748	-5,	24,644	9,0959
103557	13,951	-5,	25,324	9,0688
103558	14,222	-5,	23,773	8,9132
103559	14,421	-5,	24,453	8,874
103560	14,696	-5,	22,903	8,7567
103561	14,899	-5,	23,581	8,7022
103562	15,17	-5,	22,032	8,6285
103563	15,37	-5,	22,71	8,559
103564	15,645	-5,	21,162	8,5297
103565	15,848	-5,	21,838	8,4423
103566	16,119	-5,	20,292	8,4632
103567	16,32	-5,	20,968	8,3569
103568	16,594	-5,	19,423	8,4305
103569	16,796	-5,	20,096	8,3029
103570	17,068	-5,	18,554	8,435
103571	17,27	-5,	19,228	8,2838
103572	17,543	-5,	17,685	8,4788
103573	17,745	-5,	18,355	8,3024
103574	16,866	-5,	17,878	8,5517
103575	18,017	-5,	16,817	8,5661
103576	18,22	-5,	17,488	8,3606
103577	18,694	-5,	16,616	8,4642
103578	17,813	-5,	16,149	8,735
103579	18,491	-5,	15,949	8,6997
103580	19,437	-5,	14,209	9,1264
103581	19,641	-5,	14,875	8,8198
103582	18,964	-5,	15,079	8,8849
103583	19,907	-5,	13,336	9,4311
103584	20,115	-5,	14,006	9,0817
103585	20,583	-5,	13,126	9,4149
103586	20,374	-5,	12,452	9,8127
103587	21,292	-5,	10,656	10,86
103588	21,511	-5,	11,339	10,342
103589	20,838	-5,	11,552	10,286
103590	21,784	-5,	9,7552	11,568
103591	21,964	-5,	10,445	10,965
103592	22,297	-5,	8,8386	12,475
103593	22,46	-5,	9,5282	11,753
103594	-7,9295	-5,	-36,277	13,066
103595	-7,218	-5,	-36,47	13,854
103596	-7,734	-5,	-35,587	13,282
103597	-8,7266	-5,	-33,841	12,275
103598	-8,9293	-5,	-34,531	12,127
103599	-8,2378	-5,	-34,71	12,756
103600	-9,2011	-5,	-32,986	11,836
103601	-9,4031	-5,	-33,67	11,712
103602	-9,6687	-5,	-32,132	11,429
103603	-9,8707	-5,	-32,819	11,322
103604	-10,136	-5,	-31,278	11,048
103605	-10,339	-5,	-31,959	10,953
103606	-10,603	-5,	-30,423	10,695
103607	-10,806	-5,	-31,106	10,607
103608	-11,07	-5,	-29,566	10,366
103609	-11,274	-5,	-30,246	10,284
103610	-11,536	-5,	-28,71	10,062
103611	-11,745	-5,	-29,389	9,9811
103612	-12,004	-5,	-27,852	9,7818
103613	-12,209	-5,	-28,53	9,7039
103614	-12,47	-5,	-26,993	9,5258
103615	-12,679	-5,	-27,671	9,4461
103616	-11,805	-5,	-27,171	9,8151
103617	-12,938	-5,	-26,134	9,2935
103618	-13,144	-5,	-26,809	9,2128
103619	-13,408	-5,	-25,274	9,0843
103620	-13,61	-5,	-25,951	9,0012
103621	-13,875	-5,	-24,414	8,9003
103622	-14,077	-5,	-25,089	8,8117
103623	-14,547	-5,	-24,23	8,645
103624	-14,344	-5,	-23,555	8,7415
103625	-15,28	-5,	-21,836	8,5038
103626	-15,484	-5,	-22,508	8,3865
103627	-14,812	-5,	-22,695	8,6089
103628	-15,748	-5,	-20,976	8,4279
103629	-15,952	-5,	-21,647	8,2973
103630	-16,421	-5,	-20,788	8,2366
103631	-16,217	-5,	-20,117	8,383
103632	-17,151	-5,	-18,407	8,3948
103633	-17,358	-5,	-19,069	8,2107
103634	-16,685	-5,	-19,259	8,3714
103635	-17,617	-5,	-17,557	8,4558
103636	-17,825	-5,	-18,216	8,2493
103637	-18,085	-5,	-16,704	8,5581
103638	-18,293	-5,	-17,36	8,3269
103639	-17,409	-5,	-16,897	8,6248
103640	-18,551	-5,	-15,854	8,7049
103641	-18,761	-5,	-16,506	8,4461
103642	-19,015	-5,	-15,008	8,8987
103643	-19,226	-5,	-15,655	8,611
103644	-19,477	-5,	-14,163	9,145
103645	-19,692	-5,	-14,808	8,8241
103646	-19,929	-5,	-13,321	9,4494
103647	-20,15	-5,	-13,963	9,0925
103648	-19,262	-5,	-13,513	9,4258
103649	-20,374	-5,	-12,483	9,8171
103650	-20,602	-5,	-13,125	9,4192
103651	-20,804	-5,	-11,655	10,254
103652	-21,042	-5,	-12,295	9,812
103653	-21,26	-5,	-10,915	10,71
103654	-21,473	-5,	-11,492	10,265
103655	-21,736	-5,	-10,186	11,243
103656	-21,932	-5,	-10,758	10,752
103657	-21,158	-5,	-10,182	11,214
103658	-22,073	-5,	-9,3984	11,931
103659	-22,378	-5,	-9,9642	11,387
103660	-21,387	-5,	-9,7857	11,541
103661	-22,408	-5,	-8,5908	12,803
103662	-22,684	-5,	-9,1688	12,155
103663	21,743	-5,	-9,6914	11,666
103664	22,475	-5,	-9,5325	11,785
103665	22,374	-5,	-8,9919	12,358
103666	21,278	-5,	-10,563	10,962
103667	21,965	-5,	-10,36	11,062
103668	20,873	-5,	-11,437	10,384
103669	21,536	-5,	-11,224	10,443
103670	20,442	-5,	-12,305	9,9062
103671	21,11	-5,	-12,094	9,9232
103672	20,223	-5,	-11,682	10,253
103673	19,986	-5,	-13,163	9,5169
103674	20,659	-5,	-12,96	9,497
103675	19,52	-5,	-14,015	9,1999
103676	20,193	-5,	-13,816	9,1522
103677	19,727	-5,	-14,67	8,8722
103678	19,056	-5,	-14,862	8,9441
103679	18,133	-5,	-16,579	8,5812
103680	18,804	-5,	-16,383	8,4727
103681	17,924	-5,	-15,91	8,7801
103682	18,594	-5,	-15,717	8,7389
103683	17,671	-5,	-17,441	8,4695
103684	18,342	-5,	-17,247	8,3435
103685	17,209	-5,	-18,304	8,3998
103686	17,878	-5,	-18,11	8,2578
103687	16,751	-5,	-19,169	8,3678
103688	17,417	-5,	-18,975	8,2111
103689	16,957	-5,	-19,84	8,2
103690	16,296	-5,	-20,04	8,3704
103691	15,372	-5,	-21,774	8,4797
103692	16,034	-5,	-21,574	8,2775
103693	15,837	-5,	-20,909	8,4083
103694	14,904	-5,	-22,635	8,5815
103695	15,569	-5,	-22,441	8,3623
103696	15,102	-5,	-23,301	8,4752
103697	14,436	-5,	-23,491	8,7111
103698	14,172	-5,	-25,026	8,7751
103699	13,969	-5,	-24,351	8,8664
103700	13,508	-5,	-25,215	9,0447
103701	13,254	-5,	-26,754	9,1633
103702	12,394	-5,	-26,254	9,5085
103703	12,592	-5,	-26,941	9,4702
103704	13,052	-5,	-26,077	9,2447
103705	11,674	-5,	-28,665	9,9896
103706	12,333	-5,	-28,481	9,6403
103707	11,475	-5,	-27,977	10,026
103708	12,133	-5,	-27,803	9,7185
103709	11,215	-5,	-29,526	10,284
103710	11,871	-5,	-29,346	9,912
103711	11,413	-5,	-30,206	10,203
103712	10,761	-5,	-30,389	10,599
103713	9,845	-5,	-32,12	11,307
103714	10,498	-5,	-31,937	10,847
103715	10,307	-5,	-31,256	10,939
103716	9,3713	-5,	-32,979	11,708
103717	10,032	-5,	-32,799	11,206
103718	8,8773	-5,	-33,831	12,151
103719	9,556	-5,	-33,661	11,593
103720	8,3685	-5,	-34,678	12,637
103721	9,056	-5,	-34,514	12,019
103722	7,8775	-5,	-35,534	13,137
103723	8,5553	-5,	-35,365	12,469
103724	7,3985	-5,	-36,385	13,653
103725	8,0827	-5,	-36,229	12,91
103726	6,9707	-5,	-37,277	14,111
103727	7,6077	-5,	-37,084	13,361
103728	6,6216	-5,	-36,521	14,542
103729	-21,677	-5,	9,7495	11,568
103730	-22,294	-5,	8,8862	12,428
103731	-22,385	-5,	9,5528	11,725
103732	-21,231	-5,	10,653	10,864
103733	-21,915	-5,	10,445	10,966
103734	-20,79	-5,	11,544	10,295
103735	-21,471	-5,	11,336	10,349
103736	-21,012	-5,	12,211	9,8506
103737	-20,337	-5,	12,42	9,8332
103738	-20,098	-5,	13,963	9,1036
103739	-19,432	-5,	14,18	9,1382
103740	-19,886	-5,	13,298	9,4514
103741	-18,507	-5,	15,927	8,7029
103742	-19,179	-5,	15,723	8,6205
103743	-18,974	-5,	15,059	8,8899
103744	-18,035	-5,	16,787	8,5694
103745	-18,707	-5,	16,587	8,4692
103746	-17,832	-5,	16,128	8,7373
103747	-17,571	-5,	17,648	8,48
103748	-18,239	-5,	17,452	8,3643
103749	-17,109	-5,	18,519	8,4314
103750	-17,78	-5,	18,322	8,2999
103751	-16,903	-5,	17,847	8,5503
103752	-16,642	-5,	19,388	8,4236
103753	-17,313	-5,	19,196	8,2773
103754	-16,183	-5,	20,255	8,4512
103755	-16,851	-5,	20,062	8,292
103756	-15,973	-5,	19,577	8,5283
103757	-15,727	-5,	21,119	8,5116
103758	-16,393	-5,	20,93	8,3397
103759	-15,268	-5,	21,976	8,6042
103760	-15,936	-5,	21,79	8,4194
103761	-15,065	-5,	21,306	8,6456
103762	-14,799	-5,	22,833	8,7284
103763	-15,469	-5,	22,65	8,5312
103764	-14,32	-5,	23,692	8,8826
103765	-14,995	-5,	23,506	8,6724
103766	-14,127	-5,	23,014	8,8918
103767	-14,512	-5,	24,372	8,8425
103768	-13,841	-5,	24,567	9,0639
103769	-13,565	-5,	26,141	9,2552
103770	-13,368	-5,	25,456	9,2705
103771	-12,902	-5,	26,348	9,5007
103772	-11,978	-5,	28,128	10,032
103773	-12,637	-5,	27,933	9,761
103774	-12,44	-5,	27,24	9,7542
103775	-11,514	-5,	29,012	10,336
103776	-12,173	-5,	28,819	10,05
103777	-11,049	-5,	29,894	10,667
103778	-11,707	-5,	29,702	10,364
103779	-10,586	-5,	30,772	11,026
103780	-11,242	-5,	30,582	10,704
103781	-10,393	-5,	30,079	10,94
103782	-10,121	-5,	31,649	11,419
103783	-10,778	-5,	31,458	11,074
103784	-9,6426	-5,	32,529	11,858
103785	-10,308	-5,	32,338	11,482
103786	-9,8213	-5,	33,218	11,941
103787	-9,1495	-5,	33,412	12,355
103788	-8,8311	-5,	34,991	13,041
103789	-8,1573	-5,	35,191	13,556
103790	-8,6485	-5,	34,297	12,918
103791	-7,2003	-5,	37,041	15,171
103792	-7,8555	-5,	36,818	14,499
103793	-7,6764	-5,	36,105	14,294
103794	22,657	-5,	-7,8872	13,715
103795	22,589	-5,	-8,4633	12,951
103796	-4,0226	-5,	38,078	17,503
103797	-3,3175	-5,	37,443	16,733
103798	-3,3653	-5,	38,191	17,481
103799	-1,9336	-5,	36,112	15,468
103800	-1,2716	-5,	36,138	15,318
103801	2,649	-5,	35,926	15,488
103802	1,9864	-5,	36,017	15,396
103803	3,9031	-5,	37,084	16,487
103804	3,851	-5,	37,772	17,139
103805	-20,04	-5,	-7,0895	13,392
103806	-20,629	-5,	-6,7906	13,989
103807	-18,29	-5,	-6,49	12,894
103808	-17,387	-5,	-6,1918	12,584
103809	-18,011	-5,	-5,8819	13,051
103810	-15,96	-5,	-2,5302	12,986
103811	-16,342	-5,	-3,0691	13,116
103812	-16,793	-5,	0,31914	13,766
103813	-16,274	-5,	-0,5545	13,423
103814	-16,836	-5,	-0,23661	13,796
103815	-16,216	-5,	0,57265	13,382
103816	20,514	-5,	6,7767	13,87
103817	19,941	-5,	7,1001	13,28
103818	18,225	-5,	6,4766	12,814
103819	17,957	-5,	5,8665	12,982
103820	16,337	-5,	3,1442	13,071
103821	15,959	-5,	2,6601	12,94
103822	16,344	-5,	1,0854	13,434
103823	16,88	-5,	0,72641	13,806
103824	18,804	-5,	-7,0228	12,837
103825	18,548	-5,	-6,3789	13,082
103826	20,605	-5,	-7,7322	13,108
103827	21,203	-5,	-7,4101	13,693
103828	-18,56	-5,	6,3449	13,057
103829	-18,825	-5,	6,9814	12,816
103830	-20,626	-5,	7,7232	13,07
103831	-21,217	-5,	7,4063	13,656
103832	4,0044	-5,	-37,099	18,224
103833	3,9861	-5,	-37,773	18,594
103834	2,6863	-5,	-35,94	18,96
103835	2,0133	-5,	-36,009	19,665
103836	-1,9933	-5,	-35,979	19,59
103837	-1,3004	-5,	-36,039	20,153
103838	-3,5082	-5,	-37,199	18,974
103839	-3,5334	-5,	-37,822	19,344
103840	-17,423	-5,	0,35223	14,135
103841	-17,15	-5,	1,0318	13,936
103842	-17,75	-5,	0,7599	14,283
103843	-16,738	-5,	2,795	13,389
103844	-17,096	-5,	3,3612	13,482
103845	17,336	-5,	-0,49154	14,077
103846	17,221	-5,	-1,3153	13,952
103847	17,772	-5,	-0,9258	14,287
103848	16,773	-5,	-2,9686	13,387
103849	17,124	-5,	-3,4679	13,486
103850	-6,712	-5,	38,	16,252
103851	-7,3731	-5,	37,759	15,438
103852	-6,0704	-5,	38,245	16,893
103853	-5,4037	-5,	38,47	17,67
103854	6,5778	-5,	-38,235	14,502
103855	7,1995	-5,	-38,001	13,713
103856	5,9884	-5,	-38,528	15,335
103857	5,3531	-5,	-38,756	16,356
103858	0,69103	-5,	-36,09	20,457
103859	1,3514	-5,	-36,058	20,106
103860	3,6094e-002	-5,	-36,098	20,555
103861	-0,63269	-5,	-36,076	20,433
103862	-5,1382	-5,	-39,441	16,593
103863	-4,5644	-5,	-39,741	17,75
103864	-5,7444	-5,	-39,144	15,581
103865	-6,4206	-5,	-38,93	14,564
103866	-22,864	-5,	8,0195	13,55
103867	-23,023	-5,	8,7027	12,658
103868	-17,743	-5,	4,5136	13,485
103869	-17,43	-5,	3,9299	13,484
103870	-18,03	-5,	5,1082	13,382
103871	-18,297	-5,	5,7299	13,256
103872	17,753	-5,	-4,5514	13,507
103873	17,449	-5,	-3,993	13,499
103874	18,032	-5,	-5,1339	13,409
103875	18,293	-5,	-5,7514	13,288
103876	17,369	-5,	4,7133	13,159
103877	17,67	-5,	5,2824	13,112
103878	17,046	-5,	4,1696	13,188
103879	16,7	-5,	3,6472	13,133
103880	-17,397	-5,	-4,7159	13,209
103881	-17,092	-5,	-5,6058	12,68
103882	-17,716	-5,	-5,2959	13,174
103883	-17,066	-5,	-4,1582	13,235
103884	-16,709	-5,	-3,6067	13,176
103885	2,9325e-002	-5,	36,146	15,215
103886	-0,62591	-5,	36,15	15,256
103887	0,67756	-5,	36,128	15,236
103888	1,3303	-5,	36,083	15,34
103889	-4,0763	-5,	38,823	18,504
103890	-4,7492	-5,	38,659	18,113
103891	5,4892	-5,	39,351	18,702
103892	6,0415	-5,	39,119	17,816
103893	4,3299	-5,	38,978	18,67
103894	4,9561	-5,	39,492	19,179
103895	4,4281	-5,	39,668	19,827
103896	-21,99	-5,	-6,8333	14,801
103897	-21,757	-5,	-6,2136	15,531
103898	-21,22	-5,	-6,5126	14,652
103899	21,88	-5,	6,8143	14,69
103900	21,673	-5,	6,1764	15,457
103901	21,09	-5,	6,461	14,559
103902	-22,87	-5,	-7,7631	13,961
103903	-23,093	-5,	-8,3591	13,13
103904	7,0911	-5,	38,522	16,233
103905	6,5422	-5,	38,807	17,095
103906	22,795	-5,	7,947	13,637
103907	22,961	-5,	8,6288	12,735
103908	22,525	-5,	-7,394	14,289
103909	23,239	-5,	-7,2484	14,905
103910	21,76	-5,	-7,0599	14,35
103911	22,392	-5,	-6,791	15,234
103912	-22,635	-5,	7,3818	14,304
103913	-22,395	-5,	6,7354	15,253
103914	-21,787	-5,	7,0498	14,332
103915	4,0841	-5,	-39,093	18,732
103916	4,011	-5,	-38,426	18,686
103917	4,7227	-5,	-38,933	17,435
103918	-3,37	-5,	-39,005	20,064
103919	-3,442	-5,	-38,416	19,658
103920	-3,4146	-5,	-40,164	20,24
103921	-3,3277	-5,	-39,57	20,275
103922	-4,0233	-5,	-40,008	18,866
103923	22,646	-5,	7,2623	14,479
103924	22,452	-5,	6,5877	15,55
103925	-22,725	-5,	-7,1685	14,723
103926	-22,518	-5,	-6,5434	15,73
103927	3,7847	-5,	38,452	17,936
103928	3,8175	-5,	39,151	18,943
103929	-17,992	-5,	7,0844e-002	14,411
103930	-17,465	-5,	-0,20352	14,163
103931	17,358	-5,	0,33885	14,095
103932	17,839	-5,	-7,1406e-002	14,341
103933	-2,6206	-5,	36,781	16,021
103934	-2,6775	-5,	37,508	16,511
103935	-1,9624	-5,	36,817	15,783
103936	3,3044	-5,	36,506	15,959
103937	2,6513	-5,	36,612	15,875
103938	3,2867	-5,	37,192	16,47
103939	-19,186	-5,	-6,792	13,171
103940	-19,783	-5,	-6,4775	13,712
103941	-18,899	-5,	-6,178	13,387
103942	-16,138	-5,	-1,5992	13,25
103943	-16,551	-5,	-2,1737	13,437
103944	-16,693	-5,	-1,2286	13,658
103945	18,838	-5,	6,1652	13,312
103946	19,093	-5,	6,7922	13,069
103947	16,754	-5,	1,5232	13,653
103948	16,175	-5,	1,8664	13,227
103949	19,699	-5,	-7,3721	13,016
103950	19,437	-5,	-6,7132	13,354
103951	20,32	-5,	-7,0677	13,567
103952	-20,333	-5,	7,0574	13,527
103953	-19,722	-5,	7,3472	12,987
103954	3,3731	-5,	-36,53	18,707
103955	3,3677	-5,	-37,207	19,237
103956	2,6979	-5,	-36,625	19,631
103957	-2,7245	-5,	-36,599	19,507
103958	-2,0141	-5,	-36,653	20,337
103959	-2,7505	-5,	-37,25	20,094
103960	-16,96	-5,	1,886	13,71
103961	-17,554	-5,	1,5643	14,12
103962	-16,573	-5,	1,2853	13,574
103963	-17,359	-5,	2,4593	13,869
103964	17,024	-5,	-2,1385	13,717
103965	17,62	-5,	-1,7696	14,133
103966	16,655	-5,	-1,6775	13,579
103967	17,4	-5,	-2,6163	13,869
103968	-6,8638	-5,	38,716	16,607
103969	-6,1901	-5,	38,954	17,602
103970	6,7659	-5,	-38,948	14,048
103971	6,1233	-5,	-39,179	14,94
103972	0,70142	-5,	-36,785	21,269
103973	3,6983e-002	-5,	-36,785	21,399
103974	-5,3583	-5,	-40,105	16,019
103975	-5,9863	-5,	-39,859	14,916
103976	-23,241	-5,	7,106	15,132
103977	-23,446	-5,	7,778	13,965
103978	-18,658	-5,	4,7866	13,958
103979	-18,386	-5,	4,1702	13,993
103980	18,668	-5,	-4,8074	13,985
103981	18,4	-5,	-4,1941	14,014
103982	17,99	-5,	4,3856	13,69
103983	17,667	-5,	3,835	13,66
103984	-18,01	-5,	-4,3868	13,731
103985	-17,675	-5,	-3,8169	13,692
103986	2,8598e-002	-5,	36,844	15,399
103987	0,68717	-5,	36,824	15,475
103988	-3,5567	-5,	-40,772	20,043
103989	-2,9206	-5,	-40,844	23,404
103990	-2,7873	-5,	-40,274	21,273
103991	-2,6797	-5,	-39,076	21,302
103992	-2,7004	-5,	-39,681	21,306
103993	3,5439	-5,	-39,894	19,834
103994	4,1987	-5,	-39,756	18,477
103995	3,4584	-5,	-39,227	19,92
103996	-22,753	-5,	5,8166	17,446
103997	-22,136	-5,	6,1048	15,962
103998	-23,001	-5,	6,4596	16,099
103999	23,45	-5,	7,7458	14,015
104000	23,257	-5,	7,063	15,224
104001	7,669	-5,	38,255	15,537
104002	7,3266	-5,	39,211	16,534
104003	7,9132	-5,	38,964	15,612
104004	8,0195	-5,	37,324	14,689
104005	8,2698	-5,	38,03	14,76
104006	8,4213	-5,	36,434	13,937
104007	8,6613	-5,	37,131	14,004
104008	8,8772	-5,	35,571	13,261
104009	9,1032	-5,	36,259	13,321
104010	9,365	-5,	34,71	12,653
104011	9,5775	-5,	35,398	12,708
104012	9,8642	-5,	33,845	12,109
104013	10,067	-5,	34,533	12,157
104014	10,36	-5,	32,975	11,625
104015	10,564	-5,	33,665	11,661
104016	9,6694	-5,	33,156	11,999
104017	10,839	-5,	32,105	11,195
104018	11,044	-5,	32,793	11,221
104019	11,314	-5,	31,235	10,806
104020	11,517	-5,	31,922	10,824
104021	11,789	-5,	30,365	10,449
104022	11,993	-5,	31,051	10,457
104023	12,262	-5,	29,495	10,121
104024	12,466	-5,	30,18	10,12
104025	12,736	-5,	28,623	9,8184
104026	12,94	-5,	29,307	9,8072
104027	13,205	-5,	27,751	9,5416
104028	13,413	-5,	28,434	9,5182
104029	13,675	-5,	26,878	9,288
104030	13,882	-5,	27,56	9,2537
104031	14,149	-5,	26,006	9,0557
104032	14,356	-5,	26,687	9,0096
104033	14,624	-5,	25,133	8,847
104034	14,83	-5,	25,813	8,7881
104035	15,099	-5,	24,261	8,6626
104036	15,304	-5,	24,939	8,5899
104037	15,573	-5,	23,388	8,5036
104038	15,779	-5,	24,065	8,4157
104039	16,048	-5,	22,516	8,3715
104040	16,253	-5,	23,192	8,267
104041	16,523	-5,	21,644	8,2678
104042	16,727	-5,	22,319	8,1451
104043	16,997	-5,	20,772	8,1946
104044	17,201	-5,	21,445	8,0519
104045	17,472	-5,	19,9	8,154
104046	17,676	-5,	20,572	7,9894
104047	17,947	-5,	19,029	8,1488
104048	18,15	-5,	19,699	7,9601
104049	18,422	-5,	18,158	8,1817
104050	18,625	-5,	18,827	7,9665
104051	18,897	-5,	17,287	8,2561
104052	19,099	-5,	17,955	8,0118
104053	19,372	-5,	16,416	8,376
104054	19,574	-5,	17,083	8,0997
104055	19,846	-5,	15,545	8,5462
104056	20,048	-5,	16,21	8,2346
104057	19,169	-5,	15,749	8,6141
104058	20,32	-5,	14,671	8,7724
104059	20,522	-5,	15,337	8,4217
104060	20,791	-5,	13,796	9,0623
104061	20,995	-5,	14,463	8,6676
104062	21,26	-5,	12,915	9,4263
104063	21,466	-5,	13,586	8,9811
104064	21,725	-5,	12,027	9,8791
104065	21,935	-5,	12,705	9,3741
104066	21,052	-5,	12,241	9,8277
104067	22,183	-5,	11,128	10,442
104068	22,398	-5,	11,811	9,8685
104069	22,64	-5,	10,218	11,143
104070	22,855	-5,	10,908	10,482
104071	23,315	-5,	10,001	11,244
104072	23,124	-5,	9,3184	12,007
104073	-23,498	-5,	-7,5361	14,417
104074	-23,286	-5,	-6,9154	15,567
104075	-7,1329	-5,	-38,737	13,592
104076	-7,3489	-5,	-39,43	13,066
104077	-6,6625	-5,	-39,644	13,91
104078	-7,6223	-5,	-37,848	13,214
104079	-7,8344	-5,	-38,538	12,79
104080	-8,1248	-5,	-36,966	12,8
104081	-8,3296	-5,	-37,654	12,462
104082	-7,4133	-5,	-37,159	13,578
104083	-8,6278	-5,	-36,092	12,376
104084	-8,8294	-5,	-36,778	12,102
104085	-9,1237	-5,	-35,224	11,963
104086	-9,3241	-5,	-35,91	11,736
104087	-8,4322	-5,	-35,402	12,584
104088	-9,6059	-5,	-34,36	11,571
104089	-9,8155	-5,	-35,045	11,371
104090	-10,073	-5,	-33,503	11,205
104091	-10,283	-5,	-34,185	11,03
104092	-10,541	-5,	-32,646	10,852
104093	-10,751	-5,	-33,327	10,698
104094	-11,01	-5,	-31,788	10,517
104095	-11,22	-5,	-32,466	10,377
104096	-11,478	-5,	-30,929	10,201
104097	-11,688	-5,	-31,607	10,072
104098	-11,948	-5,	-30,068	9,9028
104099	-12,156	-5,	-30,746	9,7826
104100	-12,417	-5,	-29,209	9,626
104101	-12,626	-5,	-29,884	9,5098
104102	-12,884	-5,	-28,349	9,3704
104103	-13,093	-5,	-29,023	9,2567
104104	-13,352	-5,	-27,486	9,1347
104105	-13,561	-5,	-28,16	9,021
104106	-13,816	-5,	-26,626	8,9216
104107	-14,029	-5,	-27,297	8,8043
104108	-14,28	-5,	-25,766	8,7293
104109	-14,492	-5,	-26,436	8,6084
104110	-14,749	-5,	-24,905	8,5565
104111	-14,961	-5,	-25,573	8,4302
104112	-15,218	-5,	-24,043	8,4064
104113	-15,429	-5,	-24,71	8,2727
104114	-15,686	-5,	-23,181	8,2801
104115	-15,897	-5,	-23,848	8,137
104116	-15,014	-5,	-23,368	8,5032
104117	-16,155	-5,	-22,32	8,179
104118	-16,366	-5,	-22,985	8,0244
104119	-16,624	-5,	-21,459	8,1047
104120	-16,834	-5,	-22,122	7,9365
104121	-17,093	-5,	-20,598	8,0591
104122	-17,303	-5,	-21,26	7,8752
104123	-17,563	-5,	-19,738	8,0445
104124	-17,772	-5,	-20,398	7,8424
104125	-16,889	-5,	-19,928	8,207
104126	-18,032	-5,	-18,878	8,0633
104127	-18,24	-5,	-19,536	7,8406
104128	-18,501	-5,	-18,019	8,1184
104129	-18,709	-5,	-18,675	7,8726
104130	-18,969	-5,	-17,162	8,2128
104131	-19,177	-5,	-17,815	7,9413
104132	-19,437	-5,	-16,307	8,3502
104133	-19,646	-5,	-16,956	8,0504
104134	-19,903	-5,	-15,455	8,5343
104135	-20,113	-5,	-16,098	8,204
104136	-20,366	-5,	-14,607	8,7695
104137	-20,578	-5,	-15,249	8,404
104138	-21,041	-5,	-14,406	8,6564
104139	-20,824	-5,	-13,767	9,0602
104140	-21,945	-5,	-12,743	9,3439
104141	-21,711	-5,	-12,131	9,8224
104142	-21,27	-5,	-12,938	9,412
104143	-22,574	-5,	-10,536	10,891
104144	-22,823	-5,	-11,121	10,324
104145	-22,145	-5,	-11,335	10,307
104146	-22,989	-5,	-9,7346	11,604
104147	-23,253	-5,	-10,313	10,971
104148	-23,368	-5,	-8,9371	12,477
104149	-23,667	-5,	-9,5006	11,762
104150	-23,722	-5,	-8,1322	13,583
104151	-24,033	-5,	-8,7085	12,714
104152	-4,1654	-5,	-40,616	18,69
104153	-4,7846	-5,	-40,405	17,153
104154	22,245	-5,	5,9499	16,345
104155	22,831	-5,	5,7248	17,796
104156	23,062	-5,	6,3884	16,297
104157	21,995	-5,	5,2942	17,299
104158	21,423	-5,	5,5579	15,96
104159	-22,285	-5,	-5,9238	16,504
104160	-22,852	-5,	-5,6657	18,029
104161	-23,078	-5,	-6,2903	16,589
104162	-22,03	-5,	-5,2932	17,398
104163	-21,474	-5,	-5,5761	16,051
104164	17,751	-5,	-3,1156	13,941
104165	18,096	-5,	-3,6357	14,043
104166	-17,717	-5,	3,0255	13,933
104167	-18,074	-5,	3,5865	14,031
104168	-18,319	-5,	0,47851	14,55
104169	-18,828	-5,	5,1583e-002	14,654
104170	-18,353	-5,	-0,35011	14,563
104171	-18,72	-5,	0,91215	14,655
104172	-18,153	-5,	1,2924	14,449
104173	-2,7757	-5,	-37,873	20,423
104174	-2,7517	-5,	-38,486	20,908
104175	-0,6318	-5,	-36,763	21,281
104176	-1,3212	-5,	-36,712	20,874
104177	2,0248	-5,	-36,694	20,306
104178	1,3618	-5,	-36,753	20,936
104179	3,3853	-5,	-38,56	19,911
104180	3,3493	-5,	-37,881	19,578
104181	5,488	-5,	-39,408	15,947
104182	4,8373	-5,	-39,596	17,212
104183	23,634	-5,	-8,5719	12,943
104184	23,708	-5,	-7,512	14,574
104185	24,183	-5,	-8,1971	13,44
104186	23,196	-5,	-9,4251	11,918
104187	23,866	-5,	-9,1856	12,111
104188	23,096	-5,	-8,8844	12,487
104189	22,697	-5,	-10,201	11,181
104190	23,382	-5,	-10,02	11,241
104191	22,224	-5,	-11,022	10,539
104192	22,904	-5,	-10,832	10,555
104193	21,773	-5,	-11,882	9,9781
104194	22,444	-5,	-11,684	9,958
104195	21,326	-5,	-12,749	9,5108
104196	21,996	-5,	-12,549	9,4565
104197	20,866	-5,	-13,613	9,1298
104198	21,536	-5,	-13,418	9,043
104199	20,401	-5,	-14,471	8,8224
104200	21,072	-5,	-14,277	8,7113
104201	19,938	-5,	-15,329	8,5749
104202	20,607	-5,	-15,141	8,4424
104203	19,476	-5,	-16,187	8,3806
104204	20,144	-5,	-15,999	8,2318
104205	19,266	-5,	-15,521	8,6488
104206	19,013	-5,	-17,051	8,233
104207	19,68	-5,	-16,864	8,0697
104208	18,55	-5,	-17,916	8,1298
104209	19,216	-5,	-17,728	7,9534
104210	18,086	-5,	-18,781	8,0672
104211	18,751	-5,	-18,593	7,8783
104212	17,623	-5,	-19,646	8,0416
104213	18,286	-5,	-19,458	7,8408
104214	17,159	-5,	-20,511	8,0501
104215	17,822	-5,	-20,323	7,8376
104216	16,695	-5,	-21,376	8,09
104217	17,357	-5,	-21,189	7,8658
104218	16,498	-5,	-20,711	8,2221
104219	16,231	-5,	-22,241	8,1591
104220	16,892	-5,	-22,054	7,9231
104221	15,767	-5,	-23,107	8,2552
104222	16,427	-5,	-22,92	8,007
104223	15,303	-5,	-23,972	8,3766
104224	15,962	-5,	-23,786	8,1159
104225	14,84	-5,	-24,838	8,5217
104226	15,497	-5,	-24,651	8,2479
104227	14,637	-5,	-24,162	8,6128
104228	14,376	-5,	-25,703	8,6891
104229	15,037	-5,	-25,516	8,3992
104230	13,914	-5,	-26,569	8,8779
104231	14,573	-5,	-26,383	8,5732
104232	13,712	-5,	-25,892	8,9582
104233	13,452	-5,	-27,433	9,0872
104234	14,111	-5,	-27,247	8,7661
104235	12,99	-5,	-28,298	9,3165
104236	13,648	-5,	-28,113	8,9781
104237	12,79	-5,	-27,62	9,3925
104238	12,529	-5,	-29,162	9,5653
104239	13,185	-5,	-28,978	9,2081
104240	12,069	-5,	-30,026	9,8334
104241	12,723	-5,	-29,842	9,4556
104242	11,608	-5,	-30,889	10,121
104243	12,262	-5,	-30,706	9,7203
104244	11,147	-5,	-31,753	10,427
104245	11,8	-5,	-31,571	10,001
104246	10,957	-5,	-31,072	10,514
104247	11,336	-5,	-32,435	10,299
104248	10,685	-5,	-32,616	10,751
104249	9,7347	-5,	-34,345	11,467
104250	10,404	-5,	-34,164	10,938
104251	10,216	-5,	-33,482	11,097
104252	9,2428	-5,	-35,201	11,859
104253	9,9188	-5,	-35,025	11,287
104254	8,7604	-5,	-36,06	12,251
104255	9,4378	-5,	-35,885	11,637
104256	8,2919	-5,	-36,928	12,627
104257	8,9591	-5,	-36,748	11,981
104258	7,8365	-5,	-37,809	12,97
104259	8,4911	-5,	-37,62	12,298
104260	7,3876	-5,	-38,715	13,265
104261	8,036	-5,	-38,506	12,565
104262	6,9167	-5,	-39,634	13,538
104263	7,5685	-5,	-39,413	12,793
104264	-20,924	-5,	6,7406	14,152
104265	-21,528	-5,	6,4192	14,996
104266	-19,185	-5,	6,0548	13,598
104267	-18,925	-5,	5,4083	13,791
104268	20,918	-5,	-6,7455	14,19
104269	21,533	-5,	-6,4436	15,024
104270	19,182	-5,	-6,0693	13,633
104271	18,929	-5,	-5,4249	13,823
104272	17,291	-5,	1,1642	14,005
104273	17,824	-5,	0,77913	14,322
104274	16,946	-5,	2,8142	13,513
104275	17,321	-5,	3,3127	13,632
104276	18,57	-5,	5,555	13,513
104277	18,291	-5,	4,9547	13,611
104278	20,258	-5,	6,1524	14,24
104279	20,84	-5,	5,8424	15,005
104280	5,1167	-5,	40,2	20,292
104281	5,6607	-5,	39,994	19,256
104282	-17,255	-5,	-0,91069	14,005
104283	-17,826	-5,	-0,62448	14,323
104284	-17,318	-5,	-3,2654	13,662
104285	-16,933	-5,	-2,7126	13,542
104286	-20,937	-5,	-5,875	15,11
104287	-20,372	-5,	-6,1787	14,348
104288	3,2347	-5,	37,879	17,129
104289	3,2386	-5,	38,575	17,866
104290	1,9888	-5,	36,702	15,787
104291	1,34	-5,	36,779	15,575
104292	-1,3005	-5,	36,844	15,636
104293	-0,62664	-5,	36,848	15,439
104294	-3,4189	-5,	38,937	18,475
104295	-3,4817	-5,	39,703	19,716
104296	-4,1661	-5,	39,55	19,558
104297	-2,7252	-5,	38,256	17,266
104298	-2,7005	-5,	39,065	18,006
104299	-5,5234	-5,	39,179	18,333
104300	-4,8389	-5,	39,386	19,208
104301	-23,114	-5,	9,3694	11,952
104302	-23,797	-5,	9,1531	12,126
104303	-23,606	-5,	8,4612	13,064
104304	-22,622	-5,	10,249	11,118
104305	-23,305	-5,	10,045	11,202
104306	-22,155	-5,	11,128	10,446
104307	-22,836	-5,	10,926	10,471
104308	-21,693	-5,	12,003	9,9003
104309	-22,372	-5,	11,802	9,8806
104310	-21,231	-5,	12,878	9,4535
104311	-21,908	-5,	12,677	9,3984
104312	-20,768	-5,	13,753	9,0886
104313	-21,443	-5,	13,553	9,0055
104314	-20,556	-5,	13,087	9,4397
104315	-20,309	-5,	14,632	8,7919
104316	-20,978	-5,	14,428	8,6889
104317	-19,848	-5,	15,512	8,5574
104318	-20,517	-5,	15,307	8,4356
104319	-19,643	-5,	14,848	8,8297
104320	-19,379	-5,	16,383	8,3842
104321	-20,05	-5,	16,184	8,2432
104322	-18,911	-5,	17,252	8,2615
104323	-19,579	-5,	17,054	8,1064
104324	-18,447	-5,	18,126	8,1817
104325	-19,113	-5,	17,929	8,0138
104326	-17,984	-5,	18,999	8,1435
104327	-18,647	-5,	18,804	7,964
104328	-17,522	-5,	19,87	8,1436
104329	-18,183	-5,	19,677	7,9531
104330	-17,061	-5,	20,738	8,1786
104331	-17,72	-5,	20,549	7,9779
104332	-16,602	-5,	21,602	8,2459
104333	-17,259	-5,	21,418	8,0352
104334	-16,137	-5,	22,465	8,3452
104335	-16,8	-5,	22,283	8,1224
104336	-15,665	-5,	23,323	8,4743
104337	-16,336	-5,	23,145	8,2393
104338	-15,187	-5,	24,185	8,6319
104339	-15,862	-5,	23,999	8,3866
104340	-14,707	-5,	25,056	8,8156
104341	-15,378	-5,	24,864	8,5621
104342	-14,232	-5,	25,937	9,0223
104343	-14,9	-5,	25,74	8,7595
104344	-14,036	-5,	25,251	9,037
104345	-13,762	-5,	26,833	9,2524
104346	-14,427	-5,	26,624	8,979
104347	-13,297	-5,	27,735	9,5053
104348	-13,959	-5,	27,524	9,2208
104349	-13,1	-5,	27,041	9,4967
104350	-12,833	-5,	28,625	9,7808
104351	-13,493	-5,	28,424	9,4849
104352	-12,366	-5,	29,509	10,081
104353	-13,027	-5,	29,312	9,771
104354	-11,9	-5,	30,389	10,405
104355	-12,56	-5,	30,195	10,081
104356	-11,434	-5,	31,268	10,758
104357	-12,094	-5,	31,075	10,415
104358	-10,965	-5,	32,147	11,143
104359	-11,625	-5,	31,953	10,778
104360	-10,487	-5,	33,027	11,572
104361	-11,151	-5,	32,83	11,175
104362	-9,9991	-5,	33,91	12,052
104363	-10,673	-5,	33,71	11,612
104364	-9,5099	-5,	34,798	12,592
104365	-10,187	-5,	34,596	12,102
104366	-9,3273	-5,	34,104	12,457
104367	-9,0218	-5,	35,695	13,208
104368	-9,6996	-5,	35,486	12,654
104369	-8,5271	-5,	36,609	13,932
104370	-9,211	-5,	36,389	13,287
104371	-8,348	-5,	35,896	13,708
104372	-8,0282	-5,	37,536	14,79
104373	-8,7065	-5,	37,303	14,036
104374	-7,5248	-5,	38,475	15,826
104375	-8,2049	-5,	38,228	14,917
104376	-7,0016	-5,	39,426	17,11
104377	-7,6948	-5,	39,17	15,98
104378	3,9157	-5,	39,841	20,068
104379	3,3497	-5,	39,961	20,074
104380	3,2714	-5,	39,274	18,87
104381	6,7776	-5,	39,497	17,361
104382	6,2129	-5,	39,762	18,423
104383	18,275	-5,	-0,50567	14,536
104384	18,781	-5,	-5,2174e-002	14,646
104385	18,306	-5,	0,36887	14,553
104386	18,171	-5,	-1,3801	14,448
104387	18,712	-5,	-0,95037	14,645
104388	6,9545	-5,	40,166	17,724
104389	7,5335	-5,	39,91	16,622
104390	4,5887	-5,	40,376	20,87
104391	4,0354	-5,	40,538	21,55
104392	-6,3279	-5,	39,664	18,055
104393	-7,1592	-5,	40,117	17,286
104394	-6,4565	-5,	40,376	18,696
104395	-5,6412	-5,	39,891	19,291
104396	-2,0193	-5,	37,544	16,28
104397	-2,0402	-5,	38,225	16,604
104398	-1,309	-5,	37,533	15,823
104399	2,6337	-5,	37,298	16,392
104400	1,9984	-5,	37,398	16,107
104401	2,6348	-5,	37,99	16,882
104402	-19,216	-5,	-5,2436	14,11
104403	-18,62	-5,	-5,5699	13,577
104404	-19,496	-5,	-5,8636	13,967
104405	-17,676	-5,	-1,4684	14,196
104406	-17,106	-5,	-1,8031	13,817
104407	7,1377	-5,	40,853	17,776
104408	6,5465	-5,	41,106	19,142
104409	6,3898	-5,	40,432	18,739
104410	19,43	-5,	5,8487	13,888
104411	19,685	-5,	6,4757	13,607
104412	20,023	-5,	5,5247	14,527
104413	19,175	-5,	5,2265	14,058
104414	17,147	-5,	1,9868	13,809
104415	17,549	-5,	2,4637	13,979
104416	16,568	-5,	2,33	13,403
104417	17,722	-5,	1,6187	14,209
104418	20,058	-5,	-6,4088	13,942
104419	19,809	-5,	-5,7464	14,248
104420	20,677	-5,	-6,0933	14,665
104421	-20,061	-5,	6,4015	13,9
104422	-19,804	-5,	5,7412	14,206
104423	-19,45	-5,	6,6913	13,325
104424	-20,666	-5,	6,0877	14,615
104425	6,2741	-5,	-39,865	14,424
104426	7,0802	-5,	-40,323	12,996
104427	6,4078	-5,	-40,545	13,898
104428	5,6131	-5,	-40,075	15,539
104429	2,0355	-5,	-37,388	21,022
104430	2,6924	-5,	-37,301	20,129
104431	-2,0457	-5,	-37,941	21,48
104432	-2,0402	-5,	-37,305	20,888
104433	-18,356	-5,	2,6683	14,424
104434	-17,953	-5,	2,1376	14,253
104435	17,996	-5,	-2,2474	14,26
104436	18,588	-5,	-1,8516	14,626
104437	18,388	-5,	-2,7394	14,43
104438	-22,597	-5,	-5,0351	18,972
104439	-21,77	-5,	-4,6556	17,896
104440	-22,316	-5,	-4,3912	20,083
104441	22,581	-5,	5,0692	18,784
104442	21,744	-5,	4,6538	17,795
104443	22,298	-5,	4,4061	19,95
104444	-4,3232	-5,	-41,261	18,308
104445	-3,7084	-5,	-41,404	22,188
104446	-19,229	-5,	0,48522	14,762
104447	-19,122	-5,	1,3984	14,817
104448	-19,655	-5,	0,95834	14,761
104449	19,218	-5,	-0,49687	14,759
104450	19,129	-5,	-1,4219	14,811
104451	19,649	-5,	-0,9684	14,747
104452	-24,353	-5,	-7,8778	13,963
104453	-24,056	-5,	-7,2955	15,069
104454	24,276	-5,	8,2121	13,386
104455	24,075	-5,	7,5233	14,603
104456	23,616	-5,	8,4276	13,111
104457	-2,7632	-5,	39,832	19,251
104458	-3,5868	-5,	40,443	21,119
104459	-2,9263	-5,	40,607	20,619
104460	3,4694	-5,	40,658	21,503
104461	2,7703	-5,	40,065	19,613
104462	2,8862	-5,	40,735	20,744
104463	-19,721	-5,	1,847e-002	14,53
104464	-19,269	-5,	-0,41255	14,757
104465	23,427	-5,	5,5023	19,077
104466	23,166	-5,	4,8591	21,461
104467	19,255	-5,	0,41205	14,771
104468	19,714	-5,	-2,5079e-002	14,529
104469	23,322	-5,	-5,6152	18,589
104470	22,519	-5,	-5,2673	18,165
104471	23,137	-5,	-4,9717	20,987
104472	22,776	-5,	-5,9435	17,221
104473	-23,425	-5,	-5,4136	19,439
104474	-23,173	-5,	-4,8182	21,685
104475	-23,381	-5,	5,544	18,851
104476	-22,495	-5,	5,1758	18,333
104477	-23,115	-5,	4,9199	21,062
104478	2,8875	-5,	-40,02	20,928
104479	2,9938	-5,	-40,674	22,685
104480	3,6501	-5,	-40,564	19,629
104481	23,651	-5,	-6,3171	17,167
104482	24,131	-5,	-7,0741	15,405
104483	23,106	-5,	-6,6454	15,834
104484	-4,9567	-5,	40,098	20,094
104485	-4,2711	-5,	40,29	21,022
104486	-23,988	-5,	9,8291	11,372
104487	-24,46	-5,	8,917	12,423
104488	-24,666	-5,	9,6076	11,468
104489	-23,518	-5,	10,722	10,552
104490	-24,198	-5,	10,512	10,566
104491	-23,053	-5,	11,6	9,9034
104492	-23,734	-5,	11,397	9,8503
104493	-22,587	-5,	12,476	9,3764
104494	-23,266	-5,	12,274	9,2794
104495	-22,12	-5,	13,352	8,9485
104496	-22,798	-5,	13,151	8,8176
104497	-21,653	-5,	14,228	8,604
104498	-22,33	-5,	14,027	8,4472
104499	-21,186	-5,	15,104	8,3307
104500	-21,861	-5,	14,904	8,154
104501	-20,718	-5,	15,98	8,1196
104502	-21,392	-5,	15,78	7,9271
104503	-20,25	-5,	16,855	7,9636
104504	-20,923	-5,	16,656	7,7583
104505	-19,782	-5,	17,731	7,8568
104506	-20,454	-5,	17,532	7,6408
104507	-19,314	-5,	18,607	7,7942
104508	-19,984	-5,	18,408	7,5691
104509	-18,847	-5,	19,482	7,7718
104510	-19,515	-5,	19,285	7,5385
104511	-18,381	-5,	20,357	7,7859
104512	-19,046	-5,	20,16	7,5453
104513	-17,917	-5,	21,23	7,8332
104514	-18,579	-5,	21,035	7,5859
104515	-17,456	-5,	22,099	7,9107
104516	-18,114	-5,	21,909	7,6573
104517	-16,999	-5,	22,964	8,0158
104518	-17,657	-5,	22,778	7,7547
104519	-16,533	-5,	23,821	8,1512
104520	-17,198	-5,	23,642	7,8804
104521	-16,053	-5,	24,678	8,3169
104522	-16,726	-5,	24,498	8,0362
104523	-15,571	-5,	25,547	8,5065
104524	-16,242	-5,	25,359	8,2203
104525	-15,095	-5,	26,427	8,7174
104526	-15,764	-5,	26,23	8,4245
104527	-14,623	-5,	27,315	8,9492
104528	-15,289	-5,	27,109	8,6489
104529	-14,155	-5,	28,214	9,2028
104530	-14,816	-5,	27,999	8,8948
104531	-13,688	-5,	29,111	9,4782
104532	-14,348	-5,	28,901	9,1608
104533	-13,221	-5,	29,999	9,7753
104534	-13,88	-5,	29,795	9,4475
104535	-12,754	-5,	30,881	10,095
104536	-13,411	-5,	30,681	9,7547
104537	-12,285	-5,	31,76	10,44
104538	-12,943	-5,	31,562	10,084
104539	-11,811	-5,	32,637	10,816
104540	-12,473	-5,	32,441	10,437
104541	-11,337	-5,	33,513	11,223
104542	-11,999	-5,	33,317	10,817
104543	-10,861	-5,	34,396	11,672
104544	-11,528	-5,	34,195	11,228
104545	-10,377	-5,	35,284	12,176
104546	-11,051	-5,	35,078	11,68
104547	-9,8887	-5,	36,18	12,747
104548	-10,569	-5,	35,964	12,183
104549	-9,3904	-5,	37,083	13,409
104550	-10,08	-5,	36,861	12,752
104551	-8,8832	-5,	37,995	14,186
104552	-9,5764	-5,	37,764	13,412
104553	-8,3749	-5,	38,923	15,102
104554	-9,069	-5,	38,678	14,178
104555	-7,8525	-5,	39,861	16,2
104556	-8,559	-5,	39,6	15,07
104557	-7,3129	-5,	40,806	17,516
104558	-8,0332	-5,	40,535	16,117
104559	-7,4941	-5,	41,475	17,327
104560	-6,7527	-5,	41,758	19,054
104561	-6,6102	-5,	41,065	18,864
104562	-0,63515	-5,	37,537	15,629
104563	3,9981e-002	-5,	37,545	15,529
104564	2,6387	-5,	38,686	17,63
104565	2,692	-5,	39,378	18,409
104566	0,69855	-5,	37,526	15,604
104567	1,3496	-5,	37,475	15,901
104568	-18,926	-5,	-4,6404	14,24
104569	-18,624	-5,	-4,0405	14,211
104570	-18,33	-5,	-4,9667	13,661
104571	-20,649	-5,	-5,242	15,427
104572	-21,214	-5,	-4,9385	16,445
104573	-18,246	-5,	-1,1822	14,495
104574	-18,794	-5,	-0,81424	14,66
104575	-17,906	-5,	-2,9175	14,08
104576	-18,288	-5,	-3,4707	14,212
104577	4,7139	-5,	41,07	22,273
104578	5,2727	-5,	40,88	20,991
104579	23,881	-5,	6,8405	15,809
104580	23,659	-5,	6,166	17,591
104581	7,7167	-5,	40,596	16,713
104582	7,2969	-5,	41,53	17,786
104583	7,9104	-5,	41,285	16,5
104584	8,1201	-5,	39,663	15,733
104585	8,3253	-5,	40,359	15,62
104586	8,514	-5,	38,739	14,863
104587	8,7328	-5,	39,438	14,8
104588	8,9115	-5,	37,837	14,101
104589	9,1338	-5,	38,532	14,067
104590	9,3431	-5,	36,957	13,409
104591	9,5613	-5,	37,651	13,395
104592	9,8035	-5,	36,086	12,784
104593	10,022	-5,	36,78	12,777
104594	10,492	-5,	35,909	12,223
104595	10,28	-5,	35,22	12,224
104596	11,248	-5,	33,483	11,266
104597	11,458	-5,	34,171	11,264
104598	10,767	-5,	34,353	11,719
104599	11,722	-5,	32,611	10,857
104600	11,931	-5,	33,297	10,85
104601	12,196	-5,	31,738	10,481
104602	12,405	-5,	32,423	10,468
104603	12,669	-5,	30,865	10,133
104604	12,878	-5,	31,549	10,113
104605	13,143	-5,	29,992	9,8097
104606	13,351	-5,	30,675	9,7819
104607	13,616	-5,	29,118	9,5102
104608	13,825	-5,	29,8	9,4729
104609	14,09	-5,	28,243	9,2328
104610	14,298	-5,	28,925	9,1848
104611	14,563	-5,	27,368	8,9771
104612	14,771	-5,	28,049	8,9175
104613	15,037	-5,	26,494	8,7433
104614	15,244	-5,	27,174	8,6708
104615	15,511	-5,	25,619	8,5317
104616	15,717	-5,	26,298	8,4452
104617	15,984	-5,	24,744	8,3431
104618	16,19	-5,	25,422	8,2415
104619	16,458	-5,	23,869	8,1787
104620	16,664	-5,	24,547	8,0606
104621	16,932	-5,	22,995	8,0399
104622	17,137	-5,	23,671	7,9037
104623	17,406	-5,	22,12	7,9281
104624	17,611	-5,	22,796	7,7724
104625	17,88	-5,	21,246	7,8454
104626	18,084	-5,	21,92	7,6682
104627	18,354	-5,	20,371	7,7939
104628	18,558	-5,	21,045	7,5932
104629	18,827	-5,	19,497	7,776
104630	19,031	-5,	20,17	7,5497
104631	19,301	-5,	18,624	7,7948
104632	19,505	-5,	19,295	7,5403
104633	19,775	-5,	17,75	7,8536
104634	19,978	-5,	18,42	7,5682
104635	20,249	-5,	16,877	7,9564
104636	20,452	-5,	17,546	7,6371
104637	20,723	-5,	16,003	8,1082
104638	20,925	-5,	16,671	7,7517
104639	21,197	-5,	15,129	8,315
104640	21,399	-5,	15,796	7,9173
104641	21,669	-5,	14,254	8,5844
104642	21,871	-5,	14,921	8,141
104643	22,141	-5,	13,377	8,9267
104644	22,344	-5,	14,045	8,4315
104645	22,608	-5,	12,489	9,3605
104646	22,815	-5,	13,167	8,8006
104647	23,07	-5,	11,591	9,905
104648	23,281	-5,	12,273	9,2749
104649	23,529	-5,	10,692	10,579
104650	23,743	-5,	11,378	9,865
104651	23,992	-5,	9,7905	11,414
104652	24,203	-5,	10,478	10,598
104653	24,461	-5,	8,8921	12,455
104654	24,662	-5,	9,5748	11,51
104655	23,8	-5,	9,1077	12,181
104656	24,923	-5,	7,9926	13,79
104657	25,13	-5,	8,6823	12,626
104658	18,897	-5,	4,6262	14,201
104659	18,61	-5,	4,0348	14,189
104660	21,172	-5,	4,9175	16,359
104661	20,605	-5,	5,2148	15,358
104662	18,255	-5,	1,2336	14,507
104663	18,78	-5,	0,8331	14,674
104664	17,925	-5,	2,9623	14,071
104665	18,288	-5,	3,4842	14,198
104666	21,291	-5,	-5,7914	15,554
104667	21,908	-5,	-5,4986	16,855
104668	22,165	-5,	-6,1748	15,94
104669	19,556	-5,	-5,102	14,491
104670	19,308	-5,	-4,4491	14,549
104671	-7,5614	-5,	-40,133	12,44
104672	-8,2581	-5,	-39,922	11,78
104673	-8,0504	-5,	-39,231	12,268
104674	-9,0341	-5,	-37,466	11,771
104675	-9,2461	-5,	-38,149	11,413
104676	-8,5416	-5,	-38,344	12,043
104677	-9,5258	-5,	-36,596	11,468
104678	-9,731	-5,	-37,279	11,167
104679	-10,016	-5,	-35,731	11,149
104680	-10,223	-5,	-36,411	10,888
104681	-10,493	-5,	-34,869	10,835
104682	-10,709	-5,	-35,549	10,598
104683	-10,961	-5,	-34,008	10,528
104684	-11,177	-5,	-34,687	10,318
104685	-11,43	-5,	-33,147	10,227
104686	-11,645	-5,	-33,824	10,038
104687	-11,898	-5,	-32,286	9,9361
104688	-12,113	-5,	-32,961	9,7624
104689	-12,366	-5,	-31,424	9,6573
104690	-12,581	-5,	-32,098	9,4958
104691	-12,834	-5,	-30,561	9,3927
104692	-13,048	-5,	-31,235	9,2398
104693	-13,302	-5,	-29,698	9,1432
104694	-13,516	-5,	-30,371	8,9961
104695	-13,77	-5,	-28,835	8,9095
104696	-13,983	-5,	-29,507	8,7654
104697	-14,237	-5,	-27,971	8,6924
104698	-14,451	-5,	-28,642	8,5488
104699	-14,705	-5,	-27,107	8,4923
104700	-14,918	-5,	-27,777	8,347
104701	-15,173	-5,	-26,243	8,3102
104702	-15,385	-5,	-26,912	8,1609
104703	-15,641	-5,	-25,379	8,1468
104704	-15,853	-5,	-26,047	7,9914
104705	-16,109	-5,	-24,515	8,0034
104706	-16,321	-5,	-25,182	7,8397
104707	-16,577	-5,	-23,651	7,881
104708	-16,788	-5,	-24,317	7,7069
104709	-17,045	-5,	-22,787	7,7814
104710	-17,256	-5,	-23,452	7,5947
104711	-17,513	-5,	-21,923	7,7061
104712	-17,723	-5,	-22,588	7,5046
104713	-17,981	-5,	-21,059	7,6574
104714	-18,191	-5,	-21,723	7,4387
104715	-18,449	-5,	-20,196	7,6373
104716	-18,659	-5,	-20,858	7,399
104717	-18,918	-5,	-19,333	7,6485
104718	-19,127	-5,	-19,994	7,388
104719	-19,386	-5,	-18,47	7,6941
104720	-19,595	-5,	-19,13	7,4086
104721	-20,062	-5,	-18,266	7,4641
104722	-19,854	-5,	-17,608	7,7776
104723	-20,789	-5,	-15,892	8,0724
104724	-20,998	-5,	-16,545	7,6936
104725	-20,322	-5,	-16,747	7,9029
104726	-21,253	-5,	-15,047	8,2898
104727	-21,466	-5,	-15,69	7,8764
104728	-21,715	-5,	-14,205	8,5644
104729	-21,929	-5,	-14,846	8,1097
104730	-22,173	-5,	-13,371	8,9002
104731	-22,392	-5,	-13,999	8,406
104732	-21,498	-5,	-13,566	8,9694
104733	-22,625	-5,	-12,546	9,3063
104734	-22,85	-5,	-13,165	8,7671
104735	-23,07	-5,	-11,721	9,8016
104736	-23,304	-5,	-12,33	9,2129
104737	-22,392	-5,	-11,935	9,786
104738	-23,502	-5,	-10,898	10,401
104739	-23,75	-5,	-11,497	9,7568
104740	-23,93	-5,	-10,079	11,126
104741	-24,187	-5,	-10,662	10,421
104742	-24,331	-5,	-9,272	11,998
104743	-24,625	-5,	-9,8266	11,232
104744	-24,664	-5,	-8,4542	13,092
104745	-25,028	-5,	-8,9843	12,232
104746	-25,392	-5,	-8,0871	13,543
104747	-24,923	-5,	-7,6168	14,504
104748	-21,27	-5,	5,7664	15,519
104749	-21,879	-5,	5,464	16,792
104750	-19,543	-5,	5,0947	14,45
104751	-19,296	-5,	4,4385	14,516
104752	-23,865	-5,	6,8585	15,759
104753	-23,629	-5,	6,187	17,5
104754	-24,269	-5,	8,2251	13,364
104755	-24,071	-5,	7,5305	14,591
104756	-24,926	-5,	7,9969	13,784
104757	-25,128	-5,	8,6936	12,611
104758	-4,9424	-5,	-41,049	16,793
104759	-5,5812	-5,	-40,823	15,295
104760	-6,875	-5,	-40,348	13,281
104761	-6,2092	-5,	-40,577	14,204
104762	-7,0722	-5,	-41,056	12,602
104763	-7,7654	-5,	-40,828	11,886
104764	4,9623	-5,	-40,263	16,784
104765	4,3049	-5,	-40,426	18,292
104766	24,416	-5,	-8,8108	12,59
104767	25,014	-5,	-8,5316	12,879
104768	24,606	-5,	-7,7592	14,241
104769	24,052	-5,	-9,7806	11,43
104770	24,702	-5,	-9,5292	11,572
104771	23,59	-5,	-10,651	10,614
104772	24,263	-5,	-10,439	10,633
104773	23,125	-5,	-11,495	9,9729
104774	23,8	-5,	-11,299	9,9184
104775	22,667	-5,	-12,351	9,4347
104776	23,339	-5,	-12,153	9,3398
104777	22,206	-5,	-13,217	8,9871
104778	22,879	-5,	-13,02	8,8564
104779	21,743	-5,	-14,082	8,6234
104780	22,415	-5,	-13,886	8,4655
104781	21,279	-5,	-14,947	8,3304
104782	21,951	-5,	-14,752	8,1515
104783	20,814	-5,	-15,811	8,0984
104784	21,486	-5,	-15,617	7,9029
104785	20,348	-5,	-16,676	7,9199
104786	21,02	-5,	-16,482	7,711
104787	19,883	-5,	-17,54	7,7889
104788	20,554	-5,	-17,347	7,5687
104789	19,417	-5,	-18,405	7,7006
104790	20,088	-5,	-18,212	7,4703
104791	18,951	-5,	-19,27	7,6507
104792	19,622	-5,	-19,078	7,4113
104793	18,485	-5,	-20,136	7,6356
104794	19,156	-5,	-19,943	7,3876
104795	18,019	-5,	-21,001	7,6522
104796	18,69	-5,	-20,809	7,3958
104797	17,553	-5,	-21,867	7,6979
104798	18,223	-5,	-21,675	7,4331
104799	17,087	-5,	-22,733	7,7703
104800	17,757	-5,	-22,541	7,4968
104801	16,621	-5,	-23,598	7,8674
104802	17,291	-5,	-23,407	7,5848
104803	16,155	-5,	-24,464	7,9871
104804	16,824	-5,	-24,273	7,6951
104805	15,694	-5,	-25,33	8,1258
104806	16,358	-5,	-25,14	7,8259
104807	15,234	-5,	-26,196	8,284
104808	15,897	-5,	-26,005	7,9734
104809	15,431	-5,	-26,872	8,1408
104810	14,77	-5,	-27,061	8,4625
104811	13,843	-5,	-28,792	8,8718
104812	14,502	-5,	-28,604	8,5235
104813	14,307	-5,	-27,926	8,6587
104814	13,379	-5,	-29,658	9,1009
104815	14,037	-5,	-29,47	8,7372
104816	12,916	-5,	-30,523	9,3454
104817	13,573	-5,	-30,335	8,9647
104818	12,453	-5,	-31,388	9,6045
104819	13,108	-5,	-31,201	9,205
104820	11,988	-5,	-32,252	9,8778
104821	12,644	-5,	-32,066	9,4572
104822	11,523	-5,	-33,116	10,164
104823	12,183	-5,	-32,93	9,7171
104824	11,059	-5,	-33,98	10,458
104825	11,718	-5,	-33,794	9,9881
104826	10,871	-5,	-33,298	10,612
104827	10,588	-5,	-34,845	10,762
104828	11,253	-5,	-34,66	10,263
104829	10,114	-5,	-35,709	11,069
104830	10,78	-5,	-35,525	10,545
104831	9,6365	-5,	-36,572	11,372
104832	10,306	-5,	-36,39	10,82
104833	9,1584	-5,	-37,44	11,656
104834	9,8289	-5,	-37,253	11,084
104835	8,6906	-5,	-38,318	11,897
104836	9,3566	-5,	-38,124	11,315
104837	8,2168	-5,	-39,205	12,095
104838	8,8888	-5,	-39,003	11,497
104839	7,732	-5,	-40,102	12,253
104840	8,4056	-5,	-39,887	11,641
104841	7,2303	-5,	-41,007	12,412
104842	7,9191	-5,	-40,781	11,738
104843	6,5579	-5,	-41,23	13,313
104844	7,4063	-5,	-41,676	11,862
104845	6,6876	-5,	-41,915	12,769
104846	1,3725	-5,	-37,446	21,623
104847	0,71195	-5,	-37,486	22,074
104848	-2,0218	-5,	-38,554	21,941
104849	-2,0223	-5,	-39,176	22,055
104850	-0,63596	-5,	-37,429	22,018
104851	4,7514e-002	-5,	-37,486	22,194
104852	-18,712	-5,	3,2293	14,482
104853	-19,024	-5,	3,8221	14,61
104854	18,733	-5,	-3,2595	14,494
104855	19,039	-5,	-3,8358	14,638
104856	4,1606	-5,	41,231	22,852
104857	3,6059	-5,	41,363	23,198
104858	6,7057	-5,	41,784	19,102
104859	7,4746	-5,	42,207	17,413
104860	6,8426	-5,	42,456	18,955
104861	-2,0155	-5,	39,034	17,368
104862	-1,8862	-5,	39,586	17,469
104863	-2,0554	-5,	40,079	18,064
104864	18,98	-5,	-2,3436	14,766
104865	19,574	-5,	-1,8657	14,938
104866	19,402	-5,	-2,8477	15,075
104867	-18,959	-5,	2,3094	14,765
104868	-19,566	-5,	1,8454	14,958
104869	-18,555	-5,	1,7787	14,625
104870	-19,389	-5,	2,8295	15,082
104871	-1,331	-5,	-38,015	22,193
104872	-1,3254	-5,	-37,379	21,629
104873	-0,62704	-5,	-38,114	22,75
104874	-1,324	-5,	-38,662	22,622
104875	2,0492	-5,	-38,077	21,567
104876	2,0779	-5,	-38,777	21,877
104877	2,7421	-5,	-38,671	21,006
104878	2,7061	-5,	-37,991	20,711
104879	1,3889	-5,	-38,159	22,299
104880	5,7468	-5,	-40,755	15,006
104881	5,862	-5,	-41,449	14,524
104882	5,0776	-5,	-40,943	16,426
104883	-7,2681	-5,	-41,748	12,003
104884	-6,4064	-5,	-41,285	13,523
104885	-6,5541	-5,	-41,992	12,954
104886	-24,728	-5,	7,3023	15,004
104887	-24,512	-5,	6,6014	16,794
104888	-25,588	-5,	7,7774	14,047
104889	-25,373	-5,	7,0591	15,604
104890	-20,408	-5,	5,4275	14,98
104891	-20,163	-5,	4,7607	15,164
104892	-21,019	-5,	5,1052	15,947
104893	-24,426	-5,	-6,4138	17,346
104894	-23,843	-5,	-6,6747	16,221
104895	-24,626	-5,	-7,0345	15,607
104896	20,427	-5,	-5,4309	15,032
104897	20,18	-5,	-4,7582	15,205
104898	21,042	-5,	-5,1158	16,007
104899	18,124	-5,	2,0956	14,355
104900	18,534	-5,	2,593	14,53
104901	18,697	-5,	1,7153	14,678
104902	19,504	-5,	4,2749	14,761
104903	19,768	-5,	4,9024	14,756
104904	24,722	-5,	7,3039	15,
104905	25,581	-5,	7,7833	14,039
104906	25,362	-5,	7,0766	15,559
104907	24,504	-5,	6,6096	16,759
104908	6,0977	-5,	42,035	20,79
104909	5,9733	-5,	41,348	20,368
104910	-18,091	-5,	-2,0299	14,342
104911	-18,512	-5,	-2,5617	14,527
104912	-17,521	-5,	-2,3646	13,989
104913	-18,674	-5,	-1,6768	14,66
104914	-19,803	-5,	-4,9257	14,801
104915	-20,383	-5,	-4,5976	15,522
104916	-20,083	-5,	-5,5457	14,6
104917	-19,53	-5,	-4,2933	14,788
104918	2,0242	-5,	38,785	16,993
104919	1,9995	-5,	38,09	16,608
104920	-1,3299	-5,	38,213	16,156
104921	-1,3263	-5,	38,86	16,25
104922	-0,61349	-5,	38,229	15,663
104923	-5,0783	-5,	40,819	21,399
104924	-5,7698	-5,	40,604	19,854
104925	2,1379	-5,	-39,459	21,879
104926	2,1912	-5,	-40,134	23,193
104927	2,802	-5,	-39,352	21,03
104928	-5,0891	-5,	-41,748	16,346
104929	-4,438	-5,	-41,943	19,844
104930	-24,276	-5,	5,9298	18,502
104931	-24,043	-5,	5,2652	21,54
104932	23,968	-5,	-5,1911	22,039
104933	24,147	-5,	-5,8605	18,607
104934	20,92	-5,	4,2768	16,592
104935	21,47	-5,	3,9695	17,926
104936	4,8409	-5,	41,768	23,157
104937	4,2865	-5,	41,966	24,813
104938	-20,949	-5,	-4,2941	16,655
104939	-21,494	-5,	-3,9804	18,055
104940	-1,2465	-5,	39,971	16,463
104941	-1,197	-5,	39,411	16,362
104942	5,8146	-5,	-45,85	11,996
104943	6,1025	-5,	-46,427	10,965
104944	5,1368	-5,	-46,174	13,999
104945	5,4608	-5,	-46,656	11,608
104946	6,1884	-5,	-44,988	12,062
104947	6,4802	-5,	-45,596	11,164
104948	5,5093	-5,	-45,311	14,367
104949	6,5828	-5,	-44,105	11,859
104950	6,864	-5,	-44,731	11,193
104951	5,8461	-5,	-44,443	13,828
104952	7,0446	-5,	-43,227	11,539
104953	7,2862	-5,	-43,861	11,006
104954	6,2638	-5,	-43,496	13,051
104955	7,5694	-5,	-42,34	11,315
104956	6,8507	-5,	-42,579	12,227
104957	7,776	-5,	-42,993	10,852
104958	8,0951	-5,	-41,451	11,187
104959	8,2921	-5,	-42,112	10,743
104960	8,5927	-5,	-40,566	11,127
104961	8,7924	-5,	-41,237	10,694
104962	9,0775	-5,	-39,686	11,044
104963	9,2772	-5,	-40,36	10,64
104964	9,5548	-5,	-38,81	10,917
104965	9,7569	-5,	-39,485	10,545
104966	10,027	-5,	-37,937	10,745
104967	10,228	-5,	-38,613	10,412
104968	10,499	-5,	-37,071	10,536
104969	10,698	-5,	-37,747	10,237
104970	10,973	-5,	-36,206	10,3
104971	11,167	-5,	-36,881	10,036
104972	11,445	-5,	-35,34	10,049
104973	11,64	-5,	-36,015	9,8125
104974	11,912	-5,	-34,473	9,7975
104975	12,108	-5,	-35,149	9,5828
104976	12,378	-5,	-33,607	9,5453
104977	12,574	-5,	-34,283	9,3489
104978	12,839	-5,	-32,743	9,2999
104979	13,041	-5,	-33,417	9,1149
104980	13,3	-5,	-31,879	9,0608
104981	13,502	-5,	-32,552	8,8871
104982	13,765	-5,	-31,014	8,8271
104983	13,968	-5,	-31,686	8,6613
104984	14,231	-5,	-30,148	8,6034
104985	14,434	-5,	-30,82	8,4426
104986	14,696	-5,	-29,281	8,3909
104987	14,9	-5,	-29,953	8,2323
104988	15,162	-5,	-28,415	8,1907
104989	15,366	-5,	-29,087	8,0315
104990	15,628	-5,	-27,549	8,0038
104991	15,833	-5,	-28,22	7,8416
104992	14,967	-5,	-27,737	8,3242
104993	16,094	-5,	-26,682	7,8312
104994	16,299	-5,	-27,353	7,6637
104995	16,561	-5,	-25,815	7,6743
104996	16,766	-5,	-26,486	7,499
104997	17,027	-5,	-24,949	7,5342
104998	17,232	-5,	-25,619	7,349
104999	17,494	-5,	-24,082	7,4125
105000	17,699	-5,	-24,752	7,2151
105001	17,96	-5,	-23,216	7,311
105002	18,166	-5,	-23,885	7,0991
105003	18,427	-5,	-22,349	7,2314
105004	18,633	-5,	-23,019	7,0025
105005	18,893	-5,	-21,483	7,176
105006	19,1	-5,	-22,152	6,9276
105007	19,36	-5,	-20,617	7,147
105008	19,566	-5,	-21,285	6,8765
105009	19,827	-5,	-19,75	7,1474
105010	20,033	-5,	-20,418	6,8518
105011	20,293	-5,	-18,884	7,1803
105012	20,5	-5,	-19,552	6,8565
105013	20,76	-5,	-18,019	7,2494
105014	20,967	-5,	-18,686	6,8941
105015	21,226	-5,	-17,153	7,3593
105016	21,434	-5,	-17,819	6,9688
105017	21,692	-5,	-16,287	7,5153
105018	21,9	-5,	-16,953	7,0855
105019	22,158	-5,	-15,422	7,724
105020	22,367	-5,	-16,087	7,2506
105021	22,624	-5,	-14,556	7,9938
105022	22,833	-5,	-15,221	7,4716
105023	23,089	-5,	-13,689	8,335
105024	23,299	-5,	-14,355	7,7584
105025	23,552	-5,	-12,822	8,7617
105026	23,765	-5,	-13,488	8,1233
105027	24,015	-5,	-11,957	9,2857
105028	24,229	-5,	-12,62	8,5823
105029	24,473	-5,	-11,087	9,9367
105030	24,689	-5,	-11,752	9,1556
105031	24,912	-5,	-10,187	10,772
105032	25,142	-5,	-10,874	9,8752
105033	25,3	-5,	-9,2499	11,855
105034	25,571	-5,	-9,9645	10,802
105035	25,629	-5,	-8,2863	13,222
105036	25,952	-5,	-9,0441	11,955
105037	25,222	-5,	-7,5139	14,577
105038	24,627	-5,	-6,6175	16,795
105039	26,106	-5,	-7,6076	14,289
105040	25,647	-5,	-7,135	15,499
105041	26,321	-5,	-8,1613	13,255
105042	26,415	-5,	-7,1807	15,1
105043	26,881	-5,	-7,604	14,136
105044	-25,89	-5,	-7,0766	15,454
105045	-25,826	-5,	-7,7479	14,118
105046	-25,357	-5,	-7,2776	15,085
105047	0,72833	-5,	-38,199	22,726
105048	5,6429e-002	-5,	-38,171	22,923
105049	-1,3246	-5,	-39,284	22,742
105050	-1,3366	-5,	-39,894	23,937
105051	-2,0431	-5,	-39,781	22,074
105052	-25,79	-5,	8,4742	12,882
105053	-26,243	-5,	7,5679	14,363
105054	-26,457	-5,	8,2704	13,043
105055	-25,334	-5,	9,3842	11,657
105056	-26,006	-5,	9,1727	11,749
105057	-24,876	-5,	10,29	10,66
105058	-25,55	-5,	10,076	10,666
105059	-24,413	-5,	11,186	9,8627
105060	-25,091	-5,	10,977	9,788
105061	-23,947	-5,	12,072	9,2258
105062	-24,625	-5,	11,865	9,0903
105063	-23,478	-5,	12,95	8,7202
105064	-24,158	-5,	12,748	8,5349
105065	-23,008	-5,	13,826	8,3159
105066	-23,687	-5,	13,626	8,0991
105067	-22,538	-5,	14,703	7,9966
105068	-23,216	-5,	14,503	7,7573
105069	-22,068	-5,	15,58	7,7497
105070	-22,745	-5,	15,379	7,4943
105071	-21,598	-5,	16,456	7,5649
105072	-22,274	-5,	16,256	7,298
105073	-21,127	-5,	17,333	7,4344
105074	-21,802	-5,	17,133	7,1592
105075	-20,656	-5,	18,209	7,3519
105076	-21,331	-5,	18,009	7,0704
105077	-20,185	-5,	19,086	7,3121
105078	-20,859	-5,	18,886	7,0256
105079	-19,715	-5,	19,963	7,3107
105080	-20,387	-5,	19,763	7,0201
105081	-19,245	-5,	20,839	7,3442
105082	-19,916	-5,	20,64	7,05
105083	-19,445	-5,	21,517	7,112
105084	-18,776	-5,	21,715	7,4092
105085	-18,518	-5,	23,267	7,3157
105086	-17,856	-5,	23,456	7,619
105087	-18,315	-5,	22,588	7,5007
105088	-16,435	-5,	26,042	8,1394
105089	-17,107	-5,	25,859	7,8202
105090	-16,916	-5,	25,179	7,9402
105091	-15,958	-5,	26,912	8,3578
105092	-16,627	-5,	26,722	8,036
105093	-16,151	-5,	27,595	8,2699
105094	-15,482	-5,	27,793	8,5968
105095	-14,539	-5,	29,585	9,1337
105096	-15,203	-5,	29,375	8,7954
105097	-15,009	-5,	28,686	8,8557
105098	-14,07	-5,	30,478	9,4312
105099	-14,734	-5,	30,273	9,0849
105100	-13,601	-5,	31,362	9,748
105101	-14,266	-5,	31,162	9,3918
105102	-13,131	-5,	32,243	10,086
105103	-13,795	-5,	32,043	9,7174
105104	-13,324	-5,	32,923	10,062
105105	-12,661	-5,	33,121	10,445
105106	-11,718	-5,	34,877	11,245
105107	-12,382	-5,	34,679	10,81
105108	-12,191	-5,	33,999	10,83
105109	-11,91	-5,	35,557	11,221
105110	-11,243	-5,	35,757	11,697
105111	-10,266	-5,	37,542	12,771
105112	-10,76	-5,	36,646	12,2
105113	-10,95	-5,	37,328	12,15
105114	-10,455	-5,	38,224	12,695
105115	-9,7621	-5,	38,447	13,423
105116	-8,7397	-5,	40,274	15,017
105117	-9,446	-5,	40,029	13,988
105118	-9,2531	-5,	39,355	14,169
105119	-8,2144	-5,	41,204	15,968
105120	-8,9368	-5,	40,944	14,738
105121	-7,6719	-5,	42,134	16,999
105122	-8,4129	-5,	41,864	15,542
105123	-6,9304	-5,	42,417	18,677
105124	-7,885	-5,	42,776	16,337
105125	-7,1417	-5,	43,054	17,968
105126	-6,2681	-5,	44,93	18,714
105127	-6,965	-5,	44,587	17,111
105128	-5,9516	-5,	44,356	21,235
105129	-6,6816	-5,	43,968	18,599
105130	-5,8296	-5,	46,088	18,175
105131	-6,5442	-5,	45,535	16,899
105132	-5,5905	-5,	45,324	21,63
105133	-5,1581	-5,	47,222	18,244
105134	-6,1622	-5,	46,638	16,14
105135	-5,1443	-5,	46,503	21,315
105136	-3,7409	-5,	48,342	20,1
105137	-3,8067	-5,	47,635	22,856
105138	-3,2101	-5,	48,546	20,16
105139	-3,2474	-5,	47,859	25,758
105140	-4,1546	-5,	48,95	18,354
105141	-4,3487	-5,	48,162	18,908
105142	-3,4503	-5,	48,822	18,768
105143	29,741	-5,	-2,4714	22,235
105144	29,925	-5,	-2,0698	22,565
105145	28,996	-5,	-2,5904	23,35
105146	29,469	-5,	-1,622	23,149
105147	28,945	-5,	-1,9967	24,52
105148	29,337	-5,	3,1562	21,635
105149	29,779	-5,	2,5037	22,062
105150	29,93	-5,	2,9957	21,296
105151	29,321	-5,	2,5425	22,928
105152	6,0699	-5,	-42,848	13,718
105153	5,9916	-5,	-42,134	13,983
105154	-1,3678	-5,	-50,983	5,8274
105155	-0,46647	-5,	-50,927	5,5696
105156	-1,037	-5,	-51,441	5,8657
105157	-0,9615	-5,	-50,444	5,1319
105158	-26,029	-5,	6,8496	15,9
105159	-26,704	-5,	6,6891	16,079
105160	-26,914	-5,	7,3835	14,547
105161	-21,628	-5,	4,8028	17,321
105162	-22,216	-5,	4,5065	19,433
105163	-19,916	-5,	4,1045	15,317
105164	-19,701	-5,	3,4223	15,136
105165	-24,234	-5,	-5,7773	19,099
105166	-24,048	-5,	-5,173	22,088
105167	-23,651	-5,	-6,0382	17,999
105168	-26,284	-5,	-6,434	16,886
105169	-25,727	-5,	-6,553	16,772
105170	-26,426	-5,	-7,0567	15,353
105171	-4,7626	-5,	-47,705	10,552
105172	-4,9628	-5,	-48,235	9,4575
105173	-4,0975	-5,	-48,662	8,9471
105174	-4,0353	-5,	-48,021	10,436
105175	-5,2708	-5,	-46,835	11,627
105176	-5,4928	-5,	-47,417	10,442
105177	-4,6048	-5,	-47,148	12,604
105178	-5,6923	-5,	-45,983	12,104
105179	-5,9464	-5,	-46,585	11,036
105180	-5,0434	-5,	-46,28	14,104
105181	-6,0815	-5,	-45,102	12,212
105182	-6,3646	-5,	-45,724	11,252
105183	-5,4212	-5,	-45,395	14,579
105184	-6,9376	-5,	-43,328	11,645
105185	-6,4778	-5,	-44,211	12,004
105186	-7,1861	-5,	-43,969	11,085
105187	-6,1628	-5,	-43,595	13,219
105188	-7,4472	-5,	-42,429	11,414
105189	-7,6706	-5,	-43,088	10,92
105190	-6,7332	-5,	-42,674	12,369
105191	-7,9613	-5,	-41,52	11,287
105192	-8,1746	-5,	-42,192	10,814
105193	-8,4621	-5,	-40,616	11,226
105194	-8,6763	-5,	-41,294	10,769
105195	-8,9555	-5,	-39,722	11,141
105196	-9,1648	-5,	-40,403	10,718
105197	-9,4524	-5,	-38,837	10,999
105198	-9,6591	-5,	-39,518	10,618
105199	-8,7479	-5,	-39,031	11,628
105200	-9,9429	-5,	-37,962	10,812
105201	-10,154	-5,	-38,642	10,465
105202	-10,428	-5,	-37,093	10,59
105203	-10,634	-5,	-37,772	10,284
105204	-10,916	-5,	-36,229	10,341
105205	-11,119	-5,	-36,906	10,069
105206	-11,394	-5,	-35,366	10,085
105207	-11,603	-5,	-36,041	9,837
105208	-11,861	-5,	-34,502	9,8312
105209	-12,07	-5,	-35,176	9,6064
105210	-12,329	-5,	-33,638	9,5767
105211	-12,538	-5,	-34,311	9,3712
105212	-12,796	-5,	-32,773	9,3258
105213	-13,005	-5,	-33,446	9,1358
105214	-13,263	-5,	-31,909	9,0816
105215	-13,472	-5,	-32,581	8,9035
105216	-13,73	-5,	-31,044	8,8461
105217	-13,939	-5,	-31,716	8,6766
105218	-14,197	-5,	-30,179	8,6209
105219	-14,411	-5,	-30,85	8,454
105220	-14,664	-5,	-29,314	8,4069
105221	-14,878	-5,	-29,984	8,2429
105222	-15,131	-5,	-28,448	8,2053
105223	-15,344	-5,	-29,117	8,0415
105224	-15,598	-5,	-27,582	8,0171
105225	-15,811	-5,	-28,251	7,8508
105226	-16,065	-5,	-26,716	7,8432
105227	-16,278	-5,	-27,385	7,6722
105228	-16,533	-5,	-25,85	7,6849
105229	-16,745	-5,	-26,518	7,5067
105230	-17,	-5,	-24,985	7,5436
105231	-17,212	-5,	-25,652	7,3559
105232	-17,467	-5,	-24,119	7,4206
105233	-17,679	-5,	-24,785	7,2212
105234	-17,934	-5,	-23,253	7,3177
105235	-18,146	-5,	-23,919	7,1042
105236	-18,402	-5,	-22,387	7,2367
105237	-18,613	-5,	-23,053	7,0067
105238	-18,869	-5,	-21,522	7,1796
105239	-19,08	-5,	-22,186	6,9307
105240	-19,336	-5,	-20,656	7,1489
105241	-19,547	-5,	-21,32	6,8784
105242	-19,804	-5,	-19,791	7,1472
105243	-20,014	-5,	-20,454	6,8524
105244	-20,271	-5,	-18,926	7,1777
105245	-20,479	-5,	-19,593	6,8553
105246	-20,739	-5,	-18,061	7,2442
105247	-20,946	-5,	-18,727	6,8906
105248	-21,207	-5,	-17,201	7,3486
105249	-21,414	-5,	-17,862	6,9626
105250	-20,53	-5,	-17,403	7,5584
105251	-21,675	-5,	-16,343	7,4973
105252	-21,882	-5,	-17,001	7,0739
105253	-22,141	-5,	-15,489	7,6963
105254	-22,35	-5,	-16,144	7,2309
105255	-22,606	-5,	-14,64	7,9512
105256	-22,816	-5,	-15,286	7,4433
105257	-23,07	-5,	-13,793	8,2729
105258	-23,282	-5,	-14,432	7,7168
105259	-23,529	-5,	-12,949	8,6734
105260	-23,745	-5,	-13,582	8,0638
105261	-23,984	-5,	-12,106	9,1674
105262	-24,206	-5,	-12,737	8,4955
105263	-24,435	-5,	-11,261	9,7752
105264	-24,663	-5,	-11,887	9,037
105265	-24,882	-5,	-10,41	10,525
105266	-25,115	-5,	-11,034	9,7098
105267	-25,565	-5,	-10,169	10,549
105268	-25,321	-5,	-9,5389	11,463
105269	-26,462	-5,	-8,3721	12,88
105270	-26,361	-5,	-7,7279	14,034
105271	-25,756	-5,	-8,6172	12,68
105272	-27,403	-5,	-6,0885	17,124
105273	-26,854	-5,	-6,3011	16,959
105274	-27,626	-5,	-6,7191	15,673
105275	-26,995	-5,	-6,9238	15,443
105276	-27,225	-5,	-5,5935	18,656
105277	-27,975	-5,	-5,8027	17,433
105278	-27,461	-5,	-5,0998	20,135
105279	25,956	-5,	-6,7081	16,322
105280	27,071	-5,	-6,9558	15,358
105281	26,74	-5,	-6,4656	16,621
105282	21,659	-5,	-4,823	17,405
105283	22,248	-5,	-4,5225	19,537
105284	19,707	-5,	-3,424	15,146
105285	19,931	-5,	-4,1052	15,351
105286	19,222	-5,	1,3148	14,836
105287	19,744	-5,	0,91449	14,697
105288	19,217	-5,	3,6835	14,812
105289	18,897	-5,	3,1149	14,619
105290	24,281	-5,	5,9351	18,506
105291	24,043	-5,	5,2766	21,462
105292	-19,228	-5,	-3,6934	14,822
105293	-18,894	-5,	-3,1149	14,62
105294	2,0775	-5,	39,477	17,788
105295	2,1523	-5,	40,145	18,35
105296	6,164e-002	-5,	38,238	15,564
105297	0,7157	-5,	38,233	15,783
105298	-4,3927	-5,	41,012	22,213
105299	-3,743	-5,	41,204	23,018
105300	-6,0314	-5,	42,019	20,793
105301	-6,1257	-5,	42,737	21,013
105302	5,8298	-5,	46,257	17,793
105303	5,5114	-5,	47,085	17,372
105304	6,0325	-5,	46,894	16,155
105305	5,258	-5,	46,499	20,061
105306	6,2403	-5,	45,441	17,931
105307	6,4101	-5,	46,08	16,31
105308	5,5628	-5,	45,563	21,272
105309	6,7226	-5,	44,607	17,733
105310	6,1677	-5,	44,808	19,446
105311	6,8513	-5,	45,255	16,437
105312	7,196	-5,	43,746	17,308
105313	6,5915	-5,	43,972	18,957
105314	7,3599	-5,	44,408	16,207
105315	7,6461	-5,	42,862	16,807
105316	7,8233	-5,	43,529	15,973
105317	7,014	-5,	43,112	18,319
105318	8,0881	-5,	41,962	16,156
105319	8,2699	-5,	42,637	15,571
105320	8,5189	-5,	41,048	15,433
105321	8,7083	-5,	41,734	15,033
105322	8,938	-5,	40,134	14,711
105323	9,1382	-5,	40,826	14,435
105324	9,3526	-5,	39,232	14,026
105325	9,5655	-5,	39,924	13,83
105326	9,7835	-5,	38,346	13,382
105327	9,9974	-5,	39,035	13,248
105328	10,24	-5,	37,474	12,78
105329	10,45	-5,	38,159	12,69
105330	10,711	-5,	36,603	12,23
105331	10,916	-5,	37,29	12,172
105332	11,184	-5,	35,727	11,732
105333	11,393	-5,	36,415	11,689
105334	11,662	-5,	34,856	11,276
105335	11,866	-5,	35,539	11,246
105336	10,971	-5,	35,039	11,722
105337	12,141	-5,	33,985	10,856
105338	12,345	-5,	34,667	10,83
105339	12,614	-5,	33,11	10,469
105340	12,819	-5,	33,791	10,443
105341	13,087	-5,	32,235	10,107
105342	13,291	-5,	32,915	10,078
105343	13,56	-5,	31,359	9,7678
105344	13,763	-5,	32,039	9,7335
105345	14,033	-5,	30,484	9,4496
105346	14,235	-5,	31,163	9,407
105347	14,506	-5,	29,608	9,1513
105348	14,708	-5,	30,286	9,0985
105349	14,978	-5,	28,731	8,8726
105350	15,181	-5,	29,41	8,808
105351	15,451	-5,	27,855	8,6136
105352	15,658	-5,	28,535	8,5338
105353	15,924	-5,	26,978	8,3746
105354	16,131	-5,	27,657	8,2806
105355	16,397	-5,	26,101	8,1563
105356	16,603	-5,	26,78	8,0468
105357	16,87	-5,	25,225	7,9597
105358	17,076	-5,	25,903	7,8334
105359	17,343	-5,	24,348	7,7858
105360	17,549	-5,	25,026	7,6414
105361	17,816	-5,	23,472	7,636
105362	18,022	-5,	24,149	7,472
105363	18,289	-5,	22,596	7,5119
105364	18,494	-5,	23,272	7,3265
105365	18,762	-5,	21,719	7,4151
105366	18,967	-5,	22,395	7,2065
105367	19,235	-5,	20,843	7,3479
105368	19,44	-5,	21,518	7,114
105369	19,913	-5,	20,641	7,0511
105370	19,708	-5,	19,967	7,3127
105371	20,655	-5,	18,216	7,3506
105372	20,858	-5,	18,888	7,0254
105373	20,181	-5,	19,091	7,3124
105374	21,128	-5,	17,34	7,4313
105375	21,331	-5,	18,011	7,0695
105376	21,601	-5,	16,464	7,5598
105377	21,804	-5,	17,135	7,1576
105378	22,073	-5,	15,589	7,7424
105379	22,276	-5,	16,258	7,2957
105380	22,546	-5,	14,713	7,9873
105381	22,749	-5,	15,382	7,4912
105382	23,018	-5,	13,836	8,3047
105383	23,221	-5,	14,505	7,7536
105384	23,488	-5,	12,952	8,7139
105385	23,693	-5,	13,628	8,095
105386	23,954	-5,	12,06	9,2337
105387	24,162	-5,	12,743	8,5371
105388	24,629	-5,	11,852	9,1003
105389	24,417	-5,	11,164	9,8829
105390	25,545	-5,	10,054	10,697
105391	24,873	-5,	10,263	10,693
105392	25,331	-5,	9,3649	11,683
105393	26,233	-5,	7,584	14,334
105394	26,457	-5,	8,272	13,042
105395	25,788	-5,	8,473	12,883
105396	26,683	-5,	6,7301	15,98
105397	26,014	-5,	6,8773	15,835
105398	26,906	-5,	7,4042	14,507
105399	28,259	-5,	4,5204	20,19
105400	28,41	-5,	5,0929	18,785
105401	27,535	-5,	4,6111	22,041
105402	27,701	-5,	5,2142	19,065
105403	28,818	-5,	3,8384	21,014
105404	28,949	-5,	4,3899	19,786
105405	28,158	-5,	3,9485	23,054
105406	29,472	-5,	3,6907	20,595
105407	28,792	-5,	3,2724	22,998
105408	-5,1974	-5,	41,541	22,11
105409	-5,8889	-5,	41,326	20,694
105410	-5,2571	-5,	42,259	23,153
105411	-4,51	-5,	41,749	24,012
105412	9,4447e-002	-5,	38,973	15,509
105413	-0,60988	-5,	38,876	15,76
105414	1,3914	-5,	38,877	16,471
105415	0,74851	-5,	38,968	15,729
105416	1,3667	-5,	38,182	16,075
105417	1,4624	-5,	39,609	16,68
105418	-20,109	-5,	-3,9652	15,602
105419	-20,704	-5,	-3,6385	16,376
105420	-19,858	-5,	-3,3059	15,293
105421	-19,095	-5,	-2,2086	14,817
105422	-19,524	-5,	-2,7274	15,162
105423	-19,69	-5,	-1,7814	14,964
105424	-19,221	-5,	-1,3088	14,816
105425	5,524	-5,	42,265	22,328
105426	4,9472	-5,	42,471	24,274
105427	5,3996	-5,	41,578	22,001
105428	5,6454	-5,	42,984	22,777
105429	6,2346	-5,	42,708	20,575
105430	6,0366	-5,	44,173	20,693
105431	5,8203	-5,	43,614	22,12
105432	6,4095	-5,	43,338	19,999
105433	5,491	-5,	44,453	23,345
105434	5,4902	-5,	44,93	22,792
105435	5,7097	-5,	47,725	15,906
105436	5,4183	-5,	47,984	16,405
105437	5,0286	-5,	47,421	18,632
105438	27,369	-5,	6,5861	16,06
105439	26,446	-5,	5,9957	18,115
105440	27,167	-5,	5,9435	17,628
105441	25,144	-5,	6,3823	17,293
105442	25,777	-5,	6,1429	18,001
105443	24,872	-5,	5,6591	20,225
105444	20,089	-5,	3,9465	15,575
105445	20,687	-5,	3,6205	16,463
105446	20,353	-5,	4,574	15,479
105447	19,848	-5,	3,2914	15,321
105448	19,694	-5,	1,7813	15,008
105449	19,107	-5,	2,2126	14,826
105450	21,39	-5,	-4,1179	17,674
105451	20,795	-5,	-4,4431	16,288
105452	25,778	-5,	-6,0438	18,421
105453	25,052	-5,	-6,2386	17,724
105454	28,048	-5,	-5,1877	18,969
105455	27,118	-5,	-5,0446	20,8
105456	27,634	-5,	-4,5753	21,652
105457	27,302	-5,	-5,5537	18,693
105458	-26,676	-5,	-5,8061	18,492
105459	-26,735	-5,	-5,2572	20,608
105460	-26,174	-5,	-5,7989	19,159
105461	-24,994	-5,	-6,1333	18,144
105462	-25,617	-5,	-5,9179	19,061
105463	-25,193	-5,	-6,754	16,419
105464	-24,829	-5,	-5,4862	21,049
105465	-20,774	-5,	4,4384	16,239
105466	-20,572	-5,	3,7526	16,107
105467	-21,374	-5,	4,1099	17,577
105468	-25,157	-5,	6,3582	17,37
105469	-24,891	-5,	5,6201	20,603
105470	-25,805	-5,	6,107	18,102
105471	-5,1464	-5,	-42,437	16,841
105472	-5,728	-5,	-41,522	14,856
105473	-5,8757	-5,	-42,229	14,289
105474	-6,7613	-5,	-44,841	11,304
105475	-5,7453	-5,	-44,529	14,195
105476	-2,2455	-5,	-50,841	6,2135
105477	-1,9441	-5,	-51,407	6,1273
105478	-1,7984	-5,	-50,66	5,8801
105479	4,6615	-5,	-49,64	7,8565
105480	5,1481	-5,	-49,076	8,4007
105481	5,2299	-5,	-49,628	7,9372
105482	4,4966	-5,	-49,206	8,1735
105483	5,4255	-5,	-47,937	9,7205
105484	4,5353	-5,	-47,7	10,995
105485	5,1598	-5,	-47,408	10,776
105486	4,5223	-5,	-41,821	19,151
105487	5,1928	-5,	-41,637	15,942
105488	4,4202	-5,	-41,106	17,913
105489	1,4176	-5,	-38,858	22,587
105490	1,4801	-5,	-39,601	23,52
105491	0,7511	-5,	-38,937	22,884
105492	-0,64023	-5,	-39,421	22,643
105493	-0,62012	-5,	-38,762	23,173
105494	28,076	-5,	6,4659	15,967
105495	28,583	-5,	5,702	17,208
105496	28,778	-5,	6,307	16,11
105497	27,874	-5,	5,8233	17,526
105498	27,593	-5,	7,2602	14,614
105499	28,285	-5,	7,0925	14,782
105500	27,129	-5,	8,0922	13,237
105501	27,814	-5,	7,9188	13,365
105502	26,675	-5,	8,9607	11,936
105503	27,354	-5,	8,7695	12,006
105504	26,22	-5,	9,8506	10,785
105505	26,899	-5,	9,6535	10,762
105506	26,006	-5,	9,1618	11,763
105507	25,762	-5,	10,745	9,8218
105508	26,44	-5,	10,546	9,7062
105509	25,303	-5,	11,642	9,0332
105510	25,98	-5,	11,437	8,8475
105511	25,091	-5,	10,954	9,8131
105512	24,838	-5,	12,535	8,4059
105513	25,515	-5,	12,329	8,1643
105514	24,367	-5,	13,419	7,9197
105515	25,047	-5,	13,218	7,6311
105516	23,896	-5,	14,297	7,5449
105517	24,575	-5,	14,096	7,2297
105518	23,424	-5,	15,174	7,258
105519	24,102	-5,	14,973	6,9259
105520	22,952	-5,	16,051	7,0445
105521	23,63	-5,	15,851	6,7025
105522	22,48	-5,	16,929	6,8932
105523	23,157	-5,	16,728	6,5458
105524	22,007	-5,	17,806	6,7952
105525	22,684	-5,	17,606	6,4453
105526	21,535	-5,	18,684	6,7435
105527	22,211	-5,	18,483	6,3929
105528	21,063	-5,	19,561	6,7326
105529	21,738	-5,	19,361	6,3821
105530	20,59	-5,	20,438	6,7582
105531	21,265	-5,	20,238	6,4082
105532	20,386	-5,	19,764	7,0205
105533	20,118	-5,	21,316	6,8166
105534	20,792	-5,	21,116	6,4673
105535	19,645	-5,	22,194	6,9051
105536	20,319	-5,	21,993	6,5562
105537	19,172	-5,	23,071	7,0212
105538	19,846	-5,	22,871	6,6725
105539	18,7	-5,	23,949	7,1629
105540	19,373	-5,	23,749	6,8141
105541	18,227	-5,	24,826	7,3285
105542	18,9	-5,	24,626	6,9794
105543	17,755	-5,	25,704	7,5167
105544	18,427	-5,	25,504	7,1669
105545	17,282	-5,	26,582	7,7261
105546	17,954	-5,	26,382	7,3754
105547	16,81	-5,	27,46	7,9555
105548	17,481	-5,	27,259	7,6036
105549	16,338	-5,	28,337	8,2041
105550	17,009	-5,	28,137	7,8506
105551	15,861	-5,	29,213	8,4731
105552	16,536	-5,	29,015	8,1155
105553	15,383	-5,	30,089	8,7598
105554	16,058	-5,	29,891	8,3994
105555	14,91	-5,	30,966	9,0611
105556	15,585	-5,	30,768	8,6972
105557	14,438	-5,	31,843	9,3785
105558	15,112	-5,	31,646	9,0098
105559	13,966	-5,	32,72	9,7113
105560	14,639	-5,	32,523	9,3363
105561	13,495	-5,	33,597	10,06
105562	14,172	-5,	33,401	9,6729
105563	13,023	-5,	34,473	10,425
105564	13,7	-5,	34,278	10,024
105565	12,55	-5,	35,35	10,808
105566	13,227	-5,	35,155	10,387
105567	12,075	-5,	36,226	11,212
105568	12,754	-5,	36,032	10,76
105569	12,278	-5,	36,909	11,147
105570	11,598	-5,	37,102	11,641
105571	10,664	-5,	38,848	12,57
105572	11,333	-5,	38,659	11,953
105573	11,126	-5,	37,975	12,094
105574	10,21	-5,	39,727	13,066
105575	10,868	-5,	39,537	12,368
105576	9,7657	-5,	40,615	13,569
105577	10,408	-5,	40,415	12,784
105578	9,3276	-5,	41,511	14,049
105579	9,9649	-5,	41,302	13,168
105580	8,89	-5,	42,409	14,462
105581	9,522	-5,	42,194	13,502
105582	8,4471	-5,	43,305	14,749
105583	9,0778	-5,	43,087	13,735
105584	7,9872	-5,	44,191	14,881
105585	8,627	-5,	43,977	13,817
105586	8,1565	-5,	44,855	13,757
105587	7,4886	-5,	45,056	14,915
105588	6,6127	-5,	46,716	14,67
105589	7,2299	-5,	46,545	13,456
105590	7,021	-5,	45,894	14,817
105591	6,2308	-5,	47,534	14,683
105592	6,7852	-5,	47,366	13,526
105593	5,7605	-5,	48,201	15,229
105594	6,3637	-5,	48,177	13,834
105595	5,7637	-5,	48,833	14,807
105596	5,0413	-5,	48,544	16,483
105597	3,8151	-5,	49,837	17,489
105598	4,0524	-5,	49,227	17,517
105599	4,3286	-5,	50,184	16,566
105600	4,7284	-5,	49,694	16,208
105601	3,0455	-5,	50,107	17,956
105602	3,5779	-5,	50,441	17,319
105603	3,2996	-5,	49,407	18,151
105604	2,1598	-5,	50,368	17,897
105605	2,7832	-5,	50,727	17,786
105606	2,5685	-5,	49,664	18,33
105607	1,04	-5,	50,649	17,363
105608	1,8273	-5,	50,953	17,841
105609	1,5969	-5,	49,957	17,808
105610	0,12967	-5,	51,321	17,543
105611	0,80418	-5,	51,273	17,531
105612	0,45131	-5,	50,259	17,325
105613	-0,25506	-5,	50,792	17,039
105614	-2,2353	-5,	50,941	17,715
105615	-1,8456	-5,	49,978	18,114
105616	-2,4243	-5,	50,371	17,96
105617	-1,4686	-5,	50,607	17,634
105618	-4,7112	-5,	48,908	16,966
105619	-4,5258	-5,	49,702	16,798
105620	-3,9922	-5,	49,587	17,632
105621	-4,9052	-5,	48,12	17,734
105622	-5,263	-5,	49,033	15,829
105623	-4,4145	-5,	47,455	21,765
105624	-6,6699	-5,	47,06	14,127
105625	-6,6702	-5,	48,087	13,197
105626	-6,8768	-5,	46,086	14,864
105627	-7,1951	-5,	46,672	13,347
105628	-7,241	-5,	45,191	15,299
105629	-7,5209	-5,	45,797	13,827
105630	-7,6728	-5,	44,301	15,456
105631	-7,9344	-5,	44,926	14,146
105632	-8,1327	-5,	43,404	15,32
105633	-8,3772	-5,	44,042	14,266
105634	-7,3894	-5,	43,682	16,933
105635	-8,626	-5,	42,506	14,9
105636	-8,8514	-5,	43,155	14,107
105637	-9,1353	-5,	41,604	14,331
105638	-9,3507	-5,	42,259	13,752
105639	-9,643	-5,	40,7	13,726
105640	-9,8498	-5,	41,365	13,312
105641	-10,145	-5,	39,799	13,139
105642	-10,348	-5,	40,47	12,849
105643	-10,843	-5,	39,578	12,391
105644	-10,645	-5,	38,902	12,59
105645	-9,9524	-5,	39,125	13,306
105646	-12,102	-5,	36,236	11,195
105647	-12,301	-5,	36,916	11,133
105648	-11,435	-5,	36,437	11,663
105649	-11,625	-5,	37,119	11,623
105650	-12,774	-5,	36,039	10,749
105651	-12,574	-5,	35,359	10,795
105652	-13,718	-5,	34,283	10,015
105653	-13,518	-5,	33,603	10,048
105654	-13,046	-5,	34,481	10,413
105655	-12,855	-5,	33,801	10,425
105656	-14,661	-5,	32,525	9,3254
105657	-14,461	-5,	31,843	9,3669
105658	-13,989	-5,	32,724	9,6999
105659	-15,398	-5,	30,063	8,751
105660	-15,598	-5,	30,755	8,6898
105661	-14,93	-5,	30,957	9,0506
105662	-15,869	-5,	29,17	8,4669
105663	-16,065	-5,	29,86	8,3946
105664	-16,344	-5,	28,284	8,1996
105665	-16,538	-5,	28,973	8,1127
105666	-15,675	-5,	28,482	8,5234
105667	-17,013	-5,	28,092	7,8476
105668	-16,819	-5,	27,405	7,9506
105669	-17,778	-5,	25,679	7,5059
105670	-17,973	-5,	26,359	7,3665
105671	-17,298	-5,	26,539	7,7187
105672	-18,25	-5,	24,818	7,3176
105673	-18,45	-5,	25,494	7,1552
105674	-17,587	-5,	24,999	7,6245
105675	-18,715	-5,	23,948	7,1549
105676	-18,914	-5,	24,625	6,9722
105677	-18,053	-5,	24,138	7,4577
105678	-19,177	-5,	23,072	7,0183
105679	-19,383	-5,	23,748	6,8087
105680	-19,643	-5,	22,195	6,9058
105681	-19,848	-5,	22,871	6,6711
105682	-18,975	-5,	22,393	7,2033
105683	-20,116	-5,	21,318	6,8172
105684	-20,321	-5,	21,993	6,5551
105685	-20,793	-5,	21,115	6,4666
105686	-20,588	-5,	20,441	6,7585
105687	-21,738	-5,	19,36	6,3823
105688	-21,061	-5,	19,564	6,7327
105689	-21,534	-5,	18,687	6,7433
105690	-22,951	-5,	16,056	7,0428
105691	-23,155	-5,	16,727	6,5477
105692	-22,479	-5,	16,933	6,8921
105693	-23,627	-5,	15,85	6,7051
105694	-23,423	-5,	15,179	7,2556
105695	-24,367	-5,	13,424	7,9157
105696	-24,571	-5,	14,095	7,2335
105697	-23,895	-5,	14,302	7,5417
105698	-25,042	-5,	13,217	7,6351
105699	-24,835	-5,	12,541	8,4015
105700	-25,765	-5,	10,763	9,7977
105701	-25,982	-5,	11,453	8,8286
105702	-25,303	-5,	11,655	9,0186
105703	-26,222	-5,	9,8645	10,765
105704	-26,441	-5,	10,556	9,6912
105705	-26,674	-5,	8,9689	11,924
105706	-26,901	-5,	9,6637	10,746
105707	-27,352	-5,	8,7722	12,
105708	-27,128	-5,	8,086	13,249
105709	-28,091	-5,	6,3938	16,108
105710	-27,389	-5,	6,5344	16,177
105711	-28,284	-5,	7,0499	14,86
105712	-27,598	-5,	7,2287	14,671
105713	-27,945	-5,	5,7301	17,699
105714	-28,764	-5,	6,2033	16,308
105715	-30,675	-5,	-0,91749	22,22
105716	-31,139	-5,	-0,62222	21,931
105717	-30,268	-5,	-0,56598	22,847
105718	-30,525	-5,	-1,7083	21,897
105719	-31,053	-5,	-1,4284	21,737
105720	-30,338	-5,	-1,2386	22,613
105721	-30,182	-5,	-2,4822	21,558
105722	-30,814	-5,	-2,2634	21,395
105723	-30,008	-5,	-1,9103	22,64
105724	-30,411	-5,	-3,0301	20,83
105725	-29,558	-5,	-2,5636	22,581
105726	-29,717	-5,	-3,2015	20,95
105727	-28,808	-5,	-4,6999	18,949
105728	-29,512	-5,	-4,5461	18,842
105729	-28,467	-5,	-4,0546	21,735
105730	-29,238	-5,	-3,9378	20,02
105731	-28,501	-5,	-5,5234	17,59
105732	-29,128	-5,	-5,3402	17,672
105733	-27,988	-5,	-4,8205	20,34
105734	-28,197	-5,	-6,4332	15,994
105735	-28,816	-5,	-6,2002	16,282
105736	-27,749	-5,	-7,3462	14,423
105737	-28,419	-5,	-7,1166	14,707
105738	-27,22	-5,	-8,1951	13,043
105739	-27,119	-5,	-7,5509	14,174
105740	-27,921	-5,	-7,9903	13,209
105741	-26,714	-5,	-9,0329	11,812
105742	-27,41	-5,	-8,8233	11,895
105743	-26,252	-5,	-9,9077	10,691
105744	-26,934	-5,	-9,6826	10,697
105745	-26,008	-5,	-9,278	11,601
105746	-25,799	-5,	-10,793	9,7361
105747	-26,478	-5,	-10,564	9,653
105748	-25,344	-5,	-11,66	8,9742
105749	-26,02	-5,	-11,439	8,8059
105750	-24,885	-5,	-12,519	8,3674
105751	-25,562	-5,	-12,301	8,1374
105752	-24,422	-5,	-13,37	7,8879
105753	-25,097	-5,	-13,163	7,6091
105754	-23,958	-5,	-14,222	7,5092
105755	-24,63	-5,	-14,015	7,2058
105756	-23,492	-5,	-15,079	7,2099
105757	-24,164	-5,	-14,877	6,8862
105758	-23,025	-5,	-15,941	6,9786
105759	-23,697	-5,	-15,739	6,6444
105760	-22,557	-5,	-16,802	6,8078
105761	-23,229	-5,	-16,606	6,4649
105762	-22,089	-5,	-17,662	6,6878
105763	-22,761	-5,	-17,467	6,3424
105764	-21,621	-5,	-18,528	6,6086
105765	-22,294	-5,	-18,333	6,2627
105766	-21,154	-5,	-19,394	6,5677
105767	-21,826	-5,	-19,2	6,2222
105768	-20,689	-5,	-20,256	6,56
105769	-21,358	-5,	-20,066	6,2156
105770	-20,224	-5,	-21,118	6,5815
105771	-20,893	-5,	-20,928	6,2384
105772	-19,757	-5,	-21,985	6,6292
105773	-20,426	-5,	-21,795	6,2873
105774	-19,291	-5,	-22,852	6,7006
105775	-19,959	-5,	-22,662	6,3595
105776	-18,824	-5,	-23,718	6,7933
105777	-19,492	-5,	-23,529	6,4525
105778	-18,357	-5,	-24,585	6,9051
105779	-19,024	-5,	-24,396	6,5641
105780	-17,89	-5,	-25,452	7,0342
105781	-18,561	-5,	-25,259	6,6905
105782	-17,424	-5,	-26,319	7,1787
105783	-18,095	-5,	-26,126	6,8332
105784	-16,957	-5,	-27,186	7,3371
105785	-17,628	-5,	-26,994	6,9891
105786	-16,49	-5,	-28,054	7,5076
105787	-17,161	-5,	-27,861	7,1563
105788	-16,024	-5,	-28,921	7,689
105789	-16,693	-5,	-28,729	7,3333
105790	-15,558	-5,	-29,788	7,8798
105791	-16,227	-5,	-29,595	7,5183
105792	-15,091	-5,	-30,655	8,0786
105793	-15,761	-5,	-30,462	7,7099
105794	-14,62	-5,	-31,521	8,2871
105795	-15,294	-5,	-31,329	7,9066
105796	-14,148	-5,	-32,388	8,5014
105797	-14,823	-5,	-32,196	8,1099
105798	-13,681	-5,	-33,254	8,7165
105799	-14,356	-5,	-33,063	8,3126
105800	-13,214	-5,	-34,12	8,9335
105801	-13,889	-5,	-33,929	8,5155
105802	-12,747	-5,	-34,985	9,1495
105803	-13,421	-5,	-34,796	8,7167
105804	-12,279	-5,	-35,851	9,3614
105805	-12,954	-5,	-35,662	8,9138
105806	-11,806	-5,	-36,718	9,5681
105807	-12,487	-5,	-36,528	9,1042
105808	-11,326	-5,	-37,584	9,7654
105809	-12,014	-5,	-37,396	9,2877
105810	-10,846	-5,	-38,452	9,9397
105811	-11,533	-5,	-38,259	9,4627
105812	-10,361	-5,	-39,324	10,085
105813	-11,053	-5,	-39,129	9,6152
105814	-9,8683	-5,	-40,199	10,196
105815	-10,571	-5,	-39,999	9,7425
105816	-9,3791	-5,	-41,08	10,261
105817	-10,082	-5,	-40,874	9,8433
105818	-8,8896	-5,	-41,966	10,296
105819	-9,5972	-5,	-41,753	9,91
105820	-8,398	-5,	-42,851	10,319
105821	-9,1093	-5,	-42,633	9,9595
105822	-7,9192	-5,	-43,729	10,354
105823	-8,6282	-5,	-43,511	9,9922
105824	-7,4696	-5,	-44,598	10,365
105825	-8,1682	-5,	-44,382	10,012
105826	-7,0443	-5,	-45,464	10,312
105827	-7,7291	-5,	-45,246	9,959
105828	-6,6187	-5,	-46,327	10,158
105829	-7,2962	-5,	-46,111	9,8311
105830	-6,1685	-5,	-47,168	9,8711
105831	-6,8565	-5,	-46,963	9,612
105832	-5,693	-5,	-47,947	9,4567
105833	-6,3851	-5,	-47,781	9,3177
105834	-5,1497	-5,	-48,75	8,7646
105835	-5,876	-5,	-48,542	8,8777
105836	-4,0264	-5,	-50,185	7,1761
105837	-4,6545	-5,	-49,64	7,9133
105838	-4,3672	-5,	-50,55	7,2081
105839	-4,8658	-5,	-50,151	7,4802
105840	-3,1259	-5,	-50,475	6,6598
105841	-3,6562	-5,	-49,722	7,5146
105842	-3,5729	-5,	-50,799	6,8184
105843	-2,7782	-5,	-51,109	6,4323
105844	-2,6026	-5,	-50,26	6,4342
105845	0,40063	-5,	-50,963	5,5581
105846	-0,18114	-5,	-51,424	5,7337
105847	0,1416	-5,	-50,397	4,7188
105848	1,2029	-5,	-51,2	5,8082
105849	0,64259	-5,	-51,535	5,824
105850	1,1254	-5,	-50,5	5,3922
105851	1,8346	-5,	-51,045	6,0872
105852	1,3888	-5,	-51,777	6,0384
105853	2,4945	-5,	-50,538	6,3527
105854	2,4582	-5,	-51,16	6,2672
105855	1,7571	-5,	-50,344	5,6008
105856	3,3001	-5,	-50,287	6,8119
105857	3,2079	-5,	-50,805	6,6067
105858	2,8892	-5,	-49,796	6,7371
105859	4,0652	-5,	-50,055	7,3437
105860	3,6915	-5,	-49,868	7,3533
105861	3,9803	-5,	-50,561	7,0389
105862	4,0537	-5,	-49,707	7,5373
105863	4,6801	-5,	-50,179	7,4713
105864	5,6135	-5,	-48,432	8,985
105865	5,7433	-5,	-49,001	8,4788
105866	6,018	-5,	-47,732	9,4708
105867	6,2102	-5,	-48,322	8,9639
105868	6,3939	-5,	-46,975	9,8501
105869	6,6308	-5,	-47,586	9,3247
105870	5,7523	-5,	-47,204	10,442
105871	6,7681	-5,	-46,174	10,121
105872	7,0247	-5,	-46,802	9,6022
105873	7,1558	-5,	-45,34	10,269
105874	7,4174	-5,	-45,979	9,8136
105875	7,5674	-5,	-44,487	10,326
105876	7,8236	-5,	-45,135	9,9401
105877	8,0176	-5,	-43,628	10,313
105878	8,2536	-5,	-44,284	9,9878
105879	8,4987	-5,	-42,765	10,278
105880	8,7158	-5,	-43,428	9,9636
105881	8,9894	-5,	-41,899	10,249
105882	9,1987	-5,	-42,566	9,923
105883	9,4769	-5,	-41,031	10,207
105884	9,6839	-5,	-41,7	9,8677
105885	9,9567	-5,	-40,159	10,142
105886	10,164	-5,	-40,833	9,7962
105887	10,43	-5,	-39,289	10,041
105888	10,636	-5,	-39,963	9,7035
105889	10,899	-5,	-38,423	9,9056
105890	11,105	-5,	-39,097	9,5837
105891	11,367	-5,	-37,557	9,7396
105892	11,573	-5,	-38,231	9,4387
105893	11,835	-5,	-36,691	9,5515
105894	12,041	-5,	-37,364	9,2736
105895	12,302	-5,	-35,824	9,3487
105896	12,509	-5,	-36,497	9,0937
105897	12,769	-5,	-34,958	9,1371
105898	12,976	-5,	-35,631	8,9033
105899	13,236	-5,	-34,092	8,9215
105900	13,443	-5,	-34,764	8,7063
105901	13,703	-5,	-33,226	8,7051
105902	13,91	-5,	-33,897	8,5053
105903	14,17	-5,	-32,359	8,4904
105904	14,377	-5,	-33,031	8,3026
105905	14,637	-5,	-31,493	8,2795
105906	14,844	-5,	-32,164	8,1003
105907	15,103	-5,	-30,626	8,0739
105908	15,311	-5,	-31,297	7,8999
105909	15,57	-5,	-29,759	7,8751
105910	15,777	-5,	-30,429	7,7032
105911	16,037	-5,	-28,892	7,6844
105912	16,244	-5,	-29,562	7,5116
105913	16,503	-5,	-28,024	7,5031
105914	16,711	-5,	-28,695	7,3267
105915	16,97	-5,	-27,157	7,3328
105916	17,178	-5,	-27,827	7,1501
105917	17,437	-5,	-26,29	7,1748
105918	17,645	-5,	-26,96	6,9833
105919	17,904	-5,	-25,423	7,0306
105920	18,112	-5,	-26,092	6,8279
105921	18,371	-5,	-24,555	6,902
105922	18,583	-5,	-25,222	6,6839
105923	18,838	-5,	-23,688	6,7907
105924	19,05	-5,	-24,354	6,5567
105925	19,306	-5,	-22,821	6,6985
105926	19,516	-5,	-23,487	6,4461
105927	19,773	-5,	-21,954	6,6277
105928	19,983	-5,	-22,619	6,3543
105929	20,24	-5,	-21,087	6,5808
105930	20,45	-5,	-21,752	6,2834
105931	20,707	-5,	-20,22	6,5604
105932	20,917	-5,	-20,884	6,2361
105933	21,174	-5,	-19,353	6,5699
105934	21,384	-5,	-20,017	6,2153
105935	21,641	-5,	-18,486	6,6132
105936	21,851	-5,	-19,15	6,2245
105937	22,108	-5,	-17,62	6,695
105938	22,318	-5,	-18,282	6,2681
105939	22,575	-5,	-16,753	6,8212
105940	22,785	-5,	-17,415	6,3514
105941	23,042	-5,	-15,886	6,999
105942	23,251	-5,	-16,548	6,4811
105943	23,718	-5,	-15,681	6,6658
105944	23,509	-5,	-15,02	7,2376
105945	24,442	-5,	-13,286	7,9463
105946	24,651	-5,	-13,946	7,2459
105947	23,976	-5,	-14,153	7,5485
105948	24,904	-5,	-12,415	8,455
105949	25,117	-5,	-13,079	7,6725
105950	25,359	-5,	-11,539	9,0974
105951	25,578	-5,	-12,207	8,2231
105952	25,801	-5,	-10,651	9,9094
105953	26,034	-5,	-11,334	8,9214
105954	26,223	-5,	-9,7587	10,91
105955	26,468	-5,	-10,446	9,8164
105956	26,643	-5,	-8,9191	12,012
105957	26,897	-5,	-9,5741	10,877
105958	27,096	-5,	-8,1577	13,136
105959	27,347	-5,	-8,7544	12,03
105960	27,538	-5,	-7,3791	14,424
105961	27,817	-5,	-7,9756	13,261
105962	27,922	-5,	-6,5763	15,84
105963	28,229	-5,	-7,1558	14,681
105964	28,338	-5,	-5,7201	17,353
105965	28,621	-5,	-6,3391	16,099
105966	27,592	-5,	-6,0862	17,076
105967	28,774	-5,	-4,802	18,834
105968	29,066	-5,	-5,4398	17,58
105969	29,237	-5,	-3,9401	19,999
105970	29,502	-5,	-4,5567	18,837
105971	28,36	-5,	-4,1896	21,692
105972	29,816	-5,	-3,1689	20,825
105973	30,019	-5,	-3,7333	19,912
105974	29,07	-5,	-3,2878	22,296
105975	30,319	-5,	-2,4066	21,403
105976	30,561	-5,	-2,9632	20,777
105977	30,503	-5,	-1,6306	21,984
105978	30,906	-5,	-2,1039	21,416
105979	30,571	-5,	-0,86397	22,329
105980	30,991	-5,	-1,3427	21,803
105981	30,047	-5,	-1,1827	23,003
105982	30,704	-5,	-9,6058e-002	22,343
105983	30,831	-5,	0,63465	22,062
105984	31,214	-5,	0,21105	21,865
105985	30,311	-5,	0,41856	22,837
105986	31,104	-5,	-0,56022	21,98
105987	30,17	-5,	-0,30882	22,956
105988	29,1	-5,	4,9624	18,267
105989	29,285	-5,	5,5368	17,296
105990	29,75	-5,	1,9268	22,906
105991	30,313	-5,	2,328	21,748
105992	31,286	-5,	0,97352	21,629
105993	30,891	-5,	1,3569	21,724
105994	29,603	-5,	4,2422	19,171
105995	29,79	-5,	4,7848	18,295
105996	30,065	-5,	3,5302	20,026
105997	30,26	-5,	4,0441	19,252
105998	30,667	-5,	3,3019	20,222
105999	30,464	-5,	2,82	20,768
106000	-27,242	-5,	5,8706	17,767
106001	-26,48	-5,	5,9465	18,25
106002	-27,918	-5,	5,0957	19,09
106003	-27,128	-5,	5,2182	20,27
106004	-28,638	-5,	4,3454	19,945
106005	-27,766	-5,	4,5095	21,889
106006	-29,278	-5,	3,5867	20,656
106007	-29,579	-5,	4,1457	19,558
106008	-28,429	-5,	3,7994	22,824
106009	-29,815	-5,	2,7544	21,451
106010	-30,099	-5,	3,298	20,604
106011	-29,062	-5,	3,0439	22,912
106012	-30,267	-5,	1,7957	22,01
106013	-30,539	-5,	2,418	21,507
106014	-29,588	-5,	2,1898	22,974
106015	-4,2843	-5,	-49,177	8,0402
106016	-5,3121	-5,	-49,341	8,1769
106017	-31,048	-5,	1,0774	21,856
106018	-30,938	-5,	1,4705	21,858
106019	-30,	-5,	1,1939	23,053
106020	5,3187	-5,	-43,061	16,375
106021	5,5271	-5,	-43,833	14,942
106022	3,8888	-5,	-49,273	7,973
106023	3,2806	-5,	-49,378	7,1512
106024	-3,1329	-5,	-49,507	7,1688
106025	-3,2915	-5,	-48,926	7,927
106026	-20,356	-5,	3,0704	16,081
106027	-19,996	-5,	2,3655	15,23
106028	20,357	-5,	-3,0725	16,101
106029	19,995	-5,	-2,3698	15,206
106030	-5,607	-5,	43,761	22,916
106031	-5,3515	-5,	42,977	23,202
106032	-6,337	-5,	43,373	20,24
106033	4,2561	-5,	48,68	17,462
106034	3,5368	-5,	48,798	17,899
106035	3,7203	-5,	47,796	26,282
106036	31,209	-5,	3,0254	20,212
106037	30,863	-5,	3,8157	19,307
106038	31,451	-5,	3,5179	19,956
106039	31,473	-5,	2,211	20,782
106040	31,741	-5,	2,6829	20,56
106041	31,005	-5,	2,5435	20,93
106042	31,63	-5,	1,3787	21,068
106043	31,235	-5,	1,762	21,371
106044	31,952	-5,	1,8292	20,892
106045	31,669	-5,	0,54992	21,227
106046	32,073	-5,	0,95746	21,08
106047	31,614	-5,	-0,25312	21,283
106048	32,091	-5,	0,10163	21,162
106049	31,525	-5,	-1,0389	21,226
106050	32,031	-5,	-0,73213	21,125
106051	31,395	-5,	-1,816	21,046
106052	31,918	-5,	-1,5506	21,
106053	31,149	-5,	-2,6605	20,524
106054	31,72	-5,	-2,3641	20,761
106055	30,764	-5,	-3,5277	19,647
106056	31,41	-5,	-3,2848	20,186
106057	30,284	-5,	-4,3499	18,589
106058	31,013	-5,	-4,1417	19,064
106059	29,795	-5,	-5,1945	17,523
106060	30,519	-5,	-4,977	17,901
106061	29,349	-5,	-6,0588	16,346
106062	30,058	-5,	-5,8313	16,78
106063	28,927	-5,	-6,9186	14,99
106064	29,622	-5,	-6,6932	15,4
106065	28,509	-5,	-7,7523	13,563
106066	29,192	-5,	-7,5496	13,826
106067	28,068	-5,	-8,5723	12,195
106068	28,755	-5,	-8,3855	12,28
106069	27,6	-5,	-9,4095	10,927
106070	28,293	-5,	-9,2231	10,866
106071	27,142	-5,	-10,262	9,8048
106072	27,825	-5,	-10,075	9,6277
106073	26,701	-5,	-11,129	8,842
106074	27,373	-5,	-10,936	8,5831
106075	26,253	-5,	-12,002	8,0568
106076	26,926	-5,	-11,811	7,7215
106077	25,792	-5,	-12,871	7,4473
106078	26,464	-5,	-12,68	7,0653
106079	25,326	-5,	-13,739	6,9769
106080	25,998	-5,	-13,548	6,5662
106081	24,86	-5,	-14,607	6,6169
106082	25,531	-5,	-14,416	6,191
106083	24,393	-5,	-15,474	6,3465
106084	25,065	-5,	-15,284	5,9149
106085	24,184	-5,	-14,813	6,9161
106086	23,927	-5,	-16,342	6,1492
106087	24,598	-5,	-16,151	5,718
106088	23,461	-5,	-17,21	6,0119
106089	24,131	-5,	-17,019	5,585
106090	22,994	-5,	-18,078	5,9246
106091	23,665	-5,	-17,887	5,5041
106092	22,528	-5,	-18,946	5,8792
106093	23,198	-5,	-18,755	5,4662
106094	22,061	-5,	-19,813	5,8695
106095	22,731	-5,	-19,623	5,4643
106096	21,594	-5,	-20,681	5,8906
106097	22,264	-5,	-20,491	5,493
106098	21,128	-5,	-21,549	5,9385
106099	21,797	-5,	-21,359	5,548
106100	20,661	-5,	-22,417	6,0099
106101	21,33	-5,	-22,226	5,6259
106102	20,194	-5,	-23,285	6,1021
106103	20,863	-5,	-23,094	5,7239
106104	19,728	-5,	-24,153	6,2127
106105	20,396	-5,	-23,962	5,8396
106106	19,261	-5,	-25,021	6,3395
106107	19,929	-5,	-24,83	5,9709
106108	18,79	-5,	-25,892	6,4824
106109	19,462	-5,	-25,698	6,1157
106110	18,319	-5,	-26,762	6,6379
106111	18,992	-5,	-26,569	6,2742
106112	17,852	-5,	-27,63	6,8024
106113	18,524	-5,	-27,437	6,4409
106114	17,385	-5,	-28,498	6,9758
106115	18,057	-5,	-28,304	6,6157
106116	16,918	-5,	-29,365	7,1563
106117	17,59	-5,	-29,172	6,7967
106118	16,451	-5,	-30,233	7,3422
106119	17,123	-5,	-30,04	6,982
106120	15,985	-5,	-31,1	7,5318
106121	16,656	-5,	-30,908	7,1696
106122	15,518	-5,	-31,968	7,7234
106123	16,19	-5,	-31,775	7,3575
106124	15,051	-5,	-32,835	7,9152
106125	15,723	-5,	-32,643	7,5439
106126	14,584	-5,	-33,702	8,1055
106127	15,256	-5,	-33,51	7,7266
106128	14,117	-5,	-34,569	8,2927
106129	14,789	-5,	-34,378	7,9041
106130	13,65	-5,	-35,437	8,475
106131	14,322	-5,	-35,246	8,0746
106132	13,183	-5,	-36,304	8,6507
106133	13,855	-5,	-36,113	8,2372
106134	12,716	-5,	-37,171	8,818
106135	13,388	-5,	-36,981	8,3911
106136	12,248	-5,	-38,038	8,9746
106137	12,92	-5,	-37,848	8,5362
106138	11,78	-5,	-38,905	9,1183
106139	12,453	-5,	-38,715	8,6734
106140	11,311	-5,	-39,771	9,2468
106141	11,985	-5,	-39,583	8,804
106142	10,843	-5,	-40,637	9,3585
106143	11,516	-5,	-40,45	8,9306
106144	10,371	-5,	-41,503	9,4564
106145	11,048	-5,	-41,316	9,0564
106146	9,8933	-5,	-42,367	9,541
106147	10,575	-5,	-42,182	9,1876
106148	9,4158	-5,	-43,229	9,6084
106149	10,099	-5,	-43,042	9,3208
106150	8,9519	-5,	-44,084	9,637
106151	9,6327	-5,	-43,9	9,4372
106152	8,5098	-5,	-44,932	9,5986
106153	9,1793	-5,	-44,753	9,5032
106154	8,0851	-5,	-45,775	9,4766
106155	8,7356	-5,	-45,605	9,4793
106156	7,674	-5,	-46,607	9,2867
106157	8,3078	-5,	-46,449	9,3306
106158	7,2616	-5,	-47,413	9,0784
106159	7,8857	-5,	-47,284	9,0782
106160	6,8231	-5,	-48,176	8,8358
106161	7,4516	-5,	-48,09	8,851
106162	6,34	-5,	-48,891	8,4802
106163	6,943	-5,	-48,822	8,5482
106164	5,8251	-5,	-49,553	8,0354
106165	6,4015	-5,	-49,515	8,0907
106166	5,2485	-5,	-50,167	7,5619
106167	5,8403	-5,	-50,159	7,6421
106168	4,5951	-5,	-50,686	7,1521
106169	5,1993	-5,	-50,776	7,2195
106170	3,8882	-5,	-51,08	6,8345
106171	4,5218	-5,	-51,27	6,8983
106172	3,1716	-5,	-51,427	6,5594
106173	3,7961	-5,	-51,683	6,6401
106174	3,0851	-5,	-52,066	6,418
106175	0,82855	-5,	-52,112	6,0327
106176	1,1222	-5,	-52,642	6,114
106177	6,082e-002	-5,	-51,996	5,982
106178	0,33032	-5,	-52,548	6,0599
106179	-0,75162	-5,	-51,937	6,0097
106180	-0,49142	-5,	-52,46	6,0488
106181	-1,6133	-5,	-51,865	6,1293
106182	-1,3356	-5,	-52,377	6,1221
106183	-2,4767	-5,	-51,675	6,3145
106184	-2,2231	-5,	-52,217	6,252
106185	-3,2251	-5,	-51,433	6,5438
106186	-3,0859	-5,	-51,972	6,4322
106187	-3,9136	-5,	-51,164	6,7839
106188	-3,796	-5,	-51,71	6,6213
106189	-4,6452	-5,	-50,908	7,0373
106190	-4,5357	-5,	-51,363	6,8578
106191	-5,1438	-5,	-50,509	7,373
106192	-5,2321	-5,	-51,045	7,0959
106193	-5,5233	-5,	-49,852	7,8298
106194	-5,6514	-5,	-50,435	7,4463
106195	-6,0384	-5,	-49,133	8,3449
106196	-6,1862	-5,	-49,734	7,9378
106197	-6,5681	-5,	-48,376	8,7696
106198	-6,7236	-5,	-49,007	8,4415
106199	-7,0731	-5,	-47,577	9,0613
106200	-7,2807	-5,	-48,236	8,8093
106201	-7,534	-5,	-46,747	9,2709
106202	-7,7562	-5,	-47,406	9,0402
106203	-7,981	-5,	-45,893	9,4662
106204	-8,2106	-5,	-46,557	9,305
106205	-8,4278	-5,	-45,03	9,6011
106206	-8,6639	-5,	-45,692	9,4765
106207	-8,8773	-5,	-44,164	9,6496
106208	-9,1133	-5,	-44,826	9,5133
106209	-9,3395	-5,	-43,294	9,6322
106210	-9,5709	-5,	-43,959	9,4567
106211	-9,8169	-5,	-42,42	9,5732
106212	-10,042	-5,	-43,088	9,3446
106213	-10,3	-5,	-41,546	9,4916
106214	-10,519	-5,	-42,216	9,2159
106215	-10,784	-5,	-40,674	9,3903
106216	-10,999	-5,	-41,345	9,0839
106217	-11,263	-5,	-39,804	9,2738
106218	-11,474	-5,	-40,476	8,9545
106219	-11,74	-5,	-38,936	9,1397
106220	-11,95	-5,	-39,61	8,8222
106221	-12,221	-5,	-38,071	8,987
106222	-12,425	-5,	-38,742	8,6871
106223	-12,695	-5,	-37,206	8,8259
106224	-12,898	-5,	-37,878	8,5453
106225	-13,162	-5,	-36,339	8,659
106226	-13,366	-5,	-37,01	8,4001
106227	-13,629	-5,	-35,472	8,4835
106228	-13,833	-5,	-36,143	8,2463
106229	-14,096	-5,	-34,605	8,3014
106230	-14,3	-5,	-35,276	8,0837
106231	-14,563	-5,	-33,738	8,1143
106232	-14,768	-5,	-34,409	7,9131
106233	-15,03	-5,	-32,871	7,9239
106234	-15,235	-5,	-33,541	7,7355
106235	-15,497	-5,	-32,004	7,7321
106236	-15,702	-5,	-32,674	7,5526
106237	-15,964	-5,	-31,137	7,5405
106238	-16,169	-5,	-31,807	7,3662
106239	-16,43	-5,	-30,27	7,3508
106240	-16,636	-5,	-30,94	7,1782
106241	-16,897	-5,	-29,404	7,1649
106242	-17,103	-5,	-30,072	6,9905
106243	-17,364	-5,	-28,537	6,9841
106244	-17,57	-5,	-29,206	6,8052
106245	-17,831	-5,	-27,668	6,8101
106246	-18,037	-5,	-28,338	6,6237
106247	-18,298	-5,	-26,8	6,6451
106248	-18,505	-5,	-27,47	6,4485
106249	-18,765	-5,	-25,933	6,4907
106250	-18,972	-5,	-26,602	6,2814
106251	-19,229	-5,	-25,07	6,3503
106252	-19,439	-5,	-25,735	6,1241
106253	-19,692	-5,	-24,206	6,2239
106254	-19,902	-5,	-24,872	5,9802
106255	-20,16	-5,	-23,339	6,1116
106256	-20,37	-5,	-24,004	5,8478
106257	-20,627	-5,	-22,472	6,0176
106258	-20,837	-5,	-23,137	5,7309
106259	-21,095	-5,	-21,605	5,9441
106260	-21,305	-5,	-22,27	5,6315
106261	-21,563	-5,	-20,738	5,8937
106262	-21,772	-5,	-21,402	5,552
106263	-22,03	-5,	-19,871	5,8698
106264	-22,24	-5,	-20,535	5,4951
106265	-22,498	-5,	-19,005	5,8761
106266	-22,707	-5,	-19,668	5,4643
106267	-22,966	-5,	-18,138	5,9175
106268	-23,175	-5,	-18,801	5,4637
106269	-23,434	-5,	-17,271	6,0001
106270	-23,643	-5,	-17,934	5,4985
106271	-23,901	-5,	-16,404	6,1319
106272	-24,11	-5,	-17,067	5,5757
106273	-24,369	-5,	-15,537	6,3228
106274	-24,578	-5,	-16,2	5,7043
106275	-24,836	-5,	-14,67	6,586
106276	-25,045	-5,	-15,332	5,8961
106277	-25,305	-5,	-13,808	6,9316
106278	-25,512	-5,	-14,465	6,1663
106279	-25,981	-5,	-13,602	6,5284
106280	-25,774	-5,	-12,945	7,3852
106281	-26,699	-5,	-11,21	8,7345
106282	-26,912	-5,	-11,868	7,6606
106283	-26,238	-5,	-12,079	7,9775
106284	-27,16	-5,	-10,339	9,6772
106285	-27,376	-5,	-10,998	8,4906
106286	-27,629	-5,	-9,473	10,808
106287	-27,839	-5,	-10,129	9,5287
106288	-28,314	-5,	-9,2687	10,773
106289	-28,111	-5,	-8,6185	12,098
106290	-29,038	-5,	-6,8835	15,032
106291	-29,26	-5,	-7,5456	13,825
106292	-28,591	-5,	-7,7606	13,534
106293	-29,443	-5,	-6,017	16,381
106294	-29,697	-5,	-6,6711	15,434
106295	-29,833	-5,	-5,1864	17,525
106296	-30,11	-5,	-5,8205	16,792
106297	-30,24	-5,	-4,3925	18,561
106298	-30,525	-5,	-4,9958	17,88
106299	-30,66	-5,	-3,6127	19,57
106300	-30,958	-5,	-4,1933	19,001
106301	-29,966	-5,	-3,7842	19,875
106302	-31,043	-5,	-2,8113	20,443
106303	-31,329	-5,	-3,3691	20,086
106304	-31,341	-5,	-1,9835	20,98
106305	-31,655	-5,	-2,5199	20,706
106306	-31,517	-5,	-1,1331	21,199
106307	-31,886	-5,	-1,6582	21,009
106308	-31,562	-5,	-0,28901	21,308
106309	-32,	-5,	-0,77006	21,143
106310	-31,587	-5,	0,49954	21,323
106311	-32,013	-5,	7,8616e-002	21,197
106312	-31,51	-5,	1,2698	21,192
106313	-32,015	-5,	0,89699	21,138
106314	-31,209	-5,	2,0928	20,955
106315	-31,814	-5,	1,732	20,995
106316	-30,822	-5,	2,9616	20,365
106317	-31,494	-5,	2,6111	20,709
106318	-30,4	-5,	3,857	19,295
106319	-31,151	-5,	3,4975	19,954
106320	-30,254	-5,	4,6314	18,311
106321	-30,81	-5,	4,3551	18,747
106322	-29,939	-5,	5,316	17,321
106323	-30,713	-5,	5,0774	17,827
106324	-29,363	-5,	6,0539	16,37
106325	-30,068	-5,	5,8855	16,728
106326	-28,957	-5,	6,8593	15,097
106327	-29,643	-5,	6,6758	15,436
106328	-28,499	-5,	7,7246	13,627
106329	-29,187	-5,	7,535	13,861
106330	-28,037	-5,	8,5897	12,183
106331	-28,722	-5,	8,4007	12,269
106332	-27,813	-5,	7,9035	13,393
106333	-27,579	-5,	9,4669	10,85
106334	-28,26	-5,	9,2709	10,805
106335	-27,12	-5,	10,355	9,6913
106336	-27,799	-5,	10,157	9,5209
106337	-26,657	-5,	11,246	8,7348
106338	-27,336	-5,	11,045	8,4679
106339	-26,189	-5,	12,131	7,9806
106340	-26,868	-5,	11,93	7,643
106341	-25,717	-5,	13,009	7,4011
106342	-26,395	-5,	12,808	7,0163
106343	-25,51	-5,	12,333	8,1617
106344	-25,246	-5,	13,887	6,9568
106345	-25,923	-5,	13,686	6,543
106346	-24,774	-5,	14,765	6,6236
106347	-25,451	-5,	14,564	6,194
106348	-24,302	-5,	15,643	6,3802
106349	-24,979	-5,	15,442	5,9444
106350	-24,099	-5,	14,972	6,9293
106351	-23,83	-5,	16,522	6,2107
106352	-24,507	-5,	16,321	5,7746
106353	-23,359	-5,	17,4	6,1023
106354	-24,035	-5,	17,199	5,6696
106355	-22,887	-5,	18,278	6,0452
106356	-23,562	-5,	18,077	5,618
106357	-22,682	-5,	17,605	6,4466
106358	-22,415	-5,	19,156	6,0321
106359	-23,09	-5,	18,955	5,6111
106360	-22,21	-5,	18,482	6,3936
106361	-21,943	-5,	20,034	6,057
106362	-22,618	-5,	19,833	5,6426
106363	-21,47	-5,	20,912	6,1157
106364	-22,145	-5,	20,711	5,7074
106365	-21,266	-5,	20,238	6,4079
106366	-20,998	-5,	21,79	6,2045
106367	-21,673	-5,	21,59	5,802
106368	-20,526	-5,	22,669	6,3208
106369	-21,201	-5,	22,468	5,9234
106370	-20,054	-5,	23,547	6,4624
106371	-20,728	-5,	23,346	6,0694
106372	-19,581	-5,	24,425	6,6275
106373	-20,256	-5,	24,224	6,2384
106374	-19,114	-5,	25,302	6,8118
106375	-19,783	-5,	25,102	6,4288
106376	-18,645	-5,	26,175	7,0184
106377	-19,316	-5,	25,979	6,6367
106378	-18,165	-5,	27,043	7,2502
106379	-18,841	-5,	26,854	6,8681
106380	-17,685	-5,	27,91	7,5
106381	-18,363	-5,	27,725	7,119
106382	-17,491	-5,	27,223	7,5992
106383	-17,208	-5,	28,782	7,7651
106384	-17,883	-5,	28,591	7,3881
106385	-16,734	-5,	29,663	8,0454
106386	-17,408	-5,	29,467	7,6704
106387	-16,265	-5,	30,552	8,3391
106388	-16,937	-5,	30,352	7,9656
106389	-15,8	-5,	31,443	8,645
106390	-16,472	-5,	31,242	8,2727
106391	-15,333	-5,	32,328	8,9648
106392	-16,004	-5,	32,128	8,5933
106393	-15,132	-5,	31,646	8,9995
106394	-14,861	-5,	33,207	9,2972
106395	-15,532	-5,	33,006	8,9257
106396	-14,389	-5,	34,085	9,6387
106397	-15,06	-5,	33,884	9,2659
106398	-14,189	-5,	33,405	9,6645
106399	-13,917	-5,	34,963	9,987
106400	-14,588	-5,	34,762	9,6107
106401	-13,445	-5,	35,841	10,34
106402	-14,115	-5,	35,64	9,9564
106403	-13,245	-5,	35,161	10,377
106404	-12,973	-5,	36,719	10,694
106405	-13,643	-5,	36,518	10,298
106406	-12,5	-5,	37,597	11,048
106407	-13,17	-5,	37,396	10,632
106408	-12,019	-5,	38,479	11,405
106409	-12,697	-5,	38,274	10,95
106410	-11,824	-5,	37,8	11,531
106411	-11,532	-5,	39,363	11,76
106412	-12,216	-5,	39,156	11,251
106413	-11,334	-5,	38,688	11,952
106414	-11,045	-5,	40,248	12,107
106415	-11,737	-5,	40,037	11,522
106416	-10,554	-5,	41,135	12,441
106417	-11,249	-5,	40,92	11,762
106418	-10,766	-5,	41,804	11,95
106419	-10,065	-5,	42,021	12,739
106420	-9,0959	-5,	43,792	13,056
106421	-9,7964	-5,	43,572	12,099
106422	-9,576	-5,	42,908	12,964
106423	-8,6388	-5,	44,667	12,956
106424	-9,3286	-5,	44,447	11,984
106425	-8,2143	-5,	45,532	12,673
106426	-8,8795	-5,	45,317	11,72
106427	-7,8392	-5,	46,384	12,306
106428	-8,4632	-5,	46,175	11,356
106429	-8,0984	-5,	47,022	10,992
106430	-6,4132	-5,	48,791	13,3
106431	-6,9494	-5,	49,029	11,771
106432	-5,7666	-5,	49,263	14,469
106433	-6,3134	-5,	49,489	12,976
106434	-5,0776	-5,	49,827	15,514
106435	-5,6251	-5,	50,018	14,189
106436	-4,3606	-5,	50,438	16,227
106437	-4,8974	-5,	50,562	15,285
106438	-3,6053	-5,	50,941	16,758
106439	-4,1434	-5,	51,137	16,08
106440	-3,8271	-5,	50,323	17,26
106441	-2,8416	-5,	51,277	17,102
106442	-3,3417	-5,	51,57	16,78
106443	-3,0306	-5,	50,707	17,626
106444	-2,177	-5,	51,603	17,296
106445	-2,5764	-5,	51,907	17,235
106446	-1,5267	-5,	51,811	17,385
106447	-1,9129	-5,	52,165	17,636
106448	-1,4103	-5,	51,269	17,549
106449	-0,66881	-5,	51,83	17,27
106450	-1,1162	-5,	52,274	17,826
106451	-1,0535	-5,	51,301	17,7
106452	0,20714	-5,	51,951	17,466
106453	-0,13427	-5,	52,318	17,998
106454	0,88164	-5,	51,903	17,478
106455	0,63822	-5,	52,442	18,037
106456	1,5915	-5,	51,577	17,312
106457	1,3825	-5,	52,184	17,767
106458	2,4507	-5,	51,312	17,216
106459	2,2243	-5,	51,916	17,437
106460	3,3156	-5,	51,061	16,93
106461	3,1146	-5,	51,653	16,965
106462	4,0914	-5,	50,788	16,298
106463	3,9579	-5,	51,364	16,174
106464	4,7619	-5,	50,548	15,461
106465	4,7024	-5,	51,033	15,205
106466	5,1616	-5,	50,059	15,122
106467	5,3484	-5,	50,707	14,201
106468	5,6545	-5,	49,436	14,577
106469	4,9321	-5,	49,147	16,325
106470	5,7361	-5,	50,019	13,899
106471	6,3668	-5,	48,809	13,385
106472	6,386	-5,	49,457	12,843
106473	6,9181	-5,	48,009	12,668
106474	7,0269	-5,	48,654	11,912
106475	7,4024	-5,	47,195	12,306
106476	7,57	-5,	47,867	11,264
106477	7,8667	-5,	46,36	12,286
106478	8,0473	-5,	47,029	11,086
106479	8,3258	-5,	45,508	12,492
106480	8,5081	-5,	46,174	11,272
106481	7,6579	-5,	45,709	13,65
106482	8,7964	-5,	44,641	12,695
106483	8,976	-5,	45,311	11,548
106484	9,2578	-5,	43,759	12,805
106485	9,4424	-5,	44,434	11,799
106486	9,7097	-5,	42,871	12,778
106487	9,9016	-5,	43,549	11,95
106488	10,159	-5,	41,985	12,626
106489	10,357	-5,	42,664	11,98
106490	10,814	-5,	41,783	11,903
106491	10,608	-5,	41,102	12,389
106492	11,536	-5,	39,349	11,758
106493	11,738	-5,	40,028	11,522
106494	11,066	-5,	40,225	12,092
106495	12,004	-5,	38,469	11,415
106496	12,211	-5,	39,149	11,255
106497	12,477	-5,	37,592	11,063
106498	12,679	-5,	38,27	10,962
106499	11,797	-5,	37,784	11,549
106500	12,957	-5,	36,716	10,703
106501	13,158	-5,	37,394	10,639
106502	13,432	-5,	35,838	10,347
106503	13,632	-5,	36,516	10,304
106504	13,905	-5,	34,96	9,9934
106505	14,105	-5,	35,638	9,9615
106506	14,377	-5,	34,083	9,6447
106507	14,578	-5,	34,76	9,6153
106508	14,845	-5,	33,205	9,3051
106509	15,051	-5,	33,883	9,2703
106510	15,314	-5,	32,326	8,9744
106511	15,519	-5,	33,004	8,932
106512	15,787	-5,	31,449	8,6522
106513	15,993	-5,	32,126	8,5991
106514	16,26	-5,	30,571	8,3425
106515	16,466	-5,	31,248	8,2765
106516	16,733	-5,	29,693	8,0469
106517	16,939	-5,	30,37	7,9659
106518	17,207	-5,	28,815	7,7665
106519	17,412	-5,	29,492	7,6691
106520	17,68	-5,	27,937	7,5026
106521	17,885	-5,	28,614	7,3872
106522	18,153	-5,	27,059	7,2562
106523	18,358	-5,	27,736	7,1216
106524	18,627	-5,	26,182	7,0282
106525	18,832	-5,	26,858	6,8732
106526	19,1	-5,	25,304	6,8198
106527	19,305	-5,	25,98	6,6429
106528	19,573	-5,	24,426	6,6321
106529	19,778	-5,	25,102	6,4319
106530	20,047	-5,	23,548	6,4663
106531	20,251	-5,	24,224	6,2411
106532	20,52	-5,	22,671	6,324
106533	20,724	-5,	23,346	6,0717
106534	20,994	-5,	21,793	6,2068
106535	21,198	-5,	22,468	5,9251
106536	21,467	-5,	20,915	6,117
106537	21,671	-5,	21,59	5,8031
106538	21,94	-5,	20,038	6,0573
106539	22,144	-5,	20,712	5,7079
106540	22,414	-5,	19,16	6,031
106541	22,618	-5,	19,834	5,6423
106542	22,887	-5,	18,283	6,0427
106543	23,091	-5,	18,957	5,61
106544	23,361	-5,	17,405	6,098
106545	23,564	-5,	18,079	5,6158
106546	23,834	-5,	16,528	6,2045
106547	24,038	-5,	17,201	5,6663
106548	24,308	-5,	15,65	6,3721
106549	24,511	-5,	16,323	5,77
106550	24,781	-5,	14,772	6,6135
106551	24,984	-5,	15,445	5,9386
106552	25,254	-5,	13,894	6,9453
106553	25,457	-5,	14,567	6,1871
106554	25,723	-5,	13,011	7,3955
106555	25,93	-5,	13,689	6,5354
106556	26,191	-5,	12,125	7,9874
106557	26,399	-5,	12,806	7,0156
106558	26,87	-5,	11,924	7,6486
106559	26,658	-5,	11,239	8,7452
106560	27,577	-5,	9,4623	10,86
106561	27,799	-5,	10,151	9,5324
106562	27,119	-5,	10,349	9,7019
106563	28,038	-5,	8,5961	12,173
106564	28,262	-5,	9,2707	10,805
106565	28,506	-5,	7,7511	13,58
106566	28,728	-5,	8,4091	12,254
106567	28,986	-5,	6,9336	14,968
106568	29,198	-5,	7,564	13,806
106569	29,479	-5,	6,1418	16,214
106570	29,683	-5,	6,7446	15,323
106571	29,975	-5,	5,3593	17,285
106572	30,175	-5,	5,9354	16,678
106573	30,447	-5,	4,5867	18,272
106574	30,663	-5,	5,1325	17,785
106575	31,118	-5,	4,3333	18,884
106576	0,81359	-5,	-39,68	23,838
106577	5,9086e-002	-5,	-39,568	22,561
106578	7,9193e-002	-5,	-38,909	23,069
106579	4,57	-5,	-42,532	19,829
106580	5,2404	-5,	-42,347	16,634
106581	4,3925	-5,	-43,419	23,845
106582	3,7967	-5,	-48,771	8,5499
106583	-2,1555	-5,	-50,079	6,0978
106584	-2,269	-5,	-49,574	6,0276
106585	-5,4303	-5,	-43,913	15,305
106586	-5,2291	-5,	-43,149	16,493
106587	-5,9585	-5,	-42,941	13,913
106588	-25,539	-5,	5,369	21,247
106589	-26,365	-5,	5,2941	20,711
106590	-21,172	-5,	3,4241	17,684
106591	-21,128	-5,	2,5512	16,873
106592	-25,453	-5,	-5,2708	21,878
106593	-26,234	-5,	-5,25	21,227
106594	-29,82	-5,	-1,4406	23,153
106595	-29,931	-5,	-0,88711	23,025
106596	25,745	-5,	-5,241	22,282
106597	26,379	-5,	-5,2921	20,787
106598	26,563	-5,	-5,8013	18,696
106599	21,176	-5,	-3,4286	17,769
106600	20,581	-5,	-3,7538	16,155
106601	21,127	-5,	-2,5539	16,81
106602	20,114	-5,	2,2914	15,338
106603	20,446	-5,	2,9654	16,353
106604	19,527	-5,	2,7228	15,198
106605	25,506	-5,	5,4196	20,845
106606	26,27	-5,	5,3225	20,731
106607	30,767	-5,	2,0945	21,321
106608	4,6516	-5,	47,981	18,74
106609	5,2747	-5,	43,894	24,819
106610	5,0686	-5,	43,191	24,564
106611	-20,118	-5,	-2,3002	15,272
106612	-20,452	-5,	-2,9792	16,213
106613	0,8195	-5,	39,7	15,938
106614	6,7901e-002	-5,	39,613	15,337
106615	31,706	-5,	4,0354	19,473
106616	31,333	-5,	4,879	18,358
106617	31,982	-5,	3,1754	20,187
106618	32,363	-5,	3,7244	19,967
106619	32,219	-5,	2,3012	20,509
106620	32,663	-5,	2,8292	20,397
106621	32,395	-5,	1,4081	20,709
106622	32,887	-5,	1,9088	20,763
106623	32,496	-5,	0,50918	20,818
106624	33,031	-5,	0,97089	21,01
106625	32,508	-5,	-0,37738	20,823
106626	33,085	-5,	3,0436e-002	21,104
106627	32,424	-5,	-1,2438	20,734
106628	33,044	-5,	-0,89997	21,018
106629	32,243	-5,	-2,0987	20,562
106630	32,904	-5,	-1,8154	20,78
106631	31,981	-5,	-2,9884	20,246
106632	32,67	-5,	-2,7201	20,433
106633	31,658	-5,	-3,8988	19,498
106634	32,354	-5,	-3,6466	19,996
106635	31,248	-5,	-4,7688	18,306
106636	30,782	-5,	-5,6138	17,188
106637	30,331	-5,	-6,4657	15,932
106638	29,887	-5,	-7,3242	14,346
106639	29,439	-5,	-8,1828	12,643
106640	28,981	-5,	-9,0364	11,033
106641	28,518	-5,	-9,8886	9,6288
106642	28,055	-5,	-10,749	8,4496
106643	27,598	-5,	-11,618	7,4917
106644	27,137	-5,	-12,489	6,7493
106645	26,67	-5,	-13,357	6,1966
106646	26,203	-5,	-14,225	5,7882
106647	25,736	-5,	-15,093	5,4937
106648	25,269	-5,	-15,961	5,289
106649	24,802	-5,	-16,829	5,1552
106650	24,335	-5,	-17,696	5,0777
106651	23,868	-5,	-18,564	5,0457
106652	22,934	-5,	-20,3	5,0876
106653	23,401	-5,	-19,432	5,0511
106654	22,467	-5,	-21,168	5,1504
106655	22,	-5,	-22,036	5,2357
106656	21,532	-5,	-22,904	5,3406
106657	21,065	-5,	-23,772	5,4625
106658	20,598	-5,	-24,639	5,5993
106659	20,131	-5,	-25,507	5,749
106660	19,664	-5,	-26,375	5,9097
106661	19,197	-5,	-27,243	6,0797
106662	18,73	-5,	-28,111	6,2569
106663	18,263	-5,	-28,979	6,4394
106664	17,795	-5,	-29,847	6,6253
106665	17,328	-5,	-30,715	6,8123
106666	16,861	-5,	-31,583	6,9983
106667	16,394	-5,	-32,451	7,1809
106668	15,928	-5,	-33,318	7,358
106669	15,461	-5,	-34,186	7,5277
106670	14,994	-5,	-35,054	7,6883
106671	14,527	-5,	-35,922	7,8389
106672	14,06	-5,	-36,79	7,9794
106673	13,592	-5,	-37,658	8,111
106674	13,125	-5,	-38,526	8,2364
106675	12,657	-5,	-39,393	8,3604
106676	12,189	-5,	-40,261	8,4889
106677	11,721	-5,	-41,128	8,6295
106678	11,252	-5,	-41,995	8,7882
106679	10,781	-5,	-42,858	8,9677
106680	10,316	-5,	-43,714	9,15
106681	9,4051	-5,	-45,426	9,3813
106682	9,8602	-5,	-44,569	9,3031
106683	8,9583	-5,	-46,279	9,3276
106684	8,5196	-5,	-47,126	9,1143
106685	8,0757	-5,	-47,961	8,8425
106686	7,5715	-5,	-48,737	8,5635
106687	7,0046	-5,	-49,446	8,1559
106688	7,7085	-5,	-49,456	8,0574
106689	6,4167	-5,	-50,121	7,6863
106690	7,1346	-5,	-50,187	7,6052
106691	5,7912	-5,	-50,768	7,2743
106692	6,5118	-5,	-50,868	7,2432
106693	5,1259	-5,	-51,36	6,9424
106694	5,8309	-5,	-51,508	6,9509
106695	4,4297	-5,	-51,873	6,6841
106696	5,1057	-5,	-52,067	6,7242
106697	3,7095	-5,	-52,322	6,4883
106698	4,3381	-5,	-52,551	6,5414
106699	2,9776	-5,	-52,695	6,3454
106700	3,5411	-5,	-52,966	6,4041
106701	2,2433	-5,	-52,957	6,2398
106702	2,7218	-5,	-53,289	6,2963
106703	1,4605	-5,	-53,079	6,1633
106704	1,8908	-5,	-53,505	6,2198
106705	0,62402	-5,	-53,078	6,1178
106706	1,0004	-5,	-53,597	6,1699
106707	-0,22192	-5,	-53,012	6,1061
106708	0,102	-5,	-53,598	6,1454
106709	-1,0754	-5,	-52,9	6,1369
106710	-0,80236	-5,	-53,53	6,1573
106711	-1,9455	-5,	-52,73	6,2118
106712	-1,7038	-5,	-53,393	6,2027
106713	-2,8323	-5,	-52,514	6,333
106714	-2,611	-5,	-53,174	6,2868
106715	-3,6568	-5,	-52,249	6,4918
106716	-3,5065	-5,	-52,901	6,4037
106717	-4,418	-5,	-51,909	6,6716
106718	-4,3199	-5,	-52,543	6,5426
106719	-5,1226	-5,	-51,5	6,8895
106720	-5,1123	-5,	-52,111	6,7118
106721	-5,7397	-5,	-50,971	7,1761
106722	-5,8209	-5,	-51,604	6,9098
106723	-6,3142	-5,	-50,318	7,5727
106724	-6,4702	-5,	-50,976	7,1842
106725	-6,8713	-5,	-49,608	8,0568
106726	-7,0736	-5,	-50,275	7,5466
106727	-7,4362	-5,	-48,867	8,4942
106728	-7,6362	-5,	-49,529	8,0067
106729	-7,9638	-5,	-48,066	8,786
106730	-8,4329	-5,	-47,217	9,0685
106731	-8,8935	-5,	-46,356	9,31
106732	-9,3494	-5,	-45,488	9,3861
106733	-10,274	-5,	-43,752	9,1693
106734	-9,8069	-5,	-44,62	9,3199
106735	-10,745	-5,	-42,884	8,9877
106736	-11,218	-5,	-42,015	8,8087
106737	-11,689	-5,	-41,147	8,649
106738	-12,162	-5,	-40,282	8,5041
106739	-12,635	-5,	-39,417	8,3709
106740	-13,102	-5,	-38,549	8,2469
106741	-13,57	-5,	-37,682	8,1211
106742	-14,037	-5,	-36,814	7,9892
106743	-14,504	-5,	-35,947	7,8484
106744	-14,972	-5,	-35,079	7,6976
106745	-15,439	-5,	-34,212	7,5368
106746	-15,907	-5,	-33,344	7,3669
106747	-16,374	-5,	-32,477	7,1896
106748	-17,309	-5,	-30,742	6,8209
106749	-16,841	-5,	-31,61	7,0069
106750	-17,776	-5,	-29,874	6,6338
106751	-18,243	-5,	-29,007	6,4477
106752	-18,711	-5,	-28,139	6,2648
106753	-19,178	-5,	-27,272	6,0873
106754	-19,645	-5,	-26,404	5,917
106755	-20,113	-5,	-25,537	5,7558
106756	-20,58	-5,	-24,669	5,6056
106757	-21,047	-5,	-23,802	5,4682
106758	-21,515	-5,	-22,934	5,3456
106759	-21,982	-5,	-22,067	5,2398
106760	-22,45	-5,	-21,199	5,1535
106761	-22,917	-5,	-20,332	5,0896
106762	-23,384	-5,	-19,464	5,0517
106763	-23,852	-5,	-18,597	5,0446
106764	-24,319	-5,	-17,729	5,0744
106765	-24,787	-5,	-16,862	5,1493
106766	-25,254	-5,	-15,995	5,2799
106767	-25,721	-5,	-15,127	5,4808
106768	-26,188	-5,	-14,259	5,7704
106769	-26,656	-5,	-13,392	6,1731
106770	-27,122	-5,	-12,524	6,719
106771	-26,448	-5,	-12,735	7,0185
106772	-27,589	-5,	-11,656	7,4434
106773	-28,055	-5,	-10,788	8,382
106774	-28,524	-5,	-9,9251	9,5514
106775	-28,993	-5,	-9,0631	10,967
106776	-29,46	-5,	-8,1979	12,602
106777	-28,791	-5,	-8,413	12,216
106778	-29,919	-5,	-7,3332	14,332
106779	-30,363	-5,	-6,4747	15,935
106780	-30,802	-5,	-5,6299	17,188
106781	-31,243	-5,	-4,7966	18,282
106782	-31,627	-5,	-3,9497	19,442
106783	-31,941	-5,	-3,0778	20,214
106784	-32,331	-5,	-3,6832	19,967
106785	-32,2	-5,	-2,1946	20,557
106786	-32,649	-5,	-2,7795	20,424
106787	-32,369	-5,	-1,2951	20,741
106788	-32,878	-5,	-1,8568	20,794
106789	-32,451	-5,	-0,40244	20,836
106790	-33,011	-5,	-0,91297	21,035
106791	-32,442	-5,	0,47606	20,838
106792	-33,058	-5,	1,7395e-002	21,122
106793	-32,319	-5,	1,3592	20,743
106794	-33,002	-5,	0,95181	21,046
106795	-32,099	-5,	2,2502	20,547
106796	-32,838	-5,	1,882	20,797
106797	-31,823	-5,	3,1471	20,161
106798	-32,589	-5,	2,8099	20,418
106799	-31,561	-5,	3,9956	19,395
106800	-32,274	-5,	3,7221	19,933
106801	-31,269	-5,	4,8011	18,342
106802	-31,947	-5,	4,5687	19,621
106803	-30,842	-5,	5,6468	17,236
106804	-31,533	-5,	5,4124	18,891
106805	-30,348	-5,	6,5074	15,899
106806	-31,047	-5,	6,2926	17,089
106807	-29,873	-5,	7,3516	14,307
106808	-30,566	-5,	7,1511	14,955
106809	-29,41	-5,	8,2111	12,603
106810	-30,099	-5,	8,0149	12,828
106811	-28,944	-5,	9,082	10,972
106812	-29,63	-5,	8,8889	10,886
106813	-28,48	-5,	9,9606	9,5341
106814	-29,16	-5,	9,7639	9,252
106815	-28,016	-5,	10,846	8,338
106816	-28,693	-5,	10,646	7,9297
106817	-27,547	-5,	11,728	7,4027
106818	-28,224	-5,	11,528	6,9096
106819	-27,074	-5,	12,607	6,6957
106820	-27,751	-5,	12,406	6,1547
106821	-26,601	-5,	13,485	6,1689
106822	-27,278	-5,	13,284	5,6054
106823	-26,129	-5,	14,363	5,7866
106824	-26,805	-5,	14,162	5,2175
106825	-25,656	-5,	15,241	5,5185
106826	-26,333	-5,	15,04	4,9545
106827	-25,184	-5,	16,119	5,3406
106828	-25,86	-5,	15,919	4,7881
106829	-24,711	-5,	16,998	5,2342
106830	-25,387	-5,	16,797	4,6966
106831	-24,238	-5,	17,876	5,1854
106832	-24,915	-5,	17,675	4,664
106833	-23,766	-5,	18,754	5,1837
106834	-24,442	-5,	18,553	4,6785
106835	-23,293	-5,	19,632	5,2214
106836	-23,969	-5,	19,431	4,7317
106837	-22,821	-5,	20,51	5,293
106838	-23,496	-5,	20,309	4,8175
106839	-22,348	-5,	21,389	5,3942
106840	-23,024	-5,	21,188	4,9316
106841	-21,875	-5,	22,267	5,5218
106842	-22,551	-5,	22,066	5,0707
106843	-21,403	-5,	23,145	5,6736
106844	-22,078	-5,	22,944	5,2326
106845	-20,93	-5,	24,023	5,8477
106846	-21,605	-5,	23,822	5,4156
106847	-20,457	-5,	24,901	6,0427
106848	-21,133	-5,	24,7	5,6184
106849	-19,985	-5,	25,779	6,2574
106850	-20,66	-5,	25,578	5,8401
106851	-19,512	-5,	26,658	6,4908
106852	-20,187	-5,	26,457	6,0798
106853	-19,039	-5,	27,536	6,7421
106854	-19,714	-5,	27,335	6,3369
106855	-18,562	-5,	28,407	7,0129
106856	-19,242	-5,	28,213	6,6104
106857	-18,083	-5,	29,277	7,2998
106858	-18,764	-5,	29,084	6,9022
106859	-17,611	-5,	30,156	7,5976
106860	-18,29	-5,	29,961	7,2063
106861	-17,145	-5,	31,042	7,9069
106862	-17,819	-5,	30,841	7,5227
106863	-16,676	-5,	31,927	8,229
106864	-17,351	-5,	31,726	7,8506
106865	-16,203	-5,	32,805	8,5624
106866	-16,878	-5,	32,604	8,1901
106867	-15,731	-5,	33,683	8,9026
106868	-16,405	-5,	33,482	8,5371
106869	-15,258	-5,	34,561	9,2461
106870	-15,932	-5,	34,36	8,888
106871	-14,786	-5,	35,44	9,5881
106872	-15,46	-5,	35,238	9,2382
106873	-13,841	-5,	37,196	10,243
106874	-14,313	-5,	36,318	9,9227
106875	-14,514	-5,	36,995	9,9096
106876	-13,368	-5,	38,074	10,539
106877	-14,042	-5,	37,873	10,212
106878	-12,895	-5,	38,952	10,801
106879	-13,569	-5,	38,751	10,475
106880	-12,422	-5,	39,83	11,016
106881	-13,096	-5,	39,629	10,682
106882	-11,942	-5,	40,71	11,178
106883	-12,623	-5,	40,507	10,815
106884	-11,46	-5,	41,589	11,271
106885	-12,143	-5,	41,387	10,857
106886	-10,98	-5,	42,47	11,284
106887	-11,669	-5,	42,265	10,782
106888	-10,5	-5,	43,351	11,207
106889	-10,279	-5,	42,687	12,074
106890	-11,189	-5,	43,146	10,587
106891	-10,029	-5,	44,227	11,026
106892	-10,716	-5,	44,024	10,267
106893	-9,5694	-5,	45,097	10,748
106894	-10,246	-5,	44,9	9,8544
106895	-9,1285	-5,	45,96	10,402
106896	-9,7831	-5,	45,772	9,4089
106897	-8,7225	-5,	46,813	10,04
106898	-9,3322	-5,	46,641	9,0199
106899	-8,3561	-5,	47,662	9,7665
106900	-8,9043	-5,	47,504	8,7584
106901	-7,9615	-5,	48,481	9,814
106902	-8,493	-5,	48,367	8,5166
106903	-7,4579	-5,	49,172	10,402
106904	-8,0205	-5,	49,181	8,6708
106905	-6,8497	-5,	49,727	11,459
106906	-7,444	-5,	49,87	9,5524
106907	-6,1719	-5,	50,244	12,707
106908	-6,7903	-5,	50,49	10,8
106909	-5,4449	-5,	50,753	13,933
106910	-6,0736	-5,	51,076	12,235
106911	-4,6802	-5,	51,261	15,019
106912	-5,3066	-5,	51,617	13,739
106913	-3,8799	-5,	51,766	15,955
106914	-4,4953	-5,	52,126	15,244
106915	-3,0765	-5,	52,201	16,805
106916	-3,6437	-5,	52,582	16,68
106917	-2,3123	-5,	52,47	17,499
106918	-2,7886	-5,	52,934	17,93
106919	-1,5023	-5,	52,628	17,923
106920	-1,9439	-5,	53,134	18,826
106921	-0,58162	-5,	52,761	18,226
106922	-1,0199	-5,	53,282	19,47
106923	0,29682	-5,	52,809	18,379
106924	-5,0448e-002	-5,	53,363	19,767
106925	1,1391	-5,	52,723	18,126
106926	0,83597	-5,	53,33	19,618
106927	2,0153	-5,	52,523	17,643
106928	1,7645	-5,	53,182	18,995
106929	2,8882	-5,	52,257	16,971
106930	2,671	-5,	52,94	18,037
106931	3,7569	-5,	51,956	16,101
106932	3,573	-5,	52,632	16,802
106933	5,2889	-5,	51,192	13,93
106934	4,5689	-5,	51,609	15,049
106935	5,2476	-5,	51,826	13,842
106936	5,9228	-5,	50,668	12,915
106937	5,9766	-5,	51,307	12,369
106938	6,4676	-5,	50,041	12,131
106939	6,6383	-5,	50,683	11,067
106940	7,0461	-5,	49,303	11,346
106941	7,214	-5,	49,99	10,069
106942	7,6787	-5,	48,512	10,503
106943	7,8388	-5,	49,191	9,1643
106944	8,2149	-5,	47,701	10,042
106945	8,6887	-5,	46,844	10,07
106946	9,1583	-5,	45,977	10,327
106947	9,622	-5,	45,103	10,652
106948	10,086	-5,	44,224	10,944
106949	10,549	-5,	43,342	11,151
106950	11,012	-5,	42,462	11,256
106951	11,473	-5,	41,584	11,263
106952	11,94	-5,	40,707	11,181
106953	11,267	-5,	40,904	11,75
106954	12,413	-5,	39,829	11,023
106955	12,886	-5,	38,95	10,806
106956	13,359	-5,	38,072	10,543
106957	14,305	-5,	36,316	9,9265
106958	13,832	-5,	37,194	10,247
106959	14,778	-5,	35,438	9,5915
106960	15,252	-5,	34,56	9,2492
106961	15,725	-5,	33,682	8,9055
106962	16,198	-5,	32,804	8,5651
106963	16,671	-5,	31,926	8,2314
106964	17,617	-5,	30,169	7,5951
106965	17,144	-5,	31,047	7,9074
106966	18,09	-5,	29,291	7,2962
106967	18,563	-5,	28,413	7,012
106968	19,037	-5,	27,534	6,7437
106969	19,51	-5,	26,656	6,4923
106970	19,983	-5,	25,778	6,2587
106971	20,456	-5,	24,9	6,0439
106972	20,929	-5,	24,022	5,8487
106973	21,402	-5,	23,143	5,6744
106974	21,875	-5,	22,265	5,5224
106975	22,348	-5,	21,387	5,3945
106976	22,821	-5,	20,509	5,293
106977	23,294	-5,	19,631	5,221
106978	23,768	-5,	18,753	5,1828
106979	24,241	-5,	17,875	5,184
106980	24,714	-5,	16,997	5,2323
106981	25,187	-5,	16,118	5,3382
106982	25,66	-5,	15,24	5,5157
106983	26,133	-5,	14,362	5,7835
106984	26,606	-5,	13,484	6,1661
106985	27,079	-5,	12,605	6,694
106986	27,551	-5,	11,726	7,4034
106987	28,018	-5,	10,842	8,3442
106988	27,338	-5,	11,041	8,473
106989	28,484	-5,	9,9589	9,5367
106990	28,952	-5,	9,0836	10,967
106991	29,42	-5,	8,222	12,582
106992	29,895	-5,	7,375	14,269
106993	30,378	-5,	6,5382	15,875
106994	30,863	-5,	5,7086	17,211
106995	1,5334	-5,	-40,276	25,003
106996	0,83787	-5,	-40,532	24,963
106997	2,2974	-5,	-40,788	25,052
106998	1,6458	-5,	-40,889	26,907
106999	3,1245	-5,	-41,373	24,452
107000	2,4969	-5,	-41,383	28,287
107001	3,883	-5,	-41,979	22,611
107002	3,8902	-5,	-42,705	27,255
107003	3,7809	-5,	-41,263	21,449
107004	3,2607	-5,	-42,018	28,741
107005	5,167	-5,	-44,765	16,009
107006	4,6009	-5,	-44,191	23,015
107007	4,4513	-5,	-46,527	15,072
107008	4,8315	-5,	-45,635	16,31
107009	4,2655	-5,	-46,017	19,68
107010	4,1507	-5,	-47,3	13,231
107011	3,52	-5,	-47,639	12,223
107012	4,7753	-5,	-47,009	12,487
107013	3,8986	-5,	-46,918	16,212
107014	3,1885	-5,	-48,876	7,9582
107015	3,2449	-5,	-48,085	11,132
107016	2,1517	-5,	-49,602	5,9999
107017	2,5767	-5,	-48,764	7,6931
107018	0,86634	-5,	-49,933	4,5445
107019	1,4203	-5,	-49,354	4,6507
107020	-0,35342	-5,	-49,914	4,2958
107021	0,39632	-5,	-49,434	2,5447
107022	-1,3921	-5,	-50,122	5,1511
107023	-1,5057	-5,	-49,616	5,2399
107024	-0,74974	-5,	-49,45	2,9624
107025	-2,4277	-5,	-48,992	7,0618
107026	-1,7062	-5,	-49,022	5,2949
107027	-3,2293	-5,	-48,284	9,8094
107028	-2,5668	-5,	-48,487	8,576
107029	-3,8774	-5,	-47,464	12,74
107030	-3,2957	-5,	-47,77	12,414
107031	-4,3774	-5,	-46,593	15,116
107032	-3,8496	-5,	-46,949	16,312
107033	-4,7723	-5,	-45,692	16,405
107034	-4,2405	-5,	-46,052	19,776
107035	-5,085	-5,	-44,823	16,469
107036	-4,5532	-5,	-44,225	23,538
107037	-4,4737	-5,	-45,119	22,289
107038	-4,4953	-5,	-42,633	20,313
107039	-4,352	-5,	-43,461	24,215
107040	-3,8232	-5,	-42,086	23,627
107041	-3,8561	-5,	-42,763	27,973
107042	-3,0723	-5,	-41,476	25,452
107043	-3,2351	-5,	-42,068	29,391
107044	-2,2408	-5,	-40,928	26,032
107045	-2,4704	-5,	-41,436	28,958
107046	-0,65224	-5,	-40,031	23,951
107047	8,3372e-002	-5,	-40,42	23,803
107048	-1,4011	-5,	-40,472	25,894
107049	-0,73561	-5,	-40,64	25,428
107050	-2,1075	-5,	-40,359	23,825
107051	-1,6157	-5,	-40,976	27,54
107052	-24,659	-5,	4,9555	23,571
107053	-25,27	-5,	4,5393	29,084
107054	-23,778	-5,	4,6411	23,643
107055	-24,389	-5,	4,3871	28,939
107056	-22,836	-5,	4,2506	22,223
107057	-23,439	-5,	4,1094	26,681
107058	-21,962	-5,	3,8136	19,926
107059	-21,776	-5,	3,1287	19,966
107060	-22,552	-5,	3,6572	23,492
107061	-20,099	-5,	1,4053	14,936
107062	-20,767	-5,	1,8462	16,348
107063	-20,147	-5,	0,49159	14,583
107064	-20,619	-5,	0,96711	14,647
107065	-20,202	-5,	-0,48169	14,546
107066	-20,586	-5,	3,1158e-003	14,046
107067	-20,219	-5,	-1,3853	14,898
107068	-20,832	-5,	-1,8299	16,297
107069	-19,75	-5,	-0,91271	14,706
107070	-20,674	-5,	-0,96344	14,648
107071	-21,249	-5,	-3,3249	18,008
107072	-21,166	-5,	-2,5089	16,933
107073	-22,04	-5,	-3,716	20,464
107074	-21,815	-5,	-3,0717	20,258
107075	-22,892	-5,	-4,1743	22,824
107076	-22,591	-5,	-3,6166	23,857
107077	-23,796	-5,	-4,5776	24,208
107078	-23,456	-5,	-4,0737	27,016
107079	-24,642	-5,	-4,8819	23,956
107080	-25,253	-5,	-4,4935	29,38
107081	-24,39	-5,	-4,3593	29,211
107082	-26,972	-5,	-4,7635	22,055
107083	-26,034	-5,	-4,4726	28,588
107084	-27,647	-5,	-4,1752	22,954
107085	-26,888	-5,	-4,1463	29,115
107086	-28,253	-5,	-3,4295	23,73
107087	-27,604	-5,	-3,5449	28,859
107088	-28,865	-5,	-2,6747	23,688
107089	-29,024	-5,	-3,3127	22,332
107090	-28,281	-5,	-2,8568	27,054
107091	-29,385	-5,	-1,9917	23,529
107092	-29,245	-5,	-1,3261	22,949
107093	-28,852	-5,	-2,0736	24,634
107094	-29,765	-5,	-0,23972	23,219
107095	-29,356	-5,	-0,77261	23,275
107096	-26,976	-5,	4,632	22,923
107097	-26,097	-5,	4,4644	28,356
107098	-27,557	-5,	3,9636	24,471
107099	-26,83	-5,	4,023	30,231
107100	-28,212	-5,	3,2566	24,652
107101	-27,572	-5,	3,4565	29,737
107102	-28,835	-5,	2,4793	23,978
107103	-28,273	-5,	2,7723	27,434
107104	-29,321	-5,	1,5881	23,452
107105	-28,83	-5,	1,9627	24,86
107106	-29,613	-5,	0,60909	23,256
107107	-29,204	-5,	1,0335	23,103
107108	-29,351	-5,	5,4267e-002	22,497
107109	24,841	-5,	-4,7664	24,88
107110	26,006	-5,	-4,602	25,744
107111	25,019	-5,	-5,4358	21,633
107112	25,463	-5,	-4,4179	30,31
107113	23,784	-5,	-4,5476	24,452
107114	24,378	-5,	-4,3194	29,579
107115	21,98	-5,	-3,8174	20,047
107116	21,78	-5,	-3,1304	20,009
107117	22,867	-5,	-4,2269	22,47
107118	22,566	-5,	-3,6593	23,534
107119	20,094	-5,	-1,4122	14,904
107120	20,766	-5,	-1,8512	16,229
107121	20,146	-5,	-0,49661	14,573
107122	20,615	-5,	-0,96909	14,625
107123	20,204	-5,	0,47736	14,531
107124	20,588	-5,	-6,1436e-003	14,04
107125	20,216	-5,	1,381	14,911
107126	20,83	-5,	1,8269	16,354
107127	20,673	-5,	0,96213	14,699
107128	21,237	-5,	3,3132	18,034
107129	21,162	-5,	2,5009	17,051
107130	22,024	-5,	3,7218	20,283
107131	21,807	-5,	3,068	20,233
107132	22,883	-5,	4,1961	22,645
107133	22,584	-5,	3,626	23,792
107134	23,781	-5,	4,6334	23,713
107135	23,454	-5,	4,0861	26,928
107136	24,634	-5,	5,0006	23,108
107137	25,257	-5,	4,5687	28,688
107138	24,377	-5,	4,4027	28,763
107139	26,826	-5,	4,6672	23,126
107140	26,992	-5,	5,2703	20,263
107141	26,021	-5,	4,4716	28,404
107142	27,434	-5,	4,0391	24,665
107143	26,755	-5,	4,051	30,382
107144	28,132	-5,	3,3825	24,716
107145	27,524	-5,	3,5041	29,748
107146	28,775	-5,	2,6587	24,029
107147	28,241	-5,	2,8506	27,325
107148	29,292	-5,	1,9655	23,705
107149	29,202	-5,	1,3098	22,75
107150	28,803	-5,	2,0638	24,849
107151	29,777	-5,	0,2058	23,265
107152	29,368	-5,	0,75734	22,984
107153	29,647	-5,	-0,62759	23,245
107154	29,351	-5,	-7,291e-002	22,48
107155	26,64	-5,	-4,6531	24,493
107156	27,156	-5,	-4,1838	25,3
107157	26,494	-5,	-4,0396	31,967
107158	28,193	-5,	-3,5373	23,463
107159	27,507	-5,	-3,6602	28,734
107160	28,319	-5,	-2,8493	26,95
107161	29,237	-5,	-1,0333	23,137
107162	4,7752	-5,	46,835	21,331
107163	4,1158	-5,	47,096	26,99
107164	4,9909	-5,	45,804	23,536
107165	4,3722	-5,	46,146	31,946
107166	5,122	-5,	44,796	25,15
107167	4,5033	-5,	44,181	30,689
107168	4,5606	-5,	45,136	32,404
107169	4,3929	-5,	42,669	25,74
107170	4,2973	-5,	43,477	31,071
107171	3,7318	-5,	42,098	25,002
107172	3,8084	-5,	42,784	27,869
107173	3,0227	-5,	41,44	22,397
107174	3,1913	-5,	42,058	23,548
107175	2,2681	-5,	40,816	19,486
107176	2,4646	-5,	41,41	19,597
107177	1,5371	-5,	40,278	17,256
107178	0,83851	-5,	40,532	16,21
107179	1,6489	-5,	40,89	17,368
107180	-0,68597	-5,	40,076	15,683
107181	-0,63642	-5,	39,516	15,588
107182	8,6915e-002	-5,	40,445	15,61
107183	-1,4158	-5,	40,464	17,063
107184	-0,77289	-5,	40,66	16,123
107185	-2,2185	-5,	40,855	19,437
107186	-1,5932	-5,	40,949	17,143
107187	-3,0826	-5,	41,369	22,447
107188	-2,4706	-5,	41,389	19,665
107189	-3,8603	-5,	41,942	24,632
107190	-4,5697	-5,	42,467	24,886
107191	-3,8831	-5,	42,679	27,325
107192	-3,2451	-5,	42,007	23,597
107193	-5,274	-5,	44,749	24,161
107194	-4,6549	-5,	44,165	29,052
107195	-4,9053	-5,	45,74	24,751
107196	-4,561	-5,	45,106	32,466
107197	-4,4007	-5,	46,736	24,693
107198	-4,2862	-5,	46,113	33,263
107199	-3,8273	-5,	47,031	31,43
107200	2,8227	-5,	48,965	18,176
107201	3,0845	-5,	48,258	23,902
107202	2,0056	-5,	49,253	17,503
107203	2,3713	-5,	48,679	19,358
107204	1,0082	-5,	49,567	16,799
107205	1,4796	-5,	49,09	15,901
107206	-7,8784e-002	-5,	49,687	16,561
107207	0,47889	-5,	49,332	14,564
107208	-1,1621	-5,	49,59	17,114
107209	-0,78515	-5,	50,219	17,39
107210	-0,55767	-5,	49,325	14,554
107211	-2,3052	-5,	49,263	17,921
107212	-1,5547	-5,	49,12	16,02
107213	-2,884	-5,	49,656	18,644
107214	-3,2879	-5,	49,458	18,428
107215	-2,5959	-5,	48,659	19,254
107216	11,559	-5,	-14,062	8,7275
107217	12,216	-5,	-13,887	8,8477
107218	11,352	-5,	-13,394	8,6929
107219	8,4737	-5,	-0,59265	9,5505
107220	8,3848	-5,	-1,3816	9,4894
107221	9,0996	-5,	-0,65315	9,7565
107222	8,7805	-5,	-14,045	8,1652
107223	7,952	-5,	-13,509	7,9543
107224	10,491	-5,	-12,894	8,5113
107225	-17,018	-5,	13,476	9,4419
107226	-3,5875	-5,	-8,2052	7,3882
107227	-11,14	-5,	38,009	12,085
107228	7,3872	-5,	29,999	11,888
107229	4,5397	-5,	-20,028	9,1826
107230	-2,3499	-5,	-17,449	8,0968
107231	16,93	-5,	15,683	8,9173
107232	5,8166	-5,	40,674	20,034
107233	3,8856	-5,	-5,6875	7,9037
107234	7,2121	-5,	29,292	11,684
107235	15,776	-5,	-11,354	9,9664
107236	-8,1948	-5,	-14,966	8,1497
107237	-14,987	-5,	36,117	9,5815
107238	-12,599	-5,	13,315	8,818
107239	-13,47	-5,	13,781	8,9438
107240	-9,9624	-5,	13,961	8,2353
107241	-10,031	-5,	11,879	8,3055
107242	-9,2044	-5,	11,392	8,1278
107243	-10,954	-5,	10,312	8,7437
107244	-2,6822	-5,	-29,286	13,876
107245	-11,532	-5,	21,527	9,1631
107246	-5,6005	-5,	-17,652	8,4011
107247	4,3857	-5,	-26,703	12,127
107248	3,1536	-5,	26,378	11,128
107249	5,7319	-5,	23,686	10,009
107250	-9,6165	-5,	27,303	10,561
107251	-8,7782	-5,	26,777	10,615
107252	12,195	-5,	-18,287	8,9311
107253	23,456	-5,	-4,0837	26,892
107254	-5,4874	-5,	-22,04	9,9721
107255	-3,2525	-5,	50,089	17,848
107256	7,7108	-5,	-24,512	10,595
107257	-7,3503	-5,	-14,433	7,9272
107258	-13,179	-5,	-17,331	8,9052
107259	15,472	-5,	5,6176	11,783
107260	8,061	-5,	7,0981	8,4719
107261	-1,7483	-5,	19,231	8,35
107262	-15,732	-5,	6,8603	11,445
107263	-16,762	-5,	-6,48	12,143
107264	4,5079	-5,	-45,096	22,278
107265	-10,777	-5,	-16,513	8,7113
107266	6,2991	-5,	-14,624	7,7699
107267	5,6831	-5,	-14,745	7,6937
107268	-6,7791	-5,	32,495	12,97
107269	13,063	-5,	-16,561	8,8912
107270	15,451	-5,	-6,357	11,565
107271	2,8617	-5,	-23,301	10,656
107272	-10,774	-5,	16,627	8,5317
107273	15,211	-5,	-4,4288	12,069
107274	6,8243	-5,	15,395	7,7768
107275	7,6687	-5,	15,94	7,9951
107276	-13,173	-5,	24,763	9,254
107277	4,443	-5,	52,265	15,368
107278	-2,3814	-5,	-6,1451	7,6529
107279	-22,006	-5,	17,81	6,7946
107280	6,9924	-5,	-19,538	9,0751
107281	-9,8121	-5,	27,999	10,681
107282	-11,732	-5,	-12,781	8,8073
107283	-10,853	-5,	-12,317	8,6227
107284	1,9237	-5,	7,4659	7,3743
107285	5,9282	-5,	17,029	7,9757
107286	3,5585	-5,	-26,129	11,99
107287	-4,3994	-5,	43,38	30,032
107288	-3,6023	-5,	29,942	12,531
107289	-3,7048	-5,	-0,65743	8,5531
107290	4,6324	-5,	-8,1342	7,556
107291	-6,5274	-5,	-9,6725	7,7139
107292	-14,851	-5,	3,7682	12,026
107293	-17,391	-5,	24,319	7,7655
107294	13,437	-5,	3,8281	11,238
107295	-5,5329	-5,	34,052	14,09
107296	12,139	-5,	12,06	8,8388
107297	-25,591	-5,	17,474	4,1263
107298	-25,118	-5,	18,352	4,1572
107299	-25,354	-4,5	17,914	4,1159
107300	-28,74	-5,	1,4184	24,216
107301	-28,292	-5,	2,2723	27,835
107302	-28,543	-4,4993	1,8573	25,667
107303	-28,74	-5,	-1,4184	24,517
107304	-28,292	-5,	-2,2723	27,795
107305	-28,541	-4,499	-1,8601	25,583
107306	28,292	-5,	-2,2723	27,755
107307	28,74	-5,	-1,4184	24,186
107308	28,543	-4,5015	-1,8576	25,647
107309	-2,423	-5,	53,609	19,343
107310	-1,4632	-5,	53,8	20,353
107311	-1,9354	-4,5001	53,718	19,946
107312	-3,3597	-5,	53,326	17,923
107313	-2,8851	-4,5	53,482	18,714
107314	-0,95726	-5,	48,884	14,647
107315	-1,8589	-5,	48,542	18,565
107316	-1,4201	-4,5002	48,739	15,734
107317	-4,196e-015	-5,	49,	13,617
107318	-0,48392	-4,4997	48,971	13,015
107319	-15,661	-5,	35,915	9,2408
107320	-15,188	-5,	36,793	9,5762
107321	-15,424	-4,5	36,355	9,4173
107322	-16,134	-5,	35,037	8,8902
107323	-15,897	-4,5	35,477	9,0699
107324	-23,141	-5,	-3,5418	27,797
107325	-24,043	-5,	-3,8838	31,585
107326	-23,58	-4,5007	-3,7396	30,302
107327	-31,738	-5,	6,0582	18,91
107328	-32,211	-5,	5,1801	20,188
107329	-31,974	-4,5	5,62	20,153
107330	-31,265	-5,	6,9364	16,451
107331	-31,501	-4,5	6,4983	17,916
107332	-26,859	-5,	3,5418	34,637
107333	-25,957	-5,	3,8838	35,233
107334	-26,42	-4,5002	3,7393	36,691
107335	-28,971	-5,	-0,48215	22,355
107336	-28,883	-4,4987	-0,95847	22,566
107337	-28,971	-5,	0,48215	22,076
107338	-29,	-4,4987	-1,5525e-003	20,777
107339	-28,884	-4,499	0,95546	22,059
107340	-22,348	-5,	-2,994	23,765
107341	-21,708	-5,	-2,2723	19,795
107342	-22,005	-4,5012	-2,6515	22,085
107343	-22,727	-4,5009	-3,2912	26,154
107344	-2,6525	-5,	47,994	26,266
107345	-2,2737	-4,4999	48,291	22,436
107346	-27,652	-5,	2,994	31,716
107347	-27,995	-4,4996	2,6511	30,271
107348	-27,274	-4,4999	3,291	34,368
107349	27,652	-5,	-2,994	31,455
107350	27,995	-4,5012	-2,6518	30,184
107351	-27,652	-5,	-2,994	31,589
107352	-27,993	-4,4993	-2,6535	30,233
107353	6,7001	-5,	51,331	10,621
107354	5,9424	-5,	51,95	12,417
107355	6,3367	-4,5	51,643	11,446
107356	-32,67	-5,	4,3005	20,114
107357	-32,447	-4,5	4,741	20,401
107358	-33,051	-5,	3,3891	20,128
107359	-32,87	-4,5	3,8548	19,9
107360	-33,051	-5,	-3,3891	20,097
107361	-32,874	-4,5	-3,8453	19,863
107362	0,95726	-5,	-48,884	3,3971
107363	4,6858e-015	-5,	-49,	1,1859
107364	0,48308	-4,5008	-48,971	1,8737
107365	33,055	-5,	-3,3823	20,085
107366	32,873	-4,5	-3,8481	19,851
107367	0,95726	-5,	48,884	14,572
107368	0,48036	-4,5	48,971	12,91
107369	1,8589	-5,	48,542	18,563
107370	1,4168	-4,5003	48,741	15,649
107371	1,8589	-5,	-48,542	7,1168
107372	1,4195	-4,5011	-48,74	5,1737
107373	-4,1747	-5,	-53,206	6,4304
107374	-5,0202	-5,	-52,755	6,5565
107375	-4,6003	-4,5044	-52,992	6,4628
107376	-3,2892	-5,	-53,571	6,3299
107377	-3,7335	-4,5043	-53,4	6,35
107378	28,292	-5,	2,2723	27,904
107379	27,652	-5,	2,994	31,73
107380	27,993	-4,5017	2,654	30,373
107381	-26,064	-5,	16,596	4,1445
107382	-25,827	-4,5	17,036	4,1031
107383	-26,537	-5,	15,718	4,2261
107384	-26,299	-4,5	16,158	4,1442
107385	23,141	-5,	-3,5418	27,777
107386	24,043	-5,	-3,8838	31,612
107387	23,583	-4,4998	-3,7404	30,28
107388	-0,95726	-5,	-41,116	30,71
107389	-1,8589	-5,	-41,458	33,394
107390	-1,4201	-4,5002	-41,261	26,17
107391	-4,196e-015	-5,	-41,	28,017
107392	-0,48394	-4,4997	-41,029	22,596
107393	-9,9868	-5,	46,453	8,0348
107394	-10,46	-5,	45,575	8,5301
107395	-10,223	-4,5	46,015	8,2582
107396	2,6525	-5,	42,006	20,841
107397	3,2919	-5,	42,728	26,552
107398	2,9947	-4,5011	42,348	23,26
107399	1,8589	-5,	41,458	17,485
107400	2,2734	-4,5012	41,709	18,345
107401	-3,7401	-5,	-43,582	32,204
107402	-3,2919	-5,	-42,728	34,329
107403	-3,5427	-4,4993	-43,143	32,571
107404	-19,917	-5,	28,012	6,2137
107405	-20,39	-5,	27,134	5,9338
107406	-20,152	-4,5	27,574	6,0652
107407	7,3936	-5,	50,641	9,0757
107408	8,0163	-5,	49,886	7,9107
107409	7,7207	-4,5	50,263	8,3523
107410	7,0625	-4,5	50,987	9,7332
107411	-33,339	-5,	2,4447	20,589
107412	-33,205	-4,5	2,9259	20,311
107413	-33,533	-5,	1,4764	20,996
107414	-33,447	-4,5	1,9686	20,797
107415	-33,63	-5,	0,49374	21,218
107416	-33,593	-4,5	0,99197	21,126
107417	-33,63	-5,	-0,49374	21,207
107418	-33,642	-4,5	5,7065e-003	21,236
107419	-33,339	-5,	-2,4447	20,566
107420	-33,208	-4,5	-2,9155	20,301
107421	-33,533	-5,	-1,4764	20,974
107422	-33,594	-4,5	-0,98068	21,116
107423	-33,449	-4,5	-1,9576	20,773
107424	33,055	-5,	3,3823	20,103
107425	32,878	-4,5001	3,8369	19,875
107426	33,633	-5,	0,49275	21,178
107427	33,536	-5,	1,4735	20,959
107428	33,597	-4,5	0,97783	21,115
107429	26,859	-5,	-3,5418	34,748
107430	27,273	-4,5009	-3,2911	34,096
107431	3,2919	-5,	47,272	31,799
107432	3,7401	-5,	46,418	37,396
107433	3,541	-4,5011	46,86	36,804
107434	2,6525	-5,	47,994	25,293
107435	2,2705	-4,5006	48,293	22,356
107436	2,9927	-4,5009	47,654	30,404
107437	3,2892	-5,	-53,571	6,3259
107438	2,3722	-5,	-53,849	6,2478
107439	2,8144	-4,5	-53,727	6,2572
107440	4,1747	-5,	-53,206	6,4293
107441	3,7175	-4,5	-53,407	6,3462
107442	3,9708	-5,	-44,518	28,814
107443	3,9708	-5,	-45,482	25,3
107444	4,	-4,5017	-44,998	27,494
107445	-6,7001	-5,	51,331	10,611
107446	-5,9424	-5,	51,95	12,416
107447	-6,3212	-4,5	51,656	11,473
107448	-7,3936	-5,	50,641	9,0497
107449	-7,0485	-4,5	51,001	9,7566
107450	2,423	-5,	53,609	19,327
107451	3,3597	-5,	53,326	17,898
107452	2,9046	-4,5001	53,476	18,658
107453	1,4632	-5,	53,8	20,362
107454	1,9554	-4,5001	53,714	19,927
107455	-18,971	-5,	29,768	6,8187
107456	-18,498	-5,	30,646	7,1419
107457	-18,734	-4,5	30,208	6,9735
107458	33,342	-5,	-2,4398	20,549
107459	33,208	-4,5	-2,9211	20,277
107460	33,633	-5,	-0,49275	21,18
107461	33,645	-4,5	-6,6302e-003	21,207
107462	33,536	-5,	-1,4735	20,953
107463	33,45	-4,5	-1,9656	20,754
107464	33,596	-4,5	-0,99097	21,084
107465	-17,08	-5,	33,281	8,1755
107466	-17,552	-5,	32,403	7,8224
107467	-17,315	-4,5	32,843	7,9955
107468	0,48928	-5,	53,895	20,895
107469	0,98757	-4,5	53,859	20,727
107470	-0,48928	-5,	53,895	20,888
107471	1,0205e-002	-4,5	53,907	21,01
107472	-0,96724	-4,5	53,861	20,72
107473	4,2642	-5,	52,953	16,191
107474	3,826	-4,5001	53,147	17,073
107475	5,1279	-5,	52,493	14,316
107476	5,5503	-4,5001	52,226	13,326
107477	4,7107	-4,5001	52,728	15,241
107478	-5,1279	-5,	52,493	14,323
107479	-5,5334	-4,5	52,237	13,362
107480	-4,2642	-5,	52,953	16,203
107481	-3,8071	-4,5	53,154	17,12
107482	-4,6927	-4,5	52,738	15,286
107483	-14,715	-5,	37,672	9,8852
107484	-14,242	-5,	38,55	10,152
107485	-14,478	-4,5	38,112	10,041
107486	-14,951	-4,5	37,234	9,7452
107487	-28,901	-5,	11,327	6,5857
107488	-29,374	-5,	10,449	7,7865
107489	-29,137	-4,5	10,889	7,0325
107490	22,348	-5,	-2,994	23,729
107491	22,729	-4,4995	-3,2927	26,13
107492	21,708	-5,	-2,2723	19,785
107493	22,007	-4,4993	-2,6535	22,069
107494	1,4324	-5,	-54,035	6,1957
107495	1,8845	-4,5	-53,957	6,1925
107496	0,47901	-5,	-54,129	6,1707
107497	-0,47901	-5,	-54,129	6,1728
107498	-8,9704e-003	-4,5023	-54,14	6,142
107499	0,93646	-4,5	-54,095	6,1517
107500	-27,482	-5,	13,962	4,6669
107501	-27,955	-5,	13,083	5,0906
107502	-27,718	-4,5	13,524	4,7918
107503	-3,2919	-5,	47,272	33,974
107504	-2,9955	-4,4996	47,651	31,865
107505	-3,9708	-5,	-44,518	28,876
107506	-3,8841	-4,499	-44,044	30,265
107507	-26,859	-5,	-3,5418	34,271
107508	-27,271	-4,4995	-3,2927	34,068
107509	-25,957	-5,	-3,8838	35,257
107510	-26,417	-4,4998	-3,7405	36,504
107511	-1,4324	-5,	-54,035	6,201
107512	-0,96516	-4,5016	-54,093	6,1568
107513	-2,3722	-5,	-53,849	6,2542
107514	-2,8311	-4,5043	-53,722	6,2623
107515	-1,9016	-4,5041	-53,954	6,1993
107516	-30,792	-5,	7,8145	13,812
107517	-31,028	-4,5	7,3765	15,18
107518	6,5594	-5,	-51,618	6,8997
107519	7,2383	-5,	-50,942	7,1499
107520	6,8935	-4,5	-51,302	6,9659
107521	-5,8176	-5,	-52,224	6,7124
107522	-6,5594	-5,	-51,618	6,9048
107523	-6,1935	-4,5039	-51,932	6,7668
107524	-5,4229	-4,5045	-52,501	6,5984
107525	25,957	-5,	-3,8838	35,672
107526	26,42	-4,5007	-3,7396	37,001
107527	-24,645	-5,	19,23	4,2272
107528	-24,172	-5,	20,109	4,3292
107529	-24,408	-4,5	19,671	4,2605
107530	-24,881	-4,5	18,793	4,1711
107531	21,26	-5,	-1,4184	16,288
107532	21,459	-4,499	-1,8601	17,999
107533	21,029	-5,	-0,48215	14,354
107534	21,117	-4,4987	-0,95847	15,117
107535	5,8176	-5,	-52,224	6,71
107536	6,1806	-4,5	-51,943	6,7595
107537	5,0202	-5,	-52,755	6,5564
107538	4,585	-4,5	-53,	6,4627
107539	5,4086	-4,5	-52,511	6,5988
107540	8,3049	-4,5	49,478	7,4044
107541	3,7401	-5,	43,582	33,004
107542	3,9708	-5,	44,518	38,356
107543	3,8841	-4,5015	44,044	36,972
107544	3,5425	-4,5012	43,142	30,076
107545	-13,77	-5,	39,428	10,359
107546	-13,297	-5,	40,306	10,482
107547	-13,533	-4,5	39,868	10,46
107548	-14,005	-4,5	38,99	10,286
107549	21,029	-5,	0,48215	14,402
107550	21,	-4,4987	-1,5495e-003	14,087
107551	-21,26	-5,	-1,4184	16,311
107552	-21,029	-5,	-0,48215	14,368
107553	-21,116	-4,5018	-0,95611	15,139
107554	-21,458	-4,5015	-1,8577	17,994
107555	0,95726	-5,	-41,116	29,935
107556	0,4805	-4,5	-41,029	22,213
107557	1,8589	-5,	-41,458	33,224
107558	1,4164	-4,5003	-41,259	26,303
107559	-25,	-5,	-4,	34,045
107560	-24,517	-4,5004	-3,9707	33,937
107561	-25,481	-4,5001	-3,971	36,174
107562	-22,281	-5,	23,621	4,9793
107563	-22,754	-5,	22,743	4,7853
107564	-22,517	-4,5	23,183	4,8711
107565	-2,6525	-5,	-47,994	11,402
107566	-1,8589	-5,	-48,542	7,3508
107567	-2,2711	-4,5	-48,293	9,3572
107568	-21,708	-5,	2,2723	19,866
107569	-22,348	-5,	2,994	23,738
107570	-22,007	-4,5017	2,6537	22,058
107571	-21,26	-5,	1,4184	16,375
107572	-21,459	-4,502	1,8604	18,11
107573	-8,0163	-5,	49,886	7,8659
107574	-7,7084	-4,5	50,278	8,3385
107575	-8,5622	-5,	49,074	7,3667
107576	-8,2947	-4,5001	49,493	7,3867
107577	-21,808	-5,	24,499	5,1919
107578	-21,335	-5,	25,377	5,4223
107579	-21,571	-4,5	24,94	5,2972
107580	-22,044	-4,5	24,061	5,0751
107581	-3,9708	-5,	-45,482	25,277
107582	-4,	-4,4991	-45,002	27,315
107583	-3,2919	-5,	-47,272	15,917
107584	-2,9934	-4,4997	-47,653	13,732
107585	-3,7401	-5,	-46,418	20,662
107586	-3,5411	-4,4994	-46,86	18,425
107587	-3,8836	-4,4991	-45,958	23,15
107588	-9,0411	-5,	48,209	7,5087
107589	-8,8047	-4,5	48,648	7,344
107590	-9,514	-5,	47,331	7,7402
107591	-9,2769	-4,5	47,771	7,6702
107592	-9,7498	-4,5	46,893	7,8446
107593	-11,878	-5,	42,94	10,09
107594	-11,405	-5,	43,819	9,6587
107595	-11,641	-4,5	43,381	9,9277
107596	-23,699	-5,	20,987	4,4583
107597	-23,935	-4,5	20,549	4,3785
107598	-23,227	-5,	21,865	4,6111
107599	-22,99	-4,5	22,305	4,6861
107600	-23,462	-4,5	21,427	4,5213
107601	7,8479	-5,	-50,203	7,5098
107602	7,5407	-4,5	-50,594	7,2522
107603	8,1162	-4,4999	-49,825	7,6856
107604	3,7401	-5,	-43,582	31,814
107605	3,2919	-5,	-42,728	34,264
107606	3,5411	-4,5011	-43,14	32,495
107607	3,8832	-4,5014	-44,041	30,171
107608	23,141	-5,	3,5418	27,827
107609	22,348	-5,	2,994	23,857
107610	22,726	-4,4999	3,2909	26,255
107611	24,043	-5,	3,8838	31,56
107612	23,58	-4,5002	3,7394	30,299
107613	-25,	-5,	4,	33,918
107614	-25,484	-4,501	3,9706	35,768
107615	-24,043	-5,	3,8838	31,582
107616	-24,52	-4,5012	3,9711	34,011
107617	28,971	-5,	-0,48215	22,134
107618	28,971	-5,	0,48215	21,996
107619	29,	-4,502	1,6624e-003	20,819
107620	28,884	-4,5018	-0,95614	22,124
107621	-16,607	-5,	34,159	8,533
107622	-16,37	-4,5	34,599	8,7126
107623	-16,843	-4,5	33,721	8,3527
107624	-19,444	-5,	28,89	6,509
107625	-19,207	-4,5	29,33	6,6563
107626	-19,68	-4,5	28,452	6,3533
107627	-3,2919	-5,	42,728	26,498
107628	-3,7401	-5,	43,582	32,36
107629	-3,5412	-4,4994	43,14	29,936
107630	-2,6525	-5,	42,006	20,914
107631	-1,8589	-5,	41,458	17,379
107632	-2,2711	-4,5	41,707	18,393
107633	-2,9934	-4,4997	42,347	23,321
107634	-2,6525	-5,	-42,006	34,532
107635	-2,9955	-4,4996	-42,349	32,273
107636	-2,2737	-4,4999	-41,709	29,807
107637	-27,009	-5,	14,84	4,391
107638	-26,772	-4,5	15,28	4,2558
107639	-27,245	-4,5	14,402	4,461
107640	-12,351	-5,	42,062	10,369
107641	-12,114	-4,5	42,503	10,29
107642	-12,824	-5,	41,184	10,494
107643	-12,587	-4,5	41,624	10,488
107644	-13,06	-4,5	40,746	10,537
107645	25,	-5,	4,	33,837
107646	24,516	-4,501	3,9706	33,942
107647	25,957	-5,	3,8838	35,19
107648	25,48	-4,5013	3,9711	35,66
107649	28,74	-5,	1,4184	24,271
107650	28,541	-4,502	1,8603	25,847
107651	28,883	-4,5023	0,95908	22,041
107652	33,342	-5,	2,4398	20,564
107653	33,452	-4,5001	1,9528	20,761
107654	33,212	-4,5	2,9089	20,302
107655	-21,029	-5,	0,48215	14,371
107656	-21,117	-4,5023	0,95905	15,135
107657	-21,	-4,502	1,662e-003	14,109
107658	-0,95726	-5,	-48,884	3,8049
107659	-0,48072	-4,5005	-48,971	2,1058
107660	-1,4172	-4,5002	-48,741	5,5099
107661	2,6525	-5,	-42,006	34,278
107662	2,2706	-4,5006	-41,707	29,65
107663	2,9927	-4,5009	-42,346	32,16
107664	-0,95726	-5,	41,116	16,24
107665	4,6858e-015	-5,	41,	16,083
107666	-0,48071	-4,5005	41,029	16,512
107667	-1,4172	-4,5002	41,259	16,533
107668	-10,933	-5,	44,697	9,1113
107669	-10,695	-4,5	45,137	8,8273
107670	-11,168	-4,5	44,259	9,4203
107671	2,6525	-5,	-47,994	11,347
107672	3,2919	-5,	-47,272	15,891
107673	2,995	-4,5011	-47,651	13,659
107674	2,2733	-4,5012	-48,291	9,3595
107675	0,95726	-5,	41,116	16,346
107676	1,4195	-4,5011	41,26	16,725
107677	0,48308	-4,5008	41,029	16,463
107678	-18,025	-5,	31,525	7,477
107679	-17,788	-4,5	31,965	7,6448
107680	-18,261	-4,5	31,087	7,3035
107681	-7,2383	-5,	-50,942	7,1575
107682	-6,9047	-4,5024	-51,291	6,9756
107683	-7,8479	-5,	-50,203	7,5175
107684	-8,1236	-4,5023	-49,814	7,7011
107685	-7,5501	-4,5017	-50,583	7,2649
107686	-3,7401	-5,	46,418	39,117
107687	-3,9708	-5,	45,482	40,414
107688	-3,8841	-4,499	45,956	42,579
107689	-3,5427	-4,4993	46,857	39,029
107690	3,9708	-5,	45,482	40,32
107691	3,8833	-4,5014	45,959	42,239
107692	4,	-4,5017	45,001	41,5
107693	3,7401	-5,	-46,418	20,725
107694	3,8841	-4,5015	-45,956	23,15
107695	3,5424	-4,5012	-46,858	18,472
107696	21,26	-5,	1,4184	16,416
107697	21,116	-4,499	0,95546	15,26
107698	21,708	-5,	2,2723	19,858
107699	21,457	-4,4993	1,8573	18,25
107700	22,005	-4,4996	2,6512	22,178
107701	-28,428	-5,	12,205	5,7101
107702	-28,191	-4,5	12,645	5,2911
107703	-28,664	-4,5	11,767	6,0145
107704	26,859	-5,	3,5418	34,634
107705	26,417	-4,5015	3,7407	36,655
107706	27,271	-4,5014	3,2928	34,426
107707	-29,846	-5,	9,5708	9,3764
107708	-29,609	-4,5	10,011	8,4204
107709	-30,319	-5,	8,6927	11,396
107710	-30,082	-4,5	9,1329	10,243
107711	-30,555	-4,5	8,2547	12,525
107712	-23,141	-5,	3,5418	27,759
107713	-23,583	-4,5015	3,7407	30,267
107714	-22,729	-4,5014	3,2928	26,221
107715	-20,862	-5,	26,256	5,6698
107716	-20,625	-4,5	26,696	5,7928
107717	-21,098	-4,5	25,818	5,5366
107718	25,	-5,	-4,	34,297
107719	25,483	-4,5004	-3,9707	36,015
107720	24,519	-4,5001	-3,971	33,988
107721	-3,9708	-5,	44,518	37,824
107722	-3,8835	-4,4991	44,042	36,289
107723	-4,	-4,4991	44,998	41,27
107724	-20,625	-2,5	26,697	5,7823
107725	-20,388	-3,	27,136	5,9188
107726	-20,86	-3,	26,26	5,6545
107727	-20,624	-3,5	26,698	5,7854
107728	-20,391	-2,	27,131	5,9174
107729	-20,862	-2,	26,256	5,6532
107730	-20,627	-1,5	26,694	5,7841
107731	-20,154	-2,5	27,571	6,0539
107732	-19,919	-2,	28,007	6,1974
107733	-20,155	-1,5	27,569	6,0562
107734	-19,917	-3,	28,012	6,1989
107735	-20,152	-3,5	27,574	6,0576
107736	-21,098	-2,5	25,819	5,5254
107737	-21,333	-3,	25,382	5,4059
107738	-21,097	-3,5	25,82	5,5287
107739	-21,335	-2,	25,377	5,4046
107740	-21,099	-1,5	25,815	5,5274
107741	-19,681	-2,5	28,449	6,3425
107742	-19,446	-2,	28,885	6,4935
107743	-19,682	-1,5	28,448	6,3446
107744	-19,444	-3,	28,89	6,4951
107745	-19,68	-3,5	28,452	6,3461
107746	-21,57	-2,5	24,941	5,2852
107747	-21,806	-3,	24,504	5,1742
107748	-21,57	-3,5	24,942	5,2887
107749	-21,808	-2,	24,499	5,1731
107750	-21,572	-1,5	24,937	5,2875
107751	-19,209	-2,5	29,327	6,6461
107752	-18,973	-2,	29,764	6,8041
107753	-19,209	-1,5	29,326	6,648
107754	-18,971	-3,	29,768	6,8058
107755	-19,207	-3,5	29,33	6,6496
107756	-22,043	-2,5	24,063	5,0621
107757	-22,278	-3,	23,626	4,9601
107758	-22,043	-3,5	24,064	5,0659
107759	-22,281	-2,	23,621	4,959
107760	-22,045	-1,5	24,059	5,0649
107761	-18,736	-2,5	30,205	6,9638
107762	-18,501	-2,	30,642	7,1284
107763	-18,736	-1,5	30,204	6,9655
107764	-18,498	-3,	30,646	7,1301
107765	-18,734	-3,5	30,208	6,9673
107766	-22,516	-2,5	23,184	4,8569
107767	-22,751	-3,	22,748	4,7641
107768	-22,515	-3,5	23,186	4,8611
107769	-22,754	-2,	22,743	4,7632
107770	-22,518	-1,5	23,181	4,8601
107771	-18,263	-2,5	31,083	7,2946
107772	-18,028	-2,	31,52	7,4649
107773	-18,264	-1,5	31,082	7,2961
107774	-18,025	-3,	31,525	7,4667
107775	-18,261	-3,5	31,087	7,2979
107776	-22,989	-2,5	22,306	4,6704
107777	-23,224	-3,	21,87	4,5874
107778	-22,988	-3,5	22,307	4,6749
107779	-23,227	-2,	21,865	4,5866
107780	-22,991	-1,5	22,303	4,674
107781	-17,79	-2,5	31,961	7,637
107782	-17,555	-2,	32,398	7,812
107783	-17,791	-1,5	31,96	7,6382
107784	-17,552	-3,	32,403	7,8139
107785	-17,788	-3,5	31,965	7,6401
107786	-23,462	-2,5	21,428	4,5036
107787	-23,697	-3,	20,991	4,4314
107788	-23,461	-3,5	21,429	4,5087
107789	-23,699	-2,	20,987	4,4307
107790	-23,464	-1,5	21,425	4,5079
107791	-17,317	-2,5	32,839	7,9889
107792	-17,082	-2,	33,276	8,1674
107793	-17,318	-1,5	32,838	7,9899
107794	-17,08	-3,	33,281	8,1693
107795	-17,315	-3,5	32,843	7,9918
107796	-23,935	-2,5	20,55	4,3584
107797	-24,17	-3,	20,113	4,2981
107798	-23,934	-3,5	20,551	4,3641
107799	-24,172	-2,	20,109	4,2975
107800	-23,937	-1,5	20,546	4,3635
107801	-16,844	-2,5	33,718	8,3477
107802	-16,609	-2,	34,154	8,5277
107803	-16,845	-1,5	33,716	8,3483
107804	-16,607	-3,	34,159	8,5296
107805	-16,843	-3,5	33,721	8,3502
107806	-24,407	-2,5	19,672	4,2372
107807	-24,643	-3,	19,235	4,1907
107808	-24,407	-3,5	19,673	4,2438
107809	-24,645	-2,	19,23	4,1902
107810	-24,409	-1,5	19,668	4,2433
107811	-16,372	-2,5	34,596	8,7095
107812	-16,136	-2,	35,032	8,8884
107813	-16,372	-1,5	34,595	8,7098
107814	-16,134	-3,	35,037	8,8903
107815	-16,37	-3,5	34,599	8,7117
107816	-24,88	-2,5	18,794	4,1437
107817	-25,115	-3,	18,357	4,1136
107818	-24,88	-3,5	18,795	4,1513
107819	-25,118	-2,	18,352	4,1133
107820	-24,882	-1,5	18,79	4,1509
107821	-15,899	-2,5	35,474	9,0692
107822	-15,664	-2,	35,911	9,2435
107823	-15,899	-1,5	35,473	9,069
107824	-15,661	-3,	35,915	9,2453
107825	-15,897	-3,5	35,477	9,0709
107826	-25,353	-2,5	17,916	4,0832
107827	-25,588	-3,	17,479	4,0735
107828	-25,353	-3,5	17,917	4,0921
107829	-25,591	-2,	17,474	4,0734
107830	-25,355	-1,5	17,912	4,0919
107831	-15,426	-2,5	36,352	9,4196
107832	-15,191	-2,	36,789	9,5843
107833	-15,426	-1,5	36,351	9,419
107834	-15,188	-3,	36,793	9,5861
107835	-15,424	-3,5	36,355	9,4208
107836	-25,826	-2,5	17,037	4,0637
107837	-26,061	-3,	16,601	4,0801
107838	-25,825	-3,5	17,039	4,0741
107839	-26,064	-2,	16,596	4,0803
107840	-25,828	-1,5	17,034	4,0742
107841	-14,953	-2,5	37,23	9,7508
107842	-14,718	-2,	37,667	9,8994
107843	-14,954	-1,5	37,229	9,7498
107844	-14,715	-3,	37,672	9,901
107845	-14,951	-3,5	37,234	9,7516
107846	-26,299	-2,5	16,159	4,0966
107847	-26,534	-3,	15,722	4,1473
107848	-26,298	-3,5	16,16	4,1088
107849	-26,537	-2,	15,718	4,1479
107850	-26,301	-1,5	16,156	4,1091
107851	-14,48	-2,5	38,108	10,05
107852	-14,245	-2,	38,545	10,173
107853	-14,481	-1,5	38,107	10,048
107854	-14,242	-3,	38,55	10,175
107855	-14,478	-3,5	38,112	10,05
107856	-26,772	-2,5	15,281	4,1985
107857	-27,007	-3,	14,844	4,2952
107858	-26,771	-3,5	15,282	4,2125
107859	-27,009	-2,	14,84	4,2962
107860	-26,774	-1,5	15,278	4,2131
107861	-14,007	-2,5	38,986	10,298
107862	-13,772	-2,	39,423	10,386
107863	-14,008	-1,5	38,985	10,298
107864	-13,77	-3,	39,428	10,387
107865	-14,005	-3,5	38,99	10,299
107866	-27,245	-2,5	14,403	4,3929
107867	-27,48	-3,	13,966	4,5524
107868	-27,244	-3,5	14,404	4,4086
107869	-27,482	-2,	13,962	4,5539
107870	-27,246	-1,5	14,399	4,4095
107871	-13,534	-2,5	39,865	10,475
107872	-13,299	-2,	40,301	10,514
107873	-13,535	-1,5	39,863	10,475
107874	-13,297	-3,	40,306	10,514
107875	-13,533	-3,5	39,868	10,476
107876	-27,717	-2,5	13,525	4,7134
107877	-27,953	-3,	13,088	4,9583
107878	-27,717	-3,5	13,526	4,7298
107879	-27,955	-2,	13,083	4,9606
107880	-27,719	-1,5	13,521	4,7314
107881	-13,062	-2,5	40,743	10,553
107882	-12,826	-2,	41,18	10,529
107883	-13,062	-1,5	40,742	10,554
107884	-12,824	-3,	41,184	10,529
107885	-13,06	-3,5	40,746	10,554
107886	-28,19	-2,5	12,647	5,2055
107887	-28,425	-3,	12,21	5,5662
107888	-28,19	-3,5	12,648	5,2209
107889	-28,428	-2,	12,205	5,5697
107890	-28,192	-1,5	12,643	5,2234
107891	-12,589	-2,5	41,621	10,505
107892	-12,354	-2,	42,058	10,406
107893	-12,589	-1,5	41,62	10,507
107894	-12,351	-3,	42,062	10,405
107895	-12,587	-3,5	41,624	10,506
107896	-28,663	-2,5	11,768	5,9303
107897	-28,898	-3,	11,332	6,4434
107898	-28,663	-3,5	11,77	5,9408
107899	-28,901	-2,	11,327	6,4484
107900	-28,665	-1,5	11,765	5,9446
107901	-12,116	-2,5	42,499	10,306
107902	-11,881	-2,	42,936	10,128
107903	-12,116	-1,5	42,498	10,309
107904	-11,878	-3,	42,94	10,126
107905	-12,114	-3,5	42,503	10,307
107906	-29,136	-2,5	10,89	6,9614
107907	-29,371	-3,	10,453	7,6691
107908	-29,135	-3,5	10,891	6,9638
107909	-29,138	-1,5	10,887	6,9682
107910	-29,374	-2,	10,449	7,6758
107911	-11,643	-2,5	43,377	9,9473
107912	-11,408	-2,	43,814	9,6998
107913	-11,644	-1,5	43,376	9,9487
107914	-11,405	-3,	43,819	9,6971
107915	-11,641	-3,5	43,381	9,946
107916	-29,844	-3,	9,5752	9,32
107917	-29,608	-3,5	10,013	8,3719
107918	-29,609	-2,5	10,012	8,3831
107919	-11,17	-2,5	44,256	9,4491
107920	-10,935	-2,	44,693	9,1643
107921	-11,171	-1,5	44,254	9,4448
107922	-10,933	-3,	44,697	9,1613
107923	-11,168	-3,5	44,259	9,4408
107924	-30,082	-2,5	9,1339	10,263
107925	-30,081	-3,5	9,1351	10,236
107926	-30,317	-3,	8,6969	11,439
107927	-30,319	-2,	8,6927	11,446
107928	-30,084	-1,5	9,1306	10,241
107929	-29,846	-2,	9,5708	9,3277
107930	-10,697	-2,5	45,134	8,876
107931	-10,462	-2,	45,571	8,6066
107932	-10,698	-1,5	45,133	8,8598
107933	-10,46	-3,	45,575	8,6042
107934	-10,695	-3,5	45,137	8,8571
107935	-30,792	-2,	7,8145	13,982
107936	-30,556	-1,5	8,2524	12,582
107937	-30,555	-2,5	8,2556	12,619
107938	-10,224	-2,5	46,012	8,3344
107939	-9,9885	-2,	46,45	8,1387
107940	-10,225	-1,5	46,011	8,3046
107941	-10,223	-3,5	46,015	8,3026
107942	-9,9868	-3,	46,453	8,1373
107943	-31,028	-2,5	7,3773	15,34
107944	-31,263	-3,	6,9396	16,709
107945	-31,027	-3,5	7,3783	15,297
107946	-30,79	-3,	7,8184	13,98
107947	-31,265	-2,	6,9364	16,707
107948	-31,029	-1,5	7,3743	15,297
107949	-9,515	-2,	47,329	7,8409
107950	-9,7516	-1,5	46,89	7,9037
107951	-9,7511	-2,5	46,891	7,9415
107952	-31,501	-2,5	6,4987	18,074
107953	-31,5	-3,5	6,4997	18,058
107954	-31,737	-3,	6,0602	19,149
107955	-31,738	-2,	6,0582	19,138
107956	-31,502	-1,5	6,4961	18,059
107957	-9,2779	-2,5	47,77	7,7398
107958	-9,2782	-1,5	47,769	7,7138
107959	-9,0414	-2,	48,209	7,5665
107960	-9,2769	-3,5	47,771	7,7122
107961	-9,514	-3,	47,331	7,8403
107962	-9,0411	-3,	48,209	7,5628
107963	-9,5127	-4,	47,333	7,7745
107964	-9,0405	-4,	48,21	7,5052
107965	-9,9856	-4,	46,455	8,068
107966	-9,7498	-3,5	46,893	7,9028
107967	-10,458	-4,	45,577	8,5557
107968	-10,931	-4,	44,699	9,1369
107969	-11,404	-4,	43,821	9,6899
107970	-11,877	-4,	42,943	10,128
107971	-12,35	-4,	42,065	10,409
107972	-12,823	-4,	41,186	10,532
107973	-13,296	-4,	40,308	10,516
107974	-13,768	-4,	39,43	10,387
107975	-14,241	-4,	38,552	10,174
107976	-14,714	-4,	37,674	9,9006
107977	-15,187	-4,	36,796	9,5863
107978	-15,66	-4,	35,918	9,2464
107979	-16,133	-4,	35,039	8,8923
107980	-16,605	-4,	34,161	8,5323
107981	-17,078	-4,	33,283	8,1727
107982	-18,024	-4,	31,527	7,4712
107983	-17,551	-4,	32,405	7,8179
107984	-18,497	-4,	30,649	7,135
107985	-18,97	-4,	29,771	6,8111
107986	-19,443	-4,	28,892	6,5007
107987	-19,915	-4,	28,014	6,2048
107988	-20,388	-4,	27,136	5,9243
107989	-20,861	-4,	26,258	5,6597
107990	-21,334	-4,	25,38	5,4116
107991	-21,807	-4,	24,502	5,1805
107992	-22,28	-4,	23,624	4,967
107993	-22,753	-4,	22,745	4,7719
107994	-23,225	-4,	21,867	4,5962
107995	-23,698	-4,	20,989	4,4415
107996	-24,171	-4,	20,111	4,3098
107997	-24,644	-4,	19,233	4,2044
107998	-25,117	-4,	18,355	4,1298
107999	-25,59	-4,	17,476	4,0928
108000	-26,062	-4,	16,598	4,1029
108001	-26,535	-4,	15,72	4,174
108002	-27,008	-4,	14,842	4,3259
108003	-27,481	-4,	13,964	4,586
108004	-27,954	-4,	13,086	4,9924
108005	-28,427	-4,	12,208	5,5955
108006	-28,9	-4,	11,329	6,4613
108007	-29,372	-4,	10,451	7,6668
108008	-29,845	-4,	9,5731	9,2884
108009	-30,318	-4,	8,6949	11,375
108010	-30,791	-4,	7,8167	13,896
108011	-30,554	-3,5	8,2568	12,577
108012	-31,264	-4,	6,9385	16,648
108013	-31,737	-4,	6,0601	19,16
108014	-31,974	-3,5	5,6206	20,251
108015	-32,21	-4,	5,1809	20,361
108016	-31,974	-2,5	5,6197	20,212
108017	-32,21	-3,	5,1807	20,298
108018	-31,975	-1,5	5,618	20,235
108019	-32,211	-2,	5,1801	20,267
108020	-31,739	-1,	6,0559	19,156
108021	-32,211	-1,	5,1789	20,333
108022	-31,266	-1,	6,934	16,65
108023	-30,793	-1,	7,8122	13,899
108024	-30,321	-1,	8,6903	11,379
108025	-29,848	-1,	9,5685	9,2916
108026	-29,375	-1,	10,447	7,6701
108027	-29,611	-1,5	10,009	8,3774
108028	-28,902	-1,	11,325	6,4645
108029	-28,429	-1,	12,203	5,5984
108030	-27,956	-1,	13,081	4,9944
108031	-27,483	-1,	13,959	4,5872
108032	-27,011	-1,	14,837	4,3266
108033	-26,538	-1,	15,716	4,1745
108034	-26,065	-1,	16,594	4,1031
108035	-25,592	-1,	17,472	4,0927
108036	-25,119	-1,	18,35	4,1296
108037	-24,646	-1,	19,228	4,204
108038	-24,174	-1,	20,106	4,3092
108039	-23,701	-1,	20,984	4,4408
108040	-23,228	-1,	21,863	4,5954
108041	-22,755	-1,	22,741	4,7709
108042	-22,282	-1,	23,619	4,9659
108043	-21,809	-1,	24,497	5,1793
108044	-21,336	-1,	25,375	5,4103
108045	-20,864	-1,	26,253	5,6584
108046	-20,391	-1,	27,131	5,9229
108047	-19,918	-1,	28,01	6,2033
108048	-19,445	-1,	28,888	6,4991
108049	-18,972	-1,	29,766	6,8094
108050	-18,499	-1,	30,644	7,1333
108051	-18,027	-1,	31,522	7,4694
108052	-17,554	-1,	32,4	7,8161
108053	-17,081	-1,	33,278	8,1708
108054	-16,608	-1,	34,157	8,5304
108055	-16,135	-1,	35,035	8,8904
108056	-15,662	-1,	35,913	9,2446
108057	-15,189	-1,	36,791	9,5845
108058	-14,717	-1,	37,669	9,8989
108059	-14,244	-1,	38,547	10,173
108060	-13,771	-1,	39,426	10,386
108061	-13,298	-1,	40,304	10,515
108062	-12,825	-1,	41,182	10,532
108063	-12,352	-1,	42,06	10,41
108064	-11,879	-1,	42,938	10,13
108065	-11,407	-1,	43,816	9,6941
108066	-10,934	-1,	44,695	9,1407
108067	-10,461	-1,	45,573	8,558
108068	-9,9878	-1,	46,451	8,0696
108069	-9,5148	-1,	47,33	7,7765
108070	-9,0414	-1,	48,209	7,5102
108071	-32,447	-2,5	4,741	20,357
108072	-32,447	-1,5	4,741	20,368
108073	-32,671	-1,9994	4,2999	20,004
108074	-32,447	-3,5	4,741	20,412
108075	-32,67	-2,9994	4,3014	20,027
108076	-8,8047	-2,5	48,648	7,3902
108077	-8,8047	-3,5	48,648	7,3566
108078	-8,5614	-3,0011	49,075	7,3796
108079	-8,8047	-1,5	48,648	7,3636
108080	-8,5629	-2,0012	49,072	7,3819
108081	-32,672	-0,99994	4,2976	20,046
108082	-8,5675	-1,	49,065	7,3314
108083	-32,668	-4,	4,3057	20,082
108084	-8,5581	-4,0001	49,08	7,3249
108085	-33,63	-2,9999	0,49783	20,826
108086	-33,63	-3,	-0,4898	20,823
108087	-33,642	-3,5	7,7103e-003	21,038
108088	-33,642	-2,5	3,1327e-004	20,958
108089	-33,594	-2,4999	0,98675	20,854
108090	-33,533	-1,9998	1,4734	20,632
108091	-33,63	-2,	0,49044	20,832
108092	-33,594	-1,5	0,97922	20,943
108093	-33,532	-2,9999	1,4806	20,623
108094	-33,593	-3,5	0,99405	20,929
108095	-33,594	-2,5	-0,98613	20,84
108096	-33,533	-3,0001	-1,4726	20,613
108097	-33,594	-3,5	-0,97875	20,927
108098	-33,532	-2,0001	-1,48	20,605
108099	-33,593	-1,5	-0,99369	20,913
108100	-33,63	-2,	-0,49722	20,82
108101	-33,448	-2,4998	1,9636	20,555
108102	-33,34	-1,9995	2,4421	20,267
108103	-33,449	-1,4999	1,9565	20,631
108104	-33,338	-2,9997	2,4486	20,269
108105	-33,446	-3,4999	1,9706	20,619
108106	-33,448	-2,5001	-1,9629	20,532
108107	-33,34	-3,0003	-2,4412	20,247
108108	-33,449	-3,5	-1,9558	20,599
108109	-33,338	-2,0003	-2,4481	20,244
108110	-33,446	-1,5001	-1,9703	20,596
108111	-33,206	-2,4994	2,9212	20,131
108112	-33,051	-1,999	3,3874	19,883
108113	-33,208	-1,4996	2,9149	20,166
108114	-33,05	-2,9991	3,3919	19,889
108115	-33,204	-3,4998	2,9278	20,169
108116	-33,206	-2,5005	-2,9205	20,11
108117	-33,208	-3,5002	-2,9139	20,155
108118	-33,051	-3,0009	-3,3867	19,867
108119	-33,05	-2,0009	-3,3915	19,865
108120	-33,204	-1,5002	-2,9275	20,147
108121	-32,872	-2,4987	3,8498	19,785
108122	-32,873	-1,4993	3,846	19,793
108123	-32,869	-3,4993	3,8557	19,802
108124	-33,047	-4,	3,3999	19,938
108125	-33,336	-4,	2,4558	20,369
108126	-33,531	-4,	1,4877	20,771
108127	-33,63	-4,	0,50515	20,987
108128	-33,631	-3,9999	-0,48243	20,988
108129	-33,342	-3,9999	-2,4344	20,357
108130	-33,534	-3,9999	-1,4655	20,76
108131	-33,054	-4,	-3,38	19,921
108132	-32,874	-3,5007	-3,8445	19,778
108133	-32,872	-2,5013	-3,8495	19,766
108134	-32,869	-1,5007	-3,8555	19,772
108135	-33,047	-1,	-3,3999	19,908
108136	-33,336	-1,	-2,4557	20,35
108137	-33,531	-1,	-1,4876	20,751
108138	-33,63	-1,	-0,50501	20,985
108139	-33,642	-1,5	-7,3131e-003	21,046
108140	-33,631	-1,0001	0,48265	21,002
108141	-33,341	-1,	2,4353	20,379
108142	-33,534	-1,	1,4659	20,789
108143	-33,053	-0,99993	3,3818	19,93
108144	2,7712e-004	-2,5	53,907	20,699
108145	0,49624	-3,	53,895	20,484
108146	-0,48213	-3,	53,896	20,481
108147	1,3725e-002	-3,5001	53,907	20,802
108148	0,48267	-1,9999	53,896	20,486
108149	-0,49559	-1,9999	53,895	20,49
108150	-1,3522e-002	-1,4999	53,907	20,801
108151	0,97746	-2,5	53,86	20,423
108152	1,4564	-1,9999	53,801	19,972
108153	0,96383	-1,4999	53,861	20,529
108154	1,4698	-3,	53,799	19,967
108155	0,991	-3,5001	53,858	20,522
108156	-0,97683	-2,5	53,86	20,421
108157	-1,4558	-3,	53,801	19,972
108158	-0,96361	-3,5001	53,861	20,52
108159	-1,4691	-1,9999	53,799	19,964
108160	-0,99067	-1,4999	53,858	20,527
108161	1,9452	-2,5	53,716	19,662
108162	2,4162	-1,9999	53,611	18,981
108163	1,932	-1,4999	53,719	19,762
108164	1,9587	-3,5001	53,714	19,736
108165	2,4291	-3,0001	53,608	18,964
108166	-1,9446	-2,5	53,717	19,661
108167	-2,4156	-3,	53,611	18,986
108168	-1,9317	-3,5001	53,719	19,764
108169	-2,4285	-1,9999	53,608	18,967
108170	-1,9583	-1,4999	53,714	19,733
108171	3,3528	-2,	53,329	17,595
108172	2,8816	-1,4999	53,483	18,527
108173	2,8943	-2,5	53,479	18,423
108174	-2,8937	-2,5	53,48	18,431
108175	-3,3523	-3,	53,329	17,606
108176	-2,8813	-3,5001	53,483	18,536
108177	-3,3648	-1,9999	53,324	17,585
108178	-2,9073	-1,4999	53,475	18,501
108179	3,8159	-2,5	53,151	16,872
108180	4,2574	-2,	52,956	15,934
108181	3,8037	-1,5	53,156	16,965
108182	4,2695	-3,0001	52,95	15,91
108183	3,8287	-3,5001	53,145	16,921
108184	3,3653	-3,0001	53,324	17,574
108185	-3,8153	-2,5	53,151	16,887
108186	-4,2571	-3,	52,956	15,943
108187	-3,8035	-3,5	53,156	16,979
108188	-4,269	-2,	52,95	15,917
108189	-3,8285	-1,4999	53,146	16,926
108190	4,7008	-2,5	52,734	15,085
108191	5,1214	-2,	52,496	14,112
108192	4,6894	-1,5	52,74	15,163
108193	5,1327	-3,	52,49	14,087
108194	4,7132	-3,5001	52,727	15,112
108195	-4,7005	-2,5	52,734	15,086
108196	-5,1212	-3,	52,497	14,107
108197	-4,6893	-3,5	52,74	15,167
108198	-5,1325	-2,	52,49	14,088
108199	-4,7131	-1,5	52,727	15,115
108200	5,541	-2,4999	52,232	13,213
108201	5,9366	-1,9999	51,955	12,25
108202	5,5304	-1,5	52,239	13,274
108203	5,947	-2,9999	51,947	12,235
108204	5,5526	-3,5	52,224	13,226
108205	-5,5408	-2,5001	52,232	13,208
108206	-5,9363	-3,0001	51,955	12,246
108207	-5,5302	-3,5	52,239	13,265
108208	-5,9468	-2,0001	51,947	12,226
108209	-5,5526	-1,5	52,224	13,225
108210	6,3284	-2,4998	51,65	11,356
108211	6,6952	-1,9997	51,335	10,485
108212	6,3187	-1,4999	51,658	11,4
108213	6,339	-3,5	51,642	11,364
108214	6,7045	-2,9997	51,327	10,472
108215	-6,3281	-2,5001	51,65	11,349
108216	-6,6947	-3,0002	51,336	10,483
108217	-6,3183	-3,5001	51,658	11,402
108218	-6,7043	-2,0002	51,327	10,467
108219	-6,3389	-1,5001	51,642	11,349
108220	7,3898	-1,9992	50,645	8,9649
108221	7,0467	-1,4998	51,003	9,6995
108222	7,0552	-2,4996	50,994	9,6735
108223	-7,0549	-2,5003	50,995	9,6709
108224	-7,3892	-3,0007	50,645	8,9629
108225	-7,046	-3,5002	51,003	9,7002
108226	-7,3975	-2,0006	50,636	8,9594
108227	-7,0646	-1,5002	50,985	9,6769
108228	7,7146	-2,499	50,27	8,3067
108229	8,0141	-1,9984	49,889	7,8315
108230	7,7076	-1,4995	50,279	8,316
108231	8,0191	-2,9984	49,882	7,8352
108232	7,7227	-3,4995	50,26	8,2992
108233	7,3977	-2,9994	50,636	8,9563
108234	-7,714	-2,5009	50,271	8,3126
108235	-7,7065	-3,5005	50,28	8,3107
108236	-8,0135	-3,0016	49,889	7,8369
108237	-8,0188	-2,0016	49,882	7,8322
108238	-7,7225	-1,5004	50,261	8,2894
108239	8,2994	-2,4978	49,486	7,4125
108240	8,2955	-1,499	49,492	7,379
108241	8,3058	-3,4988	49,476	7,3825
108242	8,0285	-3,9999	49,869	7,7934
108243	7,4073	-4,	50,625	8,9481
108244	6,7152	-4,	51,317	10,484
108245	7,0646	-3,4998	50,985	9,6663
108246	5,9588	-4,0001	51,938	12,269
108247	5,1454	-4,0001	52,482	14,15
108248	4,2827	-4,0001	52,944	16,009
108249	3,3789	-4,0001	53,319	17,705
108250	2,4428	-4,0001	53,604	19,117
108251	2,9075	-3,5001	53,475	18,484
108252	1,4834	-4,0001	53,797	20,144
108253	0,50969	-4,0001	53,894	20,687
108254	-0,4689	-4,0001	53,896	20,691
108255	-1,443	-4,0001	53,803	20,165
108256	-2,4032	-4,0001	53,614	19,174
108257	-3,3405	-4,0001	53,333	17,78
108258	-4,2458	-4,	52,961	16,087
108259	-5,1106	-4,	52,503	14,224
108260	-5,9264	-4,	51,962	12,333
108261	-6,6857	-4,0001	51,344	10,546
108262	-7,3811	-4,0001	50,654	8,985
108263	-8,0061	-4,0001	49,899	7,8071
108264	-8,2939	-3,5012	49,494	7,3868
108265	-8,2991	-2,5023	49,486	7,4083
108266	-8,3057	-1,5012	49,477	7,3867
108267	-8,0285	-1,	49,869	7,7911
108268	-7,4073	-1,	50,625	8,9445
108269	-6,7152	-1,	51,317	10,486
108270	-5,9589	-0,99996	51,938	12,261
108271	-5,1455	-0,99993	52,482	14,152
108272	-4,2828	-0,99991	52,944	16,01
108273	-3,379	-0,99988	53,319	17,714
108274	-2,443	-0,99987	53,604	19,127
108275	-1,4835	-0,99987	53,797	20,149
108276	-0,5098	-0,99988	53,894	20,687
108277	0,46878	-0,99989	53,896	20,693
108278	1,4429	-0,99989	53,803	20,173
108279	2,4032	-0,9999	53,614	19,168
108280	3,3405	-0,99992	53,333	17,768
108281	4,2459	-0,99998	52,961	16,079
108282	5,1106	-1,	52,503	14,224
108283	5,9266	-1,	51,962	12,337
108284	7,3822	-1,0001	50,653	8,9892
108285	6,6862	-1,	51,343	10,541
108286	8,0083	-1,	49,896	7,8103
108287	33,645	-2,5	-4,3032e-004	20,923
108288	33,633	-2,9999	-0,49765	20,784
108289	33,633	-3,	0,48807	20,81
108290	33,645	-3,5	-9,0164e-003	21,006
108291	33,633	-1,9999	-0,48905	20,793
108292	33,633	-2,	0,49674	20,795
108293	33,645	-1,5	8,4492e-003	21,019
108294	33,596	-2,4999	-0,98507	20,805
108295	33,536	-1,9998	-1,4702	20,578
108296	33,597	-1,4999	-0,97635	20,89
108297	33,535	-2,9998	-1,4785	20,583
108298	33,596	-3,4999	-0,99348	20,884
108299	33,597	-2,5001	0,98404	20,84
108300	33,536	-3,0001	1,469	20,613
108301	33,597	-3,5001	0,97554	20,949
108302	33,535	-2,0001	1,4775	20,59
108303	33,596	-1,5001	0,99292	20,897
108304	33,451	-2,4997	-1,96	20,508
108305	33,343	-1,9994	-2,4371	20,225
108306	33,452	-1,4998	-1,9518	20,573
108307	33,341	-2,9996	-2,4446	20,228
108308	33,449	-3,4998	-1,9681	20,582
108309	33,451	-2,5002	1,9589	20,515
108310	33,343	-3,0004	2,4358	20,234
108311	33,453	-3,5001	1,9507	20,58
108312	33,341	-2,0004	2,4437	20,232
108313	33,449	-1,5001	1,9676	20,575
108314	33,21	-2,4993	-2,9157	20,093
108315	33,055	-1,9989	-3,3806	19,86
108316	33,212	-1,4997	-2,9086	20,14
108317	33,053	-2,999	-3,3858	19,852
108318	33,207	-3,4997	-2,9234	20,126
108319	33,21	-2,5006	2,9146	20,101
108320	33,212	-3,5003	2,907	20,152
108321	33,056	-3,0011	3,3795	19,871
108322	33,054	-2,0011	3,3851	19,864
108323	33,208	-1,5003	2,923	20,14
108324	32,876	-2,4986	-3,8424	19,762
108325	32,878	-1,4994	-3,8381	19,78
108326	32,873	-3,4993	-3,8492	19,769
108327	33,05	-4,	-3,3951	19,899
108328	33,339	-4,	-2,4529	20,332
108329	33,534	-4,	-1,4867	20,73
108330	33,632	-4,	-0,50607	20,959
108331	33,634	-4,	0,47964	20,985
108332	33,058	-4,0001	3,3717	19,928
108333	33,345	-4,	2,4279	20,348
108334	32,879	-3,5008	3,8359	19,792
108335	32,876	-2,5015	3,8418	19,778
108336	32,873	-1,5008	3,849	19,787
108337	33,05	-1,	3,3951	19,919
108338	33,339	-1,	2,4528	20,334
108339	33,534	-1,	1,4866	20,731
108340	33,632	-1,	0,50586	20,964
108341	33,634	-0,99998	-0,48003	20,961
108342	33,057	-1,0001	-3,3744	19,914
108343	33,345	-1,	-2,4293	20,338
108344	33,538	-0,99995	-1,4615	20,732
108345	33,538	-4,0001	1,4608	20,759
108346	-7,1186e-003	-2,4991	-54,14	6,0439
108347	-0,48675	-3,0008	-54,128	6,0295
108348	0,4627	-2,9992	-54,129	6,0285
108349	-1,5643e-002	-3,5024	-54,14	6,0705
108350	-0,47469	-1,9987	-54,129	6,0279
108351	0,47483	-1,9977	-54,129	6,0302
108352	7,8395e-003	-1,4975	-54,14	6,0687
108353	-0,95319	-2,5003	-54,094	6,0562
108354	-1,4196	-2,0001	-54,037	6,0541
108355	-0,94323	-1,4968	-54,095	6,0816
108356	-1,431	-3,0024	-54,035	6,0566
108357	-0,96624	-3,5024	-54,093	6,0839
108358	0,94353	-2,4978	-54,095	6,0578
108359	1,4106	-2,9983	-54,038	6,0548
108360	0,92684	-3,4992	-54,096	6,0804
108361	1,4221	-1,996	-54,037	6,0565
108362	0,94987	-1,4953	-54,094	6,0858
108363	-1,894	-2,5022	-53,955	6,0975
108364	-2,3528	-2,0015	-53,853	6,1042
108365	-1,8765	-1,5006	-53,959	6,1207
108366	-2,3638	-3,0046	-53,851	6,1072
108367	-1,899	-3,5058	-53,954	6,1266
108368	1,8858	-2,4965	-53,957	6,097
108369	2,3466	-2,9979	-53,855	6,1067
108370	1,8723	-3,4991	-53,96	6,1222
108371	2,3577	-1,9947	-53,852	6,1072
108372	1,8949	-1,4935	-53,955	6,1251
108373	-2,8171	-2,5038	-53,726	6,1573
108374	-3,2657	-2,0022	-53,58	6,1779
108375	-2,8033	-1,5009	-53,73	6,1834
108376	-3,2764	-3,0058	-53,576	6,1794
108377	-2,8254	-3,5072	-53,724	6,1869
108378	2,8129	-2,4961	-53,728	6,1607
108379	3,2624	-2,9975	-53,581	6,1803
108380	2,8011	-3,4988	-53,731	6,1856
108381	3,2733	-1,9947	-53,577	6,1823
108382	2,8232	-1,4933	-53,724	6,1893
108383	-3,7172	-2,5042	-53,407	6,2449
108384	-4,1502	-2,0026	-53,217	6,2757
108385	-3,7054	-1,5013	-53,412	6,2705
108386	-4,1605	-3,0057	-53,212	6,2775
108387	-3,7266	-3,5072	-53,403	6,2743
108388	3,715	-2,496	-53,408	6,2469
108389	4,1485	-2,9974	-53,218	6,277
108390	3,7041	-3,4987	-53,413	6,2718
108391	4,1589	-1,9947	-53,213	6,2801
108392	3,7255	-1,4932	-53,404	6,2771
108393	-4,5835	-2,5042	-53,001	6,3536
108394	-4,9965	-2,0025	-52,769	6,3955
108395	-4,5729	-1,5013	-53,007	6,3808
108396	-5,0061	-3,0055	-52,764	6,3974
108397	-4,5931	-3,5072	-52,996	6,3851
108398	4,5824	-2,4961	-53,002	6,3555
108399	4,9956	-2,9975	-52,77	6,3964
108400	4,5722	-3,4988	-53,007	6,3839
108401	5,0053	-1,9948	-52,764	6,3976
108402	4,5924	-1,4932	-52,996	6,3886
108403	-5,407	-2,5039	-52,512	6,4855
108404	-5,796	-2,0022	-52,24	6,5401
108405	-5,3974	-1,5012	-52,518	6,5121
108406	-5,8046	-3,0047	-52,234	6,5426
108407	-5,416	-3,5071	-52,506	6,5162
108408	5,4065	-2,4963	-52,512	6,4848
108409	5,7952	-2,9977	-52,241	6,5411
108410	5,3968	-3,4988	-52,519	6,5173
108411	5,8042	-1,9952	-52,234	6,5429
108412	5,4156	-1,4934	-52,506	6,5151
108413	-6,1797	-2,5031	-51,943	6,6441
108414	-6,541	-2,0016	-51,634	6,7201
108415	-6,171	-1,501	-51,951	6,6687
108416	-6,5483	-3,0034	-51,628	6,7265
108417	-6,1874	-3,5059	-51,937	6,6783
108418	6,179	-2,4966	-51,944	6,6469
108419	6,5399	-2,9981	-51,636	6,7242
108420	6,17	-3,4989	-51,951	6,6712
108421	6,5478	-1,996	-51,628	6,726
108422	6,1871	-1,4938	-51,937	6,6793
108423	-6,8939	-2,5019	-51,301	6,8519
108424	-7,2244	-2,0008	-50,957	6,9758
108425	-6,8863	-1,5006	-51,309	6,8717
108426	-7,2301	-3,002	-50,951	6,983
108427	-6,8998	-3,5037	-51,296	6,8855
108428	6,8929	-2,4975	-51,302	6,8513
108429	7,2228	-2,9988	-50,959	6,9782
108430	6,8846	-3,4991	-51,311	6,878
108431	7,2294	-1,9977	-50,952	6,9773
108432	6,8995	-1,495	-51,296	6,875
108433	-7,5431	-2,5009	-50,591	7,158
108434	-7,8396	-1,9997	-50,214	7,3643
108435	-7,5367	-1,5002	-50,599	7,1648
108436	-7,843	-3,001	-50,21	7,3745
108437	-7,5468	-3,5024	-50,587	7,1796
108438	7,5419	-2,4991	-50,592	7,1555
108439	7,5341	-3,4996	-50,602	7,1681
108440	7,8384	-3,0004	-50,216	7,3636
108441	7,8425	-1,9998	-50,21	7,3715
108442	7,5463	-1,4973	-50,587	7,1763
108443	-8,1205	-2,4999	-49,819	7,6334
108444	-8,1164	-1,4996	-49,825	7,6262
108445	-8,122	-3,5026	-49,816	7,6437
108446	-7,8446	-4,004	-50,208	7,3963
108447	-7,2338	-4,0041	-50,947	7,0311
108448	-6,5546	-4,0063	-51,622	6,7882
108449	-5,8127	-4,0084	-52,228	6,6046
108450	-5,015	-4,0089	-52,758	6,4578
108451	-4,1691	-4,0087	-53,208	6,3362
108452	-3,2834	-4,0086	-53,573	6,237
108453	-2,3662	-4,0084	-53,85	6,1623
108454	-1,4376	-4,0057	-54,034	6,1112
108455	-0,49629	-4,0039	-54,128	6,0817
108456	0,44956	-4,0023	-54,13	6,0798
108457	1,3919	-4,	-54,041	6,104
108458	2,3324	-4,	-53,858	6,157
108459	3,2506	-4,	-53,585	6,2323
108460	4,1377	-4,0001	-53,223	6,3326
108461	4,9853	-4,0001	-52,776	6,4582
108462	7,2133	-3,9999	-50,969	7,0171
108463	6,5304	-3,9999	-51,644	6,776
108464	7,8278	-3,9999	-50,23	7,3756
108465	8,113	-3,5007	-49,83	7,6248
108466	8,1199	-2,5012	-49,819	7,6321
108467	8,1217	-1,5006	-49,817	7,6395
108468	7,8445	-0,99802	-50,208	7,394
108469	7,2338	-0,9946	-50,947	7,0219
108470	6,5545	-0,99282	-51,622	6,7808
108471	5,8125	-0,99203	-52,228	6,6031
108472	5,0148	-0,9918	-52,758	6,4599
108473	4,169	-0,99169	-53,208	6,3397
108474	3,2833	-0,99179	-53,573	6,2391
108475	2,366	-0,99206	-53,85	6,1629
108476	1,426	-0,99283	-54,036	6,1107
108477	0,484	-0,99512	-54,128	6,0819
108478	-0,46182	-0,99564	-54,129	6,079
108479	-1,4034	-0,99722	-54,039	6,1055
108480	-2,3326	-1,	-53,858	6,1559
108481	-3,2508	-0,99998	-53,585	6,2307
108482	-4,1381	-0,99995	-53,223	6,3303
108483	-4,9859	-0,99997	-52,776	6,4506
108484	-5,7863	-1,	-52,247	6,5932
108485	-7,216	-1,0001	-50,966	7,0098
108486	-6,5319	-1,	-51,643	6,7709
108487	-7,8326	-1,0001	-50,224	7,3733
108488	5,7854	-4,	-52,248	6,5999
108489	-28,74	-2,9987	1,4174	22,709
108490	-28,971	-2,9983	0,4813	20,079
108491	-28,884	-2,4987	0,95734	20,968
108492	-28,884	-3,4983	0,95499	21,131
108493	-28,293	-2,9993	2,2713	26,911
108494	-28,542	-2,4991	1,8588	24,99
108495	-28,543	-3,4988	1,8568	25,075
108496	-28,971	-2,9982	-0,48278	20,053
108497	-29,	-2,4985	3,1675e-004	19,405
108498	-29,	-3,4978	-1,9205e-003	19,669
108499	-27,653	-2,9998	2,9932	30,871
108500	-27,994	-2,4997	2,6523	29,791
108501	-27,996	-3,4994	2,6507	29,952
108502	-28,74	-2,9985	-1,4188	22,616
108503	-28,884	-2,4986	-0,95674	20,886
108504	-28,883	-3,4979	-0,95873	21,315
108505	-26,86	-3,0005	3,5412	34,24
108506	-27,272	-2,5003	3,2918	33,688
108507	-27,274	-3,5	3,2906	33,91
108508	-28,292	-2,999	-2,2725	26,845
108509	-28,542	-2,4991	-1,8582	24,859
108510	-28,541	-3,4984	-1,8602	24,932
108511	-25,958	-3,0013	3,8835	35,543
108512	-26,419	-2,501	3,74	37,05
108513	-26,421	-3,5007	3,7391	36,699
108514	-27,652	-2,9995	-2,9942	31,473
108515	-27,995	-2,4996	-2,6519	29,818
108516	-27,993	-3,4989	-2,6536	29,934
108517	-25,001	-3,0021	4,	34,544
108518	-25,482	-2,5018	3,9708	36,139
108519	-25,484	-3,5018	3,9706	36,21
108520	-26,859	-3,	-3,542	35,013
108521	-27,273	-2,5001	-3,2915	34,016
108522	-27,271	-3,4994	-3,2928	34,284
108523	-24,044	-3,0027	3,8841	31,91
108524	-24,518	-2,5025	3,9709	34,193
108525	-24,52	-3,5025	3,9711	34,165
108526	-25,957	-3,0006	-3,8838	36,462
108527	-26,419	-2,5006	-3,7398	36,963
108528	-26,417	-3,5	-3,7406	37,129
108529	-23,142	-3,0032	3,5424	28,104
108530	-23,582	-2,503	3,7402	30,491
108531	-23,584	-3,503	3,741	30,465
108532	-25,	-3,0011	-4,	35,112
108533	-25,483	-2,5012	-3,9707	36,922
108534	-25,481	-3,5005	-3,971	36,95
108535	-22,348	-3,0035	2,9949	23,963
108536	-22,728	-2,5034	3,2921	26,404
108537	-22,73	-3,5031	3,2932	26,378
108538	-24,042	-3,0017	-3,8837	31,882
108539	-24,519	-2,5017	-3,9709	34,136
108540	-24,516	-3,5011	-3,9707	34,101
108541	-21,709	-3,004	2,2732	19,776
108542	-22,006	-2,5039	2,6526	22,128
108543	-22,007	-3,5036	2,6541	22,115
108544	-23,141	-3,0022	-3,5417	28,096
108545	-23,582	-2,5023	-3,7403	30,506
108546	-23,58	-3,5016	-3,7395	30,48
108547	-21,26	-3,0044	1,4195	16,361
108548	-21,458	-2,5044	1,8591	18,021
108549	-21,459	-3,5041	1,8609	18,042
108550	-22,347	-3,0028	-2,9938	23,886
108551	-22,728	-2,5028	-3,2924	26,338
108552	-22,727	-3,5022	-3,2911	26,268
108553	-21,029	-3,0046	0,48309	14,352
108554	-21,116	-2,5047	0,9573	15,167
108555	-21,117	-3,5046	0,95957	15,177
108556	-21,708	-3,0033	-2,2719	19,752
108557	-22,006	-2,5034	-2,653	22,116
108558	-22,005	-3,5027	-2,6514	22,109
108559	-21,26	-3,0038	-1,4179	16,308
108560	-21,458	-2,5039	-1,8594	17,906
108561	-21,457	-3,5033	-1,8575	17,967
108562	-21,029	-3,0043	-0,48142	14,337
108563	-21,116	-2,5045	-0,95765	15,137
108564	-21,116	-3,5038	-0,95579	15,162
108565	-21,	-2,5048	-1,5548e-004	14,05
108566	-21,	-3,5043	2,0727e-003	14,086
108567	-21,029	-2,0049	-0,48342	14,341
108568	-21,26	-2,0045	-1,4199	16,259
108569	-21,117	-1,5052	-0,95977	15,153
108570	-21,029	-2,005	0,48109	14,355
108571	-21,	-1,5055	-2,299e-003	14,084
108572	-21,709	-2,004	-2,2736	19,758
108573	-21,459	-1,5046	-1,8612	17,922
108574	-21,26	-2,0047	1,4176	16,35
108575	-21,116	-1,5052	0,95571	15,18
108576	-22,349	-2,0034	-2,9952	23,968
108577	-22,008	-1,5041	-2,6545	22,212
108578	-21,708	-2,0043	2,2716	19,827
108579	-21,457	-1,5047	1,8574	18,041
108580	-23,143	-2,0029	-3,5427	28,068
108581	-22,73	-1,5035	-3,2935	26,295
108582	-22,347	-2,0038	2,9936	24,005
108583	-22,005	-1,5042	2,6513	22,215
108584	-24,045	-2,0023	-3,8842	31,877
108585	-23,584	-1,503	-3,741	30,464
108586	-23,14	-2,0033	3,5415	28,08
108587	-22,726	-1,5036	3,2908	26,333
108588	-25,002	-2,0018	-4,	34,868
108589	-24,521	-1,5024	-3,9712	34,12
108590	-24,042	-2,0028	3,8836	31,919
108591	-23,58	-1,5031	3,7396	30,458
108592	-25,959	-2,0012	-3,8833	36,034
108593	-25,485	-1,5019	-3,9705	36,757
108594	-24,999	-2,0021	4,	34,645
108595	-24,516	-1,5025	3,9706	34,225
108596	-26,861	-2,0007	-3,5409	34,372
108597	-26,421	-1,5013	-3,739	36,225
108598	-25,956	-2,0015	3,884	36,162
108599	-25,481	-1,5019	3,971	36,203
108600	-27,654	-2,0002	-2,9928	30,978
108601	-27,275	-1,5008	-3,2902	33,932
108602	-26,858	-2,0009	3,5422	35,102
108603	-26,417	-1,5013	3,7406	37,506
108604	-28,293	-1,9997	-2,2707	26,865
108605	-27,996	-1,5003	-2,6503	29,877
108606	-27,652	-2,0002	2,9946	31,216
108607	-27,271	-1,5006	3,293	34,273
108608	-28,741	-1,9992	-1,4168	22,643
108609	-28,543	-1,4997	-1,8565	25,041
108610	-28,291	-1,9995	2,273	26,906
108611	-27,993	-1,5	2,6539	29,928
108612	-28,971	-1,9988	-0,48066	20,069
108613	-28,971	-1,9988	0,48339	20,116
108614	-29,	-1,4989	2,2299e-003	19,665
108615	-28,884	-1,4992	-0,95459	21,11
108616	-28,74	-1,9991	1,4194	22,75
108617	-28,541	-1,4994	1,8603	25,208
108618	-28,883	-1,4989	0,95897	21,248
108619	-28,971	-0,99897	0,48487	20,61
108620	-28,739	-0,99929	1,4206	23,187
108621	-28,971	-0,99924	-0,47869	20,53
108622	-28,741	-0,99978	-1,4149	23,02
108623	-28,294	-1,0003	-2,2692	27,075
108624	-27,655	-1,0009	-2,9914	31,344
108625	-26,862	-1,0014	-3,54	34,269
108626	-25,961	-1,002	-3,8829	35,609
108627	-25,004	-1,0025	-4,	34,941
108628	-24,046	-1,003	-3,8846	31,856
108629	-23,144	-1,0036	-3,5435	28,003
108630	-22,35	-1,0041	-2,9965	23,96
108631	-21,71	-1,0047	-2,2753	19,853
108632	-21,261	-1,0052	-1,4219	16,349
108633	-21,03	-1,0058	-0,48572	14,396
108634	-21,029	-1,0057	0,47933	14,407
108635	-21,259	-1,0052	1,4162	16,397
108636	-21,707	-1,0046	2,2702	19,882
108637	-22,345	-1,004	2,9922	23,98
108638	-23,139	-1,0034	3,5406	27,996
108639	-24,04	-1,0028	3,8831	31,913
108640	-24,997	-1,0022	4,	34,668
108641	-25,955	-1,0016	3,8843	36,061
108642	-26,857	-1,0011	3,5431	35,242
108643	-27,65	-1,0005	2,9961	31,596
108644	-28,29	-0,99989	2,2744	27,261
108645	-25,003	-4,0022	4,	34,692
108646	-25,961	-4,0012	3,8829	35,939
108647	-24,046	-4,0028	3,8847	31,862
108648	-23,144	-4,003	3,5434	28,029
108649	-22,35	-4,0031	2,9962	23,987
108650	-21,71	-4,0037	2,275	19,838
108651	-21,261	-4,0043	1,4217	16,376
108652	-21,03	-4,0043	0,48562	14,414
108653	-21,029	-4,0038	-0,47932	14,402
108654	-21,259	-4,0032	-1,4161	16,352
108655	-21,707	-4,0027	-2,2701	19,812
108656	-22,346	-4,0021	-2,9923	23,91
108657	-23,139	-4,0016	-3,5406	27,973
108658	-24,04	-4,001	-3,8831	31,825
108659	-24,997	-4,0005	-4,	34,767
108660	-25,955	-3,9999	-3,8844	36,265
108661	-26,857	-3,9994	-3,543	34,863
108662	-27,651	-3,9988	-2,9958	31,389
108663	-28,29	-3,9983	-2,2744	27,059
108664	-28,739	-3,9977	-1,4208	23,142
108665	-28,97	-3,9974	-0,48492	20,738
108666	-28,971	-3,9978	0,47877	20,539
108667	-28,741	-3,9983	1,415	22,997
108668	-28,294	-3,9989	2,2693	27,157
108669	-27,655	-3,9995	2,9917	31,602
108670	-26,862	-4,0001	3,5401	34,923
108671	21,26	-2,9987	1,4174	16,539
108672	21,029	-2,9983	0,48128	14,367
108673	21,116	-2,4987	0,95732	15,224
108674	21,116	-3,4983	0,95497	15,263
108675	21,707	-2,9993	2,2713	20,113
108676	21,458	-2,4991	1,8587	18,403
108677	21,457	-3,4988	1,8568	18,425
108678	21,029	-2,9982	-0,48279	14,325
108679	21,	-2,4985	3,0357e-004	14,029
108680	21,	-3,4978	-1,9233e-003	14,056
108681	22,347	-2,9999	2,9932	24,062
108682	22,006	-2,4997	2,6523	22,295
108683	22,004	-3,4994	2,6507	22,266
108684	21,26	-2,9985	-1,4188	16,308
108685	21,116	-2,4986	-0,95674	15,139
108686	21,117	-3,4979	-0,95874	15,159
108687	23,14	-3,0005	3,5412	28,09
108688	22,728	-2,5003	3,2918	26,413
108689	22,726	-3,5	3,2906	26,385
108690	21,708	-2,999	-2,2725	19,794
108691	21,458	-2,4991	-1,8582	17,956
108692	21,459	-3,4984	-1,8602	17,976
108693	24,042	-3,0013	3,8835	31,894
108694	23,581	-2,501	3,74	30,476
108695	23,579	-3,5006	3,7392	30,437
108696	22,348	-2,9995	-2,9942	23,976
108697	22,005	-2,4996	-2,6519	22,155
108698	22,007	-3,4989	-2,6536	22,168
108699	24,999	-3,0021	4,	34,517
108700	24,518	-2,5018	3,9708	34,156
108701	24,515	-3,5018	3,9705	34,155
108702	23,141	-3,	-3,5419	28,04
108703	22,727	-2,5001	-3,2914	26,332
108704	22,729	-3,4994	-3,2928	26,272
108705	25,956	-3,0027	3,8841	35,294
108706	25,482	-2,5025	3,9709	36,258
108707	25,48	-3,5025	3,9711	36,107
108708	24,043	-3,0006	-3,8838	31,888
108709	23,581	-2,5006	-3,7397	30,449
108710	23,583	-3,5	-3,7404	30,414
108711	26,858	-3,0031	3,5425	34,354
108712	26,418	-2,503	3,7402	35,93
108713	26,416	-3,503	3,741	36,388
108714	25,	-3,0012	-4,	34,663
108715	24,517	-2,5012	-3,9707	34,193
108716	24,519	-3,5005	-3,971	34,145
108717	27,651	-3,0035	2,9949	31,522
108718	27,272	-2,5034	3,2922	34,299
108719	27,27	-3,5031	3,2932	34,473
108720	25,957	-3,0017	-3,8837	35,855
108721	25,481	-2,5018	-3,9709	36,289
108722	25,483	-3,5011	-3,9707	36,246
108723	28,291	-3,004	2,2733	27,084
108724	27,994	-2,5039	2,6527	30,008
108725	27,992	-3,5036	2,6544	30,165
108726	26,859	-3,0022	-3,5417	34,707
108727	26,418	-2,5023	-3,7404	36,66
108728	26,42	-3,5017	-3,7395	36,995
108729	28,74	-3,0044	1,4195	22,847
108730	28,542	-2,5044	1,8591	25,119
108731	28,541	-3,5041	1,8608	25,258
108732	27,653	-3,0028	-2,9939	31,116
108733	27,272	-2,5028	-3,2924	33,881
108734	27,274	-3,5022	-3,2911	34,125
108735	28,971	-3,0046	0,48308	20,255
108736	28,884	-2,5047	0,95731	20,948
108737	28,883	-3,5046	0,9596	21,222
108738	28,292	-3,0033	-2,272	26,687
108739	27,994	-2,5034	-2,653	29,654
108740	27,995	-3,5027	-2,6517	29,826
108741	28,74	-3,0039	-1,418	22,761
108742	28,542	-2,504	-1,8595	24,659
108743	28,543	-3,5033	-1,8575	24,981
108744	28,971	-3,0043	-0,48141	20,36
108745	28,884	-2,5045	-0,95765	21,024
108746	28,884	-3,5038	-0,95582	21,314
108747	29,	-2,5048	-1,5527e-004	19,555
108748	29,	-3,5043	2,073e-003	19,83
108749	28,971	-2,0049	-0,48343	20,059
108750	28,74	-2,0046	-1,4199	22,47
108751	28,883	-1,5052	-0,95978	20,941
108752	28,971	-2,005	0,4811	20,056
108753	29,	-1,5055	-2,2993e-003	19,665
108754	28,291	-2,004	-2,2736	26,629
108755	28,541	-1,5046	-1,8612	24,795
108756	28,74	-2,0047	1,4176	22,741
108757	28,884	-1,5052	0,95572	21,191
108758	27,651	-2,0035	-2,9952	31,025
108759	27,992	-1,5041	-2,6545	29,794
108760	28,292	-2,0043	2,2717	27,012
108761	28,543	-1,5047	1,8574	25,226
108762	26,857	-2,0029	-3,5427	34,386
108763	27,27	-1,5035	-3,2935	33,976
108764	27,653	-2,0038	2,9936	31,412
108765	27,995	-1,5042	2,6514	29,995
108766	25,955	-2,0024	-3,8842	35,676
108767	26,416	-1,503	-3,741	36,561
108768	26,86	-2,0032	3,5415	34,198
108769	27,274	-1,5036	3,2908	34,389
108770	24,998	-2,0018	-4,	34,688
108771	25,479	-1,5024	-3,9712	36,346
108772	25,958	-2,0027	3,8836	35,645
108773	26,42	-1,503	3,7395	36,221
108774	24,041	-2,0012	-3,8833	31,902
108775	24,515	-1,5019	-3,9705	34,233
108776	25,001	-2,0021	4,	34,787
108777	25,484	-1,5025	3,9706	36,671
108778	23,139	-2,0007	-3,5409	28,047
108779	23,579	-1,5013	-3,739	30,436
108780	24,043	-2,0015	3,8839	31,882
108781	24,52	-1,5019	3,971	34,134
108782	22,346	-2,0002	-2,9928	23,943
108783	22,725	-1,5008	-3,2902	26,258
108784	23,142	-2,0008	3,5422	28,096
108785	23,583	-1,5012	3,7406	30,459
108786	21,707	-1,9997	-2,2707	19,779
108787	22,004	-1,5003	-2,6504	22,142
108788	22,348	-2,0002	2,9945	24,059
108789	22,729	-1,5006	3,2929	26,373
108790	21,259	-1,9992	-1,4168	16,311
108791	21,457	-1,4997	-1,8565	17,971
108792	21,709	-1,9996	2,2729	20,119
108793	22,007	-1,5	2,6537	22,279
108794	21,029	-1,9988	-0,48067	14,324
108795	21,029	-1,9988	0,48338	14,37
108796	21,	-1,4989	2,2257e-003	14,057
108797	21,116	-1,4992	-0,9546	15,155
108798	21,26	-1,9991	1,4193	16,546
108799	21,459	-1,4994	1,8604	18,435
108800	21,117	-1,4989	0,95894	15,27
108801	21,029	-0,99897	0,48484	14,442
108802	21,261	-0,99929	1,4207	16,625
108803	21,029	-0,99923	-0,47869	14,371
108804	21,259	-0,99977	-1,4149	16,34
108805	21,706	-1,0003	-2,2692	19,805
108806	22,345	-1,0009	-2,9914	23,897
108807	23,138	-1,0014	-3,54	27,95
108808	24,039	-1,0019	-3,8829	31,927
108809	24,996	-1,0025	-4,	34,742
108810	25,954	-1,003	-3,8846	35,802
108811	26,856	-1,0036	-3,5435	34,68
108812	27,65	-1,0041	-2,9965	31,371
108813	28,29	-1,0047	-2,2753	26,955
108814	28,739	-1,0052	-1,4219	22,817
108815	28,97	-1,0058	-0,48572	20,387
108816	28,971	-1,0057	0,47933	20,6
108817	28,741	-1,0052	1,4161	23,175
108818	28,293	-1,0046	2,2702	27,185
108819	27,655	-1,004	2,9922	31,558
108820	26,861	-1,0034	3,5405	34,758
108821	25,96	-1,0028	3,8832	35,975
108822	25,003	-1,0022	4,	34,944
108823	24,045	-1,0016	3,8844	31,861
108824	23,143	-1,0011	3,543	28,045
108825	22,349	-1,0005	2,9957	24,011
108826	21,709	-0,99989	2,2743	20,135
108827	24,996	-4,0022	4,	34,619
108828	24,039	-4,0012	3,8829	31,852
108829	25,954	-4,0028	3,8847	35,824
108830	26,856	-4,003	3,5434	34,965
108831	27,65	-4,0031	2,9963	31,753
108832	28,29	-4,0037	2,2752	27,327
108833	28,739	-4,0043	1,4216	23,163
108834	28,97	-4,0043	0,48565	20,591
108835	28,971	-4,0038	-0,47935	20,598
108836	28,741	-4,0032	-1,416	23,036
108837	28,293	-4,0027	-2,2703	27,157
108838	27,654	-4,0021	-2,9925	31,415
108839	26,861	-4,0016	-3,5405	34,949
108840	25,96	-4,001	-3,8832	36,013
108841	25,002	-4,0005	-4,	34,6
108842	24,045	-3,9999	-3,8843	31,836
108843	23,143	-3,9994	-3,543	27,951
108844	22,35	-3,9988	-2,9958	23,912
108845	21,71	-3,9983	-2,2744	19,818
108846	21,261	-3,9977	-1,4208	16,354
108847	21,03	-3,9974	-0,48492	14,378
108848	21,029	-3,9977	0,47876	14,437
108849	21,259	-3,9983	1,415	16,606
108850	21,706	-3,9989	2,2693	20,117
108851	22,345	-3,9995	2,9917	24,
108852	23,138	-4,0001	3,5402	28,035
108853	-3,7405	-2,9987	46,417	40,519
108854	-3,971	-2,9985	45,481	41,758
108855	-3,8838	-2,4986	45,957	43,218
108856	-3,8843	-3,4983	45,955	43,468
108857	-3,2927	-2,9992	47,271	34,294
108858	-3,542	-2,499	46,859	39,592
108859	-3,543	-3,4987	46,857	39,692
108860	-3,9707	-2,9986	44,517	38,878
108861	-4,	-2,4986	45,	42,09
108862	-4,	-3,4984	44,998	41,808
108863	-2,6535	-2,9998	47,993	25,606
108864	-2,9943	-2,4997	47,652	31,18
108865	-2,9959	-3,4994	47,65	31,576
108866	-3,7399	-2,9989	43,581	33,379
108867	-3,8839	-2,4988	44,043	37,118
108868	-3,8834	-3,4985	44,041	37,019
108869	-1,8601	-3,0002	48,541	17,233
108870	-2,2726	-2,5003	48,292	21,628
108871	-2,2742	-3,5	48,291	22,196
108872	-3,2917	-2,9994	42,727	26,68
108873	-3,5421	-2,4993	43,142	30,315
108874	-3,5411	-3,499	43,14	30,195
108875	-0,95854	-3,0003	48,883	12,459
108876	-1,4187	-2,5006	48,74	14,473
108877	-1,4207	-3,5004	48,739	14,825
108878	-2,6522	-3,	42,006	20,806
108879	-2,9944	-2,4998	42,348	23,226
108880	-2,9933	-3,4995	42,347	23,247
108881	-1,2858e-003	-3,0004	49,	11,24
108882	-0,48236	-2,5006	48,971	11,458
108883	-0,48456	-3,4998	48,971	11,962
108884	-1,8586	-3,0005	41,458	17,571
108885	-2,2728	-2,5004	41,708	18,378
108886	-2,2709	-3,5001	41,707	18,367
108887	0,95597	-3,0007	48,884	12,314
108888	0,48194	-2,5007	48,971	11,315
108889	0,47973	-3,5002	48,971	11,827
108890	-0,95697	-3,001	41,116	16,961
108891	-1,419	-2,5009	41,26	16,836
108892	-1,4171	-3,5006	41,259	16,764
108893	1,8577	-3,0012	48,542	17,419
108894	1,4181	-2,5011	48,74	14,508
108895	1,4162	-3,5007	48,741	14,774
108896	2,2923e-004	-3,0016	41,	17,125
108897	-0,48285	-2,5015	41,029	17,143
108898	-0,4806	-3,5012	41,029	17,009
108899	2,6515	-3,0017	47,995	25,028
108900	2,272	-2,5017	48,292	21,917
108901	2,27	-3,5013	48,294	22,326
108902	0,95749	-3,0021	41,116	16,982
108903	0,48142	-2,502	41,029	17,148
108904	0,48319	-3,5017	41,029	17,022
108905	3,2912	-3,0023	47,273	33,23
108906	2,9939	-2,5022	47,653	30,373
108907	2,9923	-3,5019	47,654	30,279
108908	1,8591	-3,0025	41,458	17,569
108909	1,4177	-2,5025	41,26	16,836
108910	1,4196	-3,5023	41,26	16,817
108911	3,7397	-3,0027	46,419	39,736
108912	3,5417	-2,5026	46,859	38,724
108913	3,5407	-3,5024	46,861	38,498
108914	2,6527	-3,0027	42,006	20,797
108915	2,2716	-2,5028	41,708	18,378
108916	2,2735	-3,5025	41,709	18,352
108917	3,9707	-3,0032	45,483	41,83
108918	3,8838	-2,503	45,957	43,05
108919	3,8832	-3,5029	45,96	43,017
108920	3,2921	-3,0029	42,728	26,801
108921	2,9936	-2,503	42,347	23,246
108922	2,9948	-3,5024	42,348	23,217
108923	3,7402	-3,0031	43,582	33,699
108924	3,5415	-2,5033	43,141	30,443
108925	3,5426	-3,5027	43,143	30,376
108926	3,9709	-3,0033	44,519	39,142
108927	3,8837	-2,5035	44,042	37,286
108928	3,8841	-3,5031	44,044	37,277
108929	4,	-2,5034	45,	42,22
108930	4,	-3,5034	45,002	42,243
108931	3,9707	-2,0035	44,517	39,036
108932	3,7395	-2,0036	43,58	33,482
108933	3,8831	-1,504	44,04	37,071
108934	3,971	-2,0032	45,481	41,805
108935	4,	-1,5036	44,998	42,287
108936	3,291	-2,0034	42,726	26,78
108937	3,5407	-1,5037	43,139	30,387
108938	3,7404	-2,0029	46,417	39,95
108939	3,8841	-1,5031	45,956	43,193
108940	2,6512	-2,0032	42,005	20,827
108941	2,9922	-1,5037	42,345	23,25
108942	3,2924	-2,0025	47,272	33,815
108943	3,5428	-1,5026	46,857	38,697
108944	1,8573	-2,0028	41,457	17,588
108945	2,27	-1,5033	41,707	18,37
108946	2,6531	-2,0021	47,994	24,885
108947	2,995	-1,5025	47,651	30,977
108948	0,95555	-2,0024	41,116	16,975
108949	1,4159	-1,5028	41,259	16,773
108950	1,8595	-2,0016	48,541	17,232
108951	2,2735	-1,5021	48,291	21,835
108952	-1,6654e-003	-2,0019	41,	17,142
108953	0,47935	-1,5023	41,029	17,011
108954	0,95806	-2,0011	48,884	12,412
108955	1,4202	-1,5015	48,739	14,978
108956	-0,9588	-2,0014	41,117	16,991
108957	-0,48446	-1,5018	41,029	17,016
108958	8,6992e-004	-2,0009	49,	11,249
108959	0,48408	-1,501	48,971	11,883
108960	-1,8603	-2,0008	41,459	17,586
108961	-1,4206	-1,5012	41,261	16,848
108962	-0,95649	-2,0008	48,884	12,501
108963	-0,48036	-1,5013	48,971	11,922
108964	-2,6536	-2,0002	42,007	20,798
108965	-2,2741	-1,5006	41,709	18,353
108966	-1,8583	-2,0006	48,542	17,028
108967	-1,4169	-1,5011	48,741	14,955
108968	-3,2928	-1,9997	42,729	26,753
108969	-2,9959	-1,5001	42,35	23,218
108970	-2,652	-2,0001	47,995	25,186
108971	-2,2707	-1,5006	48,293	21,652
108972	-3,7406	-1,9992	43,583	33,479
108973	-3,5428	-1,4996	43,143	30,293
108974	-3,2915	-1,9995	47,273	34,415
108975	-2,993	-1,5	47,654	31,646
108976	-3,971	-1,9988	44,519	39,013
108977	-3,9707	-1,9987	45,483	41,95
108978	-4,	-1,4987	45,002	42,466
108979	-3,8844	-1,499	44,045	37,215
108980	-3,7398	-1,999	46,419	40,093
108981	-3,5411	-1,4994	46,86	39,382
108982	-3,8834	-1,4987	45,959	43,266
108983	-3,9705	-0,99864	45,485	42,162
108984	-3,7392	-0,99912	46,421	40,412
108985	-3,9713	-0,9989	44,521	39,475
108986	-3,7413	-0,99945	43,585	33,389
108987	-3,2938	-1,	42,73	26,659
108988	-2,6551	-1,0005	42,008	20,774
108989	-1,8616	-1,0011	41,46	17,556
108990	-0,9603	-1,0016	41,117	16,846
108991	-3,4851e-003	-1,0022	41,	16,86
108992	0,95364	-1,0027	41,115	16,781
108993	1,8558	-1,0033	41,457	17,498
108994	2,6497	-1,0038	42,004	20,794
108995	3,29	-1,0039	42,725	26,75
108996	3,7388	-1,0041	43,578	33,424
108997	3,9703	-1,0041	44,514	39,114
108998	3,9712	-1,0035	45,479	42,002
108999	3,741	-1,0029	46,416	39,828
109000	3,2935	-1,0027	47,27	33,677
109001	2,6542	-1,0025	47,993	25,575
109002	1,8613	-1,002	48,541	17,878
109003	0,9602	-1,0014	48,883	13,383
109004	2,8752e-003	-1,0014	49,	12,3
109005	-0,95468	-1,0015	48,884	13,372
109006	-1,8564	-1,0011	48,543	17,904
109007	-2,6505	-1,0005	47,996	25,816
109008	-3,2906	-0,99989	47,274	34,584
109009	-3,5784e-003	-3,9996	49,	12,254
109010	-0,96069	-3,9999	48,883	13,345
109011	0,95384	-4,0002	48,885	13,249
109012	1,8555	-4,0008	48,544	17,792
109013	2,6494	-4,0014	47,997	25,299
109014	3,2898	-4,002	47,275	33,559
109015	3,7388	-4,0026	46,422	39,693
109016	3,9704	-4,0032	45,485	41,724
109017	3,9712	-4,0032	44,52	39,199
109018	3,741	-4,0027	43,584	33,351
109019	3,2933	-4,0022	42,73	26,691
109020	2,6543	-4,0023	42,008	20,771
109021	1,8612	-4,0023	41,459	17,538
109022	0,9593	-4,0019	41,117	16,829
109023	2,3835e-003	-4,0013	41,	16,882
109024	-0,95464	-4,0008	41,116	16,784
109025	-1,8565	-4,0002	41,457	17,502
109026	-2,6507	-3,9997	42,004	20,807
109027	-3,2906	-3,9991	42,726	26,657
109028	-3,7392	-3,9985	43,579	33,25
109029	-3,9705	-3,9983	44,515	38,788
109030	-3,9712	-3,9982	45,479	41,789
109031	-3,7413	-3,9983	46,415	40,49
109032	-3,2943	-3,9989	47,269	34,764
109033	-2,6554	-3,9995	47,991	26,3
109034	-1,862	-4,0001	48,54	17,821
109035	-3,7405	-2,9987	-43,583	29,346
109036	-3,9709	-2,9985	-44,519	27,354
109037	-3,8838	-2,4987	-44,043	29,501
109038	-3,8843	-3,4983	-44,045	29,384
109039	-3,2927	-2,9992	-42,729	29,63
109040	-3,5419	-2,499	-43,141	30,702
109041	-3,543	-3,4987	-43,143	30,802
109042	-3,9708	-2,9986	-45,483	24,078
109043	-4,	-2,4986	-45,	26,701
109044	-4,	-3,4984	-45,002	26,662
109045	-2,6535	-2,9998	-42,007	27,382
109046	-2,9943	-2,4997	-42,348	29,597
109047	-2,996	-3,4994	-42,35	29,756
109048	-3,7399	-2,9989	-46,419	19,852
109049	-3,8839	-2,4988	-45,957	22,646
109050	-3,8835	-3,4985	-45,958	22,677
109051	-1,8601	-3,0002	-41,459	23,041
109052	-2,2726	-2,5003	-41,708	25,816
109053	-2,2742	-3,5	-41,709	25,97
109054	-3,2918	-2,9994	-47,272	15,378
109055	-3,5422	-2,4993	-46,858	18,052
109056	-3,5411	-3,499	-46,86	18,094
109057	-0,95856	-3,0003	-41,117	18,227
109058	-1,4187	-2,5006	-41,26	20,372
109059	-1,4207	-3,5004	-41,261	20,51
109060	-2,6523	-3,	-47,994	11,082
109061	-2,9944	-2,4998	-47,652	13,481
109062	-2,9933	-3,4995	-47,653	13,522
109063	-1,3526e-003	-3,0004	-41,	15,932
109064	-0,48238	-2,5006	-41,029	15,843
109065	-0,48459	-3,4998	-41,029	16,254
109066	-1,8586	-3,0005	-48,542	7,1524
109067	-2,2728	-2,5004	-48,292	9,1468
109068	-2,271	-3,5001	-48,293	9,2354
109069	0,9559	-3,0007	-41,116	18,321
109070	0,48182	-2,5007	-41,029	16,004
109071	0,4798	-3,5002	-41,029	16,445
109072	-0,95699	-3,001	-48,884	3,6796
109073	-1,419	-2,501	-48,74	5,3442
109074	-1,4171	-3,5006	-48,741	5,4214
109075	1,8576	-3,0012	-41,458	23,056
109076	1,4181	-2,5011	-41,26	20,524
109077	1,4158	-3,5007	-41,259	20,666
109078	2,1388e-004	-3,0016	-49,	1,4926
109079	-0,48286	-2,5015	-48,971	2,0243
109080	-0,48061	-3,5012	-48,971	2,0679
109081	2,6514	-3,0018	-42,005	27,319
109082	2,2719	-2,5017	-41,708	25,788
109083	2,27	-3,5013	-41,707	25,89
109084	0,95748	-3,0021	-48,884	3,7888
109085	0,48137	-2,502	-48,971	2,1053
109086	0,48319	-3,5017	-48,971	2,073
109087	3,2911	-3,0022	-42,727	29,7
109088	2,9939	-2,5022	-42,347	29,565
109089	2,9922	-3,5019	-42,345	29,66
109090	1,8591	-3,0025	-48,542	7,2222
109091	1,4177	-2,5025	-48,74	5,4164
109092	1,4196	-3,5023	-48,74	5,3684
109093	3,7396	-3,0027	-43,58	29,596
109094	3,5417	-2,5026	-43,141	30,971
109095	3,5408	-3,5024	-43,139	30,954
109096	2,6527	-3,0027	-47,994	11,106
109097	2,2716	-2,5029	-48,292	9,152
109098	2,2734	-3,5025	-48,291	9,259
109099	3,9707	-3,0032	-44,517	27,274
109100	3,8838	-2,503	-44,043	29,634
109101	3,8831	-3,5029	-44,04	29,654
109102	3,2922	-3,0028	-47,272	15,39
109103	2,9936	-2,503	-47,653	13,323
109104	2,9951	-3,5024	-47,651	13,516
109105	3,7403	-3,0031	-46,418	19,82
109106	3,5416	-2,5032	-46,859	17,957
109107	3,5426	-3,5026	-46,858	18,103
109108	3,9709	-3,0033	-45,481	23,89
109109	3,8837	-2,5034	-45,957	22,586
109110	3,8842	-3,5031	-45,956	22,636
109111	4,	-2,5034	-45,	26,524
109112	4,	-3,5034	-44,998	26,601
109113	3,9707	-2,0035	-45,483	24,043
109114	3,7396	-2,0035	-46,42	19,764
109115	3,8832	-1,504	-45,96	22,609
109116	3,971	-2,0033	-44,519	27,523
109117	4,	-1,5036	-45,002	26,702
109118	3,291	-2,0034	-47,274	15,138
109119	3,5407	-1,5036	-46,861	17,98
109120	3,7404	-2,0029	-43,582	29,736
109121	3,8841	-1,5031	-44,044	29,696
109122	2,6512	-2,0032	-47,995	10,861
109123	2,9923	-1,5037	-47,655	13,316
109124	3,2924	-2,0025	-42,728	29,795
109125	3,5428	-1,5026	-43,143	31,099
109126	1,8573	-2,0028	-48,543	7,0746
109127	2,27	-1,5033	-48,293	9,173
109128	2,653	-2,0021	-42,006	27,354
109129	2,995	-1,5026	-42,349	29,707
109130	0,95552	-2,0024	-48,884	3,695
109131	1,4159	-1,5028	-48,741	5,2916
109132	1,8595	-2,0016	-41,458	23,073
109133	2,2736	-1,5021	-41,709	25,896
109134	-1,7142e-003	-2,0019	-49,	1,4952
109135	0,47944	-1,5023	-48,971	2,0745
109136	0,95799	-2,0012	-41,116	18,327
109137	1,4198	-1,5015	-41,26	20,679
109138	-0,95885	-2,0014	-48,883	3,651
109139	-0,48485	-1,5018	-48,971	2,0028
109140	7,9093e-004	-2,0009	-41,	15,921
109141	0,48415	-1,501	-41,029	16,43
109142	-1,8603	-2,0008	-48,541	7,0596
109143	-1,4206	-1,5012	-48,739	5,2495
109144	-0,95648	-2,0008	-41,116	18,131
109145	-0,4804	-1,5012	-41,029	16,221
109146	-2,6537	-2,0002	-47,993	11,016
109147	-2,2741	-1,5006	-48,291	9,1613
109148	-1,8583	-2,0006	-41,458	22,96
109149	-1,4168	-1,5011	-41,259	20,407
109150	-3,2929	-1,9997	-47,271	15,389
109151	-2,9958	-1,5001	-47,651	13,378
109152	-2,652	-2,0001	-42,006	27,339
109153	-2,2708	-1,5006	-41,707	25,884
109154	-3,7406	-1,9992	-46,417	19,86
109155	-3,543	-1,4996	-46,857	18,12
109156	-3,2915	-1,9995	-42,727	29,571
109157	-2,993	-1,5	-42,346	29,65
109158	-3,971	-1,9988	-45,481	24,122
109159	-3,9707	-1,9987	-44,517	27,565
109160	-4,	-1,4987	-44,998	26,77
109161	-3,8844	-1,4991	-45,955	22,674
109162	-3,7398	-1,999	-43,581	29,537
109163	-3,5411	-1,4994	-43,14	30,845
109164	-3,8834	-1,4987	-44,041	29,844
109165	-3,9705	-0,99864	-44,515	27,75
109166	-3,7392	-0,99912	-43,579	29,853
109167	-3,9713	-0,9989	-45,479	24,138
109168	-3,7414	-0,99945	-46,415	19,937
109169	-3,294	-0,99999	-47,269	15,355
109170	-2,655	-1,0005	-47,992	11,016
109171	-1,8615	-1,0011	-48,54	7,0516
109172	-0,96056	-1,0016	-48,883	3,5619
109173	-3,7444e-003	-1,0022	-49,	1,406
109174	0,95374	-1,0027	-48,885	3,6204
109175	1,8557	-1,0033	-48,543	7,1396
109176	2,6498	-1,0038	-47,996	11,11
109177	3,29	-1,0039	-47,275	15,402
109178	3,7388	-1,0041	-46,422	19,857
109179	3,9704	-1,0041	-45,486	24,064
109180	3,9711	-1,0035	-44,52	27,555
109181	3,741	-1,0029	-43,584	29,696
109182	3,2935	-1,0027	-42,73	29,913
109183	2,6543	-1,0025	-42,008	27,52
109184	1,8611	-1,002	-41,459	23,235
109185	0,95995	-1,0014	-41,117	18,829
109186	2,986e-003	-1,0014	-41,	16,747
109187	-0,9547	-1,0015	-41,116	18,555
109188	-1,8564	-1,0011	-41,457	23,061
109189	-2,6505	-1,0005	-42,004	27,463
109190	-3,2906	-0,99989	-42,726	29,781
109191	-3,4699e-003	-3,9996	-41,	16,776
109192	-0,96072	-3,9999	-41,117	18,569
109193	0,95359	-4,0002	-41,115	18,837
109194	1,8553	-4,0008	-41,456	23,233
109195	2,6495	-4,0014	-42,003	27,506
109196	3,2899	-4,002	-42,725	29,845
109197	3,7387	-4,0026	-43,578	29,711
109198	3,9704	-4,0032	-44,514	27,648
109199	3,9712	-4,0032	-45,479	24,127
109200	3,7409	-4,0027	-46,416	19,932
109201	3,2935	-4,0022	-47,27	15,477
109202	2,6545	-4,0023	-47,992	11,158
109203	1,8611	-4,0023	-48,541	7,124
109204	0,95933	-4,0019	-48,883	3,6163
109205	2,3787e-003	-4,0013	-49,	1,4545
109206	-0,95464	-4,0008	-48,884	3,7694
109207	-1,8565	-4,0002	-48,543	7,2122
109208	-2,6507	-3,9997	-47,996	11,136
109209	-3,2905	-3,9991	-47,274	15,46
109210	-3,7393	-3,9986	-46,421	19,921
109211	-3,9705	-3,9983	-45,485	24,101
109212	-3,9712	-3,9982	-44,521	27,394
109213	-3,7413	-3,9983	-43,585	29,548
109214	-3,2943	-3,9989	-42,731	29,753
109215	-2,6554	-3,9995	-42,009	27,583
109216	-1,8619	-4,0001	-41,46	23,144
