Node Number	Equivalent (von-Mises) Stress (MPa)
1	12,813
2	12,767
3	12,767
4	12,813
5	13,143
6	13,095
7	13,095
8	13,143
9	2,9572
10	2,9701
11	2,9701
12	2,9572
13	14,702
14	14,683
15	14,683
16	14,702
17	17,484
18	17,394
19	17,394
20	17,484
21	6,9611
22	6,9611
23	6,9611
24	6,9611
25	6,986
26	6,9859
27	6,9859
28	6,986
29	6,8308
30	6,8308
31	6,8308
32	6,8308
33	6,8323
34	6,8323
35	6,8323
36	6,8323
37	10,277
38	10,266
39	10,266
40	10,277
41	10,111
42	10,101
43	10,101
44	10,111
45	8,2404
46	8,2347
47	8,2347
48	8,2404
49	8,0681
50	8,063
51	8,063
52	8,0681
53	16,167
54	15,85
55	15,85
56	16,167
57	19,399
58	19,597
59	19,597
60	19,399
61	8,4198
62	8,4142
63	8,4142
64	8,4198
65	9,119
66	9,1095
67	9,1095
68	9,119
69	7,2996
70	7,2984
71	7,2984
72	7,2996
73	10,058
74	10,041
75	10,041
76	10,058
77	25,886
78	26,124
79	26,124
80	25,886
81	8,0255
82	8,0202
83	8,0202
84	8,0255
85	8,4458
86	8,44
87	8,44
88	8,4458
89	11,526
90	11,494
91	11,494
92	11,526
93	12,724
94	12,679
95	12,679
96	12,724
97	8,606
98	8,5994
99	8,5994
100	8,606
101	11,527
102	11,497
103	11,497
104	11,527
105	25,502
106	23,898
107	23,898
108	25,502
109	13,214
110	13,181
111	13,181
112	13,214
113	5,6193
114	5,6481
115	5,6481
116	5,6193
117	17,256
118	17,003
119	17,003
120	17,256
121	8,4336
122	8,4279
123	8,4279
124	8,4336
125	8,3993
126	8,3938
127	8,3938
128	8,3993
129	8,4471
130	8,4414
131	8,4414
132	8,4471
133	8,4083
134	8,4028
135	8,4028
136	8,4083
137	8,4409
138	8,4353
139	8,4353
140	8,4409
141	8,3435
142	8,3382
143	8,3382
144	8,3435
145	8,465
146	8,4592
147	8,4592
148	8,465
149	8,4002
150	8,3947
151	8,3947
152	8,4002
153	8,3977
154	8,3922
155	8,3922
156	8,3977
157	8,485
158	8,479
159	8,479
160	8,485
161	7,9927
162	7,9888
163	7,9888
164	7,9927
165	8,474
166	8,4681
167	8,4681
168	8,474
169	8,4481
170	8,4424
171	8,4424
172	8,4481
173	8,4112
174	8,4056
175	8,4056
176	8,4112
177	8,2472
178	8,2422
179	8,2422
180	8,2472
181	8,3398
182	8,3345
183	8,3345
184	8,3398
185	8,1559
186	8,1513
187	8,1513
188	8,1559
189	8,2852
190	8,2801
191	8,2801
192	8,2852
193	8,2823
194	8,2773
195	8,2773
196	8,2823
197	8,5084
198	8,5023
199	8,5023
200	8,5084
201	8,3901
202	8,3845
203	8,3845
204	8,3901
205	7,9229
206	7,9192
207	7,9192
208	7,9229
209	8,5293
210	8,5232
211	8,5232
212	8,5293
213	8,4069
214	8,4013
215	8,4013
216	8,4069
217	8,6914
218	8,6844
219	8,6844
220	8,6914
221	8,5032
222	8,4972
223	8,4972
224	8,5032
225	8,3645
226	8,3591
227	8,3591
228	8,3645
229	8,4743
230	8,4684
231	8,4684
232	8,4743
233	8,452
234	8,4462
235	8,4462
236	8,452
237	8,4074
238	8,4018
239	8,4018
240	8,4074
241	8,5099
242	8,5039
243	8,5039
244	8,5099
245	8,5507
246	8,5445
247	8,5445
248	8,5507
249	8,6295
250	8,6228
251	8,6228
252	8,6295
253	8,6638
254	8,6569
255	8,6569
256	8,6638
257	8,193
258	8,1883
259	8,1883
260	8,193
261	8,3093
262	8,3042
263	8,3042
264	8,3093
265	8,0583
266	8,0541
267	8,0541
268	8,0583
269	8,102
270	8,0977
271	8,0977
272	8,102
273	8,2532
274	8,2482
275	8,2482
276	8,2532
277	7,9209
278	7,9173
279	7,9173
280	7,9209
281	7,7502
282	7,7474
283	7,7474
284	7,7502
285	8,2556
286	8,2506
287	8,2506
288	8,2556
289	8,1003
290	8,0959
291	8,0959
292	8,1003
293	8,0309
294	8,0268
295	8,0268
296	8,0309
297	7,8887
298	7,8851
299	7,8851
300	7,8887
301	8,3393
302	8,3339
303	8,3339
304	8,3393
305	8,553
306	8,5468
307	8,5468
308	8,553
309	8,5321
310	8,5259
311	8,5259
312	8,5321
313	8,5548
314	8,5484
315	8,5484
316	8,5548
317	8,4245
318	8,4188
319	8,4188
320	8,4245
321	7,4222
322	7,4204
323	7,4204
324	7,4222
325	8,406
326	8,4003
327	8,4003
328	8,406
329	8,5931
330	8,5865
331	8,5865
332	8,5931
333	8,4357
334	8,4299
335	8,4299
336	8,4357
337	9,0085
338	8,9997
339	8,9997
340	9,0085
341	8,7216
342	8,7145
343	8,7145
344	8,7216
345	8,7666
346	8,7592
347	8,7592
348	8,7666
349	8,1387
350	8,1342
351	8,1342
352	8,1387
353	8,2903
354	8,2851
355	8,2851
356	8,2903
357	7,7778
358	7,7746
359	7,7746
360	7,7778
361	8,056
362	8,0518
363	8,0518
364	8,056
365	8,2446
366	8,2396
367	8,2396
368	8,2446
369	7,6426
370	7,6401
371	7,6401
372	7,6426
373	7,8514
374	7,8481
375	7,8481
376	7,8514
377	7,235
378	7,234
379	7,234
380	7,235
381	7,4396
382	7,4379
383	7,4379
384	7,4396
385	7,8497
386	7,8463
387	7,8463
388	7,8497
389	7,6355
390	7,633
391	7,633
392	7,6355
393	8,2551
394	8,25
395	8,25
396	8,2551
397	8,0568
398	8,0526
399	8,0526
400	8,0568
401	7,9818
402	7,9779
403	7,9779
404	7,9818
405	7,7992
406	7,796
407	7,796
408	7,7992
409	8,3335
410	8,3281
411	8,3281
412	8,3335
413	8,1633
414	8,1586
415	8,1586
416	8,1633
417	8,6122
418	8,6056
419	8,6056
420	8,6122
421	8,4836
422	8,4776
423	8,4776
424	8,4836
425	8,7929
426	8,7853
427	8,7853
428	8,7929
429	8,9174
430	8,9092
431	8,9092
432	8,9174
433	8,644
434	8,6372
435	8,6372
436	8,644
437	8,6088
438	8,6022
439	8,6022
440	8,6088
441	8,4502
442	8,4442
443	8,4442
444	8,4502
445	8,6331
446	8,6263
447	8,6263
448	8,6331
449	8,4635
450	8,4575
451	8,4575
452	8,4635
453	8,7099
454	8,7025
455	8,7025
456	8,7099
457	8,8742
458	8,8661
459	8,8661
460	8,8742
461	7,0834
462	7,0829
463	7,0829
464	7,0834
465	8,8304
466	8,8226
467	8,8226
468	8,8304
469	9,2035
470	9,1934
471	9,1934
472	9,2035
473	9,0702
474	9,0611
475	9,0611
476	9,0702
477	7,5727
478	7,5702
479	7,5702
480	7,5727
481	7,661
482	7,6584
483	7,6584
484	7,661
485	8,7207
486	8,7133
487	8,7133
488	8,7207
489	9,0657
490	9,0566
491	9,0566
492	9,0657
493	9,3048
494	9,2942
495	9,2942
496	9,3048
497	8,101
498	8,0965
499	8,0965
500	8,101
501	8,2796
502	8,2745
503	8,2745
504	8,2796
505	7,7046
506	7,7018
507	7,7018
508	7,7046
509	7,903
510	7,8994
511	7,8994
512	7,903
513	7,3373
514	7,3359
515	7,3359
516	7,3373
517	7,5094
518	7,5073
519	7,5073
520	7,5094
521	8,0374
522	8,0332
523	8,0332
524	8,0374
525	7,2138
526	7,2129
527	7,2129
528	7,2138
529	7,3883
530	7,3867
531	7,3867
532	7,3883
533	6,8965
534	6,8965
535	6,8965
536	6,8965
537	7,0551
538	7,0548
539	7,0548
540	7,0551
541	6,9492
542	6,9491
543	6,9491
544	6,9492
545	7,2035
546	7,2026
547	7,2026
548	7,2035
549	8,2563
550	8,2511
551	8,2511
552	8,2563
553	8,038
554	8,0338
555	8,0338
556	8,038
557	7,5083
558	7,5062
559	7,5062
560	7,5083
561	7,2864
562	7,2851
563	7,2851
564	7,2864
565	7,9388
566	7,935
567	7,935
568	7,9388
569	7,7204
570	7,7174
571	7,7174
572	7,7204
573	8,1493
574	8,1445
575	8,1445
576	8,1493
577	8,6914
578	8,6842
579	8,6842
580	8,6914
581	8,5273
582	8,5209
583	8,5209
584	8,5273
585	8,7252
586	8,718
587	8,718
588	8,7252
589	8,8133
590	8,8056
591	8,8056
592	8,8133
593	8,8889
594	8,8807
595	8,8807
596	8,8889
597	9,1863
598	9,1764
599	9,1764
600	9,1863
601	9,0263
602	9,0172
603	9,0172
604	9,0263
605	8,8126
606	8,8046
607	8,8046
608	8,8126
609	8,4967
610	8,4903
611	8,4903
612	8,4967
613	6,894
614	6,8939
615	6,8939
616	6,894
617	8,9447
618	8,9363
619	8,9363
620	8,9447
621	9,504
622	9,492
623	9,492
624	9,504
625	9,2267
626	9,2166
627	9,2166
628	9,2267
629	9,5279
630	9,5158
631	9,5158
632	9,5279
633	7,1102
634	7,1095
635	7,1095
636	7,1102
637	6,8952
638	6,8952
639	6,8952
640	6,8952
641	8,5227
642	8,5162
643	8,5162
644	8,5227
645	9,2823
646	9,2719
647	9,2719
648	9,2823
649	9,588
650	9,5755
651	9,5755
652	9,588
653	9,0023
654	8,9933
655	8,9933
656	9,0023
657	9,5964
658	9,5839
659	9,5839
660	9,5964
661	8,0839
662	8,0794
663	8,0794
664	8,0839
665	8,2879
666	8,2825
667	8,2825
668	8,2879
669	7,6535
670	7,6508
671	7,6508
672	7,6535
673	7,8672
674	7,8636
675	7,8636
676	7,8672
677	7,4463
678	7,4444
679	7,4444
680	7,4463
681	8,7954
682	8,7874
683	8,7874
684	8,7954
685	8,0433
686	8,0389
687	8,0389
688	8,0433
689	8,2798
690	8,2744
691	8,2744
692	8,2798
693	7,5751
694	7,5727
695	7,5727
696	7,5751
697	7,8049
698	7,8015
699	7,8015
700	7,8049
701	7,1865
702	7,1856
703	7,1856
704	7,1865
705	7,3666
706	7,365
707	7,365
708	7,3666
709	6,9382
710	6,9381
711	6,9381
712	6,9382
713	6,8916
714	6,8916
715	6,8916
716	6,8916
717	6,9055
718	6,9052
719	6,9052
720	6,9055
721	7,0331
722	7,0327
723	7,0327
724	7,0331
725	6,9348
726	6,9346
727	6,9346
728	6,9348
729	7,3617
730	7,3601
731	7,3601
732	7,3617
733	7,8036
734	7,8002
735	7,8002
736	7,8036
737	7,5713
738	7,5689
739	7,5689
740	7,5713
741	8,2867
742	8,2813
743	8,2813
744	8,2867
745	8,0479
746	8,0435
747	8,0435
748	8,0479
749	7,0798
750	7,0792
751	7,0792
752	7,0798
753	6,9542
754	6,954
755	6,954
756	6,9542
757	7,4706
758	7,4685
759	7,4685
760	7,4706
761	7,2697
762	7,2683
763	7,2683
764	7,2697
765	7,9246
766	7,9206
767	7,9206
768	7,9246
769	7,6892
770	7,6862
771	7,6862
772	7,6892
773	8,1584
774	8,1535
775	8,1535
776	8,1584
777	8,7897
778	8,782
779	8,782
780	8,7897
781	8,5974
782	8,5905
783	8,5905
784	8,5974
785	8,9834
786	8,9748
787	8,9748
788	8,9834
789	9,468
790	9,4563
791	9,4563
792	9,468
793	9,181
794	9,171
795	9,171
796	9,181
797	9,3287
798	9,318
799	9,318
800	9,3287
801	9,2093
802	9,1989
803	9,1989
804	9,2093
805	8,9504
806	8,9413
807	8,9413
808	8,9504
809	9,9048
810	9,8899
811	9,8899
812	9,9048
813	8,5719
814	8,5649
815	8,5649
816	8,5719
817	9,092
818	9,0825
819	9,0825
820	9,092
821	9,4318
822	9,4203
823	9,4203
824	9,4318
825	9,6749
826	9,6615
827	9,6615
828	9,6749
829	6,8685
830	6,8685
831	6,8685
832	6,8685
833	6,8459
834	6,8456
835	6,8456
836	6,8459
837	8,5983
838	8,5912
839	8,5912
840	8,5983
841	8,9266
842	8,9177
843	8,9177
844	8,9266
845	9,277
846	9,2658
847	9,2658
848	9,277
849	8,6929
850	8,6851
851	8,6851
852	8,6929
853	9,2942
854	9,2832
855	9,2832
856	9,2942
857	9,5276
858	9,5155
859	9,5155
860	9,5276
861	9,7521
862	9,7385
863	9,7385
864	9,7521
865	8,089
866	8,0844
867	8,0844
868	8,089
869	8,3134
870	8,3078
871	8,3078
872	8,3134
873	7,6244
874	7,6217
875	7,6217
876	7,6244
877	7,8532
878	7,8496
879	7,8496
880	7,8532
881	7,2131
882	7,212
883	7,212
884	7,2131
885	7,4063
886	7,4045
887	7,4045
888	7,4063
889	6,9346
890	6,9344
891	6,9344
892	6,9346
893	7,0532
894	7,0527
895	7,0527
896	7,0532
897	6,831
898	6,831
899	6,831
900	6,831
901	6,8575
902	6,8574
903	6,8574
904	6,8575
905	8,9098
906	8,9009
907	8,9009
908	8,9098
909	8,082
910	8,0772
911	8,0772
912	8,082
913	8,3342
914	8,3283
915	8,3283
916	8,3342
917	7,5895
918	7,5868
919	7,5868
920	7,5895
921	7,8308
922	7,8271
923	7,8271
924	7,8308
925	7,1919
926	7,1907
927	7,1907
928	7,1919
929	7,3735
930	7,3716
931	7,3716
932	7,3735
933	6,9617
934	6,9613
935	6,9613
936	6,9617
937	6,9688
938	6,9681
939	6,9681
940	6,9688
941	6,9349
942	6,9344
943	6,9344
944	6,9349
945	7,0544
946	7,0532
947	7,0532
948	7,0544
949	6,9283
950	6,928
951	6,928
952	6,9283
953	7,0459
954	7,0452
955	7,0452
956	7,0459
957	6,9563
958	6,956
959	6,956
960	6,9563
961	7,3708
962	7,369
963	7,369
964	7,3708
965	7,8298
966	7,826
967	7,826
968	7,8298
969	7,5869
970	7,5842
971	7,5842
972	7,5869
973	9,673
974	9,6599
975	9,6599
976	9,673
977	6,8828
978	6,8826
979	6,8826
980	6,8828
981	7,0892
982	7,0883
983	7,0883
984	7,0892
985	6,9606
986	6,9602
987	6,9602
988	6,9606
989	7,2611
990	7,2596
991	7,2596
992	7,2611
993	7,9417
994	7,9374
995	7,9374
996	7,9417
997	8,4442
998	8,4378
999	8,4378
1000	8,4442
1001	8,1929
1002	8,1877
1003	8,1877
1004	8,1929
1005	8,9103
1006	8,9018
1007	8,9018
1008	8,9103
1009	8,6877
1010	8,6802
1011	8,6802
1012	8,6877
1013	9,1866
1014	9,1766
1015	9,1766
1016	9,1866
1017	9,8658
1018	9,8508
1019	9,8508
1020	9,8658
1021	10,035
1022	10,018
1023	10,018
1024	10,035
1025	10,268
1026	10,251
1027	10,251
1028	10,268
1029	8,6669
1030	8,6592
1031	8,6592
1032	8,6669
1033	9,2817
1034	9,271
1035	9,271
1036	9,2817
1037	6,8928
1038	6,8923
1039	6,8923
1040	6,8928
1041	9,4853
1042	9,4726
1043	9,4726
1044	9,4853
1045	9,047
1046	9,037
1047	9,037
1048	9,047
1049	8,8294
1050	8,8206
1051	8,8206
1052	8,8294
1053	9,4623
1054	9,4501
1055	9,4501
1056	9,4623
1057	9,8241
1058	9,81
1059	9,81
1060	9,8241
1061	10,005
1062	9,9895
1063	9,9895
1064	10,005
1065	8,1183
1066	8,1134
1067	8,1134
1068	8,1183
1069	8,3635
1070	8,3574
1071	8,3574
1072	8,3635
1073	7,2039
1074	7,2026
1075	7,2026
1076	7,2039
1077	7,0468
1078	7,0461
1079	7,0461
1080	7,0468
1081	6,8646
1082	6,8642
1083	6,8642
1084	6,8646
1085	6,8719
1086	6,8717
1087	6,8717
1088	6,8719
1089	6,9838
1090	6,9828
1091	6,9828
1092	6,9838
1093	6,9046
1094	6,904
1095	6,904
1096	6,9046
1097	9,0382
1098	9,0284
1099	9,0284
1100	9,0382
1101	9,2904
1102	9,2792
1103	9,2792
1104	9,2904
1105	8,4165
1106	8,41
1107	8,41
1108	8,4165
1109	7,636
1110	7,6328
1111	7,6328
1112	7,636
1113	7,8841
1114	7,8799
1115	7,8799
1116	7,8841
1117	7,2368
1118	7,2352
1119	7,2352
1120	7,2368
1121	7,4154
1122	7,4131
1123	7,4131
1124	7,4154
1125	7,0678
1126	7,0665
1127	7,0665
1128	7,0678
1129	7,0125
1130	7,0116
1131	7,0116
1132	7,0125
1133	7,4745
1134	7,4713
1135	7,4713
1136	7,4745
1137	7,2185
1138	7,2165
1139	7,2165
1140	7,2185
1141	7,7603
1142	7,7559
1143	7,7559
1144	7,7603
1145	7,5741
1146	7,5705
1147	7,5705
1148	7,5741
1149	7,1692
1150	7,1674
1151	7,1674
1152	7,1692
1153	7,3387
1154	7,3362
1155	7,3362
1156	7,3387
1157	7,0089
1158	7,008
1159	7,008
1160	7,0089
1161	7,0983
1162	7,0972
1163	7,0972
1164	7,0983
1165	7,022
1166	7,0211
1167	7,0211
1168	7,022
1169	7,414
1170	7,4117
1171	7,4117
1172	7,414
1173	7,8822
1174	7,878
1175	7,878
1176	7,8822
1177	9,9387
1178	9,9237
1179	9,9237
1180	9,9387
1181	9,9954
1182	9,98
1183	9,98
1184	9,9954
1185	6,9702
1186	6,9692
1187	6,9692
1188	6,9702
1189	7,0853
1190	7,0838
1191	7,0838
1192	7,0853
1193	6,9353
1194	6,9346
1195	6,9346
1196	6,9353
1197	6,9187
1198	6,918
1199	6,918
1200	6,9187
1201	7,1261
1202	7,1248
1203	7,1248
1204	7,1261
1205	7,0049
1206	7,004
1207	7,004
1208	7,0049
1209	7,2944
1210	7,2925
1211	7,2925
1212	7,2944
1213	7,9866
1214	7,982
1215	7,982
1216	7,9866
1217	8,5258
1218	8,5188
1219	8,5188
1220	8,5258
1221	8,2504
1222	8,2446
1223	8,2446
1224	8,2504
1225	9,7174
1226	9,7039
1227	9,7039
1228	9,7174
1229	9,7358
1230	9,7216
1231	9,7216
1232	9,7358
1233	9,5092
1234	9,4968
1235	9,4968
1236	9,5092
1237	9,3457
1238	9,3346
1239	9,3346
1240	9,3457
1241	9,4271
1242	9,4157
1243	9,4157
1244	9,4271
1245	9,5774
1246	9,5646
1247	9,5646
1248	9,5774
1249	9,7954
1250	9,7813
1251	9,7813
1252	9,7954
1253	9,7343
1254	9,7198
1255	9,7198
1256	9,7343
1257	9,5692
1258	9,5561
1259	9,5561
1260	9,5692
1261	9,9879
1262	9,9722
1263	9,9722
1264	9,9879
1265	10,357
1266	10,338
1267	10,338
1268	10,357
1269	10,619
1270	10,599
1271	10,599
1272	10,619
1273	10,651
1274	10,63
1275	10,63
1276	10,651
1277	8,186
1278	8,18
1279	8,18
1280	8,186
1281	9,3833
1282	9,373
1283	9,373
1284	9,3833
1285	10,179
1286	10,162
1287	10,162
1288	10,179
1289	7,8352
1290	7,8308
1291	7,8308
1292	7,8352
1293	9,5644
1294	9,5512
1295	9,5512
1296	9,5644
1297	10,172
1298	10,155
1299	10,155
1300	10,172
1301	9,2138
1302	9,2025
1303	9,2025
1304	9,2138
1305	10,64
1306	10,619
1307	10,619
1308	10,64
1309	10,284
1310	10,265
1311	10,265
1312	10,284
1313	11,037
1314	11,012
1315	11,012
1316	11,037
1317	10,186
1318	10,168
1319	10,168
1320	10,186
1321	8,1738
1322	8,1684
1323	8,1684
1324	8,1738
1325	8,4396
1326	8,4329
1327	8,4329
1328	8,4396
1329	7,6545
1330	7,6512
1331	7,6512
1332	7,6545
1333	7,9073
1334	7,9029
1335	7,9029
1336	7,9073
1337	7,2312
1338	7,2296
1339	7,2296
1340	7,2312
1341	7,4249
1342	7,4225
1343	7,4225
1344	7,4249
1345	7,079
1346	7,0779
1347	7,0779
1348	7,079
1349	6,9369
1350	6,936
1351	6,936
1352	6,9369
1353	6,9282
1354	6,9275
1355	6,9275
1356	6,9282
1357	7,116
1358	7,1143
1359	7,1143
1360	7,116
1361	7,0008
1362	6,9996
1363	6,9996
1364	7,0008
1365	7,5555
1366	7,5521
1367	7,5521
1368	7,5555
1369	7,2767
1370	7,2744
1371	7,2744
1372	7,2767
1373	9,1603
1374	9,1494
1375	9,1494
1376	9,1603
1377	9,3858
1378	9,3737
1379	9,3737
1380	9,3858
1381	8,2438
1382	8,2377
1383	8,2377
1384	8,2438
1385	8,53
1386	8,5226
1387	8,5226
1388	8,53
1389	7,7174
1390	7,7134
1391	7,7134
1392	7,7174
1393	7,9691
1394	7,9642
1395	7,9642
1396	7,9691
1397	7,3224
1398	7,3201
1399	7,3201
1400	7,3224
1401	7,4985
1402	7,4955
1403	7,4955
1404	7,4985
1405	7,1338
1406	7,1321
1407	7,1321
1408	7,1338
1409	7,2006
1410	7,1986
1411	7,1986
1412	7,2006
1413	7,1954
1414	7,1933
1415	7,1933
1416	7,1954
1417	7,1317
1418	7,13
1419	7,13
1420	7,1317
1421	7,5501
1422	7,5465
1423	7,5465
1424	7,5501
1425	7,3385
1426	7,3358
1427	7,3358
1428	7,3385
1429	8,1546
1430	8,1486
1431	8,1486
1432	8,1546
1433	7,8335
1434	7,8288
1435	7,8288
1436	7,8335
1437	8,4543
1438	8,4473
1439	8,4473
1440	8,4543
1441	8,4141
1442	8,4073
1443	8,4073
1444	8,4141
1445	8,7406
1446	8,7327
1447	8,7327
1448	8,7406
1449	7,7684
1450	7,7639
1451	7,7639
1452	7,7684
1453	8,0755
1454	8,0699
1455	8,0699
1456	8,0755
1457	7,327
1458	7,3244
1459	7,3244
1460	7,327
1461	7,5145
1462	7,5111
1463	7,5111
1464	7,5145
1465	7,1335
1466	7,1318
1467	7,1318
1468	7,1335
1469	7,1993
1470	7,1972
1471	7,1972
1472	7,1993
1473	7,1976
1474	7,1957
1475	7,1957
1476	7,1976
1477	7,1336
1478	7,1319
1479	7,1319
1480	7,1336
1481	7,4971
1482	7,4941
1483	7,4941
1484	7,4971
1485	7,9672
1486	7,9622
1487	7,9622
1488	7,9672
1489	8,5325
1490	8,525
1491	8,525
1492	8,5325
1493	8,2464
1494	8,2402
1495	8,2402
1496	8,2464
1497	10,242
1498	10,225
1499	10,225
1500	10,242
1501	10,842
1502	10,819
1503	10,819
1504	10,842
1505	7,8769
1506	7,8723
1507	7,8723
1508	7,8769
1509	7,3783
1510	7,3755
1511	7,3755
1512	7,3783
1513	7,608
1514	7,6044
1515	7,6044
1516	7,608
1517	7,0839
1518	7,0822
1519	7,0822
1520	7,0839
1521	7,2025
1522	7,2003
1523	7,2003
1524	7,2025
1525	7,0242
1526	7,0228
1527	7,0228
1528	7,0242
1529	7,1984
1530	7,1965
1531	7,1965
1532	7,1984
1533	7,0849
1534	7,0834
1535	7,0834
1536	7,0849
1537	7,5635
1538	7,5602
1539	7,5602
1540	7,5635
1541	7,3604
1542	7,3579
1543	7,3579
1544	7,3604
1545	8,0604
1546	8,0551
1547	8,0551
1548	8,0604
1549	7,7997
1550	7,7954
1551	7,7954
1552	7,7997
1553	8,628
1554	8,6201
1555	8,6201
1556	8,628
1557	8,3374
1558	8,3308
1559	8,3308
1560	8,3374
1561	9,2325
1562	9,2217
1563	9,2217
1564	9,2325
1565	8,9289
1566	8,9196
1567	8,9196
1568	8,9289
1569	9,6151
1570	9,6022
1571	9,6022
1572	9,6151
1573	9,7301
1574	9,7165
1575	9,7165
1576	9,7301
1577	10,621
1578	10,6
1579	10,6
1580	10,621
1581	10,301
1582	10,283
1583	10,283
1584	10,301
1585	9,6782
1586	9,664
1587	9,664
1588	9,6782
1589	9,3181
1590	9,3063
1591	9,3063
1592	9,3181
1593	10,185
1594	10,168
1595	10,168
1596	10,185
1597	11,438
1598	11,409
1599	11,409
1600	11,438
1601	10,38
1602	10,361
1603	10,361
1604	10,38
1605	8,252
1606	8,2459
1607	8,2459
1608	8,252
1609	7,7193
1610	7,7153
1611	7,7153
1612	7,7193
1613	7,9781
1614	7,9731
1615	7,9731
1616	7,9781
1617	7,2957
1618	7,2935
1619	7,2935
1620	7,2957
1621	7,4888
1622	7,4858
1623	7,4858
1624	7,4888
1625	7,151
1626	7,1493
1627	7,1493
1628	7,151
1629	7,0451
1630	7,0436
1631	7,0436
1632	7,0451
1633	7,0215
1634	7,0202
1635	7,0202
1636	7,0215
1637	7,2596
1638	7,2572
1639	7,2572
1640	7,2596
1641	7,1252
1642	7,1233
1643	7,1233
1644	7,1252
1645	7,6561
1646	7,6523
1647	7,6523
1648	7,6561
1649	7,4265
1650	7,4235
1651	7,4235
1652	7,4265
1653	7,9219
1654	7,9172
1655	7,9172
1656	7,9219
1657	8,6595
1658	8,6526
1659	8,6526
1660	8,6595
1661	8,4771
1662	8,4707
1663	8,4707
1664	8,4771
1665	8,955
1666	8,9451
1667	8,9451
1668	8,955
1669	9,3377
1670	9,3254
1671	9,3254
1672	9,3377
1673	9,5404
1674	9,5269
1675	9,5269
1676	9,5404
1677	8,3756
1678	8,3684
1679	8,3684
1680	8,3756
1681	8,6764
1682	8,6678
1683	8,6678
1684	8,6764
1685	7,8328
1686	7,8279
1687	7,8279
1688	7,8328
1689	8,0892
1690	8,0832
1691	8,0832
1692	8,0892
1693	7,283
1694	7,2803
1695	7,2803
1696	7,283
1697	7,3353
1698	7,3324
1699	7,3324
1700	7,3353
1701	7,2937
1702	7,2909
1703	7,2909
1704	7,2937
1705	7,7327
1706	7,7282
1707	7,7282
1708	7,7327
1709	7,522
1710	7,5182
1711	7,5182
1712	7,522
1713	8,3252
1714	8,3185
1715	8,3185
1716	8,3252
1717	8,0001
1718	7,9946
1719	7,9946
1720	8,0001
1721	9,0221
1722	9,0131
1723	9,0131
1724	9,0221
1725	8,6784
1726	8,6706
1727	8,6706
1728	8,6784
1729	9,0321
1730	9,0232
1731	9,0232
1732	9,0321
1733	7,9854
1734	7,98
1735	7,98
1736	7,9854
1737	8,3021
1738	8,2956
1739	8,2956
1740	8,3021
1741	7,5231
1742	7,5194
1743	7,5194
1744	7,5231
1745	7,725
1746	7,7206
1747	7,7206
1748	7,725
1749	7,2964
1750	7,2936
1751	7,2936
1752	7,2964
1753	7,2829
1754	7,2801
1755	7,2801
1756	7,2829
1757	7,6161
1758	7,6121
1759	7,6121
1760	7,6161
1761	8,084
1762	8,078
1763	8,078
1764	8,084
1765	8,3657
1766	8,3585
1767	8,3585
1768	8,3657
1769	8,9793
1770	8,9692
1771	8,9692
1772	8,9793
1773	11,125
1774	11,099
1775	11,099
1776	11,125
1777	10,758
1778	10,735
1779	10,735
1780	10,758
1781	8,3361
1782	8,33
1783	8,33
1784	8,3361
1785	7,3063
1786	7,3035
1787	7,3035
1788	7,3063
1789	7,2027
1790	7,2003
1791	7,2003
1792	7,2027
1793	7,66
1794	7,6558
1795	7,6558
1796	7,66
1797	7,4608
1798	7,4574
1799	7,4574
1800	7,4608
1801	7,8966
1802	7,8915
1803	7,8915
1804	7,8966
1805	8,756
1806	8,7471
1807	8,7471
1808	8,756
1809	9,3912
1810	9,379
1811	9,379
1812	9,3912
1813	9,0667
1814	9,0563
1815	9,0563
1816	9,0667
1817	9,8996
1818	9,8844
1819	9,8844
1820	9,8996
1821	10,054
1822	10,038
1823	10,038
1824	10,054
1825	10,61
1826	10,59
1827	10,59
1828	10,61
1829	10,427
1830	10,408
1831	10,408
1832	10,427
1833	8,9464
1834	8,9365
1835	8,9365
1836	8,9464
1837	9,957
1838	9,9406
1839	9,9406
1840	9,957
1841	9,7929
1842	9,7775
1843	9,7775
1844	9,7929
1845	9,7935
1846	9,7782
1847	9,7782
1848	9,7935
1849	9,9844
1850	9,968
1851	9,968
1852	9,9844
1853	10,571
1854	10,551
1855	10,551
1856	10,571
1857	10,126
1858	10,108
1859	10,108
1860	10,126
1861	11,861
1862	11,827
1863	11,827
1864	11,861
1865	11,064
1866	11,039
1867	11,039
1868	11,064
1869	9,4118
1870	9,3989
1871	9,3989
1872	9,4118
1873	8,8405
1874	8,833
1875	8,833
1876	8,8405
1877	9,7316
1878	9,7202
1879	9,7202
1880	9,7316
1881	10,432
1882	10,412
1883	10,412
1884	10,432
1885	11,1
1886	11,075
1887	11,075
1888	11,1
1889	10,472
1890	10,452
1891	10,452
1892	10,472
1893	10,617
1894	10,595
1895	10,595
1896	10,617
1897	8,3611
1898	8,3539
1899	8,3539
1900	8,3611
1901	8,6558
1902	8,6473
1903	8,6473
1904	8,6558
1905	8,0784
1906	8,0725
1907	8,0725
1908	8,0784
1909	7,3985
1910	7,3954
1911	7,3954
1912	7,3985
1913	7,5862
1914	7,5823
1915	7,5823
1916	7,5862
1917	7,2599
1918	7,2573
1919	7,2573
1920	7,2599
1921	7,1515
1922	7,1493
1923	7,1493
1924	7,1515
1925	7,2793
1926	7,2765
1927	7,2765
1928	7,2793
1929	8,4539
1930	8,4475
1931	8,4475
1932	8,4539
1933	9,002
1934	8,9941
1935	8,9941
1936	9,002
1937	8,7607
1938	8,7536
1939	8,7536
1940	8,7607
1941	10,212
1942	10,194
1943	10,194
1944	10,212
1945	9,2379
1946	9,2258
1947	9,2258
1948	9,2379
1949	9,6482
1950	9,6337
1951	9,6337
1952	9,6482
1953	8,5303
1954	8,5218
1955	8,5218
1956	8,5303
1957	8,86
1958	8,8499
1959	8,8499
1960	8,86
1961	7,979
1962	7,9729
1963	7,9729
1964	7,979
1965	8,2323
1966	8,225
1967	8,225
1968	8,2323
1969	7,6081
1970	7,6035
1971	7,6035
1972	7,6081
1973	7,4637
1974	7,4597
1975	7,4597
1976	7,4637
1977	7,5772
1978	7,5728
1979	7,5728
1980	7,5772
1981	7,4877
1982	7,4836
1983	7,4836
1984	7,4877
1985	7,9433
1986	7,9377
1987	7,9377
1988	7,9433
1989	7,7305
1990	7,7256
1991	7,7256
1992	7,7305
1993	8,5333
1994	8,5257
1995	8,5257
1996	8,5333
1997	8,2161
1998	8,2095
1999	8,2095
2000	8,2161
2001	9,265
2002	9,2551
2003	9,2551
2004	9,265
2005	8,8787
2006	8,87
2007	8,87
2008	8,8787
2009	10,095
2010	10,083
2011	10,083
2012	10,095
2013	9,6626
2014	9,6515
2015	9,6515
2016	9,6626
2017	8,8909
2018	8,8823
2019	8,8823
2020	8,8909
2021	9,2956
2022	9,2856
2023	9,2856
2024	9,2956
2025	8,2131
2026	8,2066
2027	8,2066
2028	8,2131
2029	8,5322
2030	8,5246
2031	8,5246
2032	8,5322
2033	7,7315
2034	7,7266
2035	7,7266
2036	7,7315
2037	7,9448
2038	7,9392
2039	7,9392
2040	7,9448
2041	7,488
2042	7,4839
2043	7,4839
2044	7,488
2045	7,5779
2046	7,5735
2047	7,5735
2048	7,5779
2049	7,4636
2050	7,4596
2051	7,4596
2052	7,4636
2053	7,7671
2054	7,7619
2055	7,7619
2056	7,7671
2057	7,6072
2058	7,6026
2059	7,6026
2060	7,6072
2061	8,2301
2062	8,2229
2063	8,2229
2064	8,2301
2065	7,9773
2066	7,9712
2067	7,9712
2068	7,9773
2069	8,5171
2070	8,5086
2071	8,5086
2072	8,5171
2073	9,4578
2074	9,4445
2075	9,4445
2076	9,4578
2077	9,1374
2078	9,1259
2079	9,1259
2080	9,1374
2081	11,41
2082	11,381
2083	11,381
2084	11,41
2085	10,939
2086	10,915
2087	10,915
2088	10,939
2089	8,2123
2090	8,2064
2091	8,2064
2092	8,2123
2093	8,5148
2094	8,5081
2095	8,5081
2096	8,5148
2097	7,7192
2098	7,7147
2099	7,7147
2100	7,7192
2101	7,9453
2102	7,9401
2103	7,9401
2104	7,9453
2105	7,4084
2106	7,4048
2107	7,4048
2108	7,4084
2109	7,5378
2110	7,5339
2111	7,5339
2112	7,5378
2113	7,3143
2114	7,311
2115	7,311
2116	7,3143
2117	7,3337
2118	7,3304
2119	7,3304
2120	7,3337
2121	7,4461
2122	7,4423
2123	7,4423
2124	7,4461
2125	7,3522
2126	7,3487
2127	7,3487
2128	7,3522
2129	7,7869
2130	7,7816
2131	7,7816
2132	7,7869
2133	7,5927
2134	7,5882
2135	7,5882
2136	7,5927
2137	8,0226
2138	8,0163
2139	8,0163
2140	8,0226
2141	8,9082
2142	8,8979
2143	8,8979
2144	8,9082
2145	9,5268
2146	9,5131
2147	9,5131
2148	9,5268
2149	9,233
2150	9,221
2151	9,221
2152	9,233
2153	10,218
2154	10,2
2155	10,2
2156	10,218
2157	10,47
2158	10,449
2159	10,449
2160	10,47
2161	10,297
2162	10,278
2163	10,278
2164	10,297
2165	10,564
2166	10,544
2167	10,544
2168	10,564
2169	10,664
2170	10,643
2171	10,643
2172	10,664
2173	10,835
2174	10,812
2175	10,812
2176	10,835
2177	10,851
2178	10,828
2179	10,828
2180	10,851
2181	11,023
2182	10,998
2183	10,998
2184	11,023
2185	10,979
2186	10,954
2187	10,954
2188	10,979
2189	9,1184
2190	9,107
2191	9,107
2192	9,1184
2193	9,1791
2194	9,1707
2195	9,1707
2196	9,1791
2197	10,781
2198	10,758
2199	10,758
2200	10,781
2201	10,274
2202	10,261
2203	10,261
2204	10,274
2205	10,553
2206	10,539
2207	10,539
2208	10,553
2209	10,037
2210	10,02
2211	10,02
2212	10,037
2213	10,042
2214	10,025
2215	10,025
2216	10,042
2217	11,034
2218	11,009
2219	11,009
2220	11,034
2221	11,083
2222	11,058
2223	11,058
2224	11,083
2225	10,825
2226	10,802
2227	10,802
2228	10,825
2229	9,6272
2230	9,6123
2231	9,6123
2232	9,6272
2233	10,712
2234	10,689
2235	10,689
2236	10,712
2237	12,179
2238	12,141
2239	12,141
2240	12,179
2241	10,188
2242	10,169
2243	10,169
2244	10,188
2245	12,182
2246	12,144
2247	12,144
2248	12,182
2249	11,113
2250	11,088
2251	11,088
2252	11,113
2253	8,5025
2254	8,4941
2255	8,4941
2256	8,5025
2257	8,8136
2258	8,8037
2259	8,8037
2260	8,8136
2261	8,2065
2262	8,1994
2263	8,1994
2264	8,2065
2265	7,533
2266	7,5288
2267	7,5288
2268	7,533
2269	7,7144
2270	7,7095
2271	7,7095
2272	7,7144
2273	7,4033
2274	7,3996
2275	7,3996
2276	7,4033
2277	7,3608
2278	7,3574
2279	7,3574
2280	7,3608
2281	7,3156
2282	7,3123
2283	7,3123
2284	7,3156
2285	7,6162
2286	7,612
2287	7,612
2288	7,6162
2289	7,4639
2290	7,4602
2291	7,4602
2292	7,4639
2293	8,0663
2294	8,0608
2295	8,0608
2296	8,0663
2297	7,8206
2298	7,8158
2299	7,8158
2300	7,8206
2301	8,6698
2302	8,6627
2303	8,6627
2304	8,6698
2305	8,3571
2306	8,3509
2307	8,3509
2308	8,3571
2309	9,002
2310	8,9941
2311	8,9941
2312	9,002
2313	9,5172
2314	9,5081
2315	9,5081
2316	9,5172
2317	9,8706
2318	9,8607
2319	9,8607
2320	9,8706
2321	9,7878
2322	9,7781
2323	9,7781
2324	9,7878
2325	10,168
2326	10,149
2327	10,149
2328	10,168
2329	10,489
2330	10,469
2331	10,469
2332	10,489
2333	9,4027
2334	9,389
2335	9,389
2336	9,4027
2337	9,7901
2338	9,774
2339	9,774
2340	9,7901
2341	8,7097
2342	8,6996
2343	8,6996
2344	8,7097
2345	9,0436
2346	9,0318
2347	9,0318
2348	9,0436
2349	8,1512
2350	8,1436
2351	8,1436
2352	8,1512
2353	8,4033
2354	8,3946
2355	8,3946
2356	8,4033
2357	7,7933
2358	7,7873
2359	7,7873
2360	7,7933
2361	7,668
2362	7,6626
2363	7,6626
2364	7,668
2365	7,6995
2366	7,6939
2367	7,6939
2368	7,6995
2369	9,4911
2370	9,4804
2371	9,4804
2372	9,4911
2373	10,329
2374	10,316
2375	10,316
2376	10,329
2377	9,8964
2378	9,8843
2379	9,8843
2380	9,8964
2381	10,716
2382	10,701
2383	10,701
2384	10,716
2385	11,17
2386	11,153
2387	11,153
2388	11,17
2389	10,789
2390	10,774
2391	10,774
2392	10,789
2393	12,159
2394	12,121
2395	12,121
2396	12,159
2397	10,913
2398	10,897
2399	10,897
2400	10,913
2401	11,421
2402	11,404
2403	11,404
2404	11,421
2405	9,9341
2406	9,922
2407	9,922
2408	9,9341
2409	10,383
2410	10,369
2411	10,369
2412	10,383
2413	7,6991
2414	7,6935
2415	7,6935
2416	7,6991
2417	7,6679
2418	7,6626
2419	7,6626
2420	7,6679
2421	7,9444
2422	7,9377
2423	7,9377
2424	7,9444
2425	7,7924
2426	7,7864
2427	7,7864
2428	7,7924
2429	8,4012
2430	8,3925
2431	8,3925
2432	8,4012
2433	8,1495
2434	8,1419
2435	8,1419
2436	8,1495
2437	8,6886
2438	8,6785
2439	8,6785
2440	8,6886
2441	9,3292
2442	9,3159
2443	9,3159
2444	9,3292
2445	11,672
2446	11,64
2447	11,64
2448	11,672
2449	11,148
2450	11,121
2451	11,121
2452	11,148
2453	9,6917
2454	9,6821
2455	9,6821
2456	9,6917
2457	10,057
2458	10,046
2459	10,046
2460	10,057
2461	9,0196
2462	9,0115
2463	9,0115
2464	9,0196
2465	9,3498
2466	9,341
2467	9,341
2468	9,3498
2469	7,6125
2470	7,6074
2471	7,6074
2472	7,6125
2473	7,9401
2474	7,9335
2475	7,9335
2476	7,9401
2477	8,4467
2478	8,4379
2479	8,4379
2480	8,4467
2481	8,1738
2482	8,1663
2483	8,1663
2484	8,1738
2485	9,0776
2486	9,0657
2487	9,0657
2488	9,0776
2489	8,7522
2490	8,7419
2491	8,7419
2492	8,7522
2493	9,7427
2494	9,727
2495	9,727
2496	9,7427
2497	9,4103
2498	9,3966
2499	9,3966
2500	9,4103
2501	11,343
2502	11,315
2503	11,315
2504	11,343
2505	11,432
2506	11,403
2507	11,403
2508	11,432
2509	11,301
2510	11,273
2511	11,273
2512	11,301
2513	11,319
2514	11,292
2515	11,292
2516	11,319
2517	10,785
2518	10,762
2519	10,762
2520	10,785
2521	9,3215
2522	9,3083
2523	9,3083
2524	9,3215
2525	10,438
2526	10,427
2527	10,427
2528	10,438
2529	10,597
2530	10,586
2531	10,586
2532	10,597
2533	11,144
2534	11,117
2535	11,117
2536	11,144
2537	10,294
2538	10,274
2539	10,274
2540	10,294
2541	10,382
2542	10,361
2543	10,361
2544	10,382
2545	10,59
2546	10,568
2547	10,568
2548	10,59
2549	11,679
2550	11,647
2551	11,647
2552	11,679
2553	10,926
2554	10,902
2555	10,902
2556	10,926
2557	12,383
2558	12,342
2559	12,342
2560	12,383
2561	11,844
2562	11,809
2563	11,809
2564	11,844
2565	11,016
2566	10,989
2567	10,989
2568	11,016
2569	9,0083
2570	8,9967
2571	8,9967
2572	9,0083
2573	8,359
2574	8,3506
2575	8,3506
2576	8,359
2577	7,6943
2578	7,6888
2579	7,6888
2580	7,6943
2581	7,8692
2582	7,8629
2583	7,8629
2584	7,8692
2585	7,5089
2586	7,5043
2587	7,5043
2588	7,5089
2589	7,5731
2590	7,5681
2591	7,5681
2592	7,5731
2593	7,5033
2594	7,4988
2595	7,4988
2596	7,5033
2597	9,2029
2598	9,1944
2599	9,1944
2600	9,2029
2601	10,259
2602	10,249
2603	10,249
2604	10,259
2605	9,8985
2606	9,8885
2607	9,8885
2608	9,8985
2609	12,447
2610	12,405
2611	12,405
2612	12,447
2613	12,994
2614	12,946
2615	12,946
2616	12,994
2617	12,535
2618	12,492
2619	12,492
2620	12,535
2621	10,817
2622	10,805
2623	10,805
2624	10,817
2625	11,73
2626	11,717
2627	11,717
2628	11,73
2629	10,405
2630	10,384
2631	10,384
2632	10,405
2633	10,784
2634	10,76
2635	10,76
2636	10,784
2637	9,6157
2638	9,5999
2639	9,5999
2640	9,6157
2641	10,007
2642	9,9885
2643	9,9885
2644	10,007
2645	8,9017
2646	8,8898
2647	8,8898
2648	8,9017
2649	9,253
2650	9,2393
2651	9,2393
2652	9,253
2653	8,3421
2654	8,3329
2655	8,3329
2656	8,3421
2657	7,9963
2658	7,9887
2659	7,9887
2660	7,9963
2661	7,8865
2662	7,8796
2663	7,8796
2664	7,8865
2665	7,9105
2666	7,9033
2667	7,9033
2668	7,9105
2669	8,0258
2670	8,0187
2671	8,0187
2672	8,0258
2673	7,9253
2674	7,9184
2675	7,9184
2676	7,9253
2677	8,4005
2678	8,3925
2679	8,3925
2680	8,4005
2681	8,1854
2682	8,178
2683	8,178
2684	8,1854
2685	8,9776
2686	8,968
2687	8,968
2688	8,9776
2689	8,6663
2690	8,6575
2691	8,6575
2692	8,6663
2693	9,7135
2694	9,7018
2695	9,7018
2696	9,7135
2697	9,3305
2698	9,3199
2699	9,3199
2700	9,3305
2701	10,571
2702	10,556
2703	10,556
2704	10,571
2705	10,129
2706	10,116
2707	10,116
2708	10,129
2709	11,535
2710	11,517
2711	11,517
2712	11,535
2713	11,039
2714	11,023
2715	11,023
2716	11,039
2717	12,556
2718	12,533
2719	12,533
2720	12,556
2721	11,091
2722	11,074
2723	11,074
2724	11,091
2725	11,601
2726	11,582
2727	11,582
2728	11,601
2729	10,141
2730	10,128
2731	10,128
2732	10,141
2733	9,3333
2734	9,3228
2735	9,3228
2736	9,3333
2737	9,7204
2738	9,7087
2739	9,7087
2740	9,7204
2741	8,6678
2742	8,6591
2743	8,6591
2744	8,6678
2745	8,9794
2746	8,9698
2747	8,9698
2748	8,9794
2749	8,1865
2750	8,179
2751	8,179
2752	8,1865
2753	8,4018
2754	8,3938
2755	8,3938
2756	8,4018
2757	7,9257
2758	7,9188
2759	7,9188
2760	7,9257
2761	8,0265
2762	8,0194
2763	8,0194
2764	8,0265
2765	7,9101
2766	7,903
2767	7,903
2768	7,9101
2769	7,8866
2770	7,8797
2771	7,8797
2772	7,8866
2773	8,1403
2774	8,132
2775	8,132
2776	8,1403
2777	7,9955
2778	7,9879
2779	7,9879
2780	7,9955
2781	8,5908
2782	8,5804
2783	8,5804
2784	8,5908
2785	8,3405
2786	8,3313
2787	8,3313
2788	8,3405
2789	8,8824
2790	8,8705
2791	8,8705
2792	8,8824
2793	9,5536
2794	9,5382
2795	9,5382
2796	9,5536
2797	11,933
2798	11,897
2799	11,897
2800	11,933
2801	11,469
2802	11,438
2803	11,438
2804	11,469
2805	10,61
2806	10,599
2807	10,599
2808	10,61
2809	10,982
2810	10,97
2811	10,97
2812	10,982
2813	10,238
2814	10,227
2815	10,227
2816	10,238
2817	9,2088
2818	9,2
2819	9,2
2820	9,2088
2821	9,5356
2822	9,5262
2823	9,5262
2824	9,5356
2825	8,6157
2826	8,6081
2827	8,6081
2828	8,6157
2829	8,8992
2830	8,8911
2831	8,8911
2832	8,8992
2833	8,1362
2834	8,1296
2835	8,1296
2836	8,1362
2837	8,3575
2838	8,3505
2839	8,3505
2840	8,3575
2841	7,819
2842	7,8131
2843	7,8131
2844	7,819
2845	7,955
2846	7,9487
2847	7,9487
2848	7,955
2849	7,6995
2850	7,6936
2851	7,6936
2852	7,6995
2853	7,7328
2854	7,7269
2855	7,7269
2856	7,7328
2857	7,7986
2858	7,792
2859	7,792
2860	7,7986
2861	7,7213
2862	7,7151
2863	7,7151
2864	7,7213
2865	8,1136
2866	8,1056
2867	8,1056
2868	8,1136
2869	8,6195
2870	8,609
2871	8,609
2872	8,6195
2873	8,345
2874	8,3359
2875	8,3359
2876	8,345
2877	10,019
2878	10,001
2879	10,001
2880	10,019
2881	11,253
2882	11,225
2883	11,225
2884	11,253
2885	11,105
2886	11,079
2887	11,079
2888	11,105
2889	11,88
2890	11,846
2891	11,846
2892	11,88
2893	11,357
2894	11,328
2895	11,328
2896	11,357
2897	11,688
2898	11,657
2899	11,657
2900	11,688
2901	11,862
2902	11,828
2903	11,828
2904	11,862
2905	11,641
2906	11,609
2907	11,609
2908	11,641
2909	12,045
2910	12,009
2911	12,009
2912	12,045
2913	11,217
2914	11,19
2915	11,19
2916	11,217
2917	11,979
2918	11,943
2919	11,943
2920	11,979
2921	11,562
2922	11,531
2923	11,531
2924	11,562
2925	11,885
2926	11,85
2927	11,85
2928	11,885
2929	12,271
2930	12,232
2931	12,232
2932	12,271
2933	11,143
2934	11,116
2935	11,116
2936	11,143
2937	11,554
2938	11,523
2939	11,523
2940	11,554
2941	12,398
2942	12,357
2943	12,357
2944	12,398
2945	12,832
2946	12,786
2947	12,786
2948	12,832
2949	12,722
2950	12,677
2951	12,677
2952	12,722
2953	12,701
2954	12,657
2955	12,657
2956	12,701
2957	12,709
2958	12,664
2959	12,664
2960	12,709
2961	12,782
2962	12,736
2963	12,736
2964	12,782
2965	12,632
2966	12,61
2967	12,61
2968	12,632
2969	9,6807
2970	9,6645
2971	9,6645
2972	9,6807
2973	11,493
2974	11,462
2975	11,462
2976	11,493
2977	10,596
2978	10,572
2979	10,572
2980	10,596
2981	12,65
2982	12,606
2983	12,606
2984	12,65
2985	11,503
2986	11,471
2987	11,471
2988	11,503
2989	10,832
2990	10,807
2991	10,807
2992	10,832
2993	10,3
2994	10,28
2995	10,28
2996	10,3
2997	13,097
2998	13,048
2999	13,048
3000	13,097
3001	11,988
3002	11,951
3003	11,951
3004	11,988
3005	13,248
3006	13,198
3007	13,198
3008	13,248
3009	12,237
3010	12,198
3011	12,198
3012	12,237
3013	11,328
3014	11,298
3015	11,298
3016	11,328
3017	12,432
3018	12,39
3019	12,39
3020	12,432
3021	12,401
3022	12,36
3023	12,36
3024	12,401
3025	12,618
3026	12,575
3027	12,575
3028	12,618
3029	12,009
3030	11,972
3031	11,972
3032	12,009
3033	12,864
3034	12,818
3035	12,818
3036	12,864
3037	12,143
3038	12,129
3039	12,129
3040	12,143
3041	13,101
3042	13,052
3043	13,052
3044	13,101
3045	13,12
3046	13,071
3047	13,071
3048	13,12
3049	13,187
3050	13,138
3051	13,138
3052	13,187
3053	10,932
3054	10,907
3055	10,907
3056	10,932
3057	9,2225
3058	9,209
3059	9,209
3060	9,2225
3061	8,5308
3062	8,5208
3063	8,5208
3064	8,5308
3065	7,8757
3066	7,8688
3067	7,8688
3068	7,8757
3069	8,0443
3070	8,0366
3071	8,0366
3072	8,0443
3073	7,7057
3074	7,6997
3075	7,6997
3076	7,7057
3077	7,7621
3078	7,7558
3079	7,7558
3080	7,7621
3081	7,7649
3082	7,759
3083	7,759
3084	7,7649
3085	7,707
3086	7,7012
3087	7,7012
3088	7,707
3089	8,0376
3090	8,0312
3091	8,0312
3092	8,0376
3093	7,8764
3094	7,8704
3095	7,8704
3096	7,8764
3097	8,488
3098	8,4807
3099	8,4807
3100	8,488
3101	8,2434
3102	8,2365
3103	8,2365
3104	8,2434
3105	9,0714
3106	9,0629
3107	9,0629
3108	9,0714
3109	8,766
3110	8,7581
3111	8,7581
3112	8,766
3113	9,3942
3114	9,385
3115	9,385
3116	9,3942
3117	10,469
3118	10,458
3119	10,458
3120	10,469
3121	11,223
3122	11,21
3123	11,21
3124	11,223
3125	10,845
3126	10,833
3127	10,833
3128	10,845
3129	12,009
3130	11,995
3131	11,995
3132	12,009
3133	11,654
3134	11,641
3135	11,641
3136	11,654
3137	10,681
3138	10,657
3139	10,657
3140	10,681
3141	11,104
3142	11,077
3143	11,077
3144	11,104
3145	9,8344
3146	9,8163
3147	9,8163
3148	9,8344
3149	9,098
3150	9,0841
3151	9,0841
3152	9,098
3153	9,4485
3154	9,4328
3155	9,4328
3156	9,4485
3157	8,5431
3158	8,5321
3159	8,5321
3160	8,5431
3161	8,7926
3162	8,7803
3163	8,7803
3164	8,7926
3165	8,2074
3166	8,1982
3167	8,1982
3168	8,2074
3169	8,1091
3170	8,1006
3171	8,1006
3172	8,1091
3173	8,1277
3174	8,119
3175	8,119
3176	8,1277
3177	8,2533
3178	8,2448
3179	8,2448
3180	8,2533
3181	8,1514
3182	8,143
3183	8,143
3184	8,1514
3185	8,6237
3186	8,6145
3187	8,6145
3188	8,6237
3189	8,4119
3190	8,4031
3191	8,4031
3192	8,4119
3193	9,1899
3194	9,1793
3195	9,1793
3196	9,1899
3197	8,8845
3198	8,8747
3199	8,8747
3200	8,8845
3201	9,9175
3202	9,9049
3203	9,9049
3204	9,9175
3205	9,5356
3206	9,5241
3207	9,5241
3208	9,5356
3209	10,332
3210	10,318
3211	10,318
3212	10,332
3213	11,74
3214	11,721
3215	11,721
3216	11,74
3217	11,249
3218	11,232
3219	11,232
3220	11,249
3221	12,732
3222	12,708
3223	12,708
3224	12,732
3225	12,829
3226	12,805
3227	12,805
3228	12,829
3229	11,263
3230	11,246
3231	11,246
3232	11,263
3233	11,759
3234	11,74
3235	11,74
3236	11,759
3237	10,334
3238	10,32
3239	10,32
3240	10,334
3241	10,779
3242	10,763
3243	10,763
3244	10,779
3245	9,5374
3246	9,5259
3247	9,5259
3248	9,5374
3249	9,9196
3250	9,907
3251	9,907
3252	9,9196
3253	8,886
3254	8,8762
3255	8,8762
3256	8,886
3257	9,1916
3258	9,181
3259	9,181
3260	9,1916
3261	8,413
3262	8,4042
3263	8,4042
3264	8,413
3265	8,625
3266	8,6158
3267	8,6158
3268	8,625
3269	8,1519
3270	8,1435
3271	8,1435
3272	8,1519
3273	8,254
3274	8,2455
3275	8,2455
3276	8,254
3277	8,1274
3278	8,1186
3279	8,1186
3280	8,1274
3281	8,1091
3282	8,1007
3283	8,1007
3284	8,1091
3285	8,7905
3286	8,7783
3287	8,7783
3288	8,7905
3289	8,5415
3290	8,5305
3291	8,5305
3292	8,5415
3293	9,0877
3294	9,0739
3295	9,0739
3296	9,0877
3297	9,7899
3298	9,7721
3299	9,7721
3300	9,7899
3301	12,208
3302	12,169
3303	12,169
3304	12,208
3305	11,77
3306	11,735
3307	11,735
3308	11,77
3309	11,511
3310	11,498
3311	11,498
3312	11,511
3313	11,896
3314	11,882
3315	11,882
3316	11,896
3317	10,774
3318	10,762
3319	10,762
3320	10,774
3321	11,138
3322	11,125
3323	11,125
3324	11,138
3325	10,416
3326	10,405
3327	10,405
3328	10,416
3329	9,4005
3330	9,391
3331	9,391
3332	9,4005
3333	9,7244
3334	9,7143
3335	9,7143
3336	9,7244
3337	8,8167
3338	8,8082
3339	8,8082
3340	8,8167
3341	9,0965
3342	9,0875
3343	9,0875
3344	9,0965
3345	8,3482
3346	8,3405
3347	8,3405
3348	8,3482
3349	8,5657
3350	8,5576
3351	8,5576
3352	8,5657
3353	8,0338
3354	8,0265
3355	8,0265
3356	8,0338
3357	8,1694
3358	8,1619
3359	8,1619
3360	8,1694
3361	7,9086
3362	7,9012
3363	7,9012
3364	7,9086
3365	7,9457
3366	7,9384
3367	7,9384
3368	7,9457
3369	7,996
3370	7,9879
3371	7,9879
3372	7,996
3373	7,925
3374	7,9173
3375	7,9173
3376	7,925
3377	8,2999
3378	8,2902
3379	8,2902
3380	8,2999
3381	8,1215
3382	8,1127
3383	8,1127
3384	8,1215
3385	8,8043
3386	8,7921
3387	8,7921
3388	8,8043
3389	8,5287
3390	8,5179
3391	8,5179
3392	8,5287
3393	9,477
3394	9,4611
3395	9,4611
3396	9,477
3397	9,1221
3398	9,1082
3399	9,1082
3400	9,1221
3401	10,311
3402	10,29
3403	10,29
3404	10,311
3405	9,8721
3406	9,8537
3407	9,8537
3408	9,8721
3409	13,168
3410	13,119
3411	13,119
3412	13,168
3413	10,393
3414	10,371
3415	10,371
3416	10,393
3417	12,991
3418	12,944
3419	12,944
3420	12,991
3421	12,366
3422	12,325
3423	12,325
3424	12,366
3425	11,625
3426	11,593
3427	11,593
3428	11,625
3429	9,8583
3430	9,8398
3431	9,8398
3432	9,8583
3433	12,438
3434	12,396
3435	12,396
3436	12,438
3437	11,872
3438	11,836
3439	11,836
3440	11,872
3441	13,78
3442	13,75
3443	13,75
3444	13,78
3445	14,082
3446	14,05
3447	14,05
3448	14,082
3449	10,893
3450	10,866
3451	10,866
3452	10,893
3453	12,91
3454	12,863
3455	12,863
3456	12,91
3457	11,026
3458	10,998
3459	10,998
3460	11,026
3461	13,387
3462	13,336
3463	13,336
3464	13,387
3465	11,664
3466	11,629
3467	11,629
3468	11,664
3469	10,533
3470	10,508
3471	10,508
3472	10,533
3473	12,715
3474	12,67
3475	12,67
3476	12,715
3477	12,28
3478	12,266
3479	12,266
3480	12,28
3481	12,807
3482	12,761
3483	12,761
3484	12,807
3485	12,686
3486	12,671
3487	12,671
3488	12,686
3489	12,465
3490	12,45
3491	12,45
3492	12,465
3493	13,65
3494	13,599
3495	13,599
3496	13,65
3497	13,878
3498	13,825
3499	13,825
3500	13,878
3501	13,819
3502	13,768
3503	13,768
3504	13,819
3505	10,842
3506	10,817
3507	10,817
3508	10,842
3509	11,298
3510	11,269
3511	11,269
3512	11,298
3513	9,3959
3514	9,3805
3515	9,3805
3516	9,3959
3517	8,7148
3518	8,703
3519	8,703
3520	8,7148
3521	8,0692
3522	8,0607
3523	8,0607
3524	8,0692
3525	8,2321
3526	8,2228
3527	8,2228
3528	8,2321
3529	7,9118
3530	7,9043
3531	7,9043
3532	7,9118
3533	7,962
3534	7,9541
3535	7,9541
3536	7,962
3537	7,9788
3538	7,9716
3539	7,9716
3540	7,9788
3541	7,918
3542	7,9107
3543	7,9107
3544	7,918
3545	8,2511
3546	8,2436
3547	8,2436
3548	8,2511
3549	8,0913
3550	8,0839
3551	8,0839
3552	8,0913
3553	8,6937
3554	8,6854
3555	8,6854
3556	8,6937
3557	8,4536
3558	8,4458
3559	8,4458
3560	8,4536
3561	9,2656
3562	9,2563
3563	9,2563
3564	9,2656
3565	8,966
3566	8,9572
3567	8,9572
3568	8,966
3569	9,9233
3570	9,9128
3571	9,9128
3572	9,9233
3573	9,5851
3574	9,5752
3575	9,5752
3576	9,5851
3577	10,655
3578	10,643
3579	10,643
3580	10,655
3581	10,282
3582	10,271
3583	10,271
3584	10,282
3585	12,148
3586	12,134
3587	12,134
3588	12,148
3589	11,777
3590	11,764
3591	11,764
3592	11,777
3593	12,848
3594	12,802
3595	12,802
3596	12,848
3597	12,755
3598	12,709
3599	12,709
3600	12,755
3601	11,427
3602	11,395
3603	11,395
3604	11,427
3605	10,047
3606	10,026
3607	10,026
3608	10,047
3609	9,2956
3610	9,2797
3611	9,2797
3612	9,2956
3613	9,6453
3614	9,6274
3615	9,6274
3616	9,6453
3617	8,744
3618	8,7311
3619	8,7311
3620	8,744
3621	8,4159
3622	8,4049
3623	8,4049
3624	8,4159
3625	8,3247
3626	8,3147
3627	8,3147
3628	8,3247
3629	8,3404
3630	8,33
3631	8,33
3632	8,3404
3633	8,4687
3634	8,4588
3635	8,4588
3636	8,4687
3637	8,3681
3638	8,3582
3639	8,3582
3640	8,3681
3641	8,8298
3642	8,8193
3643	8,8193
3644	8,8298
3645	8,6237
3646	8,6136
3647	8,6136
3648	8,6237
3649	9,3799
3650	9,3683
3651	9,3683
3652	9,3799
3653	9,0831
3654	9,0721
3655	9,0721
3656	9,0831
3657	10,09
3658	10,077
3659	10,077
3660	10,09
3661	9,7168
3662	9,7044
3663	9,7044
3664	9,7168
3665	10,938
3666	10,922
3667	10,922
3668	10,938
3669	10,498
3670	10,484
3671	10,484
3672	10,498
3673	11,903
3674	11,883
3675	11,883
3676	11,903
3677	11,41
3678	11,393
3679	11,393
3680	11,41
3681	12,962
3682	12,937
3683	12,937
3684	12,962
3685	12,416
3686	12,394
3687	12,394
3688	12,416
3689	15,573
3690	15,526
3691	15,526
3692	15,573
3693	14,785
3694	14,747
3695	14,747
3696	14,785
3697	16,477
3698	16,42
3699	16,42
3700	16,477
3701	16,358
3702	16,302
3703	16,302
3704	16,358
3705	14,938
3706	14,898
3707	14,898
3708	14,938
3709	15,629
3710	15,582
3711	15,582
3712	15,629
3713	13,584
3714	13,555
3715	13,555
3716	13,584
3717	14,258
3718	14,225
3719	14,225
3720	14,258
3721	12,439
3722	12,417
3723	12,417
3724	12,439
3725	12,996
3726	12,971
3727	12,971
3728	12,996
3729	11,41
3730	11,393
3731	11,393
3732	11,41
3733	11,91
3734	11,891
3735	11,891
3736	11,91
3737	10,5
3738	10,486
3739	10,486
3740	10,5
3741	10,94
3742	10,924
3743	10,924
3744	10,94
3745	9,7185
3746	9,7061
3747	9,7061
3748	9,7185
3749	10,092
3750	10,079
3751	10,079
3752	10,092
3753	9,0845
3754	9,0736
3755	9,0736
3756	9,0845
3757	9,3815
3758	9,3699
3759	9,3699
3760	9,3815
3761	8,6248
3762	8,6147
3763	8,6147
3764	8,6248
3765	8,831
3766	8,8206
3767	8,8206
3768	8,831
3769	8,3686
3770	8,3587
3771	8,3587
3772	8,3686
3773	8,4695
3774	8,4596
3775	8,4596
3776	8,4695
3777	8,3401
3778	8,3297
3779	8,3297
3780	8,3401
3781	8,3248
3782	8,3148
3783	8,3148
3784	8,3248
3785	8,4152
3786	8,4042
3787	8,4042
3788	8,4152
3789	8,9904
3790	8,9762
3791	8,9762
3792	8,9904
3793	8,7424
3794	8,7296
3795	8,7296
3796	8,7424
3797	9,6363
3798	9,6184
3799	9,6184
3800	9,6363
3801	10,448
3802	10,425
3803	10,425
3804	10,448
3805	10,026
3806	10,005
3807	10,005
3808	10,026
3809	12,496
3810	12,453
3811	12,453
3812	12,496
3813	12,087
3814	12,048
3815	12,048
3816	12,087
3817	12,46
3818	12,445
3819	12,445
3820	12,46
3821	12,88
3822	12,865
3823	12,865
3824	12,88
3825	12,065
3826	12,05
3827	12,05
3828	12,065
3829	10,934
3830	10,921
3831	10,921
3832	10,934
3833	11,298
3834	11,285
3835	11,285
3836	11,298
3837	10,231
3838	10,219
3839	10,219
3840	10,231
3841	10,58
3842	10,568
3843	10,568
3844	10,58
3845	9,5779
3846	9,5677
3847	9,5677
3848	9,5779
3849	9,8957
3850	9,8849
3851	9,8849
3852	9,8957
3853	9,008
3854	8,9986
3855	8,9986
3856	9,008
3857	9,2808
3858	9,271
3859	9,271
3860	9,2808
3861	8,5516
3862	8,5428
3863	8,5428
3864	8,5516
3865	8,7635
3866	8,7544
3867	8,7544
3868	8,7635
3869	8,2433
3870	8,2347
3871	8,2347
3872	8,2433
3873	8,3767
3874	8,3681
3875	8,3681
3876	8,3767
3877	8,1164
3878	8,1075
3879	8,1075
3880	8,1164
3881	8,1553
3882	8,1467
3883	8,1467
3884	8,1553
3885	8,1954
3886	8,1857
3887	8,1857
3888	8,1954
3889	8,1292
3890	8,12
3891	8,12
3892	8,1292
3893	9,6804
3894	9,6622
3895	9,6622
3896	9,6804
3897	9,3151
3898	9,2991
3899	9,2991
3900	9,3151
3901	10,541
3902	10,517
3903	10,517
3904	10,541
3905	10,09
3906	10,069
3907	10,069
3908	10,09
3909	13,616
3910	13,567
3911	13,567
3912	13,616
3913	11,596
3914	11,562
3915	11,562
3916	11,596
3917	13,366
3918	13,314
3919	13,314
3920	13,366
3921	12,039
3922	12,002
3923	12,002
3924	12,039
3925	13,419
3926	13,367
3927	13,367
3928	13,419
3929	12,599
3930	12,555
3931	12,555
3932	12,599
3933	12,289
3934	12,248
3935	12,248
3936	12,289
3937	11,198
3938	11,168
3939	11,168
3940	11,198
3941	13,488
3942	13,472
3943	13,472
3944	13,488
3945	13,918
3946	13,864
3947	13,864
3948	13,918
3949	13,651
3950	13,599
3951	13,599
3952	13,651
3953	13,841
3954	13,788
3955	13,788
3956	13,841
3957	12,242
3958	12,202
3959	12,202
3960	12,242
3961	13,492
3962	13,44
3963	13,44
3964	13,492
3965	13,245
3966	13,194
3967	13,194
3968	13,245
3969	14,514
3970	14,478
3971	14,478
3972	14,514
3973	14,373
3974	14,331
3975	14,331
3976	14,373
3977	11,029
3978	11,
3979	11,
3980	11,029
3981	11,672
3982	11,639
3983	11,639
3984	11,672
3985	10,031
3986	10,01
3987	10,01
3988	10,031
3989	9,2238
3990	9,2083
3991	9,2083
3992	9,2238
3993	9,5948
3994	9,5771
3995	9,5771
3996	9,5948
3997	8,9024
3998	8,8887
3999	8,8887
4000	8,9024
4001	8,2654
4002	8,2552
4003	8,2552
4004	8,2654
4005	8,4235
4006	8,4124
4007	8,4124
4008	8,4235
4009	8,1176
4010	8,1086
4011	8,1086
4012	8,1176
4013	8,1634
4014	8,1539
4015	8,1539
4016	8,1634
4017	8,1887
4018	8,1801
4019	8,1801
4020	8,1887
4021	8,1268
4022	8,1181
4023	8,1181
4024	8,1268
4025	8,4567
4026	8,448
4027	8,448
4028	8,4567
4029	8,3001
4030	8,2915
4031	8,2915
4032	8,3001
4033	8,8881
4034	8,8788
4035	8,8788
4036	8,8881
4037	8,6543
4038	8,6454
4039	8,6454
4040	8,6543
4041	9,4459
4042	9,4358
4043	9,4358
4044	9,4459
4045	9,1534
4046	9,1438
4047	9,1438
4048	9,1534
4049	10,095
4050	10,084
4051	10,084
4052	10,095
4053	9,7614
4054	9,7509
4055	9,7509
4056	9,7614
4057	10,813
4058	10,8
4059	10,8
4060	10,813
4061	10,447
4062	10,436
4063	10,436
4064	10,447
4065	11,186
4066	11,174
4067	11,174
4068	11,186
4069	12,329
4070	12,314
4071	12,314
4072	12,329
4073	11,948
4074	11,933
4075	11,933
4076	11,948
4077	13,379
4078	13,328
4079	13,328
4080	13,379
4081	13,258
4082	13,208
4083	13,208
4084	13,258
4085	11,76
4086	11,725
4087	11,725
4088	11,76
4089	10,248
4090	10,225
4091	10,225
4092	10,248
4093	10,71
4094	10,683
4095	10,683
4096	10,71
4097	9,4843
4098	9,4663
4099	9,4663
4100	9,4843
4101	9,8394
4102	9,8192
4103	9,8192
4104	9,8394
4105	8,9334
4106	8,9186
4107	8,9186
4108	8,9334
4109	8,6104
4110	8,5977
4111	8,5977
4112	8,6104
4113	8,7427
4114	8,7291
4115	8,7291
4116	8,7427
4117	8,5222
4118	8,5107
4119	8,5107
4120	8,5222
4121	8,5371
4122	8,5251
4123	8,5251
4124	8,5371
4125	8,6614
4126	8,6502
4127	8,6502
4128	8,6614
4129	8,5644
4130	8,5531
4131	8,5531
4132	8,5644
4133	9,0085
4134	8,9969
4135	8,9969
4136	9,0085
4137	8,8105
4138	8,7992
4139	8,7992
4140	8,8105
4141	9,5381
4142	9,5256
4143	9,5256
4144	9,5381
4145	9,2521
4146	9,2401
4147	9,2401
4148	9,2521
4149	10,226
4150	10,212
4151	10,212
4152	10,226
4153	9,8637
4154	9,8505
4155	9,8505
4156	9,8637
4157	11,056
4158	11,04
4159	11,04
4160	11,056
4161	10,624
4162	10,609
4163	10,609
4164	10,624
4165	11,522
4166	11,504
4167	11,504
4168	11,522
4169	13,118
4170	13,092
4171	13,092
4172	13,118
4173	14,381
4174	14,347
4175	14,347
4176	14,381
4177	13,73
4178	13,7
4179	13,7
4180	13,73
4181	15,043
4182	15,002
4183	15,002
4184	15,043
4185	16,579
4186	16,521
4187	16,521
4188	16,579
4189	15,074
4190	15,032
4191	15,032
4192	15,074
4193	15,814
4194	15,764
4195	15,764
4196	15,814
4197	13,736
4198	13,706
4199	13,706
4200	13,736
4201	14,377
4202	14,343
4203	14,343
4204	14,377
4205	12,555
4206	12,532
4207	12,532
4208	12,555
4209	13,124
4210	13,098
4211	13,098
4212	13,124
4213	11,523
4214	11,505
4215	11,505
4216	11,523
4217	10,626
4218	10,611
4219	10,611
4220	10,626
4221	11,058
4222	11,042
4223	11,042
4224	11,058
4225	9,8654
4226	9,8522
4227	9,8522
4228	9,8654
4229	10,228
4230	10,214
4231	10,214
4232	10,228
4233	9,2535
4234	9,2415
4235	9,2415
4236	9,2535
4237	9,5396
4238	9,5272
4239	9,5272
4240	9,5396
4241	8,8115
4242	8,8002
4243	8,8002
4244	8,8115
4245	9,0097
4246	8,9981
4247	8,9981
4248	9,0097
4249	8,5648
4250	8,5535
4251	8,5535
4252	8,5648
4253	8,6621
4254	8,6509
4255	8,6509
4256	8,6621
4257	8,5368
4258	8,5248
4259	8,5248
4260	8,5368
4261	8,5223
4262	8,5107
4263	8,5107
4264	8,5223
4265	8,7416
4266	8,728
4267	8,728
4268	8,7416
4269	8,6097
4270	8,597
4271	8,597
4272	8,6097
4273	9,1793
4274	9,1631
4275	9,1631
4276	9,1793
4277	8,9318
4278	8,9171
4279	8,9171
4280	8,9318
4281	9,8363
4282	9,8161
4283	9,8161
4284	9,8363
4285	10,245
4286	10,222
4287	10,222
4288	10,245
4289	10,706
4290	10,68
4291	10,68
4292	10,706
4293	12,623
4294	12,607
4295	12,607
4296	12,623
4297	13,052
4298	13,036
4299	13,036
4300	13,052
4301	12,214
4302	12,199
4303	12,199
4304	12,214
4305	11,075
4306	11,062
4307	11,062
4308	11,075
4309	11,443
4310	11,43
4311	11,43
4312	11,443
4313	10,374
4314	10,362
4315	10,362
4316	10,374
4317	10,72
4318	10,707
4319	10,707
4320	10,72
4321	9,7341
4322	9,7231
4323	9,7231
4324	9,7341
4325	10,045
4326	10,034
4327	10,034
4328	10,045
4329	9,1797
4330	9,1694
4331	9,1694
4332	9,1797
4333	9,4446
4334	9,434
4335	9,434
4336	9,4446
4337	8,7376
4338	8,7277
4339	8,7277
4340	8,7376
4341	8,9428
4342	8,9327
4343	8,9327
4344	8,9428
4345	8,4384
4346	8,4286
4347	8,4286
4348	8,4384
4349	8,5682
4350	8,5584
4351	8,5584
4352	8,5682
4353	8,313
4354	8,3027
4355	8,3027
4356	8,313
4357	8,3522
4358	8,3422
4359	8,3422
4360	8,3522
4361	8,3867
4362	8,3753
4363	8,3753
4364	8,3867
4365	8,3238
4366	8,313
4367	8,313
4368	8,3238
4369	8,6735
4370	8,6602
4371	8,6602
4372	8,6735
4373	8,5031
4374	8,4909
4375	8,4909
4376	8,5031
4377	9,1738
4378	9,1575
4379	9,1575
4380	9,1738
4381	8,8975
4382	8,8829
4383	8,8829
4384	8,8975
4385	9,8747
4386	9,8541
4387	9,8541
4388	9,8747
4389	9,5004
4390	9,4822
4391	9,4822
4392	9,5004
4393	13,286
4394	13,27
4395	13,27
4396	13,286
4397	13,955
4398	13,94
4399	13,94
4400	13,955
4401	17,468
4402	17,403
4403	17,403
4404	17,468
4405	14,585
4406	14,552
4407	14,552
4408	14,585
4409	14,274
4410	14,228
4411	14,228
4412	14,274
4413	13,945
4414	13,894
4415	13,894
4416	13,945
4417	12,321
4418	12,279
4419	12,279
4420	12,321
4421	12,528
4422	12,485
4423	12,485
4424	12,528
4425	11,157
4426	11,128
4427	11,128
4428	11,157
4429	18,218
4430	18,156
4431	18,156
4432	18,218
4433	14,784
4434	14,789
4435	14,789
4436	14,784
4437	14,737
4438	14,745
4439	14,745
4440	14,737
4441	14,41
4442	14,368
4443	14,368
4444	14,41
4445	12,328
4446	12,286
4447	12,286
4448	12,328
4449	13,972
4450	13,921
4451	13,921
4452	13,972
4453	13,533
4454	13,482
4455	13,482
4456	13,533
4457	15,052
4458	15,061
4459	15,061
4460	15,052
4461	13,269
4462	13,218
4463	13,218
4464	13,269
4465	14,102
4466	14,054
4467	14,054
4468	14,102
4469	12,819
4470	12,773
4471	12,773
4472	12,819
4473	12,17
4474	12,13
4475	12,13
4476	12,17
4477	11,789
4478	11,753
4479	11,753
4480	11,789
4481	11,33
4482	11,298
4483	11,298
4484	11,33
4485	10,76
4486	10,733
4487	10,733
4488	10,76
4489	10,229
4490	10,206
4491	10,206
4492	10,229
4493	9,7888
4494	9,7688
4495	9,7688
4496	9,7888
4497	9,4048
4498	9,3872
4499	9,3872
4500	9,4048
4501	9,0833
4502	9,0676
4503	9,0676
4504	9,0833
4505	8,6083
4506	8,5954
4507	8,5954
4508	8,6083
4509	8,4542
4510	8,4422
4511	8,4422
4512	8,4542
4513	8,3561
4514	8,3449
4515	8,3449
4516	8,3561
4517	8,3132
4518	8,3026
4519	8,3026
4520	8,3132
4521	8,3238
4522	8,3136
4523	8,3136
4524	8,3238
4525	8,3851
4526	8,3751
4527	8,3751
4528	8,3851
4529	8,4937
4530	8,4839
4531	8,4839
4532	8,4937
4533	8,6458
4534	8,6359
4535	8,6359
4536	8,6458
4537	8,8371
4538	8,8271
4539	8,8271
4540	8,8371
4541	9,0635
4542	9,0533
4543	9,0533
4544	9,0635
4545	9,3208
4546	9,3104
4547	9,3104
4548	9,3208
4549	9,6053
4550	9,5945
4551	9,5945
4552	9,6053
4553	9,9134
4554	9,9022
4555	9,9022
4556	9,9134
4557	10,242
4558	10,23
4559	10,23
4560	10,242
4561	10,588
4562	10,576
4563	10,576
4564	10,588
4565	10,95
4566	10,937
4567	10,937
4568	10,95
4569	11,322
4570	11,309
4571	11,309
4572	11,322
4573	11,708
4574	11,694
4575	11,694
4576	11,708
4577	12,098
4578	12,084
4579	12,084
4580	12,098
4581	12,499
4582	12,484
4583	12,484
4584	12,499
4585	13,611
4586	13,595
4587	13,595
4588	13,611
4589	14,491
4590	14,477
4591	14,477
4592	14,491
4593	13,465
4594	13,416
4595	13,416
4596	13,465
4597	13,968
4598	13,917
4599	13,917
4600	13,968
4601	13,876
4602	13,825
4603	13,825
4604	13,876
4605	13,651
4606	13,601
4607	13,601
4608	13,651
4609	13,303
4610	13,254
4611	13,254
4612	13,303
4613	14,763
4614	14,738
4615	14,738
4616	14,763
4617	14,898
4618	14,881
4619	14,881
4620	14,898
4621	13,025
4622	12,977
4623	12,977
4624	13,025
4625	11,551
4626	11,516
4627	11,516
4628	11,551
4629	10,95
4630	10,92
4631	10,92
4632	10,95
4633	10,42
4634	10,394
4635	10,394
4636	10,42
4637	9,9597
4638	9,9374
4639	9,9374
4640	9,9597
4641	9,5661
4642	9,5464
4643	9,5464
4644	9,5661
4645	9,2464
4646	9,2287
4647	9,2287
4648	9,2464
4649	11,433
4650	11,419
4651	11,419
4652	11,433
4653	11,822
4654	11,807
4655	11,807
4656	11,822
4657	12,223
4658	12,207
4659	12,207
4660	12,223
4661	12,633
4662	12,617
4663	12,617
4664	12,633
4665	13,051
4666	13,035
4667	13,035
4668	13,051
4669	13,464
4670	13,447
4671	13,447
4672	13,464
4673	13,85
4674	13,834
4675	13,834
4676	13,85
4677	14,216
4678	14,201
4679	14,201
4680	14,216
4681	14,967
4682	14,955
4683	14,955
4684	14,967
4685	13,28
4686	13,231
4687	13,231
4688	13,28
4689	12,091
4690	12,051
4691	12,051
4692	12,091
4693	11,471
4694	11,437
4695	11,437
4696	11,471
4697	10,918
4698	10,888
4699	10,888
4700	10,918
4701	10,435
4702	10,41
4703	10,41
4704	10,435
4705	10,014
4706	9,9912
4707	9,9912
4708	10,014
4709	9,6524
4710	9,6322
4711	9,6322
4712	9,6524
4713	9,0994
4714	9,0828
4715	9,0828
4716	9,0994
4717	8,9101
4718	8,8947
4719	8,8947
4720	8,9101
4721	12,602
4722	12,579
4723	12,579
4724	12,602
4725	13,174
4726	13,148
4727	13,148
4728	13,174
4729	13,79
4730	13,76
4731	13,76
4732	13,79
4733	14,456
4734	14,42
4735	14,42
4736	14,456
4737	17,776
4738	17,712
4739	17,712
4740	17,776
4741	18,941
4742	18,901
4743	18,901
4744	18,941
4745	20,162
4746	20,208
4747	20,208
4748	20,162
4749	19,5
4750	19,49
4751	19,49
4752	19,5
4753	18,58
4754	18,528
4755	18,528
4756	18,58
4757	17,675
4758	17,612
4759	17,612
4760	17,675
4761	15,938
4762	15,887
4763	15,887
4764	15,938
4765	15,166
4766	15,123
4767	15,123
4768	15,166
4769	14,458
4770	14,422
4771	14,422
4772	14,458
4773	13,176
4774	13,15
4775	13,15
4776	13,176
4777	12,604
4778	12,581
4779	12,581
4780	12,604
4781	8,909
4782	8,8936
4783	8,8936
4784	8,909
4785	9,0978
4786	9,0812
4787	9,0812
4788	9,0978
4789	9,3451
4790	9,3269
4791	9,3269
4792	9,3451
4793	9,6498
4794	9,6297
4795	9,6297
4796	9,6498
4797	10,011
4798	9,9882
4799	9,9882
4800	10,011
4801	10,43
4802	10,405
4803	10,405
4804	10,43
4805	11,453
4806	11,419
4807	11,419
4808	11,453
4809	12,117
4810	12,077
4811	12,077
4812	12,117
4813	12,879
4814	12,833
4815	12,833
4816	12,879
4817	13,729
4818	13,683
4819	13,683
4820	13,729
4821	14,056
4822	14,009
4823	14,009
4824	14,056
4825	14,187
4826	14,14
4827	14,14
4828	14,187
4829	14,863
4830	14,871
4831	14,871
4832	14,863
4833	11,898
4834	11,86
4835	11,86
4836	11,898
4837	11,428
4838	11,394
4839	11,394
4840	11,428
4841	10,947
4842	10,917
4843	10,917
4844	10,947
4845	10,479
4846	10,453
4847	10,453
4848	10,479
4849	10,048
4850	10,025
4851	10,025
4852	10,048
4853	9,6664
4854	9,646
4855	9,646
4856	9,6664
4857	9,337
4858	9,3187
4859	9,3187
4860	9,337
4861	9,0611
4862	9,0446
4863	9,0446
4864	9,0611
4865	8,8396
4866	8,8244
4867	8,8244
4868	8,8396
4869	8,6724
4870	8,6584
4871	8,6584
4872	8,6724
4873	11,557
4874	11,543
4875	11,543
4876	11,557
4877	11,944
4878	11,929
4879	11,929
4880	11,944
4881	12,341
4882	12,326
4883	12,326
4884	12,341
4885	13,187
4886	13,17
4887	13,17
4888	13,187
4889	13,605
4890	13,588
4891	13,588
4892	13,605
4893	14,005
4894	13,989
4895	13,989
4896	14,005
4897	14,425
4898	14,409
4899	14,409
4900	14,425
4901	14,849
4902	14,835
4903	14,835
4904	14,849
4905	15,166
4906	15,155
4907	15,155
4908	15,166
4909	13,063
4910	13,015
4911	13,015
4912	13,063
4913	12,695
4914	12,651
4915	12,651
4916	12,695
4917	14,426
4918	14,386
4919	14,386
4920	14,426
4921	14,907
4922	14,916
4923	14,916
4924	14,907
4925	12,207
4926	12,165
4927	12,165
4928	12,207
4929	11,669
4930	11,633
4931	11,633
4932	11,669
4933	11,129
4934	11,097
4935	11,097
4936	11,129
4937	10,636
4938	10,607
4939	10,607
4940	10,636
4941	9,1954
4942	9,177
4943	9,177
4944	9,1954
4945	8,9766
4946	8,9597
4947	8,9597
4948	8,9766
4949	8,8125
4950	8,7969
4951	8,7969
4952	8,8125
4953	8,7019
4954	8,6873
4955	8,6873
4956	8,7019
4957	8,6427
4958	8,6289
4959	8,6289
4960	8,6427
4961	8,6327
4962	8,6196
4963	8,6196
4964	8,6327
4965	8,669
4966	8,6564
4967	8,6564
4968	8,669
4969	8,7486
4970	8,7363
4971	8,7363
4972	8,7486
4973	8,8682
4974	8,8561
4975	8,8561
4976	8,8682
4977	9,0244
4978	9,0125
4979	9,0125
4980	9,0244
4981	9,214
4982	9,2022
4983	9,2022
4984	9,214
4985	9,4341
4986	9,4222
4987	9,4222
4988	9,4341
4989	9,6817
4990	9,6697
4991	9,6697
4992	9,6817
4993	9,9544
4994	9,9423
4995	9,9423
4996	9,9544
4997	10,25
4998	10,238
4999	10,238
5000	10,25
5001	10,567
5002	10,555
5003	10,555
5004	10,567
5005	10,904
5006	10,891
5007	10,891
5008	10,904
5009	11,26
5010	11,246
5011	11,246
5012	11,26
5013	11,633
5014	11,619
5015	11,619
5016	11,633
5017	12,024
5018	12,008
5019	12,008
5020	12,024
5021	12,43
5022	12,413
5023	12,413
5024	12,43
5025	12,853
5026	12,836
5027	12,836
5028	12,853
5029	13,289
5030	13,272
5031	13,272
5032	13,289
5033	13,726
5034	13,708
5035	13,708
5036	13,726
5037	14,158
5038	14,139
5039	14,139
5040	14,158
5041	14,584
5042	14,566
5043	14,566
5044	14,584
5045	14,997
5046	14,98
5047	14,98
5048	14,997
5049	15,33
5050	15,316
5051	15,316
5052	15,33
5053	15,697
5054	15,686
5055	15,686
5056	15,697
5057	14,263
5058	14,222
5059	14,222
5060	14,263
5061	13,415
5062	13,367
5063	13,367
5064	13,415
5065	13,646
5066	13,597
5067	13,597
5068	13,646
5069	14,312
5070	14,269
5071	14,269
5072	14,312
5073	14,071
5074	14,025
5075	14,025
5076	14,071
5077	22,458
5078	22,91
5079	22,91
5080	22,458
5081	21,16
5082	21,362
5083	21,362
5084	21,16
5085	19,981
5086	20,026
5087	20,026
5088	19,981
5089	18,818
5090	18,785
5091	18,785
5092	18,818
5093	17,793
5094	17,735
5095	17,735
5096	17,793
5097	16,842
5098	16,783
5099	16,783
5100	16,842
5101	15,959
5102	15,907
5103	15,907
5104	15,959
5105	15,159
5106	15,116
5107	15,116
5108	15,159
5109	14,43
5110	14,395
5111	14,395
5112	14,43
5113	13,143
5114	13,117
5115	13,117
5116	13,143
5117	12,576
5118	12,554
5119	12,554
5120	12,576
5121	12,054
5122	12,034
5123	12,034
5124	12,054
5125	11,574
5126	11,555
5127	11,555
5128	11,574
5129	11,131
5130	11,114
5131	11,114
5132	11,131
5133	10,725
5134	10,709
5135	10,709
5136	10,725
5137	10,355
5138	10,341
5139	10,341
5140	10,355
5141	10,022
5142	10,008
5143	10,008
5144	10,022
5145	9,7249
5146	9,7111
5147	9,7111
5148	9,7249
5149	9,4661
5150	9,4526
5151	9,4526
5152	9,4661
5153	9,2471
5154	9,2338
5155	9,2338
5156	9,2471
5157	9,0704
5158	9,057
5159	9,057
5160	9,0704
5161	8,9383
5162	8,9248
5163	8,9248
5164	8,9383
5165	8,8537
5166	8,8399
5167	8,8399
5168	8,8537
5169	8,8192
5170	8,8048
5171	8,8048
5172	8,8192
5173	8,8373
5174	8,8223
5175	8,8223
5176	8,8373
5177	8,9104
5178	8,8945
5179	8,8945
5180	8,9104
5181	9,0402
5182	9,0232
5183	9,0232
5184	9,0402
5185	9,4753
5186	9,4552
5187	9,4552
5188	9,4753
5189	9,7818
5190	9,7597
5191	9,7597
5192	9,7818
5193	10,148
5194	10,123
5195	10,123
5196	10,148
5197	10,575
5198	10,548
5199	10,548
5200	10,575
5201	23,118
5202	23,773
5203	23,773
5204	23,118
5205	20,367
5206	20,453
5207	20,453
5208	20,367
5209	19,018
5210	18,993
5211	18,993
5212	19,018
5213	17,86
5214	17,801
5215	17,801
5216	17,86
5217	15,164
5218	15,121
5219	15,121
5220	15,164
5221	14,429
5222	14,393
5223	14,393
5224	14,429
5225	13,757
5226	13,727
5227	13,727
5228	13,757
5229	13,141
5230	13,115
5231	13,115
5232	13,141
5233	12,574
5234	12,552
5235	12,552
5236	12,574
5237	12,053
5238	12,032
5239	12,032
5240	12,053
5241	11,572
5242	11,553
5243	11,553
5244	11,572
5245	11,129
5246	11,112
5247	11,112
5248	11,129
5249	10,723
5250	10,708
5251	10,708
5252	10,723
5253	10,354
5254	10,339
5255	10,339
5256	10,354
5257	10,02
5258	10,006
5259	10,006
5260	10,02
5261	9,7235
5262	9,7097
5263	9,7097
5264	9,7235
5265	9,4648
5266	9,4513
5267	9,4513
5268	9,4648
5269	9,2461
5270	9,2327
5271	9,2327
5272	9,2461
5273	9,0695
5274	9,0562
5275	9,0562
5276	9,0695
5277	8,9377
5278	8,9242
5279	8,9242
5280	8,9377
5281	8,8533
5282	8,8395
5283	8,8395
5284	8,8533
5285	8,8191
5286	8,8048
5287	8,8048
5288	8,8191
5289	8,8376
5290	8,8226
5291	8,8226
5292	8,8376
5293	8,9111
5294	8,8952
5295	8,8952
5296	8,9111
5297	9,0413
5298	9,0243
5299	9,0243
5300	9,0413
5301	9,2297
5302	9,2114
5303	9,2114
5304	9,2297
5305	9,7843
5306	9,7622
5307	9,7622
5308	9,7843
5309	10,584
5310	10,556
5311	10,556
5312	10,584
5313	11,082
5314	11,051
5315	11,051
5316	11,082
5317	11,655
5318	11,619
5319	11,619
5320	11,655
5321	13,119
5322	13,073
5323	13,073
5324	13,119
5325	15,301
5326	15,318
5327	15,318
5328	15,301
5329	14,675
5330	14,647
5331	14,647
5332	14,675
5333	13,077
5334	13,031
5335	13,031
5336	13,077
5337	13,655
5338	13,61
5339	13,61
5340	13,655
5341	14,372
5342	14,333
5343	14,333
5344	14,372
5345	15,459
5346	15,449
5347	15,449
5348	15,459
5349	15,213
5350	15,2
5351	15,2
5352	15,213
5353	14,457
5354	14,439
5355	14,439
5356	14,457
5357	14,052
5358	14,034
5359	14,034
5360	14,052
5361	13,611
5362	13,593
5363	13,593
5364	13,611
5365	13,168
5366	13,15
5367	13,15
5368	13,168
5369	12,732
5370	12,715
5371	12,715
5372	12,732
5373	11,506
5374	11,492
5375	11,492
5376	11,506
5377	11,131
5378	11,118
5379	11,118
5380	11,131
5381	10,775
5382	10,762
5383	10,762
5384	10,775
5385	10,439
5386	10,427
5387	10,427
5388	10,439
5389	10,125
5390	10,112
5391	10,112
5392	10,125
5393	9,8328
5394	9,8207
5395	9,8207
5396	9,8328
5397	9,5657
5398	9,5538
5399	9,5538
5400	9,5657
5401	9,326
5402	9,3142
5403	9,3142
5404	9,326
5405	9,1163
5406	9,1044
5407	9,1044
5408	9,1163
5409	8,9396
5410	8,9277
5411	8,9277
5412	8,9396
5413	8,7995
5414	8,7874
5415	8,7874
5416	8,7995
5417	8,6994
5418	8,6869
5419	8,6869
5420	8,6994
5421	8,6427
5422	8,6298
5423	8,6298
5424	8,6427
5425	8,6329
5426	8,6194
5427	8,6194
5428	8,6329
5429	8,673
5430	8,6587
5431	8,6587
5432	8,673
5433	8,7658
5434	8,7506
5435	8,7506
5436	8,7658
5437	8,9135
5438	8,8971
5439	8,8971
5440	8,9135
5441	9,1177
5442	9,0998
5443	9,0998
5444	9,1177
5445	9,3797
5446	9,36
5447	9,36
5448	9,3797
5449	9,7043
5450	9,6825
5451	9,6825
5452	9,7043
5453	10,093
5454	10,068
5455	10,068
5456	10,093
5457	10,549
5458	10,521
5459	10,521
5460	10,549
5461	11,086
5462	11,054
5463	11,054
5464	11,086
5465	12,319
5466	12,278
5467	12,278
5468	12,319
5469	14,034
5470	13,988
5471	13,988
5472	14,034
5473	13,567
5474	13,521
5475	13,521
5476	13,567
5477	12,086
5478	12,046
5479	12,046
5480	12,086
5481	14,728
5482	14,709
5483	14,709
5484	14,728
5485	15,752
5486	15,743
5487	15,743
5488	15,752
5489	15,799
5490	15,791
5491	15,791
5492	15,799
5493	15,989
5494	15,967
5495	15,967
5496	15,989
5497	16,357
5498	16,354
5499	16,354
5500	16,357
5501	15,553
5502	15,575
5503	15,575
5504	15,553
5505	16,156
5506	16,131
5507	16,131
5508	16,156
5509	25,308
5510	25,341
5511	25,341
5512	25,308
5513	11,798
5514	11,76
5515	11,76
5516	11,798
5517	11,185
5518	11,152
5519	11,152
5520	11,185
5521	10,671
5522	10,642
5523	10,642
5524	10,671
5525	9,8673
5526	9,8434
5527	9,8434
5528	9,8673
5529	13,619
5530	13,59
5531	13,59
5532	13,619
5533	14,281
5534	14,247
5535	14,247
5536	14,281
5537	15,012
5538	14,971
5539	14,971
5540	15,012
5541	15,823
5542	15,774
5543	15,774
5544	15,823
5545	16,734
5546	16,678
5547	16,678
5548	16,734
5549	17,753
5550	17,706
5551	17,706
5552	17,753
5553	18,928
5554	18,925
5555	18,925
5556	18,928
5557	20,291
5558	20,431
5559	20,431
5560	20,291
5561	26,193
5562	26,061
5563	26,061
5564	26,193
5565	23,6
5566	24,536
5567	24,536
5568	23,6
5569	11,138
5570	11,105
5571	11,105
5572	11,138
5573	10,661
5574	10,631
5575	10,631
5576	10,661
5577	10,234
5578	10,208
5579	10,208
5580	10,234
5581	9,8648
5582	9,8409
5583	9,8409
5584	9,8648
5585	9,5574
5586	9,5357
5587	9,5357
5588	9,5574
5589	13,018
5590	12,992
5591	12,992
5592	13,018
5593	13,621
5594	13,592
5595	13,592
5596	13,621
5597	14,283
5598	14,248
5599	14,248
5600	14,283
5601	15,014
5602	14,972
5603	14,972
5604	15,014
5605	17,714
5606	17,666
5607	17,666
5608	17,714
5609	18,824
5610	18,818
5611	18,818
5612	18,824
5613	20,014
5614	20,115
5615	20,115
5616	20,014
5617	21,279
5618	21,577
5619	21,577
5620	21,279
5621	22,657
5622	23,229
5623	23,229
5624	22,657
5625	14,74
5626	14,716
5627	14,716
5628	14,74
5629	14,504
5630	14,47
5631	14,47
5632	14,504
5633	14,324
5634	14,296
5635	14,296
5636	14,324
5637	14,149
5638	14,111
5639	14,111
5640	14,149
5641	12,915
5642	12,87
5643	12,87
5644	12,915
5645	12,332
5646	12,292
5647	12,292
5648	12,332
5649	11,675
5650	11,638
5651	11,638
5652	11,675
5653	11,131
5654	11,098
5655	11,098
5656	11,131
5657	10,633
5658	10,603
5659	10,603
5660	10,633
5661	10,179
5662	10,152
5663	10,152
5664	10,179
5665	9,7898
5666	9,7662
5667	9,7662
5668	9,7898
5669	11,933
5670	11,917
5671	11,917
5672	11,933
5673	12,35
5674	12,334
5675	12,334
5676	12,35
5677	12,789
5678	12,771
5679	12,771
5680	12,789
5681	13,247
5682	13,228
5683	13,228
5684	13,247
5685	13,721
5686	13,701
5687	13,701
5688	13,721
5689	14,201
5690	14,18
5691	14,18
5692	14,201
5693	14,678
5694	14,656
5695	14,656
5696	14,678
5697	15,139
5698	15,116
5699	15,116
5700	15,139
5701	15,541
5702	15,519
5703	15,519
5704	15,541
5705	15,944
5706	15,923
5707	15,923
5708	15,944
5709	16,
5710	15,976
5711	15,976
5712	16,
5713	14,508
5714	14,477
5715	14,477
5716	14,508
5717	12,175
5718	12,134
5719	12,134
5720	12,175
5721	11,637
5722	11,6
5723	11,6
5724	11,637
5725	16,015
5726	15,989
5727	15,989
5728	16,015
5729	15,864
5730	15,839
5731	15,839
5732	15,864
5733	15,601
5734	15,577
5735	15,577
5736	15,601
5737	15,22
5738	15,197
5739	15,197
5740	15,22
5741	14,778
5742	14,756
5743	14,756
5744	14,778
5745	14,307
5746	14,286
5747	14,286
5748	14,307
5749	13,833
5750	13,812
5751	13,812
5752	13,833
5753	13,365
5754	13,346
5755	13,346
5756	13,365
5757	12,912
5758	12,894
5759	12,894
5760	12,912
5761	12,476
5762	12,459
5763	12,459
5764	12,476
5765	12,06
5766	12,044
5767	12,044
5768	12,06
5769	9,2884
5770	9,2683
5771	9,2683
5772	9,2884
5773	9,5605
5774	9,5385
5775	9,5385
5776	9,5605
5777	9,8909
5778	9,8666
5779	9,8666
5780	9,8909
5781	10,281
5782	10,254
5783	10,254
5784	10,281
5785	10,732
5786	10,702
5787	10,702
5788	10,732
5789	11,256
5790	11,222
5791	11,222
5792	11,256
5793	13,507
5794	13,464
5795	13,464
5796	13,507
5797	12,612
5798	12,569
5799	12,569
5800	12,612
5801	15,465
5802	15,589
5803	15,589
5804	15,465
5805	24,765
5806	24,833
5807	24,833
5808	24,765
5809	15,051
5810	15,062
5811	15,062
5812	15,051
5813	13,448
5814	13,408
5815	13,408
5816	13,448
5817	13,509
5818	13,466
5819	13,466
5820	13,509
5821	16,46
5822	16,415
5823	16,415
5824	16,46
5825	15,379
5826	15,377
5827	15,377
5828	15,379
5829	13,99
5830	13,951
5831	13,951
5832	13,99
5833	13,559
5834	13,516
5835	13,516
5836	13,559
5837	14,579
5838	14,551
5839	14,551
5840	14,579
5841	15,297
5842	15,295
5843	15,295
5844	15,297
5845	12,872
5846	12,835
5847	12,835
5848	12,872
5849	16,704
5850	16,646
5851	16,646
5852	16,704
5853	16,394
5854	16,347
5855	16,347
5856	16,394
5857	15,946
5858	15,907
5859	15,907
5860	15,946
5861	15,423
5862	15,39
5863	15,39
5864	15,423
5865	14,871
5866	14,842
5867	14,842
5868	14,871
5869	14,321
5870	14,296
5871	14,296
5872	14,321
5873	13,787
5874	13,765
5875	13,765
5876	13,787
5877	13,278
5878	13,258
5879	13,258
5880	13,278
5881	12,797
5882	12,778
5883	12,778
5884	12,797
5885	12,343
5886	12,326
5887	12,326
5888	12,343
5889	11,917
5890	11,902
5891	11,902
5892	11,917
5893	11,518
5894	11,503
5895	11,503
5896	11,518
5897	11,144
5898	11,13
5899	11,13
5900	11,144
5901	10,795
5902	10,781
5903	10,781
5904	10,795
5905	10,47
5906	10,457
5907	10,457
5908	10,47
5909	10,17
5910	10,157
5911	10,157
5912	10,17
5913	9,8944
5914	9,8815
5915	9,8815
5916	9,8944
5917	9,6448
5918	9,6319
5919	9,6319
5920	9,6448
5921	9,4225
5922	9,4095
5923	9,4095
5924	9,4225
5925	9,2293
5926	9,2161
5927	9,2161
5928	9,2293
5929	9,0676
5930	9,054
5931	9,054
5932	9,0676
5933	8,9398
5934	8,9258
5935	8,9258
5936	8,9398
5937	8,8489
5938	8,8344
5939	8,8344
5940	8,8489
5941	8,798
5942	8,7828
5943	8,7828
5944	8,798
5945	8,7902
5946	8,7742
5947	8,7742
5948	8,7902
5949	8,8287
5950	8,8118
5951	8,8118
5952	8,8287
5953	8,9167
5954	8,8986
5955	8,8986
5956	8,9167
5957	9,0573
5958	9,0378
5959	9,0378
5960	9,0573
5961	9,2533
5962	9,2322
5963	9,2322
5964	9,2533
5965	9,5077
5966	9,4848
5967	9,4848
5968	9,5077
5969	9,8234
5970	9,7983
5971	9,7983
5972	9,8234
5973	10,204
5974	10,176
5975	10,176
5976	10,204
5977	10,643
5978	10,612
5979	10,612
5980	10,643
5981	11,138
5982	11,104
5983	11,104
5984	11,138
5985	11,688
5986	11,651
5987	11,651
5988	11,688
5989	15,077
5990	15,066
5991	15,066
5992	15,077
5993	15,2
5994	15,211
5995	15,211
5996	15,2
5997	15,167
5998	15,158
5999	15,158
6000	15,167
6001	16,277
6002	16,312
6003	16,312
6004	16,277
6005	16,596
6006	16,541
6007	16,541
6008	16,596
6009	22,612
6010	23,286
6011	23,286
6012	22,612
6013	21,125
6014	21,529
6015	21,529
6016	21,125
6017	19,706
6018	19,868
6019	19,868
6020	19,706
6021	18,477
6022	18,5
6023	18,5
6024	18,477
6025	17,368
6026	17,334
6027	17,334
6028	17,368
6029	14,717
6030	14,678
6031	14,678
6032	14,717
6033	14,013
6034	13,98
6035	13,98
6036	14,013
6037	13,376
6038	13,348
6039	13,348
6040	13,376
6041	12,797
6042	12,773
6043	12,773
6044	12,797
6045	12,269
6046	12,248
6047	12,248
6048	12,269
6049	11,787
6050	11,768
6051	11,768
6052	11,787
6053	11,346
6054	11,328
6055	11,328
6056	11,346
6057	10,943
6058	10,926
6059	10,926
6060	10,943
6061	10,576
6062	10,561
6063	10,561
6064	10,576
6065	10,245
6066	10,23
6067	10,23
6068	10,245
6069	9,9487
6070	9,9342
6071	9,9342
6072	9,9487
6073	9,6869
6074	9,6726
6075	9,6726
6076	9,6869
6077	9,4606
6078	9,4464
6079	9,4464
6080	9,4606
6081	9,271
6082	9,2566
6083	9,2566
6084	9,271
6085	9,1197
6086	9,1051
6087	9,1051
6088	9,1197
6089	9,0088
6090	8,9938
6091	8,9938
6092	9,0088
6093	8,9407
6094	8,9251
6095	8,9251
6096	8,9407
6097	8,9179
6098	8,9016
6099	8,9016
6100	8,9179
6101	8,9432
6102	8,926
6103	8,926
6104	8,9432
6105	9,0193
6106	9,001
6107	9,001
6108	9,0193
6109	9,149
6110	9,1293
6111	9,1293
6112	9,149
6113	9,3349
6114	9,3136
6115	9,3136
6116	9,3349
6117	9,5797
6118	9,5567
6119	9,5567
6120	9,5797
6121	9,8863
6122	9,8611
6123	9,8611
6124	9,8863
6125	12,535
6126	12,494
6127	12,494
6128	12,535
6129	16,39
6130	16,342
6131	16,342
6132	16,39
6133	15,998
6134	15,958
6135	15,958
6136	15,998
6137	15,517
6138	15,483
6139	15,483
6140	15,517
6141	14,979
6142	14,949
6143	14,949
6144	14,979
6145	14,437
6146	14,411
6147	14,411
6148	14,437
6149	13,91
6150	13,887
6151	13,887
6152	13,91
6153	13,404
6154	13,384
6155	13,384
6156	13,404
6157	12,472
6158	12,455
6159	12,455
6160	12,472
6161	12,047
6162	12,031
6163	12,031
6164	12,047
6165	11,647
6166	11,632
6167	11,632
6168	11,647
6169	11,272
6170	11,257
6171	11,257
6172	11,272
6173	10,921
6174	10,907
6175	10,907
6176	10,921
6177	10,593
6178	10,58
6179	10,58
6180	10,593
6181	10,289
6182	10,276
6183	10,276
6184	10,289
6185	10,009
6186	9,996
6187	9,996
6188	10,009
6189	9,753
6190	9,74
6191	9,74
6192	9,753
6193	9,5225
6194	9,5095
6195	9,5095
6196	9,5225
6197	9,3193
6198	9,3061
6199	9,3061
6200	9,3193
6201	9,1451
6202	9,1317
6203	9,1317
6204	9,1451
6205	9,0023
6206	8,9886
6207	8,9886
6208	9,0023
6209	8,8936
6210	8,8793
6211	8,8793
6212	8,8936
6213	8,8216
6214	8,8068
6215	8,8068
6216	8,8216
6217	8,7893
6218	8,7738
6219	8,7738
6220	8,7893
6221	8,7998
6222	8,7835
6223	8,7835
6224	8,7998
6225	8,8561
6226	8,8387
6227	8,8387
6228	8,8561
6229	8,9611
6230	8,9425
6231	8,9425
6232	8,9611
6233	9,1176
6234	9,0976
6235	9,0976
6236	9,1176
6237	9,3284
6238	9,3067
6239	9,3067
6240	9,3284
6241	9,5963
6242	9,5727
6243	9,5727
6244	9,5963
6245	9,9239
6246	9,898
6247	9,898
6248	9,9239
6249	10,314
6250	10,286
6251	10,286
6252	10,314
6253	10,771
6254	10,739
6255	10,739
6256	10,771
6257	11,309
6258	11,274
6259	11,274
6260	11,309
6261	11,934
6262	11,896
6263	11,896
6264	11,934
6265	12,65
6266	12,61
6267	12,61
6268	12,65
6269	14,455
6270	14,428
6271	14,428
6272	14,455
6273	15,584
6274	15,589
6275	15,589
6276	15,584
6277	13,5
6278	13,465
6279	13,465
6280	13,5
6281	13,36
6282	13,322
6283	13,322
6284	13,36
6285	12,635
6286	12,599
6287	12,599
6288	12,635
6289	23,661
6290	24,251
6291	24,251
6292	23,661
6293	14,352
6294	14,325
6295	14,325
6296	14,352
6297	24,742
6298	24,335
6299	24,335
6300	24,742
6301	23,278
6302	24,226
6303	24,226
6304	23,278
6305	21,511
6306	21,961
6307	21,961
6308	21,511
6309	19,883
6310	20,075
6311	20,075
6312	19,883
6313	15,5
6314	15,455
6315	15,455
6316	15,5
6317	14,715
6318	14,676
6319	14,676
6320	14,715
6321	14,011
6322	13,978
6323	13,978
6324	14,011
6325	13,374
6326	13,347
6327	13,347
6328	13,374
6329	12,795
6330	12,772
6331	12,772
6332	12,795
6333	12,268
6334	12,247
6335	12,247
6336	12,268
6337	11,785
6338	11,766
6339	11,766
6340	11,785
6341	11,344
6342	11,326
6343	11,326
6344	11,344
6345	10,941
6346	10,925
6347	10,925
6348	10,941
6349	10,575
6350	10,559
6351	10,559
6352	10,575
6353	10,244
6354	10,229
6355	10,229
6356	10,244
6357	9,9473
6358	9,9329
6359	9,9329
6360	9,9473
6361	9,6857
6362	9,6714
6363	9,6714
6364	9,6857
6365	9,4595
6366	9,4453
6367	9,4453
6368	9,4595
6369	9,27
6370	9,2557
6371	9,2557
6372	9,27
6373	9,1189
6374	9,1043
6375	9,1043
6376	9,1189
6377	9,0083
6378	8,9933
6379	8,9933
6380	9,0083
6381	8,9404
6382	8,9248
6383	8,9248
6384	8,9404
6385	8,9179
6386	8,9016
6387	8,9016
6388	8,9179
6389	8,9435
6390	8,9263
6391	8,9263
6392	8,9435
6393	9,02
6394	9,0016
6395	9,0016
6396	9,02
6397	9,15
6398	9,1304
6399	9,1304
6400	9,15
6401	9,3364
6402	9,3151
6403	9,3151
6404	9,3364
6405	9,5817
6406	9,5586
6407	9,5586
6408	9,5817
6409	9,8888
6410	9,8635
6411	9,8635
6412	9,8888
6413	10,261
6414	10,233
6415	10,233
6416	10,261
6417	10,7
6418	10,669
6419	10,669
6420	10,7
6421	11,848
6422	11,81
6423	11,81
6424	11,848
6425	12,57
6426	12,529
6427	12,529
6428	12,57
6429	13,32
6430	13,275
6431	13,275
6432	13,32
6433	16,541
6434	16,589
6435	16,589
6436	16,541
6437	23,848
6438	23,762
6439	23,762
6440	23,848
6441	24,881
6442	22,827
6443	22,827
6444	24,881
6445	16,732
6446	16,778
6447	16,778
6448	16,732
6449	16,317
6450	16,348
6451	16,348
6452	16,317
6453	22,126
6454	22,832
6455	22,832
6456	22,126
6457	20,506
6458	21,
6459	21,
6460	20,506
6461	19,031
6462	19,237
6463	19,237
6464	19,031
6465	16,757
6466	16,737
6467	16,737
6468	16,757
6469	15,829
6470	15,789
6471	15,789
6472	15,829
6473	15,01
6474	14,971
6475	14,971
6476	15,01
6477	14,28
6478	14,245
6479	14,245
6480	14,28
6481	13,622
6482	13,593
6483	13,593
6484	13,622
6485	13,026
6486	13,001
6487	13,001
6488	13,026
6489	12,483
6490	12,461
6491	12,461
6492	12,483
6493	11,987
6494	11,968
6495	11,968
6496	11,987
6497	11,534
6498	11,516
6499	11,516
6500	11,534
6501	11,12
6502	11,103
6503	11,103
6504	11,12
6505	10,742
6506	10,727
6507	10,727
6508	10,742
6509	10,4
6510	10,385
6511	10,385
6512	10,4
6513	10,09
6514	10,076
6515	10,076
6516	10,09
6517	9,8144
6518	9,8002
6519	9,8002
6520	9,8144
6521	9,5713
6522	9,5572
6523	9,5572
6524	9,5713
6525	9,362
6526	9,3477
6527	9,3477
6528	9,362
6529	9,1873
6530	9,1728
6531	9,1728
6532	9,1873
6533	9,0488
6534	9,034
6535	9,034
6536	9,0488
6537	8,9485
6538	8,9331
6539	8,9331
6540	8,9485
6541	8,8886
6542	8,8724
6543	8,8724
6544	8,8886
6545	8,8715
6546	8,8545
6547	8,8545
6548	8,8715
6549	8,9001
6550	8,8821
6551	8,8821
6552	8,9001
6553	8,9772
6554	8,958
6555	8,958
6556	8,9772
6557	9,1059
6558	9,0853
6559	9,0853
6560	9,1059
6561	9,2894
6562	9,2672
6563	9,2672
6564	9,2894
6565	9,5311
6566	9,507
6567	9,507
6568	9,5311
6569	9,8348
6570	9,8085
6571	9,8085
6572	9,8348
6573	10,205
6574	10,176
6575	10,176
6576	10,205
6577	10,64
6578	10,608
6579	10,608
6580	10,64
6581	11,156
6582	11,122
6583	11,122
6584	11,156
6585	12,409
6586	12,371
6587	12,371
6588	12,409
6589	11,776
6590	11,739
6591	11,739
6592	11,776
6593	16,915
6594	16,961
6595	16,961
6596	16,915
6597	12,216
6598	12,179
6599	12,179
6600	12,216
6601	10,6
6602	10,569
6603	10,569
6604	10,6
6605	10,165
6606	10,136
6607	10,136
6608	10,165
6609	9,7886
6610	9,7622
6611	9,7622
6612	9,7886
6613	9,4789
6614	9,4547
6615	9,4547
6616	9,4789
6617	9,2311
6618	9,2087
6619	9,2087
6620	9,2311
6621	9,0412
6622	9,0205
6623	9,0205
6624	9,0412
6625	8,9058
6626	8,8865
6627	8,8865
6628	8,9058
6629	8,8214
6630	8,8034
6631	8,8034
6632	8,8214
6633	8,7847
6634	8,7677
6635	8,7677
6636	8,7847
6637	8,7924
6638	8,7764
6639	8,7764
6640	8,7924
6641	8,8415
6642	8,8262
6643	8,8262
6644	8,8415
6645	8,9287
6646	8,9141
6647	8,9141
6648	8,9287
6649	9,0514
6650	9,0372
6651	9,0372
6652	9,0514
6653	9,2068
6654	9,1931
6655	9,1931
6656	9,2068
6657	9,3928
6658	9,3794
6659	9,3794
6660	9,3928
6661	9,6074
6662	9,5941
6663	9,5941
6664	9,6074
6665	9,849
6666	9,8359
6667	9,8359
6668	9,849
6669	10,117
6670	10,104
6671	10,104
6672	10,117
6673	10,41
6674	10,397
6675	10,397
6676	10,41
6677	10,728
6678	10,715
6679	10,715
6680	10,728
6681	11,073
6682	11,059
6683	11,059
6684	11,073
6685	11,445
6686	11,43
6687	11,43
6688	11,445
6689	11,846
6690	11,83
6691	11,83
6692	11,846
6693	12,278
6694	12,261
6695	12,261
6696	12,278
6697	12,745
6698	12,726
6699	12,726
6700	12,745
6701	13,249
6702	13,228
6703	13,228
6704	13,249
6705	13,794
6706	13,769
6707	13,769
6708	13,794
6709	14,381
6710	14,352
6711	14,352
6712	14,381
6713	15,011
6714	14,976
6715	14,976
6716	15,011
6717	15,68
6718	15,636
6719	15,636
6720	15,68
6721	16,376
6722	16,318
6723	16,318
6724	16,376
6725	17,084
6726	17,006
6727	17,006
6728	17,084
6729	17,748
6730	17,645
6731	17,645
6732	17,748
6733	17,993
6734	17,89
6735	17,89
6736	17,993
6737	14,299
6738	14,277
6739	14,277
6740	14,299
6741	12,651
6742	12,614
6743	12,614
6744	12,651
6745	11,904
6746	11,867
6747	11,867
6748	11,904
6749	11,275
6750	11,24
6751	11,24
6752	11,275
6753	10,733
6754	10,701
6755	10,701
6756	10,733
6757	10,275
6758	10,245
6759	10,245
6760	10,275
6761	9,8877
6762	9,8606
6763	9,8606
6764	9,8877
6765	9,5655
6766	9,5407
6767	9,5407
6768	9,5655
6769	9,3041
6770	9,2811
6771	9,2811
6772	9,3041
6773	9,0995
6774	9,0783
6775	9,0783
6776	9,0995
6777	8,9484
6778	8,9287
6779	8,9287
6780	8,9484
6781	8,8476
6782	8,8291
6783	8,8291
6784	8,8476
6785	8,7938
6786	8,7765
6787	8,7765
6788	8,7938
6789	8,784
6790	8,7676
6791	8,7676
6792	8,784
6793	8,8151
6794	8,7995
6795	8,7995
6796	8,8151
6797	8,8843
6798	8,8694
6799	8,8694
6800	8,8843
6801	8,9887
6802	8,9744
6803	8,9744
6804	8,9887
6805	9,1259
6806	9,1119
6807	9,1119
6808	9,1259
6809	9,2934
6810	9,2798
6811	9,2798
6812	9,2934
6813	9,4893
6814	9,4759
6815	9,4759
6816	9,4893
6817	9,7119
6818	9,6988
6819	9,6988
6820	9,7119
6821	9,9601
6822	9,947
6823	9,947
6824	9,9601
6825	10,233
6826	10,22
6827	10,22
6828	10,233
6829	10,53
6830	10,517
6831	10,517
6832	10,53
6833	10,852
6834	10,839
6835	10,839
6836	10,852
6837	11,2
6838	11,186
6839	11,186
6840	11,2
6841	11,574
6842	11,559
6843	11,559
6844	11,574
6845	11,977
6846	11,961
6847	11,961
6848	11,977
6849	12,41
6850	12,393
6851	12,393
6852	12,41
6853	12,878
6854	12,859
6855	12,859
6856	12,878
6857	13,383
6858	13,361
6859	13,361
6860	13,383
6861	13,927
6862	13,901
6863	13,901
6864	13,927
6865	14,512
6866	14,482
6867	14,482
6868	14,512
6869	16,457
6870	16,397
6871	16,397
6872	16,457
6873	14,6
6874	14,584
6875	14,584
6876	14,6
6877	15,525
6878	15,536
6879	15,536
6880	15,525
6881	12,98
6882	12,95
6883	12,95
6884	12,98
6885	23,242
6886	22,102
6887	22,102
6888	23,242
6889	22,2
6890	22,851
6891	22,851
6892	22,2
6893	19,062
6894	19,269
6895	19,269
6896	19,062
6897	17,82
6898	17,87
6899	17,87
6900	17,82
6901	16,755
6902	16,735
6903	16,735
6904	16,755
6905	15,827
6906	15,788
6907	15,788
6908	15,827
6909	15,009
6910	14,969
6911	14,969
6912	15,009
6913	14,278
6914	14,244
6915	14,244
6916	14,278
6917	13,621
6918	13,591
6919	13,591
6920	13,621
6921	13,024
6922	12,999
6923	12,999
6924	13,024
6925	12,481
6926	12,459
6927	12,459
6928	12,481
6929	11,986
6930	11,966
6931	11,966
6932	11,986
6933	11,532
6934	11,515
6935	11,515
6936	11,532
6937	11,118
6938	11,102
6939	11,102
6940	11,118
6941	10,741
6942	10,725
6943	10,725
6944	10,741
6945	10,398
6946	10,383
6947	10,383
6948	10,398
6949	10,089
6950	10,075
6951	10,075
6952	10,089
6953	9,8131
6954	9,7989
6955	9,7989
6956	9,8131
6957	9,5702
6958	9,5561
6959	9,5561
6960	9,5702
6961	9,361
6962	9,3467
6963	9,3467
6964	9,361
6965	9,1864
6966	9,1719
6967	9,1719
6968	9,1864
6969	9,0482
6970	9,0333
6971	9,0333
6972	9,0482
6973	8,948
6974	8,9326
6975	8,9326
6976	8,948
6977	8,8883
6978	8,8722
6979	8,8722
6980	8,8883
6981	8,8715
6982	8,8545
6983	8,8545
6984	8,8715
6985	8,9004
6986	8,8824
6987	8,8824
6988	8,9004
6989	8,9779
6990	8,9586
6991	8,9586
6992	8,9779
6993	9,107
6994	9,0863
6995	9,0863
6996	9,107
6997	9,2909
6998	9,2686
6999	9,2686
7000	9,2909
7001	9,5331
7002	9,5089
7003	9,5089
7004	9,5331
7005	9,8372
7006	9,8109
7007	9,8109
7008	9,8372
7009	10,208
7010	10,179
7011	10,179
7012	10,208
7013	10,65
7014	10,618
7015	10,618
7016	10,65
7017	11,181
7018	11,146
7019	11,146
7020	11,181
7021	11,805
7022	11,768
7023	11,768
7024	11,805
7025	12,546
7026	12,508
7027	12,508
7028	12,546
7029	13,428
7030	13,395
7031	13,395
7032	13,428
7033	14,554
7034	14,541
7035	14,541
7036	14,554
7037	16,199
7038	16,227
7039	16,227
7040	16,199
7041	16,128
7042	16,157
7043	16,157
7044	16,128
7045	10,505
7046	10,473
7047	10,473
7048	10,505
7049	10,065
7050	10,036
7051	10,036
7052	10,065
7053	9,6998
7054	9,6728
7055	9,6728
7056	9,6998
7057	9,4018
7058	9,3769
7059	9,3769
7060	9,4018
7061	9,1655
7062	9,1425
7063	9,1425
7064	9,1655
7065	8,9861
7066	8,9648
7067	8,9648
7068	8,9861
7069	8,8598
7070	8,84
7071	8,84
7072	8,8598
7073	8,783
7074	8,7644
7075	8,7644
7076	8,783
7077	8,7522
7078	8,7348
7079	8,7348
7080	8,7522
7081	8,7647
7082	8,7483
7083	8,7483
7084	8,7647
7085	8,8175
7086	8,8019
7087	8,8019
7088	8,8175
7089	8,9082
7090	8,8933
7091	8,8933
7092	8,9082
7093	9,0347
7094	9,0203
7095	9,0203
7096	9,0347
7097	9,195
7098	9,181
7099	9,181
7100	9,195
7101	9,3879
7102	9,3742
7103	9,3742
7104	9,3879
7105	9,6123
7106	9,5987
7107	9,5987
7108	9,6123
7109	9,8677
7110	9,854
7111	9,854
7112	9,8677
7113	10,154
7114	10,14
7115	10,14
7116	10,154
7117	10,472
7118	10,457
7119	10,457
7120	10,472
7121	10,821
7122	10,806
7123	10,806
7124	10,821
7125	11,205
7126	11,188
7127	11,188
7128	11,205
7129	11,624
7130	11,606
7131	11,606
7132	11,624
7133	12,081
7134	12,061
7135	12,061
7136	12,081
7137	12,579
7138	12,557
7139	12,557
7140	12,579
7141	13,122
7142	13,097
7143	13,097
7144	13,122
7145	13,717
7146	13,688
7147	13,688
7148	13,717
7149	14,37
7150	14,338
7151	14,338
7152	14,37
7153	15,092
7154	15,063
7155	15,063
7156	15,092
7157	15,899
7158	15,891
7159	15,891
7160	15,899
7161	16,811
7162	16,873
7163	16,873
7164	16,811
7165	17,895
7166	18,115
7167	18,115
7168	17,895
7169	19,353
7170	19,892
7171	19,892
7172	19,353
7173	21,807
7174	22,302
7175	22,302
7176	21,807
7177	12,383
7178	12,351
7179	12,351
7180	12,383
7181	11,588
7182	11,554
7183	11,554
7184	11,588
7185	10,98
7186	10,946
7187	10,946
7188	10,98
7189	10,476
7190	10,444
7191	10,444
7192	10,476
7193	10,042
7194	10,013
7195	10,013
7196	10,042
7197	9,6742
7198	9,647
7199	9,647
7200	9,6742
7201	9,3736
7202	9,3484
7203	9,3484
7204	9,3736
7205	9,1349
7206	9,1115
7207	9,1115
7208	9,1349
7209	8,9533
7210	8,9316
7211	8,9316
7212	8,9533
7213	8,8247
7214	8,8045
7215	8,8045
7216	8,8247
7217	8,7455
7218	8,7266
7219	8,7266
7220	8,7455
7221	8,7121
7222	8,6944
7223	8,6944
7224	8,7121
7225	8,7212
7226	8,7045
7227	8,7045
7228	8,7212
7229	8,7698
7230	8,7539
7231	8,7539
7232	8,7698
7233	8,8549
7234	8,8397
7235	8,8397
7236	8,8549
7237	8,9739
7238	8,9594
7239	8,9594
7240	8,9739
7241	9,1245
7242	9,1104
7243	9,1104
7244	9,1245
7245	9,3045
7246	9,2909
7247	9,2909
7248	9,3045
7249	9,5125
7250	9,4991
7251	9,4991
7252	9,5125
7253	9,7471
7254	9,7339
7255	9,7339
7256	9,7471
7257	10,008
7258	9,9945
7259	9,9945
7260	10,008
7261	10,294
7262	10,281
7263	10,281
7264	10,294
7265	10,606
7266	10,593
7267	10,593
7268	10,606
7269	10,945
7270	10,932
7271	10,932
7272	10,945
7273	11,314
7274	11,299
7275	11,299
7276	11,314
7277	11,714
7278	11,698
7279	11,698
7280	11,714
7281	12,149
7282	12,132
7283	12,132
7284	12,149
7285	12,624
7286	12,605
7287	12,605
7288	12,624
7289	13,145
7290	13,124
7291	13,124
7292	13,145
7293	13,719
7294	13,693
7295	13,693
7296	13,719
7297	14,353
7298	14,322
7299	14,322
7300	14,353
7301	15,058
7302	15,017
7303	15,017
7304	15,058
7305	16,727
7306	16,652
7307	16,652
7308	16,727
7309	17,201
7310	17,256
7311	17,256
7312	17,201
7313	19,239
7314	19,34
7315	19,34
7316	19,239
7317	13,201
7318	13,169
7319	13,169
7320	13,201
7321	12,27
7322	12,237
7323	12,237
7324	12,27
7325	14,045
7326	14,03
7327	14,03
7328	14,045
7329	14,813
7330	14,814
7331	14,814
7332	14,813
7333	13,538
7334	13,522
7335	13,522
7336	13,538
7337	12,558
7338	12,528
7339	12,528
7340	12,558
7341	11,784
7342	11,749
7343	11,749
7344	11,784
7345	11,145
7346	11,111
7347	11,111
7348	11,145
7349	10,606
7350	10,573
7351	10,573
7352	10,606
7353	10,151
7354	10,121
7355	10,121
7356	10,151
7357	9,7709
7358	9,743
7359	9,743
7360	9,7709
7361	9,4575
7362	9,4316
7363	9,4316
7364	9,4575
7365	9,205
7366	9,1811
7367	9,1811
7368	9,205
7369	9,0089
7370	8,9867
7371	8,9867
7372	9,0089
7373	8,8651
7374	8,8444
7375	8,8444
7376	8,8651
7377	8,77
7378	8,7506
7379	8,7506
7380	8,77
7381	8,7201
7382	8,702
7383	8,702
7384	8,7201
7385	8,7125
7386	8,6953
7387	8,6953
7388	8,7125
7389	8,7439
7390	8,7277
7391	8,7277
7392	8,7439
7393	8,8117
7394	8,7962
7395	8,7962
7396	8,8117
7397	8,9132
7398	8,8984
7399	8,8984
7400	8,9132
7401	9,0461
7402	9,0318
7403	9,0318
7404	9,0461
7405	9,2083
7406	9,1944
7407	9,1944
7408	9,2083
7409	9,398
7410	9,3845
7411	9,3845
7412	9,398
7413	9,614
7414	9,6007
7415	9,6007
7416	9,614
7417	9,8552
7418	9,8421
7419	9,8421
7420	9,8552
7421	10,121
7422	10,108
7423	10,108
7424	10,121
7425	10,412
7426	10,399
7427	10,399
7428	10,412
7429	10,728
7430	10,715
7431	10,715
7432	10,728
7433	11,071
7434	11,057
7435	11,057
7436	11,071
7437	11,442
7438	11,427
7439	11,427
7440	11,442
7441	11,845
7442	11,829
7443	11,829
7444	11,845
7445	12,283
7446	12,266
7447	12,266
7448	12,283
7449	12,761
7450	12,742
7451	12,742
7452	12,761
7453	13,285
7454	13,262
7455	13,262
7456	13,285
7457	13,861
7458	13,834
7459	13,834
7460	13,861
7461	14,498
7462	14,464
7463	14,464
7464	14,498
7465	16,842
7466	16,764
7467	16,764
7468	16,842
7469	17,791
7470	17,684
7471	17,684
7472	17,791
7473	18,703
7474	18,568
7475	18,568
7476	18,703
7477	19,144
7478	19,003
7479	19,003
7480	19,144
7481	14,678
7482	14,679
7483	14,679
7484	14,678
7485	15,982
7486	16,015
7487	16,015
7488	15,982
7489	17,791
7490	17,869
7491	17,869
7492	17,791
7493	13,683
7494	13,664
7495	13,664
7496	13,683
7497	23,032
7498	22,644
7499	22,644
7500	23,032
7501	20,41
7502	21,112
7503	21,112
7504	20,41
7505	19,091
7506	19,54
7507	19,54
7508	19,091
7509	17,864
7510	18,086
7511	18,086
7512	17,864
7513	16,811
7514	16,871
7515	16,871
7516	16,811
7517	15,897
7518	15,89
7519	15,89
7520	15,897
7521	15,091
7522	15,062
7523	15,062
7524	15,091
7525	14,369
7526	14,337
7527	14,337
7528	14,369
7529	13,716
7530	13,686
7531	13,686
7532	13,716
7533	13,121
7534	13,096
7535	13,096
7536	13,121
7537	12,577
7538	12,555
7539	12,555
7540	12,577
7541	12,079
7542	12,06
7543	12,06
7544	12,079
7545	11,622
7546	11,604
7547	11,604
7548	11,622
7549	11,203
7550	11,187
7551	11,187
7552	11,203
7553	10,82
7554	10,805
7555	10,805
7556	10,82
7557	10,47
7558	10,456
7559	10,456
7560	10,47
7561	10,153
7562	10,139
7563	10,139
7564	10,153
7565	9,8665
7566	9,8527
7567	9,8527
7568	9,8665
7569	9,6112
7570	9,5975
7571	9,5975
7572	9,6112
7573	9,3869
7574	9,3731
7575	9,3731
7576	9,3869
7577	9,1941
7578	9,1801
7579	9,1801
7580	9,1941
7581	9,0339
7582	9,0195
7583	9,0195
7584	9,0339
7585	8,9076
7586	8,8927
7587	8,8927
7588	8,9076
7589	8,8171
7590	8,8015
7591	8,8015
7592	8,8171
7593	8,7645
7594	8,748
7595	8,748
7596	8,7645
7597	8,7523
7598	8,7349
7599	8,7349
7600	8,7523
7601	8,7833
7602	8,7647
7603	8,7647
7604	8,7833
7605	8,8605
7606	8,8406
7607	8,8406
7608	8,8605
7609	8,9872
7610	8,9658
7611	8,9658
7612	8,9872
7613	9,1669
7614	9,1439
7615	9,1439
7616	9,1669
7617	9,4038
7618	9,3788
7619	9,3788
7620	9,4038
7621	9,7022
7622	9,6752
7623	9,6752
7624	9,7022
7625	10,068
7626	10,039
7627	10,039
7628	10,068
7629	10,508
7630	10,477
7631	10,477
7632	10,508
7633	12,426
7634	12,392
7635	12,392
7636	12,426
7637	14,624
7638	14,625
7639	14,625
7640	14,624
7641	15,151
7642	15,167
7643	15,167
7644	15,151
7645	16,954
7646	17,022
7647	17,022
7648	16,954
7649	17,637
7650	18,077
7651	18,077
7652	17,637
7653	16,491
7654	16,701
7655	16,701
7656	16,491
7657	15,598
7658	15,662
7659	15,662
7660	15,598
7661	14,878
7662	14,881
7663	14,881
7664	14,878
7665	14,22
7666	14,2
7667	14,2
7668	14,22
7669	13,613
7670	13,589
7671	13,589
7672	13,613
7673	13,052
7674	13,028
7675	13,028
7676	13,052
7677	12,531
7678	12,51
7679	12,51
7680	12,531
7681	12,047
7682	12,029
7683	12,029
7684	12,047
7685	11,6
7686	11,583
7687	11,583
7688	11,6
7689	11,186
7690	11,171
7691	11,171
7692	11,186
7693	10,804
7694	10,79
7695	10,79
7696	10,804
7697	10,454
7698	10,44
7699	10,44
7700	10,454
7701	10,133
7702	10,12
7703	10,12
7704	10,133
7705	9,8415
7706	9,8287
7707	9,8287
7708	9,8415
7709	9,5782
7710	9,5654
7711	9,5654
7712	9,5782
7713	9,343
7714	9,3302
7715	9,3302
7716	9,343
7717	9,1364
7718	9,1233
7719	9,1233
7720	9,1364
7721	8,9588
7722	8,9453
7723	8,9453
7724	8,9588
7725	8,8113
7726	8,7973
7727	8,7973
7728	8,8113
7729	8,6953
7730	8,6805
7731	8,6805
7732	8,6953
7733	8,6124
7734	8,5969
7735	8,5969
7736	8,6124
7737	8,5649
7738	8,5485
7739	8,5485
7740	8,5649
7741	8,5552
7742	8,5377
7743	8,5377
7744	8,5552
7745	8,5861
7746	8,5673
7747	8,5673
7748	8,5861
7749	8,6607
7750	8,6405
7751	8,6405
7752	8,6607
7753	8,7824
7754	8,7607
7755	8,7607
7756	8,7824
7757	8,9551
7758	8,9317
7759	8,9317
7760	8,9551
7761	9,1833
7762	9,158
7763	9,158
7764	9,1833
7765	9,4723
7766	9,445
7767	9,445
7768	9,4723
7769	9,8286
7770	9,7993
7771	9,7993
7772	9,8286
7773	10,261
7774	10,23
7775	10,23
7776	10,261
7777	10,772
7778	10,739
7779	10,739
7780	10,772
7781	11,378
7782	11,346
7783	11,346
7784	11,378
7785	12,111
7786	12,083
7787	12,083
7788	12,111
7789	13,172
7790	13,157
7791	13,157
7792	13,172
7793	17,41
7794	17,47
7795	17,47
7796	17,41
7797	16,584
7798	16,632
7799	16,632
7800	16,584
7801	19,028
7802	19,127
7803	19,127
7804	19,028
7805	18,972
7806	19,07
7807	19,07
7808	18,972
7809	21,272
7810	21,107
7811	21,107
7812	21,272
7813	16,851
7814	16,767
7815	16,767
7816	16,851
7817	15,832
7818	15,772
7819	15,772
7820	15,832
7821	14,965
7822	14,921
7823	14,921
7824	14,965
7825	14,21
7826	14,177
7827	14,177
7828	14,21
7829	13,545
7830	13,519
7831	13,519
7832	13,545
7833	12,955
7834	12,934
7835	12,934
7836	12,955
7837	12,427
7838	12,409
7839	12,409
7840	12,427
7841	11,951
7842	11,935
7843	11,935
7844	11,951
7845	11,517
7846	11,503
7847	11,503
7848	11,517
7849	11,122
7850	11,108
7851	11,108
7852	11,122
7853	10,759
7854	10,746
7855	10,746
7856	10,759
7857	10,426
7858	10,413
7859	10,413
7860	10,426
7861	10,12
7862	10,108
7863	10,108
7864	10,12
7865	9,8406
7866	9,8277
7867	9,8277
7868	9,8406
7869	9,5863
7870	9,5732
7871	9,5732
7872	9,5863
7873	9,3573
7874	9,344
7875	9,344
7876	9,3573
7877	9,1543
7878	9,1406
7879	9,1406
7880	9,1543
7881	8,9782
7882	8,9641
7883	8,9641
7884	8,9782
7885	8,8306
7886	8,8159
7887	8,8159
7888	8,8306
7889	8,7132
7890	8,6978
7891	8,6978
7892	8,7132
7893	8,6282
7894	8,612
7895	8,612
7896	8,6282
7897	8,578
7898	8,5609
7899	8,5609
7900	8,578
7901	8,5654
7902	8,5472
7903	8,5472
7904	8,5654
7905	8,5934
7906	8,574
7907	8,574
7908	8,5934
7909	8,6653
7910	8,6445
7911	8,6445
7912	8,6653
7913	8,7846
7914	8,7623
7915	8,7623
7916	8,7846
7917	8,9554
7918	8,9314
7919	8,9314
7920	8,9554
7921	9,1822
7922	9,1563
7923	9,1563
7924	9,1822
7925	9,4702
7926	9,4424
7927	9,4424
7928	9,4702
7929	9,8263
7930	9,7965
7931	9,7965
7932	9,8263
7933	10,259
7934	10,227
7935	10,227
7936	10,259
7937	10,764
7938	10,732
7939	10,732
7940	10,764
7941	11,383
7942	11,351
7943	11,351
7944	11,383
7945	12,143
7946	12,117
7947	12,117
7948	12,143
7949	13,43
7950	13,417
7951	13,417
7952	13,43
7953	14,735
7954	14,754
7955	14,754
7956	14,735
7957	16,432
7958	16,496
7959	16,496
7960	16,432
7961	19,284
7962	19,401
7963	19,401
7964	19,284
7965	20,871
7966	20,449
7967	20,449
7968	20,871
7969	15,599
7970	15,662
7971	15,662
7972	15,599
7973	14,876
7974	14,879
7975	14,879
7976	14,876
7977	14,218
7978	14,199
7979	14,199
7980	14,218
7981	13,612
7982	13,588
7983	13,588
7984	13,612
7985	13,05
7986	13,027
7987	13,027
7988	13,05
7989	12,529
7990	12,508
7991	12,508
7992	12,529
7993	12,046
7994	12,027
7995	12,027
7996	12,046
7997	11,598
7998	11,582
7999	11,582
8000	11,598
8001	11,185
8002	11,169
8003	11,169
8004	11,185
8005	10,803
8006	10,789
8007	10,789
8008	10,803
8009	10,453
8010	10,439
8011	10,439
8012	10,453
8013	10,132
8014	10,119
8015	10,119
8016	10,132
8017	9,8403
8018	9,8275
8019	9,8275
8020	9,8403
8021	9,577
8022	9,5642
8023	9,5642
8024	9,577
8025	9,342
8026	9,3291
8027	9,3291
8028	9,342
8029	9,1354
8030	9,1223
8031	9,1223
8032	9,1354
8033	8,958
8034	8,9444
8035	8,9444
8036	8,958
8037	8,8106
8038	8,7965
8039	8,7965
8040	8,8106
8041	8,6947
8042	8,68
8043	8,68
8044	8,6947
8045	8,612
8046	8,5965
8047	8,5965
8048	8,612
8049	8,5648
8050	8,5483
8051	8,5483
8052	8,5648
8053	8,5553
8054	8,5378
8055	8,5378
8056	8,5553
8057	8,5864
8058	8,5677
8059	8,5677
8060	8,5864
8061	8,6613
8062	8,6411
8063	8,6411
8064	8,6613
8065	8,7834
8066	8,7616
8067	8,7616
8068	8,7834
8069	8,9565
8070	8,9331
8071	8,9331
8072	8,9565
8073	9,1852
8074	9,1599
8075	9,1599
8076	9,1852
8077	9,4747
8078	9,4474
8079	9,4474
8080	9,4747
8081	9,8316
8082	9,8023
8083	9,8023
8084	9,8316
8085	10,265
8086	10,234
8087	10,234
8088	10,265
8089	12,195
8090	12,167
8091	12,167
8092	12,195
8093	13,173
8094	13,159
8095	13,159
8096	13,173
8097	14,491
8098	14,507
8099	14,507
8100	14,491
8101	16,464
8102	16,539
8103	16,539
8104	16,464
8105	13,324
8106	13,316
8107	13,316
8108	13,324
8109	11,554
8110	11,522
8111	11,522
8112	11,554
8113	10,913
8114	10,88
8115	10,88
8116	10,913
8117	10,377
8118	10,346
8119	10,346
8120	10,377
8121	9,932
8122	9,9017
8123	9,9017
8124	9,932
8125	9,5634
8126	9,535
8127	9,535
8128	9,5634
8129	9,2623
8130	9,2358
8131	9,2358
8132	9,2623
8133	9,0218
8134	8,9972
8135	8,9972
8136	9,0218
8137	8,8368
8138	8,8138
8139	8,8138
8140	8,8368
8141	8,7026
8142	8,6812
8143	8,6812
8144	8,7026
8145	8,6153
8146	8,5954
8147	8,5954
8148	8,6153
8149	8,5716
8150	8,5529
8151	8,5529
8152	8,5716
8153	8,5681
8154	8,5505
8155	8,5505
8156	8,5681
8157	8,6019
8158	8,5853
8159	8,5853
8160	8,6019
8161	8,6703
8162	8,6545
8163	8,6545
8164	8,6703
8165	8,7709
8166	8,7558
8167	8,7558
8168	8,7709
8169	8,9015
8170	8,887
8171	8,887
8172	8,9015
8173	9,0602
8174	9,0463
8175	9,0463
8176	9,0602
8177	9,2456
8178	9,232
8179	9,232
8180	9,2456
8181	9,4563
8182	9,4432
8183	9,4432
8184	9,4563
8185	9,6918
8186	9,6788
8187	9,6788
8188	9,6918
8189	9,9515
8190	9,9387
8191	9,9387
8192	9,9515
8193	10,236
8194	10,223
8195	10,223
8196	10,236
8197	10,546
8198	10,533
8199	10,533
8200	10,546
8201	10,882
8202	10,869
8203	10,869
8204	10,882
8205	11,249
8206	11,235
8207	11,235
8208	11,249
8209	11,648
8210	11,633
8211	11,633
8212	11,648
8213	12,085
8214	12,068
8215	12,068
8216	12,085
8217	12,565
8218	12,547
8219	12,547
8220	12,565
8221	13,098
8222	13,076
8223	13,076
8224	13,098
8225	13,693
8226	13,666
8227	13,666
8228	13,693
8229	14,363
8230	14,328
8231	14,328
8232	14,363
8233	15,124
8234	15,078
8235	15,078
8236	15,124
8237	15,998
8238	15,934
8239	15,934
8240	15,998
8241	17,01
8242	16,922
8243	16,922
8244	17,01
8245	20,923
8246	20,759
8247	20,759
8248	20,923
8249	21,82
8250	21,697
8251	21,697
8252	21,82
8253	14,797
8254	14,822
8255	14,822
8256	14,797
8257	14,679
8258	14,709
8259	14,709
8260	14,679
8261	19,928
8262	20,065
8263	20,065
8264	19,928
8265	14,094
8266	14,123
8267	14,123
8268	14,094
8269	12,844
8270	12,839
8271	12,839
8272	12,844
8273	11,815
8274	11,792
8275	11,792
8276	11,815
8277	11,027
8278	10,998
8279	10,998
8280	11,027
8281	13,769
8282	13,779
8283	13,779
8284	13,769
8285	14,301
8286	14,363
8287	14,363
8288	14,301
8289	18,949
8290	19,483
8291	19,483
8292	18,949
8293	16,398
8294	16,851
8295	16,851
8296	16,398
8297	16,272
8298	16,378
8299	16,378
8300	16,272
8301	12,941
8302	12,942
8303	12,942
8304	12,941
8305	11,967
8306	11,947
8307	11,947
8308	11,967
8309	11,202
8310	11,174
8311	11,174
8312	11,202
8313	15,766
8314	15,703
8315	15,703
8316	15,766
8317	16,831
8318	16,744
8319	16,744
8320	16,831
8321	18,102
8322	17,987
8323	17,987
8324	18,102
8325	21,529
8326	21,394
8327	21,394
8328	21,529
8329	14,246
8330	14,285
8331	14,285
8332	14,246
8333	21,147
8334	20,156
8335	20,156
8336	21,147
8337	17,852
8338	17,754
8339	17,754
8340	17,852
8341	16,312
8342	16,78
8343	16,78
8344	16,312
8345	15,478
8346	15,791
8347	15,791
8348	15,478
8349	14,846
8350	15,012
8351	15,012
8352	14,846
8353	14,293
8354	14,353
8355	14,353
8356	14,293
8357	11,048
8358	11,019
8359	11,019
8360	11,048
8361	11,824
8362	11,801
8363	11,801
8364	11,824
8365	12,815
8366	12,81
8367	12,81
8368	12,815
8369	14,136
8370	14,165
8371	14,165
8372	14,136
8373	16,074
8374	16,16
8375	16,16
8376	16,074
8377	19,125
8378	19,299
8379	19,299
8380	19,125
8381	23,528
8382	23,463
8383	23,463
8384	23,528
8385	21,358
8386	21,221
8387	21,221
8388	21,358
8389	19,483
8390	19,344
8391	19,344
8392	19,483
8393	17,93
8394	17,819
8395	17,819
8396	17,93
8397	16,65
8398	16,567
8399	16,567
8400	16,65
8401	15,594
8402	15,535
8403	15,535
8404	15,594
8405	11,77
8406	11,749
8407	11,749
8408	11,77
8409	24,165
8410	24,28
8411	24,28
8412	24,165
8413	16,546
8414	16,625
8415	16,625
8416	16,546
8417	15,821
8418	15,907
8419	15,907
8420	15,821
8421	12,733
8422	12,73
8423	12,73
8424	12,733
8425	14,456
8426	14,484
8427	14,484
8428	14,456
8429	13,999
8430	14,034
8431	14,034
8432	13,999
8433	16,396
8434	16,48
8435	16,48
8436	16,396
8437	19,381
8438	19,535
8439	19,535
8440	19,381
8441	18,457
8442	18,619
8443	18,619
8444	18,457
8445	19,34
8446	19,489
8447	19,489
8448	19,34
8449	21,251
8450	21,451
8451	21,451
8452	21,251
8453	18,231
8454	18,384
8455	18,384
8456	18,231
8457	17,024
8458	16,59
8459	16,59
8460	17,024
8461	16,067
8462	15,836
8463	15,836
8464	16,067
8465	14,945
8466	15,153
8467	15,153
8468	14,945
8469	14,117
8470	14,437
8471	14,437
8472	14,117
8473	13,688
8474	13,925
8475	13,925
8476	13,688
8477	13,336
8478	13,464
8479	13,464
8480	13,336
8481	12,997
8482	13,051
8483	13,051
8484	12,997
8485	12,644
8486	12,658
8487	12,658
8488	12,644
8489	12,277
8490	12,273
8491	12,273
8492	12,277
8493	11,901
8494	11,891
8495	11,891
8496	11,901
8497	11,525
8498	11,513
8499	11,513
8500	11,525
8501	11,155
8502	11,143
8503	11,143
8504	11,155
8505	10,797
8506	10,786
8507	10,786
8508	10,797
8509	10,455
8510	10,444
8511	10,444
8512	10,455
8513	10,13
8514	10,12
8515	10,12
8516	10,13
8517	9,8256
8518	9,8158
8519	9,8158
8520	9,8256
8521	9,5411
8522	9,5315
8523	9,5315
8524	9,5411
8525	9,2774
8526	9,2678
8527	9,2678
8528	9,2774
8529	9,0348
8530	9,0249
8531	9,0249
8532	9,0348
8533	8,8134
8534	8,8033
8535	8,8033
8536	8,8134
8537	8,6139
8538	8,6032
8539	8,6032
8540	8,6139
8541	8,4367
8542	8,4255
8543	8,4255
8544	8,4367
8545	8,2829
8546	8,271
8547	8,271
8548	8,2829
8549	8,1536
8550	8,141
8551	8,141
8552	8,1536
8553	8,0503
8554	8,0368
8555	8,0368
8556	8,0503
8557	7,9748
8558	7,9603
8559	7,9603
8560	7,9748
8561	7,9293
8562	7,9136
8563	7,9136
8564	7,9293
8565	7,9162
8566	7,8992
8567	7,8992
8568	7,9162
8569	7,9383
8570	7,92
8571	7,92
8572	7,9383
8573	7,999
8574	7,9791
8575	7,9791
8576	7,999
8577	8,1019
8578	8,0803
8579	8,0803
8580	8,1019
8581	8,2516
8582	8,2281
8583	8,2281
8584	8,2516
8585	8,453
8586	8,4276
8587	8,4276
8588	8,453
8589	8,7126
8590	8,6853
8591	8,6853
8592	8,7126
8593	9,0383
8594	9,0093
8595	9,0093
8596	9,0383
8597	9,4408
8598	9,4106
8599	9,4106
8600	9,4408
8601	9,9349
8602	9,9049
8603	9,9049
8604	9,9349
8605	10,543
8606	10,516
8607	10,516
8608	10,543
8609	11,3
8610	11,28
8611	11,28
8612	11,3
8613	15,262
8614	15,355
8615	15,355
8616	15,262
8617	17,669
8618	17,832
8619	17,832
8620	17,669
8621	20,094
8622	20,302
8623	20,302
8624	20,094
8625	20,35
8626	20,256
8627	20,256
8628	20,35
8629	18,744
8630	18,635
8631	18,635
8632	18,744
8633	17,321
8634	17,226
8635	17,226
8636	17,321
8637	16,124
8638	16,051
8639	16,051
8640	16,124
8641	15,114
8642	15,061
8643	15,061
8644	15,114
8645	14,253
8646	14,215
8647	14,215
8648	14,253
8649	13,514
8650	13,486
8651	13,486
8652	13,514
8653	12,871
8654	12,85
8655	12,85
8656	12,871
8657	12,305
8658	12,288
8659	12,288
8660	12,305
8661	11,802
8662	11,788
8663	11,788
8664	11,802
8665	11,349
8666	11,336
8667	11,336
8668	11,349
8669	10,937
8670	10,926
8671	10,926
8672	10,937
8673	10,561
8674	10,55
8675	10,55
8676	10,561
8677	10,215
8678	10,204
8679	10,204
8680	10,215
8681	9,8965
8682	9,8851
8683	9,8851
8684	9,8965
8685	9,6025
8686	9,591
8687	9,591
8688	9,6025
8689	9,3323
8690	9,3205
8691	9,3205
8692	9,3323
8693	9,0852
8694	9,073
8695	9,073
8696	9,0852
8697	8,8613
8698	8,8486
8699	8,8486
8700	8,8613
8701	8,661
8702	8,6478
8703	8,6478
8704	8,661
8705	8,4852
8706	8,4715
8707	8,4715
8708	8,4852
8709	8,3352
8710	8,3208
8711	8,3208
8712	8,3352
8713	8,2125
8714	8,1972
8715	8,1972
8716	8,2125
8717	8,1189
8718	8,1027
8719	8,1027
8720	8,1189
8721	8,0566
8722	8,0394
8723	8,0394
8724	8,0566
8725	8,0281
8726	8,0097
8727	8,0097
8728	8,0281
8729	8,0362
8730	8,0164
8731	8,0164
8732	8,0362
8733	8,0841
8734	8,0629
8735	8,0629
8736	8,0841
8737	8,1755
8738	8,1526
8739	8,1526
8740	8,1755
8741	8,3148
8742	8,2901
8743	8,2901
8744	8,3148
8745	8,507
8746	8,4805
8747	8,4805
8748	8,507
8749	8,7584
8750	8,7301
8751	8,7301
8752	8,7584
8753	9,077
8754	9,0471
8755	9,0471
8756	9,077
8757	9,4732
8758	9,4424
8759	9,4424
8760	9,4732
8761	9,9625
8762	9,932
8763	9,932
8764	9,9625
8765	10,566
8766	10,539
8767	10,539
8768	10,566
8769	11,286
8770	11,267
8771	11,267
8772	11,286
8773	12,186
8774	12,186
8775	12,186
8776	12,186
8777	13,371
8778	13,405
8779	13,405
8780	13,371
8781	13,645
8782	13,687
8783	13,687
8784	13,645
8785	12,405
8786	12,409
8787	12,409
8788	12,405
8789	11,467
8790	11,451
8791	11,451
8792	11,467
8793	10,708
8794	10,682
8795	10,682
8796	10,708
8797	10,087
8798	10,057
8799	10,057
8800	10,087
8801	9,5832
8802	9,5523
8803	9,5523
8804	9,5832
8805	9,1731
8806	9,1429
8807	9,1429
8808	9,1731
8809	8,8411
8810	8,8124
8811	8,8124
8812	8,8411
8813	8,5763
8814	8,5493
8815	8,5493
8816	8,5763
8817	8,3705
8818	8,3453
8819	8,3453
8820	8,3705
8821	8,2174
8822	8,1939
8823	8,1939
8824	8,2174
8825	8,1118
8826	8,09
8827	8,09
8828	8,1118
8829	8,0495
8830	8,0292
8831	8,0292
8832	8,0495
8833	8,0268
8834	8,0079
8835	8,0079
8836	8,0268
8837	8,0405
8838	8,0228
8839	8,0228
8840	8,0405
8841	8,0877
8842	8,0711
8843	8,0711
8844	8,0877
8845	8,1661
8846	8,1504
8847	8,1504
8848	8,1661
8849	8,2733
8850	8,2585
8851	8,2585
8852	8,2733
8853	8,4076
8854	8,3935
8855	8,3935
8856	8,4076
8857	8,5674
8858	8,5539
8859	8,5539
8860	8,5674
8861	8,7513
8862	8,7384
8863	8,7384
8864	8,7513
8865	8,9584
8866	8,9459
8867	8,9459
8868	8,9584
8869	9,1879
8870	9,1759
8871	9,1759
8872	9,1879
8873	9,4396
8874	9,428
8875	9,428
8876	9,4396
8877	9,7138
8878	9,7023
8879	9,7023
8880	9,7138
8881	10,011
8882	9,9998
8883	9,9998
8884	10,011
8885	10,333
8886	10,322
8887	10,322
8888	10,333
8889	10,682
8890	10,67
8891	10,67
8892	10,682
8893	11,061
8894	11,049
8895	11,049
8896	11,061
8897	11,476
8898	11,463
8899	11,463
8900	11,476
8901	11,933
8902	11,918
8903	11,918
8904	11,933
8905	12,442
8906	12,424
8907	12,424
8908	12,442
8909	13,013
8910	12,991
8911	12,991
8912	13,013
8913	13,663
8914	13,633
8915	13,633
8916	13,663
8917	14,41
8918	14,37
8919	14,37
8920	14,41
8921	15,279
8922	15,223
8923	15,223
8924	15,279
8925	16,297
8926	16,221
8927	16,221
8928	16,297
8929	17,498
8930	17,401
8931	17,401
8932	17,498
8933	20,654
8934	20,563
8935	20,563
8936	20,654
8937	22,906
8938	22,904
8939	22,904
8940	22,906
8941	14,976
8942	15,062
8943	15,062
8944	14,976
8945	13,426
8946	13,458
8947	13,458
8948	13,426
8949	12,255
8950	12,254
8951	12,254
8952	12,255
8953	11,292
8954	11,273
8955	11,273
8956	11,292
8957	10,537
8958	10,509
8959	10,509
8960	10,537
8961	9,9309
8962	9,9009
8963	9,9009
8964	9,9309
8965	9,4371
8966	9,407
8967	9,407
8968	9,4371
8969	9,0356
8970	9,0065
8971	9,0065
8972	9,0356
8973	8,7104
8974	8,6831
8975	8,6831
8976	8,7104
8977	8,4513
8978	8,4259
8979	8,4259
8980	8,4513
8981	8,2503
8982	8,2269
8983	8,2269
8984	8,2503
8985	8,1011
8986	8,0795
8987	8,0795
8988	8,1011
8989	7,9984
8990	7,9785
8991	7,9785
8992	7,9984
8993	7,938
8994	7,9197
8995	7,9197
8996	7,938
8997	7,9161
8998	7,8992
8999	7,8992
9000	7,9161
9001	7,9295
9002	7,9138
9003	7,9138
9004	7,9295
9005	7,9752
9006	7,9607
9007	7,9607
9008	7,9752
9009	8,0508
9010	8,0373
9011	8,0373
9012	8,0508
9013	8,1542
9014	8,1416
9015	8,1416
9016	8,1542
9017	8,2836
9018	8,2718
9019	8,2718
9020	8,2836
9021	8,4375
9022	8,4264
9023	8,4264
9024	8,4375
9025	8,6148
9026	8,6042
9027	8,6042
9028	8,6148
9029	8,8144
9030	8,8042
9031	8,8042
9032	8,8144
9033	9,0358
9034	9,026
9035	9,026
9036	9,0358
9037	9,2785
9038	9,2689
9039	9,2689
9040	9,2785
9041	9,5422
9042	9,5326
9043	9,5326
9044	9,5422
9045	9,8267
9046	9,817
9047	9,817
9048	9,8267
9049	10,131
9050	10,121
9051	10,121
9052	10,131
9053	10,456
9054	10,445
9055	10,445
9056	10,456
9057	10,798
9058	10,787
9059	10,787
9060	10,798
9061	11,156
9062	11,144
9063	11,144
9064	11,156
9065	11,526
9066	11,514
9067	11,514
9068	11,526
9069	11,903
9070	11,892
9071	11,892
9072	11,903
9073	12,278
9074	12,274
9075	12,274
9076	12,278
9077	12,645
9078	12,659
9079	12,659
9080	12,645
9081	13,007
9082	13,06
9083	13,06
9084	13,007
9085	13,368
9086	13,502
9087	13,502
9088	13,368
9089	13,734
9090	13,973
9091	13,973
9092	13,734
9093	14,227
9094	14,573
9095	14,573
9096	14,227
9097	15,113
9098	15,183
9099	15,183
9100	15,113
9101	17,598
9102	17,261
9103	17,261
9104	17,598
9105	20,286
9106	20,458
9107	20,458
9108	20,286
9109	15,296
9110	15,396
9111	15,396
9112	15,296
9113	17,117
9114	17,274
9115	17,274
9116	17,117
9117	22,189
9118	22,169
9119	22,169
9120	22,189
9121	21,019
9122	21,216
9123	21,216
9124	21,019
9125	17,872
9126	18,056
9127	18,056
9128	17,872
9129	14,067
9130	13,9
9131	13,9
9132	14,067
9133	13,602
9134	13,558
9135	13,558
9136	13,602
9137	12,152
9138	12,32
9139	12,32
9140	12,152
9141	12,645
9142	12,671
9143	12,671
9144	12,645
9145	15,967
9146	16,099
9147	16,099
9148	15,967
9149	14,287
9150	14,371
9151	14,371
9152	14,287
9153	12,852
9154	12,885
9155	12,885
9156	12,852
9157	11,733
9158	11,735
9159	11,735
9160	11,733
9161	16,476
9162	16,402
9163	16,402
9164	16,476
9165	17,637
9166	17,56
9167	17,56
9168	17,637
9169	18,988
9170	18,941
9171	18,941
9172	18,988
9173	20,619
9174	20,66
9175	20,66
9176	20,619
9177	22,323
9178	22,525
9179	22,525
9180	22,323
9181	22,844
9182	23,188
9183	23,188
9184	22,844
9185	22,845
9186	23,16
9187	23,16
9188	22,845
9189	21,173
9190	21,323
9191	21,323
9192	21,173
9193	19,95
9194	19,972
9195	19,972
9196	19,95
9197	18,674
9198	18,621
9199	18,621
9200	18,674
9201	17,468
9202	17,391
9203	17,391
9204	17,468
9205	11,517
9206	11,513
9207	11,513
9208	11,517
9209	12,668
9210	12,696
9211	12,696
9212	12,668
9213	14,112
9214	14,188
9215	14,188
9216	14,112
9217	16,139
9218	16,277
9219	16,277
9220	16,139
9221	19,005
9222	19,212
9223	19,212
9224	19,005
9225	16,08
9226	16,216
9227	16,216
9228	16,08
9229	14,466
9230	14,248
9231	14,248
9232	14,466
9233	13,788
9234	13,628
9235	13,628
9236	13,788
9237	13,093
9238	13,137
9239	13,137
9240	13,093
9241	12,648
9242	12,846
9243	12,846
9244	12,648
9245	12,349
9246	12,573
9247	12,573
9248	12,349
9249	12,142
9250	12,308
9251	12,308
9252	12,142
9253	11,542
9254	11,539
9255	11,539
9256	11,542
9257	12,704
9258	12,732
9259	12,732
9260	12,704
9261	14,175
9262	14,252
9263	14,252
9264	14,175
9265	16,059
9266	16,196
9267	16,196
9268	16,059
9269	18,811
9270	19,012
9271	19,012
9272	18,811
9273	19,607
9274	19,811
9275	19,811
9276	19,607
9277	19,942
9278	20,03
9279	20,03
9280	19,942
9281	18,657
9282	18,801
9283	18,801
9284	18,657
9285	16,66
9286	16,791
9287	16,791
9288	16,66
9289	14,705
9290	14,793
9291	14,793
9292	14,705
9293	13,11
9294	13,153
9295	13,153
9296	13,11
9297	11,77
9298	11,778
9299	11,778
9300	11,77
9301	10,683
9302	10,669
9303	10,669
9304	10,683
9305	9,8141
9306	9,7875
9307	9,7875
9308	9,8141
9309	9,1187
9310	9,087
9311	9,087
9312	9,1187
9313	8,5637
9314	8,5309
9315	8,5309
9316	8,5637
9317	8,1219
9318	8,0902
9319	8,0902
9320	8,1219
9321	7,7724
9322	7,7428
9323	7,7428
9324	7,7724
9325	7,4996
9326	7,4724
9327	7,4724
9328	7,4996
9329	7,2912
9330	7,2665
9331	7,2665
9332	7,2912
9333	7,1379
9334	7,1155
9335	7,1155
9336	7,1379
9337	7,0323
9338	7,012
9339	7,012
9340	7,0323
9341	6,9683
9342	6,95
9343	6,95
9344	6,9683
9345	6,9413
9346	6,9247
9347	6,9247
9348	6,9413
9349	6,9471
9350	6,9321
9351	6,9321
9352	6,9471
9353	6,9822
9354	6,9686
9355	6,9686
9356	6,9822
9357	7,0439
9358	7,0316
9359	7,0316
9360	7,0439
9361	7,1296
9362	7,1183
9363	7,1183
9364	7,1296
9365	7,237
9366	7,2268
9367	7,2268
9368	7,237
9369	7,3642
9370	7,3549
9371	7,3549
9372	7,3642
9373	7,5095
9374	7,5012
9375	7,5012
9376	7,5095
9377	7,6714
9378	7,6639
9379	7,6639
9380	7,6714
9381	7,8486
9382	7,8418
9383	7,8418
9384	7,8486
9385	8,0398
9386	8,0337
9387	8,0337
9388	8,0398
9389	8,2439
9390	8,2384
9391	8,2384
9392	8,2439
9393	8,4599
9394	8,4549
9395	8,4549
9396	8,4599
9397	8,6867
9398	8,682
9399	8,682
9400	8,6867
9401	8,9229
9402	8,9184
9403	8,9184
9404	8,9229
9405	9,1668
9406	9,1624
9407	9,1624
9408	9,1668
9409	9,416
9410	9,4114
9411	9,4114
9412	9,416
9413	9,6668
9414	9,6622
9415	9,6622
9416	9,6668
9417	9,9142
9418	9,91
9419	9,91
9420	9,9142
9421	10,151
9422	10,148
9423	10,148
9424	10,151
9425	10,368
9426	10,37
9427	10,37
9428	10,368
9429	10,556
9430	10,569
9431	10,569
9432	10,556
9433	10,707
9434	10,74
9435	10,74
9436	10,707
9437	10,816
9438	10,883
9439	10,883
9440	10,816
9441	10,898
9442	11,009
9443	11,009
9444	10,898
9445	10,976
9446	11,126
9447	11,126
9448	10,976
9449	11,096
9450	11,244
9451	11,244
9452	11,096
9453	11,277
9454	11,365
9455	11,365
9456	11,277
9457	11,467
9458	11,464
9459	11,464
9460	11,467
9461	11,791
9462	11,705
9463	11,705
9464	11,791
9465	11,661
9466	11,582
9467	11,582
9468	11,661
9469	9,6124
9470	9,6147
9471	9,6147
9472	9,6124
9473	8,1934
9474	8,2197
9475	8,2197
9476	8,1934
9477	6,5477
9478	6,5902
9479	6,5902
9480	6,5477
9481	5,5702
9482	5,6248
9483	5,6248
9484	5,5702
9485	5,1683
9486	5,228
9487	5,228
9488	5,1683
9489	4,8458
9490	4,9076
9491	4,9076
9492	4,8458
9493	5,3333
9494	5,384
9495	5,384
9496	5,3333
9497	5,1966
9498	5,2546
9499	5,2546
9500	5,1966
9501	5,6171
9502	5,6596
9503	5,6596
9504	5,6171
9505	5,9164
9506	5,9646
9507	5,9646
9508	5,9164
9509	6,6434
9510	6,6848
9511	6,6848
9512	6,6434
9513	8,0063
9514	8,0338
9515	8,0338
9516	8,0063
9517	9,4065
9518	9,4152
9519	9,4152
9520	9,4065
9521	11,182
9522	11,146
9523	11,146
9524	11,182
9525	11,718
9526	11,635
9527	11,635
9528	11,718
9529	11,522
9530	11,5
9531	11,5
9532	11,522
9533	11,369
9534	11,457
9535	11,457
9536	11,369
9537	11,135
9538	11,283
9539	11,283
9540	11,135
9541	11,005
9542	11,156
9543	11,156
9544	11,005
9545	10,894
9546	11,005
9547	11,005
9548	10,894
9549	10,818
9550	10,885
9551	10,885
9552	10,818
9553	10,707
9554	10,74
9555	10,74
9556	10,707
9557	10,557
9558	10,57
9559	10,57
9560	10,557
9561	10,369
9562	10,371
9563	10,371
9564	10,369
9565	10,152
9566	10,149
9567	10,149
9568	10,152
9569	9,915
9570	9,9108
9571	9,9108
9572	9,915
9573	9,6677
9574	9,6631
9575	9,6631
9576	9,6677
9577	9,4169
9578	9,4123
9579	9,4123
9580	9,4169
9581	9,1677
9582	9,1632
9583	9,1632
9584	9,1677
9585	8,9238
9586	8,9193
9587	8,9193
9588	8,9238
9589	8,6876
9590	8,6829
9591	8,6829
9592	8,6876
9593	8,4608
9594	8,4558
9595	8,4558
9596	8,4608
9597	8,2448
9598	8,2393
9599	8,2393
9600	8,2448
9601	8,0407
9602	8,0346
9603	8,0346
9604	8,0407
9605	7,8494
9606	7,8427
9607	7,8427
9608	7,8494
9609	7,6723
9610	7,6647
9611	7,6647
9612	7,6723
9613	7,5103
9614	7,502
9615	7,502
9616	7,5103
9617	7,3649
9618	7,3557
9619	7,3557
9620	7,3649
9621	7,2376
9622	7,2274
9623	7,2274
9624	7,2376
9625	7,1301
9626	7,1189
9627	7,1189
9628	7,1301
9629	7,0444
9630	7,032
9631	7,032
9632	7,0444
9633	6,9825
9634	6,9689
9635	6,9689
9636	6,9825
9637	6,9472
9638	6,9322
9639	6,9322
9640	6,9472
9641	6,9412
9642	6,9247
9643	6,9247
9644	6,9412
9645	6,968
9646	6,9497
9647	6,9497
9648	6,968
9649	7,0317
9650	7,0114
9651	7,0114
9652	7,0317
9653	7,137
9654	7,1146
9655	7,1146
9656	7,137
9657	7,2899
9658	7,2651
9659	7,2651
9660	7,2899
9661	7,4977
9662	7,4706
9663	7,4706
9664	7,4978
9665	7,77
9666	7,7404
9667	7,7404
9668	7,77
9669	8,1187
9670	8,087
9671	8,087
9672	8,1187
9673	8,5596
9674	8,5268
9675	8,5268
9676	8,5596
9677	9,1135
9678	9,0818
9679	9,0818
9680	9,1135
9681	9,8073
9682	9,7805
9683	9,7805
9684	9,8073
9685	10,676
9686	10,661
9687	10,661
9688	10,676
9689	11,739
9690	11,747
9691	11,747
9692	11,739
9693	13,074
9694	13,116
9695	13,116
9696	13,074
9697	14,722
9698	14,811
9699	14,811
9700	14,722
9701	20,698
9702	20,686
9703	20,686
9704	20,698
9705	14,773
9706	14,863
9707	14,863
9708	14,773
9709	13,108
9710	13,151
9711	13,151
9712	13,108
9713	11,784
9714	11,793
9715	11,793
9716	11,784
9717	10,727
9718	10,713
9719	10,713
9720	10,727
9721	9,8616
9722	9,835
9723	9,835
9724	9,8616
9725	9,1717
9726	9,1395
9727	9,1395
9728	9,1717
9729	8,6233
9730	8,5897
9731	8,5897
9732	8,6233
9733	8,1898
9734	8,157
9735	8,157
9736	8,1898
9737	7,8502
9738	7,8193
9739	7,8193
9740	7,8502
9741	7,5888
9742	7,5601
9743	7,5601
9744	7,5888
9745	7,3934
9746	7,367
9747	7,367
9748	7,3934
9749	7,2547
9750	7,2306
9751	7,2306
9752	7,2547
9753	7,1656
9754	7,1436
9755	7,1436
9756	7,1656
9757	7,1203
9758	7,1001
9759	7,1001
9760	7,1203
9761	7,1142
9762	7,0956
9763	7,0956
9764	7,1142
9765	7,1435
9766	7,1263
9767	7,1263
9768	7,1435
9769	7,205
9770	7,189
9771	7,189
9772	7,205
9773	7,296
9774	7,2811
9775	7,2811
9776	7,296
9777	7,4145
9778	7,4005
9779	7,4005
9780	7,4145
9781	7,5583
9782	7,5452
9783	7,5452
9784	7,5583
9785	7,7261
9786	7,7137
9787	7,7137
9788	7,7261
9789	7,9162
9790	7,9045
9791	7,9045
9792	7,9162
9793	8,1277
9794	8,1166
9795	8,1166
9796	8,1277
9797	8,3595
9798	8,3489
9799	8,3489
9800	8,3595
9801	8,6108
9802	8,6009
9803	8,6009
9804	8,6108
9805	8,8813
9806	8,8719
9807	8,8719
9808	8,8813
9809	9,1706
9810	9,1617
9811	9,1617
9812	9,1706
9813	9,479
9814	9,4707
9815	9,4707
9816	9,479
9817	9,807
9818	9,7993
9819	9,7993
9820	9,807
9821	10,156
9822	10,149
9823	10,149
9824	10,156
9825	10,529
9826	10,522
9827	10,522
9828	10,529
9829	10,928
9830	10,921
9831	10,921
9832	10,928
9833	11,358
9834	11,351
9835	11,351
9836	11,358
9837	11,828
9838	11,818
9839	11,818
9840	11,828
9841	12,344
9842	12,331
9843	12,331
9844	12,344
9845	12,917
9846	12,898
9847	12,898
9848	12,917
9849	13,558
9850	13,53
9851	13,53
9852	13,558
9853	14,272
9854	14,233
9855	14,233
9856	14,272
9857	15,06
9858	15,011
9859	15,011
9860	15,06
9861	15,887
9862	15,838
9863	15,838
9864	15,887
9865	16,697
9866	16,674
9867	16,674
9868	16,697
9869	17,419
9870	17,463
9871	17,463
9872	17,419
9873	18,053
9874	18,211
9875	18,211
9876	18,053
9877	19,038
9878	19,343
9879	19,343
9880	19,038
9881	19,932
9882	20,345
9883	20,345
9884	19,932
9885	19,85
9886	20,224
9887	20,224
9888	19,85
9889	19,142
9890	19,299
9891	19,299
9892	19,142
9893	20,636
9894	20,622
9895	20,622
9896	20,636
9897	23,677
9898	23,608
9899	23,608
9900	23,677
9901	22,993
9902	23,111
9903	23,111
9904	22,993
9905	18,791
9906	18,944
9907	18,944
9908	18,791
9909	16,237
9910	16,347
9911	16,347
9912	16,237
9913	14,578
9914	14,66
9915	14,66
9916	14,578
9917	13,167
9918	13,212
9919	13,212
9920	13,167
9921	11,941
9922	11,955
9923	11,955
9924	11,941
9925	10,892
9926	10,881
9927	10,881
9928	10,892
9929	10,009
9930	9,9839
9931	9,9839
9932	10,009
9933	9,3007
9934	9,2693
9935	9,2693
9936	9,3007
9937	8,7357
9938	8,7022
9939	8,7022
9940	8,7357
9941	8,2863
9942	8,2532
9943	8,2532
9944	8,2863
9945	7,9316
9946	7,9001
9947	7,9001
9948	7,9316
9949	7,6556
9950	7,6263
9951	7,6263
9952	7,6556
9953	7,4461
9954	7,4191
9955	7,4191
9956	7,4461
9957	7,2937
9958	7,2689
9959	7,2689
9960	7,2937
9961	7,1909
9962	7,1682
9963	7,1682
9964	7,1909
9965	7,132
9966	7,1112
9967	7,1112
9968	7,132
9969	7,1123
9970	7,0931
9971	7,0931
9972	7,1123
9973	7,1279
9974	7,1102
9975	7,1102
9976	7,1279
9977	7,1756
9978	7,1591
9979	7,1591
9980	7,1756
9981	7,2528
9982	7,2374
9983	7,2374
9984	7,2528
9985	7,3572
9986	7,3428
9987	7,3428
9988	7,3572
9989	7,4868
9990	7,4733
9991	7,4733
9992	7,4868
9993	7,6401
9994	7,6274
9995	7,6274
9996	7,6401
9997	7,8156
9998	7,8036
9999	7,8036
10000	7,8156
10001	8,0122
10002	8,0007
10003	8,0007
10004	8,0122
10005	8,2287
10006	8,2178
10007	8,2178
10008	8,2287
10009	8,4644
10010	8,4541
10011	8,4541
10012	8,4644
10013	8,7188
10014	8,709
10015	8,709
10016	8,7188
10017	8,9913
10018	8,9821
10019	8,9821
10020	8,9913
10021	9,2821
10022	9,2734
10023	9,2734
10024	9,2821
10025	9,5913
10026	9,5832
10027	9,5832
10028	9,5913
10029	9,9198
10030	9,9122
10031	9,9122
10032	9,9198
10033	10,269
10034	10,262
10035	10,262
10036	10,269
10037	10,642
10038	10,635
10039	10,635
10040	10,642
10041	11,041
10042	11,034
10043	11,034
10044	11,041
10045	11,473
10046	11,465
10047	11,465
10048	11,473
10049	11,943
10050	11,933
10051	11,933
10052	11,943
10053	12,461
10054	12,447
10055	12,447
10056	12,461
10057	13,036
10058	13,016
10059	13,016
10060	13,036
10061	13,677
10062	13,647
10063	13,647
10064	13,677
10065	14,39
10066	14,349
10067	14,349
10068	14,39
10069	15,171
10070	15,122
10071	15,122
10072	15,171
10073	16,006
10074	15,959
10075	15,959
10076	16,006
10077	16,861
10078	16,843
10079	16,843
10080	16,861
10081	17,659
10082	17,715
10083	17,715
10084	17,659
10085	18,61
10086	18,982
10087	18,982
10088	18,61
10089	19,022
10090	19,394
10091	19,394
10092	19,022
10093	16,174
10094	15,537
10095	15,537
10096	16,174
10097	19,069
10098	19,308
10099	19,308
10100	19,069
10101	18,728
10102	18,566
10103	18,566
10104	18,728
10105	17,774
10106	17,468
10107	17,468
10108	17,774
10109	18,727
10110	18,776
10111	18,776
10112	18,727
10113	8,0402
10114	8,0101
10115	8,0101
10116	8,0402
10117	7,1099
10118	7,0965
10119	7,0965
10120	7,1099
10121	9,1827
10122	9,1402
10123	9,1402
10124	9,1827
10125	6,7051
10126	6,7081
10127	6,7081
10128	6,7051
10129	9,5268
10130	9,4801
10131	9,4801
10132	9,5268
10133	6,3035
10134	6,3045
10135	6,3045
10136	6,3035
10137	9,9213
10138	9,8934
10139	9,8934
10140	9,9213
10141	6,0886
10142	6,0822
10143	6,0822
10144	6,0886
10145	10,119
10146	10,117
10147	10,117
10148	10,119
10149	10,169
10150	10,211
10151	10,211
10152	10,169
10153	5,8022
10154	5,8013
10155	5,8013
10156	5,8022
10157	10,125
10158	10,205
10159	10,205
10160	10,125
10161	10,068
10162	10,17
10163	10,17
10164	10,068
10165	5,8467
10166	5,857
10167	5,857
10168	5,8467
10169	9,9793
10170	10,073
10171	10,073
10172	9,9793
10173	9,915
10174	9,9842
10175	9,9842
10176	9,915
10177	6,3127
10178	6,3183
10179	6,3183
10180	6,3127
10181	9,8396
10182	9,8812
10183	9,8812
10184	9,8396
10185	6,6474
10186	6,6308
10187	6,6308
10188	6,6474
10189	9,7477
10190	9,7686
10191	9,7686
10192	9,7477
10193	7,0613
10194	7,0657
10195	7,0657
10196	7,0613
10197	9,6275
10198	9,6355
10199	9,6355
10200	9,6275
10201	7,6387
10202	7,6236
10203	7,6236
10204	7,6387
10205	9,48
10206	9,4815
10207	9,4815
10208	9,48
10209	9,3092
10210	9,3079
10211	9,3079
10212	9,3092
10213	8,4703
10214	8,4174
10215	8,4174
10216	8,4703
10217	9,1211
10218	9,1192
10219	9,1192
10220	9,1211
10221	8,9216
10222	8,9197
10223	8,9197
10224	8,9216
10225	9,5927
10226	9,5436
10227	9,5436
10228	9,5927
10229	8,7154
10230	8,7137
10231	8,7137
10232	8,7154
10233	9,9563
10234	9,9231
10235	9,9231
10236	9,9563
10237	8,5063
10238	8,5047
10239	8,5047
10240	8,5063
10241	10,11
10242	10,111
10243	10,111
10244	10,11
10245	8,2971
10246	8,2954
10247	8,2954
10248	8,2971
10249	10,18
10250	10,22
10251	10,22
10252	10,18
10253	8,09
10254	8,0879
10255	8,0879
10256	8,09
10257	10,134
10258	10,214
10259	10,214
10260	10,134
10261	7,8866
10262	7,884
10263	7,884
10264	7,8866
10265	10,066
10266	10,168
10267	10,168
10268	10,066
10269	7,6887
10270	7,6854
10271	7,6854
10272	7,6887
10273	9,9839
10274	10,077
10275	10,077
10276	9,9839
10277	7,4976
10278	7,4936
10279	7,4936
10280	7,4976
10281	9,9136
10282	9,9823
10283	9,9823
10284	9,9136
10285	7,3148
10286	7,3099
10287	7,3099
10288	7,3148
10289	9,8399
10290	9,8817
10291	9,8817
10292	9,8399
10293	7,1417
10294	7,136
10295	7,136
10296	7,1417
10297	9,747
10298	9,7678
10299	9,7678
10300	9,747
10301	6,98
10302	6,9733
10303	6,9733
10304	6,98
10305	9,627
10306	9,635
10307	9,635
10308	9,627
10309	6,8311
10310	6,8235
10311	6,8235
10312	6,8311
10313	9,4794
10314	9,4808
10315	9,4808
10316	9,4794
10317	6,6968
10318	6,6882
10319	6,6882
10320	6,6968
10321	9,3085
10322	9,3073
10323	9,3073
10324	9,3085
10325	6,5789
10326	6,5693
10327	6,5693
10328	6,5789
10329	9,1204
10330	9,1185
10331	9,1185
10332	9,1204
10333	6,4794
10334	6,4686
10335	6,4686
10336	6,4794
10337	8,9209
10338	8,919
10339	8,919
10340	8,9209
10341	6,4006
10342	6,3885
10343	6,3885
10344	6,4006
10345	8,7147
10346	8,713
10347	8,713
10348	8,7147
10349	6,3449
10350	6,3314
10351	6,3314
10352	6,3449
10353	8,5055
10354	8,5039
10355	8,5039
10356	8,5055
10357	6,3152
10358	6,3001
10359	6,3001
10360	6,3152
10361	8,2963
10362	8,2946
10363	8,2946
10364	8,2963
10365	6,315
10366	6,2981
10367	6,2981
10368	6,315
10369	8,0891
10370	8,087
10371	8,087
10372	8,0891
10373	6,3483
10374	6,3294
10375	6,3294
10376	6,3483
10377	7,8858
10378	7,8831
10379	7,8831
10380	7,8858
10381	6,4203
10382	6,3989
10383	6,3989
10384	6,4203
10385	7,6878
10386	7,6845
10387	7,6845
10388	7,6878
10389	6,5372
10390	6,5131
10391	6,5131
10392	6,5372
10393	7,4967
10394	7,4927
10395	7,4927
10396	7,4967
10397	6,7071
10398	6,6799
10399	6,6799
10400	6,7071
10401	7,3139
10402	7,3091
10403	7,3091
10404	7,3139
10405	6,9402
10406	6,9098
10407	6,9098
10408	6,9402
10409	7,1409
10410	7,1352
10411	7,1352
10412	7,1409
10413	7,25
10414	7,2162
10415	7,2162
10416	7,25
10417	6,9792
10418	6,9725
10419	6,9725
10420	6,9792
10421	7,6537
10422	7,6168
10423	7,6168
10424	7,6537
10425	6,8303
10426	6,8227
10427	6,8227
10428	6,8303
10429	8,1732
10430	8,1345
10431	8,1345
10432	8,1732
10433	6,6961
10434	6,6875
10435	6,6875
10436	6,6961
10437	8,8357
10438	8,7977
10439	8,7977
10440	8,8357
10441	6,5783
10442	6,5686
10443	6,5686
10444	6,5783
10445	9,6712
10446	9,6385
10447	9,6385
10448	9,6712
10449	6,4789
10450	6,4681
10451	6,4681
10452	6,4789
10453	10,71
10454	10,69
10455	10,69
10456	10,71
10457	6,4001
10458	6,3881
10459	6,3881
10460	6,4001
10461	11,965
10462	11,965
10463	11,965
10464	11,965
10465	6,3446
10466	6,3311
10467	6,3311
10468	6,3446
10469	13,462
10470	13,49
10471	13,49
10472	13,462
10473	6,3151
10474	6,3
10475	6,3
10476	6,3151
10477	15,077
10478	15,125
10479	15,125
10480	15,077
10481	6,3151
10482	6,2982
10483	6,2982
10484	6,3151
10485	16,611
10486	16,667
10487	16,667
10488	16,611
10489	6,3487
10490	6,3297
10491	6,3297
10492	6,3487
10493	18,143
10494	18,167
10495	18,167
10496	18,143
10497	6,421
10498	6,3996
10499	6,3996
10500	6,421
10501	19,337
10502	19,311
10503	19,311
10504	19,337
10505	6,5383
10506	6,5142
10507	6,5142
10508	6,5383
10509	20,437
10510	20,297
10511	20,297
10512	20,437
10513	6,7087
10514	6,6815
10515	6,6815
10516	6,7087
10517	6,9424
10518	6,9119
10519	6,9119
10520	6,9424
10521	7,253
10522	7,2191
10523	7,2191
10524	7,253
10525	7,6576
10526	7,6207
10527	7,6207
10528	7,6576
10529	21,548
10530	21,171
10531	21,171
10532	21,548
10533	8,1784
10534	8,1397
10535	8,1397
10536	8,1784
10537	8,8423
10538	8,8043
10539	8,8043
10540	8,8423
10541	9,6799
10542	9,6473
10543	9,6473
10544	9,6799
10545	10,72
10546	10,7
10547	10,7
10548	10,72
10549	21,311
10550	20,995
10551	20,995
10552	21,311
10553	11,98
10554	11,98
10555	11,98
10556	11,98
10557	13,454
10558	13,481
10559	13,481
10560	13,454
10561	19,895
10562	19,781
10563	19,781
10564	19,895
10565	15,025
10566	15,073
10567	15,073
10568	15,025
10569	19,081
10570	19,043
10571	19,043
10572	19,081
10573	16,47
10574	16,519
10575	16,519
10576	16,47
10577	17,919
10578	17,941
10579	17,941
10580	17,919
10581	17,759
10582	17,782
10583	17,782
10584	17,759
10585	16,651
10586	16,703
10587	16,703
10588	16,651
10589	15,112
10590	15,16
10591	15,16
10592	15,112
10593	19,713
10594	19,606
10595	19,606
10596	19,713
10597	13,525
10598	13,553
10599	13,553
10600	13,525
10601	20,446
10602	20,244
10603	20,244
10604	20,446
10605	12,028
10606	12,029
10607	12,029
10608	12,028
10609	10,774
10610	10,755
10611	10,755
10612	10,774
10613	9,736
10614	9,7035
10615	9,7035
10616	9,736
10617	8,902
10618	8,8636
10619	8,8636
10620	8,902
10621	21,293
10622	20,947
10623	20,947
10624	21,293
10625	8,2433
10626	8,2037
10627	8,2037
10628	8,2433
10629	7,7294
10630	7,6914
10631	7,6914
10632	7,7294
10633	21,12
10634	20,797
10635	20,797
10636	21,12
10637	7,3334
10638	7,2982
10639	7,2982
10640	7,3334
10641	7,0334
10642	7,0014
10643	7,0014
10644	7,0334
10645	20,542
10646	20,344
10647	20,344
10648	20,542
10649	6,812
10650	6,7832
10651	6,7832
10652	6,812
10653	20,111
10654	19,989
10655	19,989
10656	20,111
10657	6,656
10658	6,6301
10659	6,6301
10660	6,656
10661	6,5551
10662	6,5318
10663	6,5318
10664	6,5551
10665	18,036
10666	18,062
10667	18,062
10668	18,036
10669	6,5015
10670	6,4805
10671	6,4805
10672	6,5015
10673	16,823
10674	16,874
10675	16,874
10676	16,823
10677	6,4891
10678	6,4701
10679	6,4701
10680	6,4891
10681	15,131
10682	15,179
10683	15,179
10684	15,131
10685	6,5132
10686	6,4959
10687	6,4959
10688	6,5132
10689	13,524
10690	13,549
10691	13,549
10692	13,524
10693	6,57
10694	6,5541
10695	6,5541
10696	6,57
10697	12,126
10698	12,129
10699	12,129
10700	12,126
10701	6,6565
10702	6,6418
10703	6,6418
10704	6,6565
10705	10,926
10706	10,908
10707	10,908
10708	10,926
10709	6,77
10710	6,7564
10711	6,7564
10712	6,77
10713	9,8949
10714	9,8642
10715	9,8642
10716	9,8949
10717	6,9087
10718	6,896
10719	6,896
10720	6,9087
10721	9,0432
10722	9,0054
10723	9,0054
10724	9,0432
10725	7,0707
10726	7,0588
10727	7,0588
10728	7,0707
10729	8,3661
10730	8,3265
10731	8,3265
10732	8,3661
10733	7,2546
10734	7,2434
10735	7,2434
10736	7,2546
10737	7,834
10738	7,7955
10739	7,7955
10740	7,834
10741	7,4591
10742	7,4485
10743	7,4485
10744	7,4591
10745	7,4207
10746	7,3847
10747	7,3847
10748	7,4207
10749	7,683
10750	7,673
10751	7,673
10752	7,683
10753	7,1044
10754	7,0715
10755	7,0715
10756	7,1044
10757	7,9254
10758	7,916
10759	7,916
10760	7,9254
10761	6,8677
10762	6,838
10763	6,838
10764	6,8677
10765	8,1852
10766	8,1765
10767	8,1765
10768	8,1852
10769	6,6971
10770	6,6703
10771	6,6703
10772	6,6971
10773	8,4618
10774	8,4537
10775	8,4537
10776	8,4618
10777	6,5822
10778	6,5581
10779	6,5581
10780	6,5822
10781	8,7544
10782	8,747
10783	8,747
10784	8,7544
10785	6,515
10786	6,4933
10787	6,4933
10788	6,515
10789	9,0624
10790	9,0558
10791	9,0558
10792	9,0624
10793	6,4893
10794	6,4696
10795	6,4696
10796	6,4893
10797	9,3854
10798	9,3797
10799	9,3797
10800	9,3854
10801	6,5002
10802	6,4823
10803	6,4823
10804	6,5002
10805	9,7232
10806	9,7185
10807	9,7185
10808	9,7232
10809	6,5438
10810	6,5274
10811	6,5274
10812	6,5438
10813	10,076
10814	10,072
10815	10,072
10816	10,076
10817	6,617
10818	6,6018
10819	6,6018
10820	6,617
10821	10,445
10822	10,442
10823	10,442
10824	10,445
10825	6,7172
10826	6,7032
10827	6,7032
10828	6,7172
10829	10,831
10830	10,829
10831	10,829
10832	10,831
10833	6,8424
10834	6,8293
10835	6,8293
10836	6,8424
10837	11,238
10838	11,235
10839	11,235
10840	11,238
10841	6,9908
10842	6,9785
10843	6,9785
10844	6,9908
10845	11,667
10846	11,663
10847	11,663
10848	11,667
10849	7,1609
10850	7,1493
10851	7,1493
10852	7,1609
10853	12,124
10854	12,117
10855	12,117
10856	12,124
10857	7,3513
10858	7,3404
10859	7,3404
10860	7,3513
10861	12,61
10862	12,598
10863	12,598
10864	12,61
10865	7,561
10866	7,5507
10867	7,5507
10868	7,561
10869	13,126
10870	13,105
10871	13,105
10872	13,126
10873	7,789
10874	7,7792
10875	7,7792
10876	7,789
10877	13,659
10878	13,632
10879	13,632
10880	13,659
10881	8,0342
10882	8,0251
10883	8,0251
10884	8,0342
10885	14,185
10886	14,159
10887	14,159
10888	14,185
10889	8,296
10890	8,2875
10891	8,2875
10892	8,296
10893	14,645
10894	14,638
10895	14,638
10896	14,645
10897	8,5735
10898	8,5657
10899	8,5657
10900	8,5735
10901	14,978
10902	15,022
10903	15,022
10904	14,978
10905	8,8662
10906	8,8591
10907	8,8591
10908	8,8662
10909	15,177
10910	15,307
10911	15,307
10912	15,177
10913	9,1735
10914	9,1672
10915	9,1672
10916	9,1735
10917	15,291
10918	15,515
10919	15,515
10920	15,291
10921	9,4952
10922	9,4898
10923	9,4898
10924	9,4952
10925	15,42
10926	15,699
10927	15,699
10928	15,42
10929	9,8311
10930	9,8267
10931	9,8267
10932	9,8311
10933	15,553
10934	15,782
10935	15,782
10936	15,553
10937	10,182
10938	10,178
10939	10,178
10940	10,182
10941	15,819
10942	15,878
10943	15,878
10944	15,819
10945	10,548
10946	10,545
10947	10,545
10948	10,548
10949	16,198
10950	16,043
10951	16,043
10952	16,198
10953	10,932
10954	10,93
10955	10,93
10956	10,932
10957	11,335
10958	11,333
10959	11,333
10960	11,335
10961	11,762
10962	11,758
10963	11,758
10964	11,762
10965	12,216
10966	12,208
10967	12,208
10968	12,216
10969	17,532
10970	17,078
10971	17,078
10972	17,532
10973	12,699
10974	12,685
10975	12,685
10976	12,699
10977	17,267
10978	16,788
10979	16,788
10980	17,267
10981	13,208
10982	13,186
10983	13,186
10984	13,208
10985	13,731
10986	13,704
10987	13,704
10988	13,731
10989	14,243
10990	14,218
10991	14,218
10992	14,243
10993	14,699
10994	14,696
10995	14,696
10996	14,699
10997	15,
10998	15,049
10999	15,049
11000	15,
11001	16,759
11002	16,349
11003	16,349
11004	16,759
11005	15,101
11006	15,232
11007	15,232
11008	15,101
11009	16,622
11010	16,201
11011	16,201
11012	16,622
11013	15,023
11014	15,24
11015	15,24
11016	15,023
11017	16,916
11018	16,471
11019	16,471
11020	16,916
11021	15,027
11022	15,287
11023	15,287
11024	15,027
11025	16,994
11026	16,537
11027	16,537
11028	16,994
11029	15,105
11030	15,324
11031	15,324
11032	15,105
11033	15,411
11034	15,518
11035	15,518
11036	15,411
11037	16,714
11038	16,333
11039	16,333
11040	16,714
11041	15,478
11042	15,435
11043	15,435
11044	15,478
11045	15,886
11046	15,706
11047	15,706
11048	15,886
11049	9,1752
11050	9,1767
11051	9,1767
11052	9,1752
11053	9,3925
11054	9,4232
11055	9,4232
11056	9,3925
11057	9,5043
11058	9,5562
11059	9,5562
11060	9,5043
11061	9,4899
11062	9,5547
11063	9,5547
11064	9,4899
11065	9,3822
11066	9,4467
11067	9,4467
11068	9,3822
11069	9,2458
11070	9,2993
11071	9,2993
11072	9,2458
11073	9,1101
11074	9,1467
11075	9,1467
11076	9,1101
11077	9,1832
11078	9,1849
11079	9,1849
11080	9,1832
11081	8,9876
11082	9,0081
11083	9,0081
11084	8,9876
11085	9,3939
11086	9,4235
11087	9,4235
11088	9,3939
11089	8,8706
11090	8,8793
11091	8,8793
11092	8,8706
11093	9,5043
11094	9,5572
11095	9,5572
11096	9,5043
11097	8,7523
11098	8,7544
11099	8,7544
11100	8,7523
11101	9,4904
11102	9,5553
11103	9,5553
11104	9,4904
11105	8,6267
11106	8,626
11107	8,626
11108	8,6267
11109	9,3831
11110	9,4475
11111	9,4475
11112	9,3831
11113	8,4911
11114	8,49
11115	8,49
11116	8,4911
11117	9,2457
11118	9,2992
11119	9,2992
11120	9,2457
11121	8,3451
11122	8,3445
11123	8,3445
11124	8,3451
11125	9,1106
11126	9,1472
11127	9,1472
11128	9,1106
11129	8,1892
11130	8,1893
11131	8,1893
11132	8,1892
11133	8,9872
11134	9,0076
11135	9,0076
11136	8,9872
11137	8,0245
11138	8,0252
11139	8,0252
11140	8,0245
11141	8,8704
11142	8,8791
11143	8,8791
11144	8,8704
11145	7,8525
11146	7,8533
11147	7,8533
11148	7,8525
11149	8,7519
11150	8,7539
11151	8,7539
11152	8,7519
11153	7,6747
11154	7,6754
11155	7,6754
11156	7,6747
11157	8,6262
11158	8,6255
11159	8,6255
11160	8,6262
11161	7,4928
11162	7,4931
11163	7,4931
11164	7,4928
11165	8,4906
11166	8,4895
11167	8,4895
11168	8,4906
11169	7,3086
11170	7,3082
11171	7,3082
11172	7,3086
11173	8,3446
11174	8,3439
11175	8,3439
11176	8,3446
11177	7,124
11178	7,1228
11179	7,1228
11180	7,124
11181	8,1886
11182	8,1887
11183	8,1887
11184	8,1886
11185	6,9408
11186	6,9388
11187	6,9388
11188	6,9408
11189	8,0239
11190	8,0245
11191	8,0245
11192	8,0239
11193	6,761
11194	6,758
11195	6,758
11196	6,761
11197	7,8518
11198	7,8526
11199	7,8526
11200	7,8518
11201	6,5864
11202	6,5825
11203	6,5825
11204	6,5864
11205	7,674
11206	7,6746
11207	7,6746
11208	7,674
11209	6,419
11210	6,4141
11211	6,4141
11212	6,419
11213	7,492
11214	7,4923
11215	7,4923
11216	7,492
11217	6,2605
11218	6,2547
11219	6,2547
11220	6,2605
11221	7,3078
11222	7,3074
11223	7,3074
11224	7,3078
11225	6,113
11226	6,1062
11227	6,1062
11228	6,113
11229	7,1232
11230	7,122
11231	7,122
11232	7,1232
11233	5,9783
11234	5,9704
11235	5,9704
11236	5,9783
11237	6,94
11238	6,9379
11239	6,9379
11240	6,94
11241	5,8584
11242	5,8494
11243	5,8494
11244	5,8584
11245	6,7601
11246	6,7572
11247	6,7572
11248	6,7601
11249	5,7554
11250	5,7453
11251	5,7453
11252	5,7554
11253	6,5855
11254	6,5816
11255	6,5816
11256	6,5855
11257	5,6719
11258	5,6604
11259	5,6604
11260	5,6719
11261	6,4181
11262	6,4132
11263	6,4132
11264	6,4181
11265	5,6106
11266	5,5975
11267	5,5975
11268	5,6106
11269	6,2597
11270	6,2539
11271	6,2539
11272	6,2597
11273	5,5748
11274	5,5598
11275	5,5598
11276	5,5748
11277	6,1122
11278	6,1054
11279	6,1054
11280	6,1122
11281	5,5685
11282	5,5513
11283	5,5513
11284	5,5685
11285	5,9775
11286	5,9697
11287	5,9697
11288	5,9775
11289	5,5969
11290	5,577
11291	5,577
11292	5,5969
11293	5,8577
11294	5,8487
11295	5,8487
11296	5,8577
11297	5,6664
11298	5,6433
11299	5,6433
11300	5,6664
11301	5,7548
11302	5,7447
11303	5,7447
11304	5,7548
11305	5,7857
11306	5,7587
11307	5,7587
11308	5,7857
11309	5,6715
11310	5,6599
11311	5,6599
11312	5,6715
11313	5,9659
11314	5,9344
11315	5,9344
11316	5,9659
11317	5,6103
11318	5,5972
11319	5,5972
11320	5,6103
11321	6,2219
11322	6,1852
11323	6,1852
11324	6,2219
11325	5,5746
11326	5,5596
11327	5,5596
11328	5,5746
11329	6,573
11330	6,5308
11331	6,5308
11332	6,573
11333	5,5686
11334	5,5514
11335	5,5514
11336	5,5686
11337	7,0441
11338	6,9966
11339	6,9966
11340	7,0441
11341	5,5972
11342	5,5773
11343	5,5773
11344	5,5972
11345	7,6656
11346	7,614
11347	7,614
11348	7,6656
11349	5,6671
11350	5,644
11351	5,644
11352	5,6671
11353	8,4715
11354	8,4189
11355	8,4189
11356	8,4715
11357	5,7869
11358	5,7599
11359	5,7599
11360	5,7869
11361	9,4931
11362	9,4448
11363	9,4448
11364	9,4931
11365	5,9677
11366	5,9361
11367	5,9361
11368	5,9677
11369	10,751
11370	10,714
11371	10,714
11372	10,751
11373	6,2244
11374	6,1877
11375	6,1877
11376	6,2244
11377	12,218
11378	12,198
11379	12,198
11380	12,218
11381	6,5766
11382	6,5343
11383	6,5343
11384	6,5766
11385	13,835
11386	13,836
11387	13,836
11388	13,835
11389	7,0491
11390	7,0014
11391	7,0014
11392	7,0491
11393	15,435
11394	15,449
11395	15,449
11396	15,435
11397	7,6723
11398	7,6206
11399	7,6206
11400	7,6723
11401	16,808
11402	16,815
11403	16,815
11404	16,808
11405	8,4802
11406	8,4277
11407	8,4277
11408	8,4802
11409	18,066
11410	18,04
11411	18,04
11412	18,066
11413	9,5049
11414	9,4567
11415	9,4567
11416	9,5049
11417	10,764
11418	10,727
11419	10,727
11420	10,764
11421	12,238
11422	12,218
11423	12,218
11424	12,238
11425	13,81
11426	13,811
11427	13,811
11428	13,81
11429	15,37
11430	15,384
11431	15,384
11432	15,37
11433	16,705
11434	16,714
11435	16,714
11436	16,705
11437	17,86
11438	17,843
11439	17,843
11440	17,86
11441	17,915
11442	17,893
11443	17,893
11444	17,915
11445	16,792
11446	16,799
11447	16,799
11448	16,792
11449	15,429
11450	15,442
11451	15,442
11452	15,429
11453	13,898
11454	13,899
11455	13,899
11456	13,898
11457	12,289
11458	12,27
11459	12,27
11460	12,289
11461	10,825
11462	10,788
11463	10,788
11464	10,825
11465	9,5677
11466	9,5194
11467	9,5194
11468	9,5677
11469	18,
11470	17,973
11471	17,973
11472	18,
11473	8,5455
11474	8,4925
11475	8,4925
11476	8,5455
11477	16,915
11478	16,922
11479	16,922
11480	16,915
11481	7,7403
11482	7,6878
11483	7,6878
11484	7,7403
11485	15,557
11486	15,568
11487	15,568
11488	15,557
11489	7,1212
11490	7,0725
11491	7,0725
11492	7,1212
11493	14,054
11494	14,057
11495	14,057
11496	14,054
11497	6,6549
11498	6,6113
11499	6,6113
11500	6,6549
11501	12,434
11502	12,416
11503	12,416
11504	12,434
11505	6,311
11506	6,2728
11507	6,2728
11508	6,311
11509	10,982
11510	10,947
11511	10,947
11512	10,982
11513	6,0647
11514	6,0315
11515	6,0315
11516	6,0647
11517	9,7391
11518	9,692
11519	9,692
11520	9,7391
11521	5,8966
11522	5,8679
11523	5,8679
11524	5,8966
11525	8,701
11526	8,6483
11527	8,6483
11528	8,701
11529	5,7919
11530	5,7669
11531	5,7669
11532	5,7919
11533	7,8757
11534	7,8228
11535	7,8228
11536	7,8757
11537	5,7395
11538	5,7177
11539	5,7177
11540	5,7395
11541	7,2354
11542	7,1857
11543	7,1857
11544	7,2354
11545	5,7311
11546	5,7119
11547	5,7119
11548	5,7311
11549	6,7486
11550	6,7037
11551	6,7037
11552	6,7486
11553	5,7605
11554	5,7434
11555	5,7434
11556	5,7605
11557	6,3855
11558	6,346
11559	6,346
11560	6,3855
11561	5,8228
11562	5,8074
11563	5,8074
11564	5,8228
11565	6,1217
11566	6,0872
11567	6,0872
11568	6,1217
11569	5,9145
11570	5,9005
11571	5,9005
11572	5,9145
11573	5,9374
11574	5,9075
11575	5,9075
11576	5,9374
11577	6,0327
11578	6,0198
11579	6,0198
11580	6,0327
11581	5,8178
11582	5,7918
11583	5,7918
11584	5,8178
11585	6,1751
11586	6,1632
11587	6,1632
11588	6,1751
11589	5,7514
11590	5,7287
11591	5,7287
11592	5,7514
11593	6,34
11594	6,3289
11595	6,3289
11596	6,34
11597	5,7297
11598	5,7096
11599	5,7096
11600	5,7297
11601	6,5259
11602	6,5155
11603	6,5155
11604	6,5259
11605	5,7461
11606	5,7283
11607	5,7283
11608	5,7461
11609	6,7315
11610	6,7217
11611	6,7217
11612	6,7315
11613	5,7957
11614	5,7797
11615	5,7797
11616	5,7957
11617	6,9556
11618	6,9464
11619	6,9464
11620	6,9556
11621	5,8747
11622	5,8602
11623	5,8602
11624	5,8747
11625	7,1972
11626	7,1887
11627	7,1887
11628	7,1972
11629	5,9803
11630	5,967
11631	5,967
11632	5,9803
11633	7,4554
11634	7,4474
11635	7,4474
11636	7,4554
11637	6,11
11638	6,0977
11639	6,0977
11640	6,11
11641	7,729
11642	7,7216
11643	7,7216
11644	7,729
11645	6,262
11646	6,2506
11647	6,2506
11648	6,262
11649	8,0169
11650	8,0103
11651	8,0103
11652	8,0169
11653	6,4349
11654	6,4242
11655	6,4242
11656	6,4349
11657	8,318
11658	8,3123
11659	8,3123
11660	8,318
11661	6,6272
11662	6,6172
11663	6,6172
11664	6,6272
11665	8,631
11666	8,6262
11667	8,6262
11668	8,631
11669	6,8379
11670	6,8285
11671	6,8285
11672	6,8379
11673	8,9542
11674	8,9507
11675	8,9507
11676	8,9542
11677	7,066
11678	7,0571
11679	7,0571
11680	7,066
11681	9,2861
11682	9,2839
11683	9,2839
11684	9,2861
11685	7,3105
11686	7,3022
11687	7,3022
11688	7,3105
11689	9,6245
11690	9,624
11691	9,624
11692	9,6245
11693	7,5703
11694	7,5626
11695	7,5626
11696	7,5703
11697	9,9673
11698	9,9686
11699	9,9686
11700	9,9673
11701	7,8446
11702	7,8376
11703	7,8376
11704	7,8446
11705	10,312
11706	10,315
11707	10,315
11708	10,312
11709	8,1323
11710	8,126
11711	8,126
11712	8,1323
11713	10,656
11714	10,661
11715	10,661
11716	10,656
11717	8,4321
11718	8,4267
11719	8,4267
11720	8,4321
11721	10,997
11722	11,002
11723	11,002
11724	10,997
11725	8,7428
11726	8,7384
11727	8,7384
11728	8,7428
11729	11,331
11730	11,335
11731	11,335
11732	11,331
11733	9,0628
11734	9,0597
11735	9,0597
11736	9,0628
11737	11,654
11738	11,656
11739	11,656
11740	11,654
11741	9,3905
11742	9,3888
11743	9,3888
11744	9,3905
11745	11,96
11746	11,956
11747	11,956
11748	11,96
11749	9,7239
11750	9,7239
11751	9,7239
11752	9,7239
11753	12,236
11754	12,227
11755	12,227
11756	12,236
11757	10,061
11758	10,063
11759	10,063
11760	10,061
11761	12,462
11762	12,453
11763	12,453
11764	12,462
11765	10,399
11766	10,402
11767	10,402
11768	10,399
11769	12,609
11770	12,61
11771	12,61
11772	12,609
11773	10,736
11774	10,741
11775	10,741
11776	10,736
11777	12,649
11778	12,681
11779	12,681
11780	12,649
11781	11,069
11782	11,074
11783	11,074
11784	11,069
11785	12,573
11786	12,654
11787	12,654
11788	12,573
11789	11,394
11790	11,398
11791	11,398
11792	11,394
11793	12,447
11794	12,578
11795	12,578
11796	12,447
11797	11,709
11798	11,71
11799	11,71
11800	11,709
11801	12,391
11802	12,532
11803	12,532
11804	12,391
11805	12,004
11806	12,
11807	12,
11808	12,004
11809	12,27
11810	12,261
11811	12,261
11812	12,27
11813	12,484
11814	12,475
11815	12,475
11816	12,484
11817	13,783
11818	13,654
11819	13,654
11820	13,783
11821	12,617
11822	12,62
11823	12,62
11824	12,617
11825	12,627
11826	12,662
11827	12,662
11828	12,627
11829	12,519
11830	12,601
11831	12,601
11832	12,519
11833	12,352
11834	12,479
11835	12,479
11836	12,352
11837	12,28
11838	12,416
11839	12,416
11840	12,28
11841	22,097
11842	21,088
11843	21,088
11844	22,097
11845	23,621
11846	21,783
11847	21,783
11848	23,621
11849	22,465
11850	19,884
11851	19,884
11852	22,465
11853	23,31
11854	20,366
11855	20,366
11856	23,31
11857	22,808
11858	19,991
11859	19,991
11860	22,808
11861	23,667
11862	21,696
11863	21,696
11864	23,667
11865	23,19
11866	21,658
11867	21,658
11868	23,19
11869	22,591
11870	21,86
11871	21,86
11872	22,591
11873	19,789
11874	19,507
11875	19,507
11876	19,789
11877	16,824
11878	16,662
11879	16,662
11880	16,824
11881	14,52
11882	14,408
11883	14,408
11884	14,52
11885	11,702
11886	11,638
11887	11,638
11888	11,702
11889	8,9571
11890	8,9205
11891	8,9205
11892	8,9571
11893	6,2565
11894	6,2394
11895	6,2394
11896	6,2565
11897	4,2217
11898	4,2377
11899	4,2377
11900	4,2217
11901	4,6938
11902	4,7397
11903	4,7397
11904	4,6938
11905	4,5975
11906	4,5973
11907	4,5973
11908	4,5975
11909	8,14
11910	8,1054
11911	8,1054
11912	8,14
11913	10,792
11914	10,734
11915	10,734
11916	10,792
11917	13,193
11918	13,107
11919	13,107
11920	13,193
11921	15,93
11922	15,838
11923	15,838
11924	15,93
11925	20,579
11926	20,326
11927	20,326
11928	20,579
11929	19,491
11930	18,928
11931	18,928
11932	19,491
11933	18,377
11934	17,762
11935	17,762
11936	18,377
11937	21,158
11938	20,945
11939	20,945
11940	21,158
11941	17,616
11942	17,103
11943	17,103
11944	17,616
11945	15,803
11946	15,094
11947	15,094
11948	15,803
11949	15,563
11950	14,827
11951	14,827
11952	15,563
11953	16,652
11954	16,048
11955	16,048
11956	16,652
11957	17,584
11958	17,185
11959	17,185
11960	17,584
11961	22,018
11962	21,916
11963	21,916
11964	22,018
11965	26,826
11966	27,021
11967	27,021
11968	26,826
11969	27,47
11970	27,841
11971	27,841
11972	27,47
11973	30,246
11974	30,584
11975	30,584
11976	30,246
11977	27,39
11978	27,588
11979	27,588
11980	27,39
11981	25,694
11982	25,767
11983	25,767
11984	25,694
11985	21,669
11986	21,695
11987	21,695
11988	21,669
11989	18,189
11990	18,252
11991	18,252
11992	18,189
11993	15,996
11994	16,148
11995	16,148
11996	15,996
11997	17,228
11998	17,295
11999	17,295
12000	17,228
12001	20,017
12002	20,005
12003	20,005
12004	20,017
12005	23,686
12006	23,663
12007	23,663
12008	23,686
12009	26,97
12010	27,106
12011	27,106
12012	26,97
12013	30,878
12014	31,165
12015	31,165
12016	30,878
12017	28,891
12018	29,268
12019	29,268
12020	28,891
12021	28,745
12022	29,037
12023	29,037
12024	28,745
12025	25,621
12026	25,704
12027	25,704
12028	25,621
12029	19,591
12030	19,678
12031	19,678
12032	19,591
12033	22,496
12034	22,623
12035	22,623
12036	22,496
12037	25,389
12038	25,541
12039	25,541
12040	25,389
12041	26,979
12042	27,145
12043	27,145
12044	26,979
12045	25,44
12046	25,616
12047	25,616
12048	25,44
12049	22,732
12050	22,494
12051	22,494
12052	22,732
12053	21,998
12054	21,623
12055	21,623
12056	21,998
12057	21,733
12058	21,227
12059	21,227
12060	21,733
12061	21,521
12062	20,986
12063	20,986
12064	21,521
12065	21,893
12066	21,451
12067	21,451
12068	21,893
12069	22,429
12070	22,184
12071	22,184
12072	22,429
12073	24,452
12074	24,353
12075	24,353
12076	24,452
12077	25,389
12078	25,434
12079	25,434
12080	25,389
12081	23,706
12082	23,898
12083	23,898
12084	23,706
12085	25,407
12086	25,59
12087	25,59
12088	25,407
12089	25,106
12090	25,265
12091	25,265
12092	25,106
12093	22,718
12094	22,846
12095	22,846
12096	22,718
12097	19,416
12098	19,502
12099	19,502
12100	19,416
12101	16,768
12102	16,814
12103	16,814
12104	16,768
12105	15,122
12106	15,14
12107	15,14
12108	15,122
12109	14,437
12110	14,44
12111	14,44
12112	14,437
12113	14,941
12114	14,952
12115	14,952
12116	14,941
12117	23,087
12118	22,946
12119	22,946
12120	23,087
12121	25,349
12122	25,35
12123	25,35
12124	25,349
12125	24,576
12126	24,732
12127	24,732
12128	24,576
12129	27,107
12130	27,257
12131	27,257
12132	27,107
12133	24,92
12134	25,1
12135	25,1
12136	24,92
12137	23,366
12138	23,513
12139	23,513
12140	23,366
12141	19,72
12142	19,82
12143	19,82
12144	19,72
12145	17,789
12146	17,851
12147	17,851
12148	17,789
12149	15,824
12150	15,852
12151	15,852
12152	15,824
12153	14,647
12154	14,653
12155	14,653
12156	14,647
12157	14,516
12158	14,52
12159	14,52
12160	14,516
12161	15,611
12162	15,637
12163	15,637
12164	15,611
12165	17,958
12166	18,02
12167	18,02
12168	17,958
12169	20,894
12170	21,004
12171	21,004
12172	20,894
12173	24,031
12174	24,176
12175	24,176
12176	24,031
12177	24,722
12178	24,9
12179	24,9
12180	24,722
12181	26,802
12182	26,961
12183	26,961
12184	26,802
12185	24,202
12186	24,368
12187	24,368
12188	24,202
12189	24,222
12190	24,226
12191	24,226
12192	24,222
12193	23,556
12194	23,351
12195	23,351
12196	23,556
12197	22,207
12198	21,797
12199	21,797
12200	22,207
12201	21,357
12202	20,804
12203	20,804
12204	21,357
12205	21,252
12206	20,668
12207	20,668
12208	21,252
12209	21,659
12210	21,141
12211	21,141
12212	21,659
12213	22,491
12214	22,144
12215	22,144
12216	22,491
12217	20,277
12218	20,128
12219	20,128
12220	20,277
12221	20,542
12222	20,347
12223	20,347
12224	20,542
12225	20,768
12226	20,551
12227	20,551
12228	20,768
12229	20,782
12230	20,56
12231	20,56
12232	20,782
12233	20,723
12234	20,505
12235	20,505
12236	20,723
12237	20,543
12238	20,347
12239	20,347
12240	20,543
12241	20,247
12242	20,1
12243	20,1
12244	20,247
12245	19,896
12246	19,83
12247	19,83
12248	19,896
12249	19,045
12250	19,019
12251	19,019
12252	19,045
12253	17,853
12254	17,854
12255	17,854
12256	17,853
12257	16,595
12258	16,642
12259	16,642
12260	16,595
12261	14,884
12262	14,94
12263	14,94
12264	14,884
12265	12,972
12266	13,
12267	13,
12268	12,972
12269	11,155
12270	11,148
12271	11,148
12272	11,155
12273	9,5571
12274	9,5197
12275	9,5197
12276	9,5571
12277	8,2464
12278	8,1906
12279	8,1906
12280	8,2464
12281	7,2162
12282	7,1528
12283	7,1528
12284	7,2162
12285	6,4346
12286	6,3716
12287	6,3716
12288	6,4346
12289	5,8579
12290	5,8002
12291	5,8002
12292	5,8579
12293	5,4443
12294	5,3938
12295	5,3938
12296	5,4443
12297	5,1578
12298	5,1149
12299	5,1149
12300	5,1578
12301	4,9697
12302	4,9338
12303	4,9338
12304	4,9697
12305	4,8583
12306	4,8283
12307	4,8283
12308	4,8583
12309	4,8071
12310	4,7819
12311	4,7819
12312	4,8071
12313	4,8041
12314	4,7829
12315	4,7829
12316	4,8041
12317	4,8405
12318	4,8224
12319	4,8224
12320	4,8405
12321	4,9101
12322	4,8944
12323	4,8944
12324	4,9101
12325	5,008
12326	4,9942
12327	4,9942
12328	5,008
12329	5,1309
12330	5,1186
12331	5,1186
12332	5,1309
12333	5,2764
12334	5,2652
12335	5,2652
12336	5,2764
12337	5,4424
12338	5,4322
12339	5,4322
12340	5,4424
12341	5,6277
12342	5,6182
12343	5,6182
12344	5,6277
12345	5,8309
12346	5,8221
12347	5,8221
12348	5,8309
12349	6,0511
12350	6,0429
12351	6,0429
12352	6,0511
12353	6,2876
12354	6,2798
12355	6,2798
12356	6,2876
12357	6,5394
12358	6,5321
12359	6,5321
12360	6,5394
12361	6,8057
12362	6,799
12363	6,799
12364	6,8057
12365	7,0856
12366	7,0794
12367	7,0794
12368	7,0856
12369	7,3779
12370	7,3724
12371	7,3724
12372	7,3779
12373	7,6815
12374	7,6767
12375	7,6767
12376	7,6815
12377	7,9946
12378	7,9907
12379	7,9907
12380	7,9946
12381	8,3153
12382	8,3125
12383	8,3125
12384	8,3153
12385	8,6411
12386	8,6397
12387	8,6397
12388	8,6411
12389	8,9686
12390	8,9688
12391	8,9688
12392	8,9686
12393	9,2938
12394	9,296
12395	9,296
12396	9,2938
12397	9,6114
12398	9,6158
12399	9,6158
12400	9,6114
12401	9,9148
12402	9,9216
12403	9,9216
12404	9,9148
12405	10,196
12406	10,205
12407	10,205
12408	10,196
12409	10,444
12410	10,455
12411	10,455
12412	10,444
12413	10,649
12414	10,661
12415	10,661
12416	10,649
12417	10,799
12418	10,809
12419	10,809
12420	10,799
12421	10,879
12422	10,886
12423	10,886
12424	10,879
12425	10,881
12426	10,885
12427	10,885
12428	10,881
12429	10,798
12430	10,801
12431	10,801
12432	10,798
12433	10,633
12434	10,641
12435	10,641
12436	10,633
12437	10,401
12438	10,427
12439	10,427
12440	10,401
12441	10,145
12442	10,196
12443	10,196
12444	10,145
12445	9,9257
12446	9,9917
12447	9,9917
12448	9,9257
12449	9,7787
12450	9,8321
12451	9,8321
12452	9,7787
12453	9,9307
12454	9,9537
12455	9,9537
12456	9,9307
12457	10,422
12458	10,399
12459	10,399
12460	10,422
12461	11,101
12462	11,016
12463	11,016
12464	11,101
12465	12,036
12466	11,903
12467	11,903
12468	12,036
12469	13,156
12470	12,985
12471	12,985
12472	13,156
12473	14,356
12474	14,157
12475	14,157
12476	14,356
12477	15,464
12478	15,247
12479	15,247
12480	15,464
12481	16,464
12482	16,233
12483	16,233
12484	16,464
12485	17,31
12486	17,074
12487	17,074
12488	17,31
12489	17,967
12490	17,732
12491	17,732
12492	17,967
12493	18,42
12494	18,189
12495	18,189
12496	18,42
12497	18,716
12498	18,484
12499	18,484
12500	18,716
12501	18,524
12502	18,297
12503	18,297
12504	18,524
12505	18,088
12506	17,865
12507	17,865
12508	18,088
12509	17,523
12510	17,297
12511	17,297
12512	17,523
12513	16,529
12514	16,307
12515	16,307
12516	16,529
12517	15,502
12518	15,297
12519	15,297
12520	15,502
12521	14,26
12522	14,072
12523	14,072
12524	14,26
12525	13,046
12526	12,893
12527	12,893
12528	13,046
12529	12,066
12530	11,933
12531	11,933
12532	12,066
12533	11,298
12534	11,206
12535	11,206
12536	11,298
12537	10,643
12538	10,612
12539	10,612
12540	10,643
12541	9,9755
12542	9,9989
12543	9,9989
12544	9,9755
12545	9,8059
12546	9,8596
12547	9,8596
12548	9,8059
12549	9,9345
12550	10,
12551	10,
12552	9,9345
12553	10,159
12554	10,208
12555	10,208
12556	10,159
12557	10,421
12558	10,445
12559	10,445
12560	10,421
12561	10,653
12562	10,661
12563	10,661
12564	10,653
12565	10,813
12566	10,816
12567	10,816
12568	10,813
12569	10,887
12570	10,891
12571	10,891
12572	10,887
12573	10,872
12574	10,88
12575	10,88
12576	10,872
12577	10,777
12578	10,787
12579	10,787
12580	10,777
12581	10,613
12582	10,625
12583	10,625
12584	10,613
12585	10,394
12586	10,404
12587	10,404
12588	10,394
12589	10,132
12590	10,14
12591	10,14
12592	10,132
12593	9,8387
12594	9,8449
12595	9,8449
12596	9,8387
12597	9,5247
12598	9,5284
12599	9,5284
12600	9,5247
12601	9,1979
12602	9,1995
12603	9,1995
12604	9,1979
12605	8,865
12606	8,8647
12607	8,8647
12608	8,865
12609	8,5312
12610	8,5293
12611	8,5293
12612	8,5312
12613	8,2004
12614	8,1972
12615	8,1972
12616	8,2004
12617	7,8759
12618	7,8717
12619	7,8717
12620	7,8759
12621	7,5601
12622	7,555
12623	7,555
12624	7,5601
12625	7,255
12626	7,2492
12627	7,2492
12628	7,255
12629	6,9621
12630	6,9557
12631	6,9557
12632	6,9621
12633	6,6828
12634	6,6758
12635	6,6758
12636	6,6828
12637	6,4179
12638	6,4105
12639	6,4105
12640	6,4179
12641	6,1686
12642	6,1606
12643	6,1606
12644	6,1686
12645	5,9357
12646	5,9272
12647	5,9272
12648	5,9357
12649	5,7201
12650	5,711
12651	5,711
12652	5,7201
12653	5,5227
12654	5,5129
12655	5,5129
12656	5,5227
12657	5,3447
12658	5,334
12659	5,334
12660	5,3447
12661	5,1874
12662	5,1756
12663	5,1756
12664	5,1874
12665	5,0526
12666	5,0394
12667	5,0394
12668	5,0526
12669	4,9428
12670	4,9278
12671	4,9278
12672	4,9428
12673	4,861
12674	4,8438
12675	4,8438
12676	4,861
12677	4,8118
12678	4,7917
12679	4,7917
12680	4,8118
12681	4,8012
12682	4,7774
12683	4,7774
12684	4,8012
12685	4,8376
12686	4,8091
12687	4,8091
12688	4,8376
12689	4,9326
12690	4,8984
12691	4,8984
12692	4,9326
12693	5,1022
12694	5,0611
12695	5,0611
12696	5,1022
12697	5,3678
12698	5,3192
12699	5,3192
12700	5,3678
12701	5,7582
12702	5,7019
12703	5,7019
12704	5,7582
12705	6,3097
12706	6,2475
12707	6,2475
12708	6,3097
12709	7,0657
12710	7,0018
12711	7,0018
12712	7,0657
12713	8,0727
12714	8,015
12715	8,015
12716	8,0727
12717	9,3682
12718	9,3278
12719	9,3278
12720	9,3682
12721	10,963
12722	10,952
12723	10,952
12724	10,963
12725	12,803
12726	12,828
12727	12,828
12728	12,803
12729	14,739
12730	14,792
12731	14,792
12732	14,739
12733	16,499
12734	16,548
12735	16,548
12736	16,499
12737	17,836
12738	17,838
12739	17,838
12740	17,836
12741	19,013
12742	18,987
12743	18,987
12744	19,013
12745	19,9
12746	19,828
12747	19,828
12748	19,9
12749	20,299
12750	20,149
12751	20,149
12752	20,299
12753	20,56
12754	20,364
12755	20,364
12756	20,56
12757	20,793
12758	20,576
12759	20,576
12760	20,793
12761	20,798
12762	20,577
12763	20,577
12764	20,798
12765	20,73
12766	20,513
12767	20,513
12768	20,73
12769	20,533
12770	20,34
12771	20,34
12772	20,533
12773	20,294
12774	20,152
12775	20,152
12776	20,294
12777	19,904
12778	19,837
12779	19,837
12780	19,904
12781	19,043
12782	19,019
12783	19,019
12784	19,043
12785	17,789
12786	17,789
12787	17,789
12788	17,789
12789	16,487
12790	16,537
12791	16,537
12792	16,487
12793	14,675
12794	14,728
12795	14,728
12796	14,675
12797	12,726
12798	12,751
12799	12,751
12800	12,726
12801	10,878
12802	10,866
12803	10,866
12804	10,878
12805	9,2841
12806	9,2431
12807	9,2431
12808	9,2841
12809	7,9917
12810	7,934
12811	7,934
12812	7,9917
12813	6,9882
12814	6,9249
12815	6,9249
12816	6,9882
12817	6,2343
12818	6,1731
12819	6,1731
12820	6,2343
12821	5,6823
12822	5,6274
12823	5,6274
12824	5,6823
12825	5,2885
12826	5,2414
12827	5,2414
12828	5,2885
12829	5,0165
12830	4,9771
12831	4,9771
12832	5,0165
12833	4,8376
12834	4,8051
12835	4,8051
12836	4,8376
12837	4,7305
12838	4,7037
12839	4,7037
12840	4,7305
12841	4,679
12842	4,6569
12843	4,6569
12844	4,679
12845	4,6716
12846	4,6532
12847	4,6532
12848	4,6716
12849	4,6995
12850	4,6842
12851	4,6842
12852	4,6995
12853	4,7565
12854	4,7435
12855	4,7435
12856	4,7565
12857	4,8377
12858	4,8266
12859	4,8266
12860	4,8377
12861	4,9394
12862	4,9299
12863	4,9299
12864	4,9394
12865	5,0587
12866	5,0505
12867	5,0505
12868	5,0587
12869	5,1931
12870	5,186
12871	5,186
12872	5,1931
12873	5,3405
12874	5,3344
12875	5,3344
12876	5,3405
12877	5,4988
12878	5,4937
12879	5,4937
12880	5,4988
12881	5,6661
12882	5,6619
12883	5,6619
12884	5,6661
12885	5,8405
12886	5,8372
12887	5,8372
12888	5,8405
12889	6,0199
12890	6,0174
12891	6,0174
12892	6,0199
12893	6,2022
12894	6,2006
12895	6,2006
12896	6,2022
12897	6,385
12898	6,3842
12899	6,3842
12900	6,385
12901	6,5659
12902	6,566
12903	6,566
12904	6,5659
12905	6,7425
12906	6,7434
12907	6,7434
12908	6,7425
12909	6,9122
12910	6,9137
12911	6,9137
12912	6,9122
12913	7,0726
12914	7,0746
12915	7,0746
12916	7,0726
12917	7,2216
12918	7,2237
12919	7,2237
12920	7,2216
12921	7,3577
12922	7,3594
12923	7,3594
12924	7,3577
12925	7,4802
12926	7,4811
12927	7,4811
12928	7,4802
12929	7,59
12930	7,5897
12931	7,5897
12932	7,59
12933	7,6902
12934	7,6885
12935	7,6885
12936	7,6902
12937	7,7865
12938	7,7838
12939	7,7838
12940	7,7865
12941	7,888
12942	7,8857
12943	7,8857
12944	7,888
12945	8,0076
12946	8,0087
12947	8,0087
12948	8,0076
12949	8,1608
12950	8,1692
12951	8,1692
12952	8,1608
12953	8,3626
12954	8,3829
12955	8,3829
12956	8,3626
12957	8,6171
12958	8,6521
12959	8,6521
12960	8,6171
12961	8,9084
12962	8,9576
12963	8,9576
12964	8,9084
12965	9,1823
12966	9,2401
12967	9,2401
12968	9,1823
12969	9,3562
12970	9,4123
12971	9,4123
12972	9,3562
12973	9,3334
12974	9,3696
12975	9,3696
12976	9,3334
12977	9,0778
12978	9,0805
12979	9,0805
12980	9,0778
12981	8,761
12982	8,7434
12983	8,7434
12984	8,761
12985	8,3479
12986	8,3062
12987	8,3062
12988	8,3479
12989	7,8584
12990	7,786
12991	7,786
12992	7,8584
12993	7,4655
12994	7,3812
12995	7,3812
12996	7,4655
12997	7,1553
12998	7,0707
12999	7,0707
13000	7,1553
13001	6,8944
13002	6,8143
13003	6,8143
13004	6,8944
13005	6,6934
13006	6,618
13007	6,618
13008	6,6934
13009	6,5274
13010	6,4553
13011	6,4553
13012	6,5274
13013	6,4042
13014	6,3343
13015	6,3343
13016	6,4042
13017	6,3199
13018	6,2514
13019	6,2514
13020	6,3199
13021	6,2774
13022	6,2093
13023	6,2093
13024	6,2774
13025	6,277
13026	6,2092
13027	6,2092
13028	6,277
13029	6,3201
13030	6,2514
13031	6,2514
13032	6,3201
13033	6,4027
13034	6,3329
13035	6,3329
13036	6,4027
13037	6,5273
13038	6,4554
13039	6,4554
13040	6,5273
13041	6,6971
13042	6,6211
13043	6,6211
13044	6,6971
13045	6,9012
13046	6,8212
13047	6,8212
13048	6,9012
13049	7,1587
13050	7,0743
13051	7,0743
13052	7,1587
13053	7,4644
13054	7,3796
13055	7,3796
13056	7,4644
13057	7,8637
13058	7,7914
13059	7,7914
13060	7,8637
13061	8,3734
13062	8,3331
13063	8,3331
13064	8,3734
13065	8,7869
13066	8,7698
13067	8,7698
13068	8,7869
13069	9,0802
13070	9,0833
13071	9,0833
13072	9,0802
13073	9,3355
13074	9,3725
13075	9,3725
13076	9,3355
13077	9,3559
13078	9,4118
13079	9,4118
13080	9,3559
13081	9,1827
13082	9,2406
13083	9,2406
13084	9,1827
13085	8,9084
13086	8,9576
13087	8,9576
13088	8,9084
13089	8,6174
13090	8,6524
13091	8,6524
13092	8,6174
13093	8,3625
13094	8,3827
13095	8,3827
13096	8,3625
13097	8,1608
13098	8,1692
13099	8,1692
13100	8,1608
13101	8,0074
13102	8,0084
13103	8,0084
13104	8,0074
13105	7,8877
13106	7,8855
13107	7,8855
13108	7,8877
13109	7,7861
13110	7,7834
13111	7,7834
13112	7,7861
13113	7,6898
13114	7,6881
13115	7,6881
13116	7,6898
13117	7,5896
13118	7,5893
13119	7,5893
13120	7,5896
13121	7,4797
13122	7,4806
13123	7,4806
13124	7,4797
13125	7,3571
13126	7,3588
13127	7,3588
13128	7,3571
13129	7,221
13130	7,223
13131	7,223
13132	7,221
13133	7,072
13134	7,0739
13135	7,0739
13136	7,072
13137	6,9115
13138	6,913
13139	6,913
13140	6,9115
13141	6,7417
13142	6,7426
13143	6,7426
13144	6,7417
13145	6,5651
13146	6,5652
13147	6,5652
13148	6,5651
13149	6,3841
13150	6,3834
13151	6,3834
13152	6,3841
13153	6,2012
13154	6,1996
13155	6,1996
13156	6,2012
13157	6,019
13158	6,0165
13159	6,0165
13160	6,019
13161	5,8396
13162	5,8362
13163	5,8362
13164	5,8396
13165	5,6652
13166	5,6609
13167	5,6609
13168	5,6652
13169	5,4978
13170	5,4927
13171	5,4927
13172	5,4978
13173	5,3396
13174	5,3335
13175	5,3335
13176	5,3396
13177	5,1922
13178	5,1851
13179	5,1851
13180	5,1922
13181	5,0579
13182	5,0497
13183	5,0497
13184	5,0579
13185	4,9387
13186	4,9291
13187	4,9291
13188	4,9387
13189	4,8371
13190	4,826
13191	4,826
13192	4,8371
13193	4,756
13194	4,743
13195	4,743
13196	4,756
13197	4,6992
13198	4,6838
13199	4,6838
13200	4,6992
13201	4,6715
13202	4,6531
13203	4,6531
13204	4,6715
13205	4,6793
13206	4,6571
13207	4,6571
13208	4,6793
13209	4,7311
13210	4,7043
13211	4,7043
13212	4,7311
13213	4,8389
13214	4,8062
13215	4,8062
13216	4,8389
13217	5,0185
13218	4,979
13219	4,979
13220	5,0185
13221	5,2915
13222	5,2443
13223	5,2443
13224	5,2915
13225	5,6867
13226	5,6317
13227	5,6317
13228	5,6867
13229	6,2406
13230	6,1794
13231	6,1794
13232	6,2406
13233	6,9971
13234	6,9338
13235	6,9338
13236	6,9971
13237	8,0037
13238	7,946
13239	7,946
13240	8,0037
13241	9,3002
13242	9,2594
13243	9,2594
13244	9,3002
13245	10,898
13246	10,886
13247	10,886
13248	10,898
13249	12,748
13250	12,773
13251	12,773
13252	12,748
13253	14,665
13254	14,72
13255	14,72
13256	14,665
13257	16,471
13258	16,523
13259	16,523
13260	16,471
13261	17,845
13262	17,847
13263	17,847
13264	17,845
13265	19,033
13266	19,009
13267	19,009
13268	19,033
13269	19,894
13270	19,822
13271	19,822
13272	19,894
13273	6,8581
13274	6,8578
13275	6,8578
13276	6,8581
13277	7,8717
13278	7,8669
13279	7,8669
13280	7,8717
13281	7,0625
13282	7,0612
13283	7,0612
13284	7,0625
13285	6,9613
13286	6,9606
13287	6,9606
13288	6,9613
13289	6,97
13290	6,9699
13291	6,9699
13292	6,97
13293	7,0256
13294	7,0243
13295	7,0243
13296	7,0256
13297	8,1526
13298	8,1472
13299	8,1472
13300	8,1526
13301	8,0279
13302	8,0227
13303	8,0227
13304	8,0279
13305	7,7551
13306	7,7508
13307	7,7508
13308	7,7551
13309	7,5299
13310	7,5263
13311	7,5263
13312	7,5299
13313	7,3535
13314	7,3506
13315	7,3506
13316	7,3535
13317	7,2302
13318	7,2277
13319	7,2277
13320	7,2302
13321	7,1642
13322	7,1619
13323	7,1619
13324	7,1642
13325	7,377
13326	7,3738
13327	7,3738
13328	7,377
13329	7,4237
13330	7,4205
13331	7,4205
13332	7,4237
13333	7,6153
13334	7,6114
13335	7,6114
13336	7,6153
13337	7,8575
13338	7,8529
13339	7,8529
13340	7,8575
13341	8,1433
13342	8,1377
13343	8,1377
13344	8,1433
13345	7,1855
13346	7,1846
13347	7,1846
13348	7,1855
13349	7,0957
13350	7,0951
13351	7,0951
13352	7,0957
13353	6,9335
13354	6,9331
13355	6,9331
13356	6,9335
13357	7,0651
13358	7,0648
13359	7,0648
13360	7,0651
13361	7,3717
13362	7,3686
13363	7,3686
13364	7,3717
13365	7,1545
13366	7,1523
13367	7,1523
13368	7,1545
13369	8,6633
13370	8,6555
13371	8,6555
13372	8,6633
13373	7,181
13374	7,1801
13375	7,1801
13376	7,181
13377	7,3833
13378	7,3818
13379	7,3818
13380	7,3833
13381	7,9641
13382	7,9603
13383	7,9603
13384	7,9641
13385	7,2561
13386	7,255
13387	7,255
13388	7,2561
13389	6,975
13390	6,9742
13391	6,9742
13392	6,975
13393	7,1873
13394	7,1849
13395	7,1849
13396	7,1873
13397	7,0392
13398	7,0388
13399	7,0388
13400	7,0392
13401	7,0275
13402	7,0266
13403	7,0266
13404	7,0275
13405	7,4697
13406	7,4674
13407	7,4674
13408	7,4697
13409	8,1935
13410	8,1888
13411	8,1888
13412	8,1935
13413	7,4985
13414	7,494
13415	7,494
13416	7,4985
13417	8,8765
13418	8,8687
13419	8,8687
13420	8,8765
13421	7,5869
13422	7,5845
13423	7,5845
13424	7,5869
13425	7,0504
13426	7,0497
13427	7,0497
13428	7,0504
13429	7,7969
13430	7,7912
13431	7,7912
13432	7,7969
13433	7,9548
13434	7,9487
13435	7,9487
13436	7,9548
13437	8,1703
13438	8,1635
13439	8,1635
13440	8,1703
13441	8,4365
13442	8,4289
13443	8,4289
13444	8,4365
13445	8,7515
13446	8,743
13447	8,743
13448	8,7515
13449	9,1075
13450	9,0979
13451	9,0979
13452	9,1075
13453	8,6995
13454	8,6921
13455	8,6921
13456	8,6995
13457	8,4102
13458	8,4035
13459	8,4035
13460	8,4102
13461	8,1486
13462	8,1425
13463	8,1425
13464	8,1486
13465	7,9237
13466	7,9182
13467	7,9182
13468	7,9237
13469	7,7423
13470	7,7372
13471	7,7372
13472	7,7423
13473	7,6082
13474	7,6035
13475	7,6035
13476	7,6082
13477	7,5259
13478	7,5213
13479	7,5213
13480	7,5259
13481	9,5156
13482	9,5048
13483	9,5048
13484	9,5156
13485	9,119
13486	9,1094
13487	9,1094
13488	9,119
13489	8,7549
13490	8,7463
13491	8,7463
13492	8,7549
13493	8,4399
13494	8,4323
13495	8,4323
13496	8,4399
13497	8,1717
13498	8,1649
13499	8,1649
13500	8,1717
13501	7,9559
13502	7,9497
13503	7,9497
13504	7,9559
13505	7,7977
13506	7,792
13507	7,792
13508	7,7977
13509	7,7009
13510	7,6955
13511	7,6955
13512	7,7009
13513	7,556
13514	7,5513
13515	7,5513
13516	7,556
13517	7,6645
13518	7,6596
13519	7,6596
13520	7,6645
13521	7,8248
13522	7,8196
13523	7,8196
13524	7,8248
13525	8,0317
13526	8,0259
13527	8,0259
13528	8,0317
13529	8,2811
13530	8,2747
13531	8,2747
13532	8,2811
13533	8,5626
13534	8,5555
13535	8,5555
13536	8,5626
13537	7,1863
13538	7,1852
13539	7,1852
13540	7,1863
13541	7,5849
13542	7,5826
13543	7,5826
13544	7,5849
13545	8,3906
13546	8,3851
13547	8,3851
13548	8,3906
13549	8,455
13550	8,4493
13551	8,4493
13552	8,455
13553	7,0564
13554	7,055
13555	7,055
13556	7,0564
13557	7,1029
13558	7,1017
13559	7,1017
13560	7,1029
13561	7,7005
13562	7,6951
13563	7,6951
13564	7,7005
13565	7,5275
13566	7,5228
13567	7,5228
13568	7,5275
13569	7,4998
13570	7,4971
13571	7,4971
13572	7,4998
13573	7,6987
13574	7,6954
13575	7,6954
13576	7,6987
13577	9,379
13578	9,3702
13579	9,3702
13580	9,379
13581	7,1762
13582	7,1739
13583	7,1739
13584	7,1762
13585	7,5043
13586	7,5002
13587	7,5002
13588	7,5043
13589	7,3348
13590	7,3319
13591	7,3319
13592	7,3348
13593	7,2319
13594	7,2303
13595	7,2303
13596	7,2319
13597	7,8095
13598	7,8062
13599	7,8062
13600	7,8095
13601	7,3978
13602	7,3958
13603	7,3958
13604	7,3978
13605	7,3299
13606	7,3265
13607	7,3265
13608	7,3299
13609	7,8116
13610	7,8083
13611	7,8083
13612	7,8116
13613	7,5048
13614	7,5007
13615	7,5007
13616	7,5048
13617	7,7336
13618	7,7299
13619	7,7299
13620	7,7336
13621	8,3478
13622	8,3422
13623	8,3422
13624	8,3478
13625	8,4594
13626	8,4535
13627	8,4535
13628	8,4594
13629	9,5408
13630	9,5316
13631	9,5316
13632	9,5408
13633	10,595
13634	10,58
13635	10,58
13636	10,595
13637	7,3214
13638	7,319
13639	7,319
13640	7,3214
13641	10,776
13642	10,761
13643	10,761
13644	10,776
13645	7,448
13646	7,4446
13647	7,4446
13648	7,448
13649	7,6343
13650	7,6311
13651	7,6311
13652	7,6343
13653	8,5729
13654	8,5666
13655	8,5666
13656	8,5729
13657	7,6218
13658	7,6189
13659	7,6189
13660	7,6218
13661	7,449
13662	7,4456
13663	7,4456
13664	7,449
13665	7,7513
13666	7,7456
13667	7,7456
13668	7,7513
13669	8,3828
13670	8,3769
13671	8,3769
13672	8,3828
13673	9,7327
13674	9,7229
13675	9,7229
13676	9,7327
13677	9,8829
13678	9,8728
13679	9,8728
13680	9,8829
13681	7,866
13682	7,8621
13683	7,8621
13684	7,866
13685	8,2517
13686	8,2466
13687	8,2466
13688	8,2517
13689	10,064
13690	10,053
13691	10,053
13692	10,064
13693	7,7156
13694	7,7117
13695	7,7117
13696	7,7156
13697	8,1524
13698	8,147
13699	8,147
13700	8,1524
13701	8,0875
13702	8,0827
13703	8,0827
13704	8,0875
13705	8,7788
13706	8,7713
13707	8,7713
13708	8,7788
13709	8,4715
13710	8,4653
13711	8,4653
13712	8,4715
13713	7,8155
13714	7,8107
13715	7,8107
13716	7,8155
13717	8,1496
13718	8,1442
13719	8,1442
13720	8,1496
13721	7,6174
13722	7,6134
13723	7,6134
13724	7,6174
13725	7,7684
13726	7,7632
13727	7,7632
13728	7,7684
13729	7,9457
13730	7,939
13731	7,939
13732	7,9457
13733	7,9302
13734	7,923
13735	7,923
13736	7,9302
13737	8,163
13738	8,1567
13739	8,1567
13740	8,163
13741	10,094
13742	10,083
13743	10,083
13744	10,094
13745	7,831
13746	7,8261
13747	7,8261
13748	7,831
13749	8,4463
13750	8,4403
13751	8,4403
13752	8,4463
13753	8,2067
13754	8,1974
13755	8,1974
13756	8,2067
13757	8,4298
13758	8,4232
13759	8,4232
13760	8,4298
13761	8,3474
13762	8,3415
13763	8,3415
13764	8,3474
13765	8,5087
13766	8,5023
13767	8,5023
13768	8,5087
13769	8,8992
13770	8,8911
13771	8,8911
13772	8,8992
13773	7,9413
13774	7,9354
13775	7,9354
13776	7,9413
13777	8,1415
13778	8,1333
13779	8,1333
13780	8,1415
13781	8,3159
13782	8,3054
13783	8,3054
13784	8,3159
13785	8,2928
13786	8,2854
13787	8,2854
13788	8,2928
13789	8,4512
13790	8,4436
13791	8,4436
13792	8,4512
13793	8,799
13794	8,7907
13795	8,7907
13796	8,799
13797	8,6234
13798	8,6166
13799	8,6166
13800	8,6234
13801	8,5846
13802	8,5776
13803	8,5776
13804	8,5846
13805	8,6895
13806	8,6824
13807	8,6824
13808	8,6895
13809	8,7049
13810	8,6976
13811	8,6976
13812	8,7049
13813	8,3456
13814	8,3356
13815	8,3356
13816	8,3456
13817	8,8808
13818	8,8726
13819	8,8726
13820	8,8808
13821	8,832
13822	8,8238
13823	8,8238
13824	8,832
13825	8,6978
13826	8,69
13827	8,69
13828	8,6978
13829	8,0927
13830	8,0855
13831	8,0855
13832	8,0927
13833	8,3468
13834	8,3368
13835	8,3368
13836	8,3468
13837	8,49
13838	8,4785
13839	8,4785
13840	8,49
13841	8,5904
13842	8,5816
13843	8,5816
13844	8,5904
13845	11,031
13846	11,019
13847	11,019
13848	11,031
13849	11,349
13850	11,336
13851	11,336
13852	11,349
13853	12,02
13854	12,
13855	12,
13856	12,02
13857	12,228
13858	12,207
13859	12,207
13860	12,228
13861	11,971
13862	11,951
13863	11,951
13864	11,971
13865	12,102
13866	12,082
13867	12,082
13868	12,102
13869	12,277
13870	12,256
13871	12,256
13872	12,277
13873	12,022
13874	12,002
13875	12,002
13876	12,022
13877	8,5498
13878	8,538
13879	8,538
13880	8,5498
13881	8,5376
13882	8,5301
13883	8,5301
13884	8,5376
13885	8,2642
13886	8,2555
13887	8,2555
13888	8,2642
13889	8,551
13890	8,5392
13891	8,5392
13892	8,551
13893	9,0724
13894	9,0627
13895	9,0627
13896	9,0724
13897	8,7793
13898	8,765
13899	8,765
13900	8,7793
13901	8,7066
13902	8,693
13903	8,693
13904	8,7066
13905	8,6906
13906	8,6776
13907	8,6776
13908	8,6906
13909	8,7295
13910	8,7169
13911	8,7169
13912	8,7295
13913	8,821
13914	8,8085
13915	8,8085
13916	8,821
13917	8,9622
13918	8,9498
13919	8,9498
13920	8,9622
13921	9,1502
13922	9,1377
13923	9,1377
13924	9,1502
13925	9,3821
13926	9,3694
13927	9,3694
13928	9,3821
13929	9,6554
13930	9,6421
13931	9,6421
13932	9,6554
13933	9,9675
13934	9,9537
13935	9,9537
13936	9,9675
13937	10,317
13938	10,302
13939	10,302
13940	10,317
13941	10,702
13942	10,686
13943	10,686
13944	10,702
13945	11,123
13946	11,106
13947	11,106
13948	11,123
13949	11,579
13950	11,56
13951	11,56
13952	11,579
13953	12,071
13954	12,051
13955	12,051
13956	12,071
13957	11,188
13958	11,174
13959	11,174
13960	11,188
13961	10,83
13962	10,817
13963	10,817
13964	10,83
13965	10,489
13966	10,476
13967	10,476
13968	10,489
13969	10,165
13970	10,153
13971	10,153
13972	10,165
13973	9,8618
13974	9,8503
13975	9,8503
13976	9,8618
13977	9,5806
13978	9,5693
13979	9,5693
13980	9,5806
13981	9,3242
13982	9,3131
13983	9,3131
13984	9,3242
13985	9,0956
13986	9,0846
13987	9,0846
13988	9,0956
13989	8,898
13990	8,887
13991	8,887
13992	8,898
13993	8,7349
13994	8,7239
13995	8,7239
13996	8,7349
13997	8,6099
13998	8,5988
13999	8,5988
14000	8,6099
14001	8,5266
14002	8,5152
14003	8,5152
14004	8,5266
14005	8,4885
14006	8,4767
14007	8,4767
14008	8,4885
14009	8,4984
14010	8,4861
14011	8,4861
14012	8,4984
14013	8,5591
14014	8,5461
14015	8,5461
14016	8,5591
14017	12,073
14018	12,053
14019	12,053
14020	12,073
14021	11,581
14022	11,562
14023	11,562
14024	11,581
14025	11,124
14026	11,108
14027	11,108
14028	11,124
14029	10,704
14030	10,688
14031	10,688
14032	10,704
14033	10,319
14034	10,304
14035	10,304
14036	10,319
14037	9,9691
14038	9,9553
14039	9,9553
14040	9,9691
14041	9,6568
14042	9,6436
14043	9,6436
14044	9,6568
14045	9,3835
14046	9,3707
14047	9,3707
14048	9,3835
14049	9,1513
14050	9,1388
14051	9,1388
14052	9,1513
14053	8,9631
14054	8,9507
14055	8,9507
14056	8,9631
14057	8,8217
14058	8,8092
14059	8,8092
14060	8,8217
14061	8,7299
14062	8,7173
14063	8,7173
14064	8,7299
14065	8,6907
14066	8,6776
14067	8,6776
14068	8,6907
14069	8,7063
14070	8,6927
14071	8,6927
14072	8,7063
14073	8,7786
14074	8,7643
14075	8,7643
14076	8,7786
14077	8,7754
14078	8,7607
14079	8,7607
14080	8,7754
14081	8,6247
14082	8,611
14083	8,611
14084	8,6247
14085	8,5295
14086	8,5168
14087	8,5168
14088	8,5295
14089	8,4884
14090	8,4763
14091	8,4763
14092	8,4884
14093	8,499
14094	8,4874
14095	8,4874
14096	8,499
14097	8,5584
14098	8,5472
14099	8,5472
14100	8,5584
14101	8,6631
14102	8,6521
14103	8,6521
14104	8,6631
14105	8,8095
14106	8,7986
14107	8,7986
14108	8,8095
14109	8,9937
14110	8,9828
14111	8,9828
14112	8,9937
14113	9,212
14114	9,201
14115	9,201
14116	9,212
14117	9,4607
14118	9,4495
14119	9,4495
14120	9,4607
14121	9,7366
14122	9,7251
14123	9,7251
14124	9,7366
14125	10,037
14126	10,025
14127	10,025
14128	10,037
14129	10,358
14130	10,346
14131	10,346
14132	10,358
14133	10,7
14134	10,687
14135	10,687
14136	10,7
14137	11,059
14138	11,045
14139	11,045
14140	11,059
14141	8,6706
14142	8,662
14143	8,662
14144	8,6706
14145	9,0631
14146	9,0538
14147	9,0538
14148	9,0631
14149	9,1482
14150	9,1381
14151	9,1381
14152	9,1482
14153	8,8099
14154	8,8012
14155	8,8012
14156	8,8099
14157	8,6671
14158	8,6573
14159	8,6573
14160	8,6671
14161	8,4485
14162	8,4381
14163	8,4381
14164	8,4485
14165	8,6366
14166	8,6244
14167	8,6244
14168	8,6366
14169	8,8184
14170	8,8042
14171	8,8042
14172	8,8184
14173	8,9827
14174	8,9666
14175	8,9666
14176	8,9827
14177	8,794
14178	8,7853
14179	8,7853
14180	8,794
14181	8,5929
14182	8,5825
14183	8,5825
14184	8,5929
14185	8,7163
14186	8,7036
14187	8,7036
14188	8,7163
14189	8,9316
14190	8,9197
14191	8,9197
14192	8,9316
14193	9,0431
14194	9,0341
14195	9,0341
14196	9,0431
14197	11,4
14198	11,387
14199	11,387
14200	11,4
14201	12,553
14202	12,531
14203	12,531
14204	12,553
14205	13,032
14206	13,007
14207	13,007
14208	13,032
14209	9,1576
14210	9,1475
14211	9,1475
14212	9,1576
14213	11,564
14214	11,55
14215	11,55
14216	11,564
14217	11,671
14218	11,657
14219	11,657
14220	11,671
14221	13,215
14222	13,189
14223	13,189
14224	13,215
14225	9,2282
14226	9,2098
14227	9,2098
14228	9,2282
14229	8,8222
14230	8,8123
14231	8,8123
14232	8,8222
14233	9,1089
14234	9,0986
14235	9,0986
14236	9,1089
14237	8,8454
14238	8,8339
14239	8,8339
14240	8,8454
14241	8,9925
14242	8,9782
14243	8,9782
14244	8,9925
14245	8,9924
14246	8,9782
14247	8,9782
14248	8,9924
14249	9,2715
14250	9,2577
14251	9,2577
14252	9,2715
14253	9,3393
14254	9,3285
14255	9,3285
14256	9,3393
14257	11,899
14258	11,884
14259	11,884
14260	11,899
14261	11,822
14262	11,808
14263	11,808
14264	11,822
14265	13,551
14266	13,523
14267	13,523
14268	13,551
14269	13,296
14270	13,269
14271	13,269
14272	13,296
14273	13,409
14274	13,381
14275	13,381
14276	13,409
14277	9,0041
14278	8,9926
14279	8,9926
14280	9,0041
14281	9,372
14282	9,3603
14283	9,3603
14284	9,372
14285	9,0311
14286	9,0177
14287	9,0177
14288	9,0311
14289	9,1813
14290	9,1651
14291	9,1651
14292	9,1813
14293	9,3465
14294	9,3353
14295	9,3353
14296	9,3465
14297	12,308
14298	12,292
14299	12,292
14300	12,308
14301	9,5594
14302	9,5377
14303	9,5377
14304	9,5594
14305	9,3125
14306	9,2926
14307	9,2926
14308	9,3125
14309	9,1249
14310	9,1064
14311	9,1064
14312	9,1249
14313	8,9947
14314	8,9774
14315	8,9774
14316	8,9947
14317	8,9198
14318	8,9035
14319	8,9035
14320	8,9198
14321	8,8979
14322	8,8824
14323	8,8824
14324	8,8979
14325	8,9264
14326	8,9116
14327	8,9116
14328	8,9264
14329	9,0027
14330	8,9883
14331	8,9883
14332	9,0027
14333	9,1241
14334	9,1101
14335	9,1101
14336	9,1241
14337	9,2882
14338	9,2743
14339	9,2743
14340	9,2882
14341	9,4926
14342	9,4787
14343	9,4787
14344	9,4926
14345	9,7355
14346	9,7213
14347	9,7213
14348	9,7355
14349	10,015
14350	10,001
14351	10,001
14352	10,015
14353	10,331
14354	10,316
14355	10,316
14356	10,331
14357	10,683
14358	10,667
14359	10,667
14360	10,683
14361	11,07
14362	11,053
14363	11,053
14364	11,07
14365	11,495
14366	11,477
14367	11,477
14368	11,495
14369	11,958
14370	11,938
14371	11,938
14372	11,958
14373	12,464
14374	12,442
14375	12,442
14376	12,464
14377	13,016
14378	12,991
14379	12,991
14380	13,016
14381	11,665
14382	11,65
14383	11,65
14384	11,665
14385	11,29
14386	11,276
14387	11,276
14388	11,29
14389	10,936
14390	10,923
14391	10,923
14392	10,936
14393	10,604
14394	10,591
14395	10,591
14396	10,604
14397	10,293
14398	10,281
14399	10,281
14400	10,293
14401	10,005
14402	9,9928
14403	9,9928
14404	10,005
14405	9,7411
14406	9,7286
14407	9,7286
14408	9,7411
14409	9,5023
14410	9,4898
14411	9,4898
14412	9,5023
14413	9,2908
14414	9,2783
14415	9,2783
14416	9,2908
14417	9,1091
14418	9,0964
14419	9,0964
14420	9,1091
14421	8,9598
14422	8,9469
14423	8,9469
14424	8,9598
14425	8,8459
14426	8,8325
14427	8,8325
14428	8,8459
14429	8,7702
14430	8,7564
14431	8,7564
14432	8,7702
14433	8,7361
14434	8,7217
14435	8,7217
14436	8,7361
14437	8,7464
14438	8,7313
14439	8,7313
14440	8,7464
14441	8,8043
14442	8,7882
14443	8,7882
14444	8,8043
14445	8,9124
14446	8,8951
14447	8,8951
14448	8,9124
14449	9,073
14450	9,0545
14451	9,0545
14452	9,073
14453	12,466
14454	12,444
14455	12,444
14456	12,466
14457	11,96
14458	11,94
14459	11,94
14460	11,96
14461	11,496
14462	11,478
14463	11,478
14464	11,496
14465	11,072
14466	11,055
14467	11,055
14468	11,072
14469	10,684
14470	10,668
14471	10,668
14472	10,684
14473	10,333
14474	10,318
14475	10,318
14476	10,333
14477	10,017
14478	10,002
14479	10,002
14480	10,017
14481	9,7368
14482	9,7226
14483	9,7226
14484	9,7368
14485	9,4938
14486	9,4798
14487	9,4798
14488	9,4938
14489	9,2892
14490	9,2753
14491	9,2753
14492	9,2892
14493	9,1249
14494	9,1109
14495	9,1109
14496	9,1249
14497	9,0033
14498	8,9889
14499	8,9889
14500	9,0033
14501	8,9267
14502	8,9119
14503	8,9119
14504	8,9267
14505	8,8979
14506	8,8825
14507	8,8825
14508	8,8979
14509	8,9195
14510	8,9033
14511	8,9033
14512	8,9195
14513	8,994
14514	8,9768
14515	8,9768
14516	8,994
14517	9,1238
14518	9,1054
14519	9,1054
14520	9,1238
14521	9,311
14522	9,2911
14523	9,2911
14524	9,311
14525	9,4708
14526	9,4493
14527	9,4493
14528	9,4708
14529	9,2118
14530	9,1922
14531	9,1922
14532	9,2118
14533	9,0112
14534	8,9931
14535	8,9931
14536	9,0112
14537	8,8667
14538	8,85
14539	8,85
14540	8,8667
14541	8,7761
14542	8,7604
14543	8,7604
14544	8,7761
14545	8,7367
14546	8,7218
14547	8,7218
14548	8,7367
14549	8,7454
14550	8,7312
14551	8,7312
14552	8,7454
14553	8,799
14554	8,7855
14555	8,7855
14556	8,799
14557	8,8944
14558	8,8812
14559	8,8812
14560	8,8944
14561	9,0281
14562	9,0153
14563	9,0153
14564	9,0281
14565	9,1971
14566	9,1845
14567	9,1845
14568	9,1971
14569	9,3983
14570	9,3858
14571	9,3858
14572	9,3983
14573	9,6292
14574	9,6167
14575	9,6167
14576	9,6292
14577	9,8873
14578	9,8748
14579	9,8748
14580	9,8873
14581	10,171
14582	10,158
14583	10,158
14584	10,171
14585	10,478
14586	10,465
14587	10,465
14588	10,478
14589	10,809
14590	10,796
14591	10,796
14592	10,809
14593	11,162
14594	11,148
14595	11,148
14596	11,162
14597	11,536
14598	11,522
14599	11,522
14600	11,536
14601	9,2903
14602	9,2744
14603	9,2744
14604	9,2903
14605	9,4224
14606	9,4067
14607	9,4067
14608	9,4224
14609	9,2119
14610	9,1984
14611	9,1984
14612	9,2119
14613	9,8822
14614	9,8677
14615	9,8677
14616	9,8822
14617	9,6976
14618	9,6836
14619	9,6836
14620	9,6976
14621	9,3471
14622	9,3289
14623	9,3289
14624	9,3471
14625	9,4773
14626	9,4572
14627	9,4572
14628	9,4773
14629	9,6378
14630	9,6218
14631	9,6218
14632	9,6378
14633	9,5229
14634	9,5107
14635	9,5107
14636	9,5229
14637	14,182
14638	14,148
14639	14,148
14640	14,182
14641	13,792
14642	13,762
14643	13,762
14644	13,792
14645	9,4818
14646	9,4637
14647	9,4637
14648	9,4818
14649	9,47
14650	9,4498
14651	9,4498
14652	9,47
14653	9,769
14654	9,7553
14655	9,7553
14656	9,769
14657	9,9254
14658	9,9099
14659	9,9099
14660	9,9254
14661	13,759
14662	13,728
14663	13,728
14664	13,759
14665	9,6694
14666	9,6541
14667	9,6541
14668	9,6694
14669	10,055
14670	10,038
14671	10,038
14672	10,055
14673	10,003
14674	9,9875
14675	9,9875
14676	10,003
14677	10,243
14678	10,226
14679	10,226
14680	10,243
14681	9,714
14682	9,6993
14683	9,6993
14684	9,714
14685	9,8367
14686	9,8201
14687	9,8201
14688	9,8367
14689	9,7436
14690	9,729
14691	9,729
14692	9,7436
14693	9,97
14694	9,9547
14695	9,9547
14696	9,97
14697	12,7
14698	12,685
14699	12,685
14700	12,7
14701	12,746
14702	12,73
14703	12,73
14704	12,746
14705	9,9236
14706	9,9059
14707	9,9059
14708	9,9236
14709	9,9679
14710	9,9509
14711	9,9509
14712	9,9679
14713	9,8008
14714	9,7783
14715	9,7783
14716	9,8008
14717	10,101
14718	10,085
14719	10,085
14720	10,101
14721	12,898
14722	12,882
14723	12,882
14724	12,898
14725	12,925
14726	12,906
14727	12,906
14728	12,925
14729	10,179
14730	10,159
14731	10,159
14732	10,179
14733	10,412
14734	10,393
14735	10,393
14736	10,412
14737	10,577
14738	10,555
14739	10,555
14740	10,577
14741	10,29
14742	10,271
14743	10,271
14744	10,29
14745	10,151
14746	10,126
14747	10,126
14748	10,151
14749	10,237
14750	10,211
14751	10,211
14752	10,237
14753	10,293
14754	10,27
14755	10,27
14756	10,293
14757	10,358
14758	10,34
14759	10,34
14760	10,358
14761	13,022
14762	13,007
14763	13,007
14764	13,022
14765	15,166
14766	15,123
14767	15,123
14768	15,166
14769	15,768
14770	15,719
14771	15,719
14772	15,768
14773	10,257
14774	10,23
14775	10,23
14776	10,257
14777	10,552
14778	10,532
14779	10,532
14780	10,552
14781	10,253
14782	10,232
14783	10,232
14784	10,253
14785	10,188
14786	10,163
14787	10,163
14788	10,188
14789	10,627
14790	10,604
14791	10,604
14792	10,627
14793	10,468
14794	10,449
14795	10,449
14796	10,468
14797	13,277
14798	13,261
14799	13,261
14800	13,277
14801	10,838
14802	10,815
14803	10,815
14804	10,838
14805	10,489
14806	10,465
14807	10,465
14808	10,489
14809	10,751
14810	10,724
14811	10,724
14812	10,751
14813	10,83
14814	10,807
14815	10,807
14816	10,83
14817	10,818
14818	10,796
14819	10,796
14820	10,818
14821	15,942
14822	15,891
14823	15,891
14824	15,942
14825	10,687
14826	10,657
14827	10,657
14828	10,687
14829	10,91
14830	10,881
14831	10,881
14832	10,91
14833	10,956
14834	10,929
14835	10,929
14836	10,956
14837	11,056
14838	11,03
14839	11,03
14840	11,056
14841	15,968
14842	15,916
14843	15,916
14844	15,968
14845	16,632
14846	16,573
14847	16,573
14848	16,632
14849	15,825
14850	15,775
14851	15,775
14852	15,825
14853	11,059
14854	11,027
14855	11,027
14856	11,059
14857	11,56
14858	11,53
14859	11,53
14860	11,56
14861	11,225
14862	11,194
14863	11,194
14864	11,225
14865	11,222
14866	11,188
14867	11,188
14868	11,222
14869	11,221
14870	11,19
14871	11,19
14872	11,221
14873	11,157
14874	11,131
14875	11,131
14876	11,157
14877	16,779
14878	16,719
14879	16,719
14880	16,779
14881	17,176
14882	17,113
14883	17,113
14884	17,176
14885	16,795
14886	16,735
14887	16,735
14888	16,795
14889	15,502
14890	15,456
14891	15,456
14892	15,502
14893	11,183
14894	11,149
14895	11,149
14896	11,183
14897	11,108
14898	11,074
14899	11,074
14900	11,108
14901	11,034
14902	11,
14903	11,
14904	11,034
14905	12,018
14906	11,98
14907	11,98
14908	12,018
14909	11,467
14910	11,437
14911	11,437
14912	11,467
14913	11,477
14914	11,447
14915	11,447
14916	11,477
14917	16,871
14918	16,811
14919	16,811
14920	16,871
14921	16,734
14922	16,679
14923	16,679
14924	16,734
14925	11,02
14926	10,987
14927	10,987
14928	11,02
14929	11,575
14930	11,54
14931	11,54
14932	11,575
14933	10,787
14934	10,755
14935	10,755
14936	10,787
14937	11,734
14938	11,699
14939	11,699
14940	11,734
14941	11,744
14942	11,711
14943	11,711
14944	11,744
14945	11,71
14946	11,678
14947	11,678
14948	11,71
14949	16,384
14950	16,335
14951	16,335
14952	16,384
14953	16,385
14954	16,337
14955	16,337
14956	16,385
14957	11,754
14958	11,717
14959	11,717
14960	11,754
14961	11,651
14962	11,615
14963	11,615
14964	11,651
14965	11,66
14966	11,625
14967	11,625
14968	11,66
14969	11,862
14970	11,823
14971	11,823
14972	11,862
14973	12,13
14974	12,091
14975	12,091
14976	12,13
14977	12,367
14978	12,326
14979	12,326
14980	12,367
14981	12,259
14982	12,22
14983	12,22
14984	12,259
14985	14,599
14986	14,585
14987	14,585
14988	14,599
14989	15,138
14990	15,101
14991	15,101
14992	15,138
14993	10,423
14994	10,392
14995	10,392
14996	10,423
14997	9,9112
14998	9,8806
14999	9,8806
15000	9,9112
15001	9,4906
15002	9,4615
15003	9,4615
15004	9,4906
15005	9,147
15006	9,1196
15007	9,1196
15008	9,147
15009	8,8703
15010	8,8448
15011	8,8448
15012	8,8703
15013	8,6532
15014	8,6296
15015	8,6296
15016	8,6532
15017	8,4898
15018	8,468
15019	8,468
15020	8,4898
15021	8,3753
15022	8,3551
15023	8,3551
15024	8,3753
15025	8,3057
15026	8,287
15027	8,287
15028	8,3057
15029	8,2772
15030	8,2598
15031	8,2598
15032	8,2772
15033	8,2866
15034	8,2704
15035	8,2704
15036	8,2866
15037	8,3313
15038	8,3161
15039	8,3161
15040	8,3313
15041	8,4086
15042	8,3944
15043	8,3944
15044	8,4086
15045	8,5166
15046	8,5031
15047	8,5031
15048	8,5166
15049	8,6533
15050	8,6405
15051	8,6405
15052	8,6533
15053	8,8175
15054	8,8053
15055	8,8053
15056	8,8175
15057	9,0081
15058	8,9962
15059	8,9962
15060	9,0081
15061	9,2242
15062	9,2126
15063	9,2126
15064	9,2242
15065	9,4655
15066	9,4541
15067	9,4541
15068	9,4655
15069	9,7319
15070	9,7204
15071	9,7204
15072	9,7319
15073	10,023
15074	10,012
15075	10,012
15076	10,023
15077	10,341
15078	10,328
15079	10,328
15080	10,341
15081	10,683
15082	10,671
15083	10,671
15084	10,683
15085	11,052
15086	11,038
15087	11,038
15088	11,052
15089	11,447
15090	11,432
15091	11,432
15092	11,447
15093	11,867
15094	11,85
15095	11,85
15096	11,867
15097	12,311
15098	12,293
15099	12,293
15100	12,311
15101	12,777
15102	12,76
15103	12,76
15104	12,777
15105	13,263
15106	13,252
15107	13,252
15108	13,263
15109	13,768
15110	13,777
15111	13,777
15112	13,768
15113	14,863
15114	14,817
15115	14,817
15116	14,863
15117	14,086
15118	14,052
15119	14,052
15120	14,086
15121	13,41
15122	13,385
15123	13,385
15124	13,41
15125	12,816
15126	12,796
15127	12,796
15128	12,816
15129	12,288
15130	12,271
15131	12,271
15132	12,288
15133	11,814
15134	11,799
15135	11,799
15136	11,814
15137	11,385
15138	11,371
15139	11,371
15140	11,385
15141	10,994
15142	10,981
15143	10,981
15144	10,994
15145	10,635
15146	10,623
15147	10,623
15148	10,635
15149	10,306
15150	10,293
15151	10,293
15152	10,306
15153	10,002
15154	9,9902
15155	9,9902
15156	10,002
15157	9,7238
15158	9,7115
15159	9,7115
15160	9,7238
15161	9,469
15162	9,4564
15163	9,4564
15164	9,469
15165	9,2377
15166	9,2248
15167	9,2248
15168	9,2377
15169	9,0301
15170	9,0167
15171	9,0167
15172	9,0301
15173	8,8469
15174	8,8331
15175	8,8331
15176	8,8469
15177	8,6891
15178	8,6747
15179	8,6747
15180	8,6891
15181	8,5583
15182	8,5432
15183	8,5432
15184	8,5583
15185	8,456
15186	8,4401
15187	8,4401
15188	8,456
15189	8,3843
15190	8,3675
15191	8,3675
15192	8,3843
15193	8,3454
15194	8,3277
15195	8,3277
15196	8,3454
15197	8,3421
15198	8,3231
15199	8,3231
15200	8,3421
15201	8,377
15202	8,3568
15203	8,3568
15204	8,377
15205	8,4535
15206	8,4318
15207	8,4318
15208	8,4535
15209	8,5752
15210	8,5519
15211	8,5519
15212	8,5752
15213	8,7461
15214	8,7211
15215	8,7211
15216	8,7461
15217	8,9712
15218	8,9443
15219	8,9443
15220	8,9712
15221	9,2562
15222	9,2276
15223	9,2276
15224	9,2562
15225	9,6087
15226	9,5785
15227	9,5785
15228	9,6087
15229	10,039
15230	10,008
15231	10,008
15232	10,039
15233	10,563
15234	10,532
15235	10,532
15236	10,563
15237	13,264
15238	13,254
15239	13,254
15240	13,264
15241	12,778
15242	12,761
15243	12,761
15244	12,778
15245	12,312
15246	12,294
15247	12,294
15248	12,312
15249	11,868
15250	11,852
15251	11,852
15252	11,868
15253	11,448
15254	11,433
15255	11,433
15256	11,448
15257	11,053
15258	11,04
15259	11,04
15260	11,053
15261	10,685
15262	10,672
15263	10,672
15264	10,685
15265	10,342
15266	10,33
15267	10,33
15268	10,342
15269	10,025
15270	10,013
15271	10,013
15272	10,025
15273	9,7331
15274	9,7216
15275	9,7216
15276	9,7331
15277	9,4666
15278	9,4552
15279	9,4552
15280	9,4666
15281	9,2253
15282	9,2137
15283	9,2137
15284	9,2253
15285	9,0091
15286	8,9972
15287	8,9972
15288	9,0091
15289	8,8184
15290	8,8062
15291	8,8062
15292	8,8184
15293	8,6541
15294	8,6413
15295	8,6413
15296	8,6541
15297	8,5172
15298	8,5038
15299	8,5038
15300	8,5172
15301	8,4091
15302	8,3949
15303	8,3949
15304	8,4091
15305	8,3316
15306	8,3165
15307	8,3165
15308	8,3316
15309	8,2868
15310	8,2706
15311	8,2706
15312	8,2868
15313	8,2771
15314	8,2597
15315	8,2597
15316	8,2771
15317	8,3054
15318	8,2867
15319	8,2867
15320	8,3054
15321	8,3747
15322	8,3546
15323	8,3546
15324	8,3747
15325	8,4889
15326	8,467
15327	8,467
15328	8,4889
15329	8,6518
15330	8,6282
15331	8,6282
15332	8,6518
15333	8,8685
15334	8,843
15335	8,843
15336	8,8685
15337	9,1447
15338	9,1173
15339	9,1173
15340	9,1447
15341	9,4877
15342	9,4585
15343	9,4585
15344	9,4877
15345	9,9077
15346	9,8772
15347	9,8772
15348	9,9077
15349	10,418
15350	10,387
15351	10,387
15352	10,418
15353	10,433
15354	10,402
15355	10,402
15356	10,433
15357	9,9245
15358	9,8935
15359	9,8935
15360	9,9245
15361	9,5071
15362	9,4773
15363	9,4773
15364	9,5071
15365	9,1677
15366	9,1395
15367	9,1395
15368	9,1677
15369	8,8959
15370	8,8696
15371	8,8696
15372	8,8959
15373	8,6845
15374	8,66
15375	8,66
15376	8,6845
15377	8,5276
15378	8,5048
15379	8,5048
15380	8,5276
15381	8,4204
15382	8,3992
15383	8,3992
15384	8,4204
15385	8,3587
15386	8,339
15387	8,339
15388	8,3587
15389	8,3389
15390	8,3205
15391	8,3205
15392	8,3389
15393	8,3578
15394	8,3405
15395	8,3405
15396	8,3578
15397	8,4123
15398	8,396
15399	8,396
15400	8,4123
15401	8,4999
15402	8,4844
15403	8,4844
15404	8,4999
15405	8,6183
15406	8,6036
15407	8,6036
15408	8,6183
15409	8,7655
15410	8,7515
15411	8,7515
15412	8,7655
15413	8,9399
15414	8,9264
15415	8,9264
15416	8,9399
15417	9,1402
15418	9,1271
15419	9,1271
15420	9,1402
15421	9,3654
15422	9,3527
15423	9,3527
15424	9,3654
15425	9,615
15426	9,6026
15427	9,6026
15428	9,615
15429	9,8892
15430	9,877
15431	9,877
15432	9,8892
15433	10,189
15434	10,176
15435	10,176
15436	10,189
15437	10,515
15438	10,502
15439	10,502
15440	10,515
15441	10,87
15442	10,857
15443	10,857
15444	10,87
15445	11,257
15446	11,244
15447	11,244
15448	11,257
15449	11,682
15450	11,668
15451	11,668
15452	11,682
15453	12,152
15454	12,135
15455	12,135
15456	12,152
15457	12,674
15458	12,655
15459	12,655
15460	12,674
15461	13,262
15462	13,238
15463	13,238
15464	13,262
15465	13,931
15466	13,899
15467	13,899
15468	13,931
15469	14,699
15470	14,656
15471	14,656
15472	14,699
15473	11,608
15474	11,573
15475	11,573
15476	11,608
15477	12,454
15478	12,412
15479	12,412
15480	12,454
15481	12,259
15482	12,22
15483	12,22
15484	12,259
15485	12,162
15486	12,121
15487	12,121
15488	12,162
15489	11,687
15490	11,65
15491	11,65
15492	11,687
15493	11,036
15494	11,007
15495	11,007
15496	11,036
15497	12,336
15498	12,294
15499	12,294
15500	12,336
15501	11,419
15502	11,387
15503	11,387
15504	11,419
15505	12,197
15506	12,159
15507	12,159
15508	12,197
15509	14,861
15510	14,844
15511	14,844
15512	14,861
15513	14,757
15514	14,744
15515	14,744
15516	14,757
15517	15,204
15518	15,161
15519	15,161
15520	15,204
15521	17,386
15522	17,353
15523	17,353
15524	17,386
15525	18,889
15526	18,847
15527	18,847
15528	18,889
15529	12,249
15530	12,21
15531	12,21
15532	12,249
15533	12,771
15534	12,726
15535	12,726
15536	12,771
15537	12,498
15538	12,456
15539	12,456
15540	12,498
15541	15,843
15542	15,788
15543	15,788
15544	15,843
15545	15,8
15546	15,754
15547	15,754
15548	15,8
15549	12,804
15550	12,76
15551	12,76
15552	12,804
15553	13,019
15554	12,973
15555	12,973
15556	13,019
15557	12,74
15558	12,694
15559	12,694
15560	12,74
15561	12,339
15562	12,314
15563	12,314
15564	12,339
15565	15,989
15566	15,932
15567	15,932
15568	15,989
15569	18,547
15570	18,571
15571	18,571
15572	18,547
15573	17,794
15574	17,841
15575	17,841
15576	17,794
15577	13,262
15578	13,213
15579	13,213
15580	13,262
15581	13,087
15582	13,046
15583	13,046
15584	13,087
15585	12,26
15586	12,259
15587	12,259
15588	12,26
15589	13,008
15590	12,96
15591	12,96
15592	13,008
15593	13,308
15594	13,257
15595	13,257
15596	13,308
15597	13,406
15598	13,354
15599	13,354
15600	13,406
15601	14,907
15602	15,081
15603	15,081
15604	14,907
15605	10,628
15606	10,608
15607	10,608
15608	10,628
15609	9,9015
15610	9,8736
15611	9,8736
15612	9,9015
15613	9,3179
15614	9,2874
15615	9,2874
15616	9,3179
15617	8,8471
15618	8,8167
15619	8,8167
15620	8,8471
15621	8,468
15622	8,4389
15623	8,4389
15624	8,468
15625	8,1655
15626	8,1382
15627	8,1382
15628	8,1655
15629	7,9282
15630	7,903
15631	7,903
15632	7,9282
15633	7,7475
15634	7,7244
15635	7,7244
15636	7,7475
15637	7,6167
15638	7,5956
15639	7,5956
15640	7,6167
15641	7,5301
15642	7,5108
15643	7,5108
15644	7,5301
15645	7,4833
15646	7,4657
15647	7,4657
15648	7,4833
15649	7,4722
15650	7,4561
15651	7,4561
15652	7,4722
15653	7,4936
15654	7,4788
15655	7,4788
15656	7,4936
15657	7,5445
15658	7,5309
15659	7,5309
15660	7,5445
15661	7,6224
15662	7,6099
15663	7,6099
15664	7,6224
15665	7,7252
15666	7,7137
15667	7,7137
15668	7,7252
15669	7,8511
15670	7,8404
15671	7,8404
15672	7,8511
15673	7,9983
15674	7,9885
15675	7,9885
15676	7,9983
15677	8,1656
15678	8,1565
15679	8,1565
15680	8,1656
15681	8,3519
15682	8,3434
15683	8,3434
15684	8,3519
15685	8,5562
15686	8,5482
15687	8,5482
15688	8,5562
15689	8,7778
15690	8,7702
15691	8,7702
15692	8,7778
15693	9,016
15694	9,0086
15695	9,0086
15696	9,016
15697	9,27
15698	9,2628
15699	9,2628
15700	9,27
15701	9,539
15702	9,5317
15703	9,5317
15704	9,539
15705	9,8213
15706	9,8139
15707	9,8139
15708	9,8213
15709	10,115
15710	10,107
15711	10,107
15712	10,115
15713	10,416
15714	10,408
15715	10,408
15716	10,416
15717	10,72
15718	10,712
15719	10,712
15720	10,72
15721	11,019
15722	11,013
15723	11,013
15724	11,019
15725	11,303
15726	11,304
15727	11,304
15728	11,303
15729	11,563
15730	11,578
15731	11,578
15732	11,563
15733	11,789
15734	11,833
15735	11,833
15736	11,789
15737	11,978
15738	12,074
15739	12,074
15740	11,978
15741	15,453
15742	15,394
15743	15,394
15744	15,453
15745	14,562
15746	14,518
15747	14,518
15748	14,562
15749	13,787
15750	13,755
15751	13,755
15752	13,787
15753	13,11
15754	13,087
15755	13,087
15756	13,11
15757	12,515
15758	12,498
15759	12,498
15760	12,515
15761	11,986
15762	11,973
15763	11,973
15764	11,986
15765	11,511
15766	11,5
15767	11,5
15768	11,511
15769	11,08
15770	11,07
15771	11,07
15772	11,08
15773	10,685
15774	10,675
15775	10,675
15776	10,685
15777	10,32
15778	10,31
15779	10,31
15780	10,32
15781	9,9818
15782	9,972
15783	9,972
15784	9,9818
15785	9,6672
15786	9,6571
15787	9,6571
15788	9,6672
15789	9,3745
15790	9,3641
15791	9,3641
15792	9,3745
15793	9,1027
15794	9,0919
15795	9,0919
15796	9,1027
15797	8,8514
15798	8,8401
15799	8,8401
15800	8,8514
15801	8,6206
15802	8,6089
15803	8,6089
15804	8,6206
15805	8,4108
15806	8,3985
15807	8,3985
15808	8,4108
15809	8,2227
15810	8,2098
15811	8,2098
15812	8,2227
15813	8,0572
15814	8,0436
15815	8,0436
15816	8,0572
15817	7,9156
15818	7,9013
15819	7,9013
15820	7,9156
15821	7,7995
15822	7,7843
15823	7,7843
15824	7,7995
15825	7,7105
15826	7,6943
15827	7,6943
15828	7,7105
15829	7,6507
15830	7,6335
15831	7,6335
15832	7,6507
15833	7,6226
15834	7,604
15835	7,604
15836	7,6226
15837	7,6287
15838	7,6088
15839	7,6088
15840	7,6287
15841	7,6724
15842	7,6509
15843	7,6509
15844	7,6724
15845	7,7574
15846	7,7342
15847	7,7342
15848	7,7574
15849	7,8883
15850	7,8631
15851	7,8631
15852	7,8883
15853	8,0703
15854	8,0432
15855	8,0432
15856	8,0703
15857	8,3104
15858	8,2814
15859	8,2814
15860	8,3104
15861	8,6172
15862	8,5867
15863	8,5867
15864	8,6172
15865	9,0022
15866	8,9708
15867	8,9708
15868	9,0022
15869	9,481
15870	9,4503
15871	9,4503
15872	9,481
15873	10,075
15874	10,048
15875	10,048
15876	10,075
15877	10,816
15878	10,799
15879	10,799
15880	10,816
15881	11,978
15882	12,073
15883	12,073
15884	11,978
15885	11,79
15886	11,834
15887	11,834
15888	11,79
15889	11,564
15890	11,579
15891	11,579
15892	11,564
15893	11,304
15894	11,305
15895	11,305
15896	11,304
15897	11,02
15898	11,014
15899	11,014
15900	11,02
15901	10,721
15902	10,713
15903	10,713
15904	10,721
15905	10,417
15906	10,409
15907	10,409
15908	10,417
15909	10,116
15910	10,108
15911	10,108
15912	10,116
15913	9,8223
15914	9,8149
15915	9,8149
15916	9,8223
15917	9,54
15918	9,5327
15919	9,5327
15920	9,54
15921	9,2711
15922	9,2638
15923	9,2638
15924	9,2711
15925	9,017
15926	9,0096
15927	9,0096
15928	9,017
15929	8,7788
15930	8,7712
15931	8,7712
15932	8,7788
15933	8,5572
15934	8,5492
15935	8,5492
15936	8,5572
15937	8,3528
15938	8,3443
15939	8,3443
15940	8,3528
15941	8,1665
15942	8,1574
15943	8,1574
15944	8,1665
15945	7,9991
15946	7,9893
15947	7,9893
15948	7,9991
15949	7,8518
15950	7,8412
15951	7,8412
15952	7,8518
15953	7,7259
15954	7,7144
15955	7,7144
15956	7,7259
15957	7,6229
15958	7,6104
15959	7,6104
15960	7,6229
15961	7,5449
15962	7,5313
15963	7,5313
15964	7,5449
15965	7,4938
15966	7,479
15967	7,479
15968	7,4938
15969	7,4722
15970	7,4561
15971	7,4561
15972	7,4722
15973	7,4831
15974	7,4655
15975	7,4655
15976	7,4831
15977	7,5297
15978	7,5104
15979	7,5104
15980	7,5297
15981	7,6159
15982	7,5948
15983	7,5948
15984	7,6159
15985	7,7464
15986	7,7233
15987	7,7233
15988	7,7464
15989	7,9266
15990	7,9015
15991	7,9015
15992	7,9266
15993	8,1634
15994	8,1362
15995	8,1362
15996	8,1634
15997	8,4654
15998	8,4363
15999	8,4363
16000	8,4654
16001	8,8438
16002	8,8134
16003	8,8134
16004	8,8438
16005	9,3135
16006	9,283
16007	9,283
16008	9,3135
16009	9,8962
16010	9,8682
16011	9,8682
16012	9,8962
16013	10,621
16014	10,601
16015	10,601
16016	10,621
16017	11,534
16018	11,53
16019	11,53
16020	11,534
16021	10,643
16022	10,623
16023	10,623
16024	10,643
16025	9,9402
16026	9,9121
16027	9,9121
16028	9,9402
16029	9,3622
16030	9,3311
16031	9,3311
16032	9,3622
16033	8,8985
16034	8,8672
16035	8,8672
16036	8,8985
16037	8,5277
16038	8,4975
16039	8,4975
16040	8,5277
16041	8,2348
16042	8,2063
16043	8,2063
16044	8,2348
16045	8,0084
16046	7,9819
16047	7,9819
16048	8,0084
16049	7,84
16050	7,8155
16051	7,8155
16052	7,84
16053	7,7229
16054	7,7003
16055	7,7003
16056	7,7229
16057	7,6517
16058	7,6308
16059	7,6308
16060	7,6517
16061	7,622
16062	7,6026
16063	7,6026
16064	7,622
16065	7,63
16066	7,612
16067	7,612
16068	7,63
16069	7,6724
16070	7,6557
16071	7,6557
16072	7,6724
16073	7,7466
16074	7,7309
16075	7,7309
16076	7,7466
16077	7,8503
16078	7,8355
16079	7,8355
16080	7,8503
16081	7,9813
16082	7,9673
16083	7,9673
16084	7,9813
16085	8,1379
16086	8,1247
16087	8,1247
16088	8,1379
16089	8,3187
16090	8,3061
16091	8,3061
16092	8,3187
16093	8,5225
16094	8,5105
16095	8,5105
16096	8,5225
16097	8,7484
16098	8,7369
16099	8,7369
16100	8,7484
16101	8,9958
16102	8,9847
16103	8,9847
16104	8,9958
16105	9,2644
16106	9,2538
16107	9,2538
16108	9,2644
16109	9,5546
16110	9,5444
16111	9,5444
16112	9,5546
16113	9,8671
16114	9,8572
16115	9,8572
16116	9,8671
16117	10,203
16118	10,194
16119	10,194
16120	10,203
16121	10,566
16122	10,557
16123	10,557
16124	10,566
16125	10,959
16126	10,949
16127	10,949
16128	10,959
16129	11,388
16130	11,377
16131	11,377
16132	11,388
16133	11,859
16134	11,847
16135	11,847
16136	11,859
16137	12,384
16138	12,368
16139	12,368
16140	12,384
16141	12,974
16142	12,953
16143	12,953
16144	12,974
16145	13,646
16146	13,616
16147	13,616
16148	13,646
16149	14,416
16150	14,374
16151	14,374
16152	14,416
16153	15,304
16154	15,246
16155	15,246
16156	15,304
16157	16,325
16158	16,253
16159	16,253
16160	16,325
16161	12,838
16162	12,808
16163	12,808
16164	12,838
16165	13,647
16166	13,618
16167	13,618
16168	13,647
16169	13,401
16170	13,361
16171	13,361
16172	13,401
16173	13,369
16174	13,345
16175	13,345
16176	13,369
16177	13,601
16178	13,574
16179	13,574
16180	13,601
16181	16,402
16182	16,602
16183	16,602
16184	16,402
16185	13,822
16186	13,786
16187	13,786
16188	13,822
16189	13,076
16190	13,067
16191	13,067
16192	13,076
16193	13,527
16194	13,561
16195	13,561
16196	13,527
16197	18,053
16198	17,937
16199	17,937
16200	18,053
16201	15,82
16202	15,797
16203	15,797
16204	15,82
16205	15,553
16206	15,542
16207	15,542
16208	15,553
16209	21,75
16210	22,051
16211	22,051
16212	21,75
16213	14,093
16214	14,167
16215	14,167
16216	14,093
16217	14,027
16218	13,975
16219	13,975
16220	14,027
16221	13,925
16222	13,877
16223	13,877
16224	13,925
16225	14,292
16226	14,271
16227	14,271
16228	14,292
16229	14,064
16230	14,021
16231	14,021
16232	14,064
16233	17,719
16234	17,615
16235	17,615
16236	17,719
16237	15,712
16238	15,701
16239	15,701
16240	15,712
16241	17,099
16242	17,02
16243	17,02
16244	17,099
16245	18,195
16246	18,075
16247	18,075
16248	18,195
16249	18,931
16250	18,821
16251	18,821
16252	18,931
16253	17,359
16254	17,752
16255	17,752
16256	17,359
16257	20,493
16258	21,008
16259	21,008
16260	20,493
16261	21,895
16262	22,286
16263	22,286
16264	21,895
16265	15,615
16266	15,946
16267	15,946
16268	15,615
16269	12,326
16270	12,555
16271	12,555
16272	12,326
16273	14,7
16274	14,681
16275	14,681
16276	14,7
16277	15,03
16278	15,123
16279	15,123
16280	15,03
16281	14,921
16282	14,938
16283	14,938
16284	14,921
16285	14,571
16286	14,543
16287	14,543
16288	14,571
16289	19,493
16290	19,343
16291	19,343
16292	19,493
16293	15,785
16294	15,772
16295	15,772
16296	15,785
16297	16,603
16298	16,55
16299	16,55
16300	16,603
16301	19,633
16302	19,494
16303	19,494
16304	19,633
16305	12,873
16306	13,061
16307	13,061
16308	12,873
16309	16,802
16310	16,935
16311	16,935
16312	16,802
16313	14,63
16314	14,6
16315	14,6
16316	14,63
16317	15,212
16318	15,214
16319	15,214
16320	15,212
16321	15,947
16322	16,045
16323	16,045
16324	15,947
16325	16,875
16326	17,009
16327	17,009
16328	16,875
16329	14,909
16330	14,889
16331	14,889
16332	14,909
16333	15,175
16334	15,167
16335	15,167
16336	15,175
16337	17,278
16338	17,439
16339	17,439
16340	17,278
16341	16,696
16342	16,791
16343	16,791
16344	16,696
16345	15,223
16346	15,216
16347	15,216
16348	15,223
16349	18,834
16350	18,693
16351	18,693
16352	18,834
16353	17,551
16354	17,455
16355	17,455
16356	17,551
16357	19,603
16358	19,45
16359	19,45
16360	19,603
16361	18,248
16362	18,421
16363	18,421
16364	18,248
16365	18,47
16366	19,073
16367	19,073
16368	18,47
16369	24,083
16370	24,97
16371	24,97
16372	24,083
16373	18,789
16374	18,928
16375	18,928
16376	18,789
16377	18,834
16378	19,04
16379	19,04
16380	18,834
16381	15,569
16382	15,575
16383	15,575
16384	15,569
16385	17,242
16386	17,405
16387	17,405
16388	17,242
16389	18,862
16390	19,003
16391	19,003
16392	18,862
16393	16,804
16394	16,866
16395	16,866
16396	16,804
16397	18,733
16398	18,702
16399	18,702
16400	18,733
16401	19,366
16402	19,334
16403	19,334
16404	19,366
16405	16,849
16406	16,922
16407	16,922
16408	16,849
16409	15,917
16410	15,939
16411	15,939
16412	15,917
16413	18,343
16414	18,643
16415	18,643
16416	18,343
16417	16,271
16418	15,981
16419	15,981
16420	16,271
16421	16,988
16422	16,548
16423	16,548
16424	16,988
16425	18,06
16426	17,869
16427	17,869
16428	18,06
16429	8,6399
16430	8,5977
16431	8,5977
16432	8,6399
16433	7,4864
16434	7,4458
16435	7,4458
16436	7,4864
16437	5,9317
16438	5,9227
16439	5,9227
16440	5,9317
16441	5,778
16442	5,7876
16443	5,7876
16444	5,778
16445	6,0126
16446	6,0267
16447	6,0267
16448	6,0126
16449	8,1466
16450	8,1139
16451	8,1139
16452	8,1466
16453	9,1141
16454	9,0689
16455	9,0689
16456	9,1141
16457	24,192
16458	24,926
16459	24,926
16460	24,192
16461	17,897
16462	17,864
16463	17,864
16464	17,897
16465	19,009
16466	18,935
16467	18,935
16468	19,009
16469	19,903
16470	19,752
16471	19,752
16472	19,903
16473	20,406
16474	20,187
16475	20,187
16476	20,406
16477	20,647
16478	20,398
16479	20,398
16480	20,647
16481	20,595
16482	20,343
16483	20,343
16484	20,595
16485	20,803
16486	20,513
16487	20,513
16488	20,803
16489	20,756
16490	20,476
16491	20,476
16492	20,756
16493	20,604
16494	20,358
16495	20,358
16496	20,604
16497	20,221
16498	20,034
16499	20,034
16500	20,221
16501	19,116
16502	19,028
16503	19,028
16504	19,116
16505	20,002
16506	19,838
16507	19,838
16508	20,002
16509	12,452
16510	12,543
16511	12,543
16512	12,452
16513	12,828
16514	12,828
16515	12,828
16516	12,828
16517	13,39
16518	13,291
16519	13,291
16520	13,39
16521	14,123
16522	13,93
16523	13,93
16524	14,123
16525	14,908
16526	14,639
16527	14,639
16528	14,908
16529	15,479
16530	15,162
16531	15,162
16532	15,479
16533	16,157
16534	15,804
16535	15,804
16536	16,157
16537	16,562
16538	16,2
16539	16,2
16540	16,562
16541	16,793
16542	16,446
16543	16,446
16544	16,793
16545	16,965
16546	16,643
16547	16,643
16548	16,965
16549	17,052
16550	16,742
16551	16,742
16552	17,052
16553	17,246
16554	16,96
16555	16,96
16556	17,246
16557	16,712
16558	16,393
16559	16,393
16560	16,712
16561	16,829
16562	16,484
16563	16,484
16564	16,829
16565	16,741
16566	16,423
16567	16,423
16568	16,741
16569	16,635
16570	16,273
16571	16,273
16572	16,635
16573	16,263
16574	15,885
16575	15,885
16576	16,263
16577	15,416
16578	15,11
16579	15,11
16580	15,416
16581	14,251
16582	14,013
16583	14,013
16584	14,251
16585	14,105
16586	13,899
16587	13,899
16588	14,105
16589	12,659
16590	12,752
16591	12,752
16592	12,659
16593	13,188
16594	13,178
16595	13,178
16596	13,188
16597	18,945
16598	18,874
16599	18,874
16600	18,945
16601	19,89
16602	19,747
16603	19,747
16604	19,89
16605	20,345
16606	20,131
16607	20,131
16608	20,345
16609	20,632
16610	20,378
16611	20,378
16612	20,632
16613	20,614
16614	20,36
16615	20,36
16616	20,614
16617	20,766
16618	20,484
16619	20,484
16620	20,766
16621	20,712
16622	20,44
16623	20,44
16624	20,712
16625	20,565
16626	20,315
16627	20,315
16628	20,565
16629	20,338
16630	20,139
16631	20,139
16632	20,338
16633	18,943
16634	18,871
16635	18,871
16636	18,943
16637	19,77
16638	19,632
16639	19,632
16640	19,77
16641	8,9341
16642	8,9077
16643	8,9077
16644	8,9341
16645	8,5659
16646	8,5116
16647	8,5116
16648	8,5659
16649	8,1537
16650	8,0849
16651	8,0849
16652	8,1537
16653	7,736
16654	7,6596
16655	7,6596
16656	7,736
16657	7,3001
16658	7,2279
16659	7,2279
16660	7,3001
16661	6,9992
16662	6,9336
16663	6,9336
16664	6,9992
16665	6,6929
16666	6,6338
16667	6,6338
16668	6,6929
16669	6,4712
16670	6,4161
16671	6,4161
16672	6,4712
16673	6,2815
16674	6,2312
16675	6,2312
16676	6,2815
16677	6,1531
16678	6,1045
16679	6,1045
16680	6,1531
16681	6,0943
16682	6,0469
16683	6,0469
16684	6,0943
16685	6,1044
16686	6,0546
16687	6,0546
16688	6,1044
16689	6,1549
16690	6,1073
16691	6,1073
16692	6,1549
16693	6,2833
16694	6,2331
16695	6,2331
16696	6,2833
16697	6,4649
16698	6,41
16699	6,41
16700	6,4649
16701	6,6973
16702	6,6406
16703	6,6406
16704	6,6973
16705	7,0046
16706	6,9394
16707	6,9394
16708	7,0046
16709	7,3471
16710	7,2776
16711	7,2776
16712	7,3471
16713	7,7339
16714	7,6598
16715	7,6598
16716	7,7339
16717	8,1461
16718	8,0776
16719	8,0776
16720	8,1461
16721	8,9317
16722	8,9043
16723	8,9043
16724	8,9317
16725	8,5731
16726	8,5188
16727	8,5188
16728	8,5731
16729	21,414
16730	21,054
16731	21,054
16732	21,414
16733	21,073
16734	20,799
16735	20,799
16736	21,073
16737	19,975
16738	20,067
16739	20,067
16740	19,975
16741	21,139
16742	21,352
16743	21,352
16744	21,139
16745	20,051
16746	20,178
16747	20,178
16748	20,051
16749	17,214
16750	17,269
16751	17,269
16752	17,214
16753	16,204
16754	16,237
16755	16,237
16756	16,204
16757	21,357
16758	21,57
16759	21,57
16760	21,357
16761	20,269
16762	20,343
16763	20,343
16764	20,269
16765	20,767
16766	20,548
16767	20,548
16768	20,767
16769	15,694
16770	15,716
16771	15,716
16772	15,694
16773	19,927
16774	20,068
16775	20,068
16776	19,927
16777	20,792
16778	20,684
16779	20,684
16780	20,792
16781	21,163
16782	20,862
16783	20,862
16784	21,163
16785	21,258
16786	20,899
16787	20,899
16788	21,258
16789	20,815
16790	20,543
16791	20,543
16792	20,815
16793	19,946
16794	19,794
16795	19,794
16796	19,946
16797	18,913
16798	18,827
16799	18,827
16800	18,913
16801	23,67
16802	23,594
16803	23,594
16804	23,67
16805	22,198
16806	22,62
16807	22,62
16808	22,198
16809	17,536
16810	17,416
16811	17,416
16812	17,536
16813	14,282
16814	14,101
16815	14,101
16816	14,282
16817	11,694
16818	11,607
16819	11,607
16820	11,694
16821	10,14
16822	10,129
16823	10,129
16824	10,14
16825	11,194
16826	11,167
16827	11,167
16828	11,194
16829	23,298
16830	23,63
16831	23,63
16832	23,298
16833	25,83
16834	25,148
16835	25,148
16836	25,83
16837	20,48
16838	20,099
16839	20,099
16840	20,48
16841	18,392
16842	21,452
16843	21,244
16844	11,408
16845	10,331
16846	11,815
16847	14,427
16848	17,87
16849	20,731
16850	24,374
16851	19,455
16852	20,528
16853	21,731
16854	22,432
16855	22,164
16856	21,028
16857	19,691
16858	15,727
16859	21,477
16860	19,848
16861	20,672
16862	16,211
16863	17,185
16864	19,861
16865	20,478
16866	19,502
16867	21,995
16868	22,581
16869	8,7399
16870	9,0027
16871	8,3607
16872	7,9571
16873	7,5611
16874	7,2092
16875	6,8867
16876	6,6497
16877	6,4623
16878	6,3301
16879	6,2768
16880	6,2671
16881	6,327
16882	6,4587
16883	6,6556
16884	6,8836
16885	7,2016
16886	7,51
16887	7,9582
16888	8,3692
16889	8,7368
16890	9,0022
16891	20,188
16892	19,109
16893	20,927
16894	21,274
16895	21,444
16896	21,546
16897	21,249
16898	21,338
16899	20,977
16900	20,32
16901	19,107
16902	13,23
16903	12,446
16904	14,637
16905	14,894
16906	16,22
16907	17,327
16908	17,627
16909	17,584
16910	17,867
16911	17,67
16912	18,002
16913	17,958
16914	17,895
16915	17,773
16916	17,561
16917	17,111
16918	16,331
16919	15,618
16920	14,633
16921	13,665
16922	12,851
16923	12,244
16924	20,491
16925	19,35
16926	20,763
16927	21,327
16928	21,534
16929	21,629
16930	21,226
16931	21,333
16932	21,05
16933	20,364
16934	19,182
16935	16,209
16936	22,573
16937	9,3014
16938	8,3437
16939	6,1289
16940	5,9007
16941	6,0726
16942	7,6997
16943	8,8509
16944	18,656
16945	18,468
16946	17,109
16947	17,642
16948	15,957
16949	16,782
16950	19,445
16951	18,795
16952	16,765
16953	18,354
16954	16,882
16955	15,631
16956	18,24
16957	18,308
16958	23,084
16959	17,572
16960	17,964
16961	20,03
16962	17,747
16963	19,185
16964	15,305
16965	16,574
16966	16,821
16967	15,259
16968	15,023
16969	16,502
16970	15,788
16971	15,274
16972	14,78
16973	16,429
16974	12,342
16975	20,032
16976	16,667
16977	15,716
16978	19,908
16979	14,683
16980	14,94
16981	14,865
16982	14,793
16983	11,876
16984	15,161
16985	21,66
16986	20,121
16987	16,857
16988	19,251
16989	18,473
16990	17,252
16991	15,671
16992	17,945
16993	14,188
16994	14,374
16995	14,055
16996	14,171
16997	13,955
16998	21,698
16999	15,541
17000	15,831
17001	18,319
17002	13,483
17003	13,117
17004	13,923
17005	16,282
17006	13,68
17007	13,439
17008	13,499
17009	13,732
17010	12,914
17011	16,496
17012	15,427
17013	14,502
17014	13,705
17015	13,017
17016	12,416
17017	11,885
17018	11,41
17019	10,979
17020	10,586
17021	10,223
17022	9,8869
17023	9,575
17024	9,2856
17025	9,0178
17026	8,7714
17027	8,5465
17028	8,3439
17029	8,1644
17030	8,0092
17031	7,8799
17032	7,7782
17033	7,7061
17034	7,6661
17035	7,6609
17036	7,6938
17037	7,7684
17038	7,8893
17039	8,0616
17040	8,2919
17041	8,5883
17042	8,9612
17043	9,4246
17044	9,9975
17045	10,687
17046	11,549
17047	10,665
17048	9,9531
17049	9,3747
17050	8,9048
17051	8,5238
17052	8,2181
17053	7,9772
17054	7,7928
17055	7,6583
17056	7,5684
17057	7,5185
17058	7,5046
17059	7,5235
17060	7,5721
17061	7,648
17062	7,749
17063	7,8731
17064	8,0189
17065	8,1848
17066	8,3699
17067	8,5733
17068	8,7941
17069	9,0318
17070	9,2855
17071	9,5545
17072	9,8372
17073	10,131
17074	10,433
17075	10,736
17076	11,032
17077	11,309
17078	11,55
17079	11,738
17080	11,85
17081	10,855
17082	10,131
17083	9,5428
17084	9,0652
17085	8,6785
17086	8,3686
17087	8,1248
17088	7,9388
17089	7,8042
17090	7,7157
17091	7,6688
17092	7,6597
17093	7,6854
17094	7,7429
17095	7,8299
17096	7,9444
17097	8,0844
17098	8,2486
17099	8,4355
17100	8,6442
17101	8,874
17102	9,1244
17103	9,3954
17104	9,6874
17105	10,001
17106	10,34
17107	10,704
17108	11,101
17109	11,534
17110	12,013
17111	12,549
17112	13,156
17113	13,851
17114	14,654
17115	15,584
17116	11,852
17117	11,737
17118	11,549
17119	11,308
17120	11,031
17121	10,735
17122	10,432
17123	10,13
17124	9,8361
17125	9,5535
17126	9,2845
17127	9,0307
17128	8,7931
17129	8,5723
17130	8,369
17131	8,184
17132	8,018
17133	7,8724
17134	7,7483
17135	7,6475
17136	7,5717
17137	7,5232
17138	7,5046
17139	7,5187
17140	7,5689
17141	7,6591
17142	7,7939
17143	7,9787
17144	8,2202
17145	8,5265
17146	8,9081
17147	9,3791
17148	9,9583
17149	10,672
17150	14,761
17151	13,525
17152	13,424
17153	13,113
17154	12,275
17155	13,184
17156	13,373
17157	17,887
17158	18,677
17159	16,104
17160	12,4
17161	12,837
17162	13,122
17163	12,899
17164	15,89
17165	15,951
17166	12,588
17167	12,868
17168	12,334
17169	19,076
17170	17,527
17171	15,29
17172	14,778
17173	14,89
17174	12,275
17175	11,486
17176	12,422
17177	11,097
17178	11,762
17179	12,245
17180	12,341
17181	12,543
17182	11,68
17183	14,786
17184	13,994
17185	13,311
17186	12,714
17187	12,185
17188	11,712
17189	11,284
17190	10,895
17191	10,539
17192	10,213
17193	9,9138
17194	9,64
17195	9,3908
17196	9,1664
17197	8,967
17198	8,7937
17199	8,6478
17200	8,5309
17201	8,445
17202	8,3925
17203	8,376
17204	8,3983
17205	8,4629
17206	8,5733
17207	8,7337
17208	8,9487
17209	9,2242
17210	9,567
17211	9,987
17212	10,497
17213	10,481
17214	9,9691
17215	9,5462
17216	9,1997
17217	8,9197
17218	8,6992
17219	8,5327
17220	8,4153
17221	8,3429
17222	8,3119
17223	8,3192
17224	8,362
17225	8,4377
17226	8,5442
17227	8,6798
17228	8,843
17229	9,0328
17230	9,2484
17231	9,4896
17232	9,7561
17233	10,048
17234	10,366
17235	10,71
17236	11,081
17237	11,477
17238	11,9
17239	12,347
17240	12,815
17241	13,299
17242	10,626
17243	10,102
17244	9,6694
17245	9,3137
17246	9,0251
17247	8,7965
17248	8,6221
17249	8,4972
17250	8,4177
17251	8,3801
17252	8,3811
17253	8,4178
17254	8,4877
17255	8,5884
17256	8,7179
17257	8,8745
17258	9,0567
17259	9,2635
17260	9,4942
17261	9,7486
17262	10,027
17263	10,33
17264	10,66
17265	11,02
17266	11,412
17267	11,844
17268	12,323
17269	12,857
17270	13,462
17271	14,153
17272	14,955
17273	13,789
17274	13,298
17275	12,813
17276	12,345
17277	11,899
17278	11,476
17279	11,079
17280	10,709
17281	10,365
17282	10,047
17283	9,7549
17284	9,4884
17285	9,2474
17286	9,0318
17287	8,8421
17288	8,679
17289	8,5435
17290	8,4371
17291	8,3616
17292	8,3191
17293	8,312
17294	8,3432
17295	8,4159
17296	8,5336
17297	8,7006
17298	8,9215
17299	9,202
17300	9,5492
17301	9,9727
17302	10,486
17303	15,21
17304	14,625
17305	12,339
17306	12,451
17307	12,21
17308	11,941
17309	11,733
17310	11,726
17311	11,831
17312	16,504
17313	16,502
17314	11,775
17315	11,809
17316	11,807
17317	10,853
17318	11,647
17319	11,088
17320	16,863
17321	17,003
17322	11,537
17323	11,527
17324	12,094
17325	11,102
17326	11,177
17327	11,251
17328	15,598
17329	16,924
17330	17,317
17331	16,907
17332	11,21
17333	11,283
17334	11,291
17335	11,286
17336	11,621
17337	11,121
17338	15,928
17339	16,755
17340	16,073
17341	11,11
17342	11,011
17343	10,968
17344	10,749
17345	16,045
17346	10,863
17347	10,875
17348	10,805
17349	10,536
17350	10,884
17351	13,309
17352	10,507
17353	10,672
17354	10,238
17355	10,295
17356	10,593
17357	10,313
17358	15,866
17359	15,25
17360	13,054
17361	10,395
17362	10,34
17363	10,29
17364	10,2
17365	10,328
17366	10,619
17367	10,451
17368	10,22
17369	12,962
17370	12,93
17371	10,135
17372	9,8458
17373	10,002
17374	9,959
17375	12,778
17376	12,731
17377	10,
17378	9,7729
17379	9,8696
17380	9,7435
17381	10,278
17382	10,035
17383	10,089
17384	9,7001
17385	13,818
17386	9,9564
17387	9,7964
17388	9,5106
17389	9,5179
17390	13,852
17391	14,247
17392	9,5473
17393	9,6697
17394	9,5175
17395	9,3836
17396	9,7257
17397	9,9113
17398	9,239
17399	9,4538
17400	9,3222
17401	11,565
17402	11,189
17403	10,836
17404	10,505
17405	10,196
17406	9,9125
17407	9,6542
17408	9,4234
17409	9,2223
17410	9,0538
17411	8,9207
17412	8,8262
17413	8,7736
17414	8,7664
17415	8,8076
17416	8,9004
17417	9,0474
17418	9,2512
17419	9,5137
17420	9,351
17421	9,1608
17422	9,0285
17423	8,952
17424	8,9288
17425	8,9564
17426	9,032
17427	9,1531
17428	9,3171
17429	9,5217
17430	9,7651
17431	10,046
17432	10,363
17433	10,716
17434	11,105
17435	11,533
17436	12,
17437	12,51
17438	9,1102
17439	8,9469
17440	8,8366
17441	8,7768
17442	8,7649
17443	8,7978
17444	8,8725
17445	8,9858
17446	9,1346
17447	9,316
17448	9,5273
17449	9,7662
17450	10,031
17451	10,319
17452	10,63
17453	10,964
17454	11,318
17455	11,694
17456	13,066
17457	12,508
17458	11,998
17459	11,531
17460	11,104
17461	10,714
17462	10,361
17463	10,044
17464	9,7637
17465	9,5206
17466	9,3161
17467	9,1523
17468	9,0315
17469	8,9561
17470	8,9288
17471	8,9523
17472	9,0292
17473	9,1619
17474	9,3525
17475	9,603
17476	12,339
17477	9,3688
17478	9,2139
17479	9,0581
17480	9,3952
17481	9,0274
17482	13,463
17483	13,349
17484	13,608
17485	11,851
17486	11,928
17487	9,3609
17488	9,2991
17489	9,0209
17490	9,021
17491	8,8686
17492	9,1295
17493	8,8422
17494	9,2651
17495	13,267
17496	11,698
17497	11,591
17498	9,1779
17499	13,082
17500	12,599
17501	11,426
17502	9,0612
17503	8,9557
17504	8,7418
17505	8,6138
17506	8,8114
17507	9,0149
17508	8,8468
17509	8,6613
17510	8,4695
17511	8,6869
17512	8,8275
17513	9,1684
17514	9,0818
17515	8,6878
17516	11,085
17517	10,725
17518	10,383
17519	10,06
17520	9,7595
17521	9,4831
17522	9,2341
17523	9,0157
17524	8,8314
17525	8,6852
17526	8,5809
17527	8,5222
17528	8,5126
17529	8,5551
17530	8,652
17531	8,8049
17532	8,8074
17533	8,7335
17534	8,7167
17535	8,7552
17536	8,8466
17537	8,9879
17538	9,1764
17539	9,4091
17540	9,6833
17541	9,9968
17542	10,348
17543	10,735
17544	11,158
17545	11,617
17546	12,114
17547	8,5853
17548	8,5232
17549	8,5121
17550	8,5494
17551	8,6322
17552	8,7568
17553	8,9198
17554	9,1175
17555	9,3464
17556	9,6033
17557	9,8851
17558	10,189
17559	10,513
17560	10,856
17561	11,214
17562	12,112
17563	11,616
17564	11,156
17565	10,733
17566	10,346
17567	9,9952
17568	9,6818
17569	9,4077
17570	9,1752
17571	8,987
17572	8,8459
17573	8,7548
17574	8,7167
17575	8,7338
17576	8,8081
17577	9,0918
17578	8,5747
17579	8,2818
17580	8,5526
17581	8,5735
17582	12,063
17583	12,32
17584	12,143
17585	12,01
17586	12,269
17587	12,061
17588	11,375
17589	11,056
17590	8,608
17591	8,513
17592	8,3669
17593	8,1072
17594	8,7135
17595	8,8485
17596	8,8972
17597	8,3657
17598	8,7197
17599	8,7036
17600	8,5987
17601	8,637
17602	8,8156
17603	8,4663
17604	8,3077
17605	8,3369
17606	8,1581
17607	7,9531
17608	8,9156
17609	8,5216
17610	8,3594
17611	8,443
17612	8,2252
17613	8,4583
17614	7,8409
17615	10,115
17616	8,1756
17617	7,9446
17618	7,959
17619	7,7789
17620	7,6255
17621	8,1603
17622	7,8252
17623	8,4837
17624	8,7938
17625	8,0972
17626	8,1632
17627	7,7235
17628	10,086
17629	8,262
17630	7,8738
17631	9,9032
17632	9,7525
17633	8,3946
17634	7,7628
17635	7,4557
17636	7,6277
17637	8,5855
17638	7,6407
17639	7,4547
17640	10,807
17641	7,3261
17642	10,624
17643	9,5593
17644	8,4712
17645	8,359
17646	7,7409
17647	7,5132
17648	7,8182
17649	7,3367
17650	7,4019
17651	7,816
17652	7,2352
17653	7,3407
17654	7,5127
17655	7,1808
17656	9,3964
17657	7,7051
17658	7,5052
17659	7,537
17660	7,7114
17661	7,1052
17662	7,0592
17663	8,4666
17664	8,4017
17665	7,5897
17666	7,1886
17667	8,5767
17668	8,2939
17669	8,0433
17670	7,8354
17671	7,6742
17672	7,5652
17673	7,7118
17674	7,8091
17675	7,9682
17676	8,1853
17677	8,4551
17678	8,7719
17679	9,1383
17680	9,5373
17681	7,535
17682	7,6177
17683	7,7525
17684	7,9348
17685	8,1608
17686	8,4236
17687	8,7143
17688	9,1267
17689	8,7686
17690	8,4517
17691	8,1839
17692	7,9671
17693	7,8083
17694	7,0517
17695	7,5916
17696	8,8921
17697	7,5076
17698	8,2032
17699	7,4744
17700	7,0294
17701	7,04
17702	7,1921
17703	6,9766
17704	7,2586
17705	7,9718
17706	7,3864
17707	7,1828
17708	8,6788
17709	7,159
17710	7,378
17711	7,0659
17712	6,9342
17713	7,0969
17714	7,1874
17715	8,1543
17716	7,8669
17717	7,623
17718	7,4302
17719	7,3834
17720	7,1688
17721	7,2353
17722	7,3595
17723	7,5371
17724	7,7638
17725	8,0382
17726	8,1637
17727	7,0283
17728	6,9706
17729	6,9625
17730	7,065
17731	7,8813
17732	6,8587
17733	20,175
17734	18,967
17735	17,602
17736	16,369
17737	14,732
17738	12,915
17739	11,107
17740	9,5108
17741	8,1961
17742	7,1631
17743	6,379
17744	5,8
17745	5,3833
17746	5,0927
17747	4,8989
17748	4,7801
17749	4,7195
17750	4,7049
17751	4,7273
17752	4,7799
17753	4,8576
17754	4,9564
17755	5,0733
17756	5,2055
17757	5,3509
17758	5,5073
17759	5,6728
17760	5,8453
17761	6,0227
17762	6,203
17763	6,3837
17764	6,5626
17765	6,7372
17766	6,9051
17767	7,0641
17768	7,2124
17769	7,3488
17770	7,4729
17771	7,5861
17772	7,6914
17773	7,794
17774	7,902
17775	8,0261
17776	8,1787
17777	8,3713
17778	8,6063
17779	8,8651
17780	9,0947
17781	9,216
17782	9,16
17783	8,9385
17784	8,8112
17785	8,5458
17786	8,0683
17787	7,6602
17788	7,3413
17789	7,0717
17790	6,8614
17791	6,6869
17792	6,5609
17793	6,4777
17794	6,4345
17795	6,4347
17796	6,4776
17797	6,5627
17798	6,6869
17799	6,8573
17800	7,0647
17801	7,3373
17802	7,6614
17803	8,0628
17804	8,5224
17805	8,7978
17806	8,9377
17807	9,1573
17808	9,2165
17809	9,0942
17810	8,8651
17811	8,6061
17812	8,3714
17813	8,1787
17814	8,0263
17815	7,9023
17816	7,7944
17817	7,6918
17818	7,5866
17819	7,4734
17820	7,3493
17821	7,213
17822	7,0648
17823	6,9059
17824	6,738
17825	6,5634
17826	6,3846
17827	6,2039
17828	6,0237
17829	5,8462
17830	5,6737
17831	5,5083
17832	5,3518
17833	5,2064
17834	5,0741
17835	4,9571
17836	4,8582
17837	4,7804
17838	4,7276
17839	4,705
17840	4,7192
17841	4,7793
17842	4,8976
17843	5,0905
17844	5,3801
17845	5,7953
17846	6,3724
17847	7,1538
17848	8,1837
17849	9,4944
17850	11,087
17851	12,894
17852	14,743
17853	16,39
17854	17,568
17855	18,992
17856	20,174
17857	20,695
17858	20,959
17859	21,183
17860	21,217
17861	21,224
17862	20,989
17863	20,712
17864	20,181
17865	18,953
17866	17,601
17867	16,398
17868	14,804
17869	12,97
17870	11,172
17871	9,5805
17872	8,2676
17873	7,2347
17874	6,4515
17875	5,875
17876	5,4632
17877	5,1799
17878	4,9962
17879	4,89
17880	4,845
17881	4,8489
17882	4,893
17883	4,9708
17884	5,0776
17885	5,21
17886	5,3655
17887	5,542
17888	5,7382
17889	5,9528
17890	6,1847
17891	6,4331
17892	6,6969
17893	6,9752
17894	7,2669
17895	7,5705
17896	7,8844
17897	8,2066
17898	8,5345
17899	8,8646
17900	9,1928
17901	9,5138
17902	9,8208
17903	10,106
17904	10,36
17905	10,572
17906	10,733
17907	10,83
17908	10,856
17909	10,801
17910	10,657
17911	10,424
17912	10,13
17913	9,8587
17914	9,7237
17915	9,9959
17916	10,835
17917	11,624
17918	12,476
17919	13,486
17920	14,771
17921	16,012
17922	17,05
17923	18,003
17924	18,523
17925	18,949
17926	19,15
17927	18,866
17928	18,469
17929	17,844
17930	17,019
17931	16,023
17932	14,891
17933	13,643
17934	12,448
17935	11,418
17936	10,607
17937	9,9525
17938	9,6975
17939	9,8491
17940	10,113
17941	10,403
17942	10,638
17943	10,789
17944	10,853
17945	10,839
17946	10,754
17947	10,607
17948	10,409
17949	10,168
17950	9,895
17951	9,5987
17952	9,2872
17953	8,9669
17954	8,6432
17955	8,3206
17956	8,0023
17957	7,6912
17958	7,3892
17959	7,0982
17960	6,8194
17961	6,5541
17962	6,3032
17963	6,0677
17964	5,8484
17965	5,6463
17966	5,4624
17967	5,2979
17968	5,1544
17969	5,034
17970	4,9394
17971	4,8741
17972	4,8431
17973	4,8533
17974	4,9136
17975	5,0368
17976	5,2395
17977	5,5441
17978	5,9796
17979	6,5814
17980	7,3899
17981	8,4448
17982	9,7706
17983	11,362
17984	13,134
17985	14,94
17986	16,488
17987	17,62
17988	18,99
17989	20,159
17990	20,657
17991	20,983
17992	21,17
17993	21,206
17994	21,198
17995	20,97
17996	20,686
17997	23,375
17998	23,264
17999	23,18
18000	23,142
18001	23,282
18002	23,599
18003	23,407
18004	23,006
18005	25,76
18006	24,16
18007	23,739
18008	20,739
18009	17,818
18010	15,517
18011	14,47
18012	14,6
18013	15,729
18014	17,658
18015	19,584
18016	23,084
18017	24,342
18018	26,054
18019	23,381
18020	24,298
18021	23,01
18022	14,883
18023	14,397
18024	15,05
18025	16,647
18026	19,271
18027	22,517
18028	24,708
18029	24,567
18030	22,577
18031	24,219
18032	23,854
18033	22,927
18034	23,236
18035	23,283
18036	23,41
18037	23,126
18038	23,098
18039	24,323
18040	26,268
18041	24,997
18042	22,281
18043	19,433
18044	23,626
18045	26,227
18046	27,121
18047	30,046
18048	27,327
18049	24,68
18050	20,889
18051	17,481
18052	15,738
18053	18,72
18054	22,651
18055	26,479
18056	27,358
18057	28,829
18058	25,236
18059	24,49
18060	21,066
18061	18,884
18062	18,715
18063	17,838
18064	18,047
18065	19,013
18066	20,761
18067	18,325
18068	19,781
18069	21,425
18070	16,418
18071	13,35
18072	10,826
18073	8,0831
18074	4,3915
18075	4,4662
18076	3,9202
18077	6,1037
18078	8,9233
18079	11,783
18080	14,724
18081	17,282
18082	20,728
18083	23,719
18084	24,959
18085	25,264
18086	26,683
18087	25,719
18088	28,249
18089	27,21
18090	23,016
18091	11,976
18092	12,094
18093	12,383
18094	12,594
18095	12,636
18096	14,127
18097	12,512
18098	12,286
18099	12,006
18100	12,073
18101	11,699
18102	12,183
18103	11,38
18104	12,44
18105	11,054
18106	12,622
18107	10,724
18108	12,631
18109	10,391
18110	12,49
18111	10,057
18112	12,251
18113	9,7237
18114	11,959
18115	9,3938
18116	11,643
18117	9,0692
18118	11,316
18119	8,7517
18120	10,982
18121	8,4432
18122	10,645
18123	8,1452
18124	10,305
18125	7,8591
18126	9,9642
18127	7,5861
18128	9,6254
18129	7,3274
18130	9,2905
18131	7,0841
18132	8,9616
18133	6,8572
18134	8,6408
18135	6,6476
18136	8,3299
18137	6,4566
18138	8,0305
18139	6,2852
18140	7,744
18141	6,1348
18142	7,4717
18143	6,007
18144	7,2147
18145	5,9038
18146	6,9742
18147	5,8276
18148	6,7513
18149	5,7815
18150	6,5469
18151	5,7693
18152	6,3624
18153	5,7961
18154	6,1991
18155	5,8687
18156	6,0585
18157	5,9957
18158	5,9426
18159	6,1886
18160	5,8536
18161	6,4624
18162	5,7945
18163	6,8365
18164	5,7692
18165	7,335
18166	5,7824
18167	7,9865
18168	5,8408
18169	8,821
18170	5,9526
18171	9,8634
18172	6,1292
18173	11,104
18174	6,3853
18175	12,542
18176	6,7402
18177	14,131
18178	7,2184
18179	15,599
18180	7,8491
18181	16,914
18182	8,6642
18183	18,034
18184	9,6918
18185	10,946
18186	12,397
18187	13,98
18188	15,475
18189	16,794
18190	17,927
18191	17,85
18192	16,707
18193	15,415
18194	13,894
18195	12,344
18196	10,885
18197	9,6276
18198	18,102
18199	8,5972
18200	16,808
18201	7,7789
18202	15,477
18203	7,1435
18204	13,916
18205	6,6589
18206	12,326
18207	6,2955
18208	10,871
18209	6,0288
18210	9,6158
18211	5,8393
18212	8,5882
18213	5,7123
18214	7,772
18215	5,6363
18216	7,1384
18217	5,6025
18218	6,6552
18219	5,6043
18220	6,2928
18221	5,6363
18222	6,0269
18223	5,6944
18224	5,8381
18225	5,7751
18226	5,7115
18227	5,8755
18228	5,6359
18229	5,9932
18230	5,6024
18231	6,1258
18232	5,6044
18233	6,2713
18234	5,6367
18235	6,4277
18236	5,6949
18237	6,5932
18238	5,7757
18239	6,7658
18240	5,8762
18241	6,9437
18242	5,9939
18243	7,125
18244	6,1266
18245	7,3079
18246	6,2721
18247	7,4906
18248	6,4286
18249	7,6713
18250	6,5941
18251	7,8486
18252	6,7667
18253	8,0208
18254	6,9445
18255	8,1865
18256	7,1258
18257	8,344
18258	7,3087
18259	8,4919
18260	7,4913
18261	8,6284
18262	7,6721
18263	8,752
18264	7,8493
18265	8,8626
18266	8,0215
18267	8,9631
18268	8,1871
18269	9,0606
18270	8,3446
18271	9,1634
18272	8,4924
18273	9,2692
18274	8,6288
18275	9,3534
18276	8,7524
18277	9,3603
18278	8,8628
18279	9,266
18280	8,9634
18281	9,134
18282	9,06
18283	9,1635
18284	9,2686
18285	9,3532
18286	9,3599
18287	9,2664
18288	9,1204
18289	16,363
18290	15,582
18291	17,856
18292	15,073
18293	14,502
18294	18,566
18295	14,369
18296	18,413
18297	14,553
18298	18,171
18299	14,871
18300	18,318
18301	14,955
18302	14,746
18303	14,316
18304	13,795
18305	13,252
18306	19,003
18307	12,725
18308	19,056
18309	12,23
18310	11,769
18311	11,34
18312	10,936
18313	16,599
18314	10,553
18315	15,609
18316	10,189
18317	14,897
18318	9,8401
18319	14,711
18320	9,5061
18321	14,79
18322	9,1862
18323	14,955
18324	8,8806
18325	14,943
18326	8,5894
18327	14,698
18328	8,3132
18329	14,258
18330	8,0527
18331	13,72
18332	7,8086
18333	13,167
18334	7,5819
18335	12,634
18336	7,3734
18337	12,136
18338	7,1843
18339	11,673
18340	7,0157
18341	11,242
18342	6,8689
18343	10,836
18344	6,7456
18345	10,451
18346	6,6475
18347	10,084
18348	6,5768
18349	9,7328
18350	6,5361
18351	9,3969
18352	6,5287
18353	9,0757
18354	6,5584
18355	8,7694
18356	6,6302
18357	8,4782
18358	6,7503
18359	8,203
18360	6,9266
18361	7,9444
18362	7,1693
18363	7,7032
18364	7,4915
18365	7,4805
18366	7,9097
18367	7,2774
18368	8,4445
18369	7,0949
18370	9,1198
18371	6,9344
18372	9,9617
18373	6,7975
18374	10,971
18375	6,686
18376	12,138
18377	6,602
18378	13,489
18379	6,548
18380	15,035
18381	6,5272
18382	16,685
18383	6,5434
18384	17,973
18385	6,6015
18386	6,7075
18387	20,472
18388	6,8692
18389	21,143
18390	7,0967
18391	7,4028
18392	22,143
18393	7,8041
18394	8,3214
18395	22,42
18396	8,9794
18397	9,8053
18398	10,823
18399	12,041
18400	21,137
18401	13,483
18402	20,015
18403	15,009
18404	16,523
18405	17,691
18406	17,843
18407	16,353
18408	19,148
18409	14,923
18410	20,281
18411	13,415
18412	11,994
18413	22,36
18414	10,77
18415	9,749
18416	8,9187
18417	8,2548
18418	22,809
18419	7,73
18420	7,3196
18421	7,0027
18422	6,7626
18423	20,875
18424	6,5863
18425	19,41
18426	6,4637
18427	18,045
18428	6,3867
18429	16,474
18430	6,3489
18431	14,972
18432	6,3453
18433	13,421
18434	6,3716
18435	11,98
18436	6,4244
18437	10,76
18438	6,5006
18439	9,7404
18440	6,5977
18441	8,9121
18442	6,7133
18443	8,2496
18444	6,8456
18445	7,7261
18446	6,9925
18447	7,3166
18448	7,1524
18449	7,0004
18450	7,3236
18451	6,761
18452	7,5047
18453	6,5852
18454	7,6942
18455	6,463
18456	7,8908
18457	6,3863
18458	8,093
18459	6,3488
18460	8,2994
18461	6,3454
18462	8,5082
18463	6,3719
18464	8,7173
18465	6,4248
18466	8,9238
18467	6,5011
18468	9,1234
18469	6,5983
18470	9,3105
18471	6,7141
18472	9,4774
18473	6,8463
18474	9,6152
18475	6,9933
18476	9,7155
18477	7,1532
18478	9,7746
18479	7,3245
18480	9,7987
18481	7,5056
18482	9,8126
18483	7,6951
18484	9,8502
18485	7,8916
18486	9,9134
18487	8,0938
18488	9,9993
18489	8,3002
18490	10,018
18491	8,509
18492	9,9645
18493	8,7181
18494	9,712
18495	8,9245
18496	9,1241
18497	8,6834
18498	9,3111
18499	9,478
18500	7,8248
18501	9,6157
18502	7,2138
18503	9,7162
18504	6,8203
18505	9,774
18506	6,4457
18507	9,8005
18508	9,8074
18509	5,9654
18510	9,8534
18511	9,9009
18512	5,9318
18513	9,9926
18514	10,026
18515	6,2313
18516	9,9258
18517	6,4459
18518	9,6264
18519	6,858
18520	9,3632
18521	7,2815
18522	8,2424
18523	18,315
18524	18,754
18525	19,204
18526	18,049
18527	18,332
18528	17,716
18529	17,514
18530	17,642
18531	16,976
18532	16,142
18533	15,289
18534	14,478
18535	13,738
18536	13,077
18537	12,489
18538	11,964
18539	11,489
18540	11,056
18541	10,656
18542	10,284
18543	9,9352
18544	9,6076
18545	9,2995
18546	9,0099
18547	8,7384
18548	8,4852
18549	8,2505
18550	8,0352
18551	7,8399
18552	7,6657
18553	7,514
18554	7,386
18555	7,2836
18556	7,2086
18557	7,1635
18558	7,1508
18559	7,1739
18560	7,2366
18561	7,3434
18562	7,5003
18563	7,7142
18564	7,9943
18565	8,3521
18566	8,8023
18567	9,3637
18568	10,06
18569	10,918
18570	11,923
18571	13,08
18572	14,395
18573	15,951
18574	18,25
18575	21,999
18576	23,166
18577	20,54
18578	18,344
18579	18,414
18580	18,646
18581	18,329
18582	17,801
18583	17,429
18584	16,816
18585	16,023
18586	15,173
18587	14,355
18588	13,614
18589	12,955
18590	12,37
18591	11,847
18592	11,374
18593	10,942
18594	10,543
18595	10,171
18596	9,8227
18597	9,4957
18598	9,1885
18599	8,9003
18600	8,6309
18601	8,3807
18602	8,1501
18603	7,9398
18604	7,751
18605	7,5847
18606	7,4425
18607	7,3259
18608	7,237
18609	7,178
18610	7,1516
18611	7,161
18612	7,2099
18613	7,3031
18614	7,4461
18615	7,6461
18616	7,9119
18617	8,255
18618	8,69
18619	9,2359
18620	9,9161
18621	10,759
18622	11,774
18623	13,024
18624	14,572
18625	20,566
18626	14,525
18627	12,992
18628	11,731
18629	10,709
18630	9,862
18631	9,1768
18632	8,6246
18633	8,1816
18634	7,8291
18635	7,5522
18636	7,3395
18637	7,1819
18638	7,0723
18639	7,0048
18640	6,9745
18641	6,9773
18642	7,0099
18643	7,0692
18644	7,1526
18645	7,258
18646	7,3834
18647	7,527
18648	7,6873
18649	7,863
18650	8,0528
18651	8,2558
18652	8,4708
18653	8,6968
18654	8,9326
18655	9,1764
18656	9,4256
18657	9,6764
18658	9,9229
18659	10,157
18660	10,367
18661	10,54
18662	10,66
18663	10,718
18664	10,711
18665	10,722
18666	10,76
18667	11,04
18668	11,288
18669	11,686
18670	11,377
18671	9,5433
18672	8,0711
18673	6,5892
18674	5,8929
18675	5,64
18676	5,1187
18677	5,3264
18678	4,6796
18679	5,0813
18680	5,4863
18681	6,4842
18682	8,2414
18683	9,7816
18684	11,777
18685	11,735
18686	11,248
18687	10,928
18688	10,741
18689	10,695
18690	10,717
18691	10,716
18692	10,659
18693	10,539
18694	10,367
18695	10,156
18696	9,9221
18697	9,6755
18698	9,4247
18699	9,1755
18700	8,9317
18701	8,6959
18702	8,4699
18703	8,2548
18704	8,0519
18705	7,8621
18706	7,6865
18707	7,5262
18708	7,3827
18709	7,2574
18710	7,1521
18711	7,0687
18712	7,0096
18713	6,9772
18714	6,9746
18715	7,0051
18716	7,073
18717	7,1829
18718	7,3409
18719	7,554
18720	7,8315
18721	8,1848
18722	8,6287
18723	9,182
18724	9,8686
18725	10,717
18726	11,761
18727	13,025
18728	14,506
18729	16,308
18730	18,155
18731	19,511
18732	18,941
18733	18,213
18734	15,748
18735	14,032
18736	12,663
18737	11,557
18738	11,889
18739	11,933
18740	12,081
18741	12,61
18742	13,55
18743	14,579
18744	15,766
18745	18,389
18746	15,817
18747	13,968
18748	12,625
18749	11,531
18750	17,685
18751	18,902
18752	20,08
18753	21,017
18754	22,117
18755	21,91
18756	22,016
18757	20,742
18758	19,215
18759	17,859
18760	16,654
18761	11,739
18762	12,798
18763	14,127
18764	15,655
18765	12,606
18766	11,9
18767	13,021
18768	13,952
18769	17,435
18770	20,508
18771	22,539
18772	16,781
18773	15,114
18774	19,927
18775	17,874
18776	13,967
18777	13,686
18778	13,375
18779	13,229
18780	12,961
18781	12,645
18782	12,295
18783	11,925
18784	11,55
18785	11,18
18786	10,82
18787	10,477
18788	10,152
18789	9,8462
18790	9,5615
18791	9,2978
18792	9,0555
18793	8,8347
18794	8,636
18795	8,4599
18796	8,3073
18797	8,1795
18798	8,0778
18799	8,0042
18800	7,9608
18801	7,9501
18802	7,9748
18803	8,0384
18804	8,1445
18805	8,2975
18806	8,5024
18807	8,7653
18808	9,0939
18809	9,4978
18810	9,9917
18811	10,593
18812	11,336
18813	12,271
18814	13,384
18815	14,827
18816	23,266
18817	21,044
18818	17,734
18819	16,464
18820	15,395
18821	14,492
18822	13,722
18823	13,058
18824	12,477
18825	11,963
18826	11,502
18827	11,085
18828	10,705
18829	10,356
18830	10,034
18831	9,7367
18832	9,463
18833	9,212
18834	8,9833
18835	8,7772
18836	8,5944
18837	8,4359
18838	8,303
18839	8,1974
18840	8,121
18841	8,076
18842	8,0648
18843	8,0902
18844	8,1556
18845	8,2645
18846	8,4212
18847	8,6307
18848	8,899
18849	9,2338
18850	9,6454
18851	10,148
18852	10,763
18853	11,506
18854	12,411
18855	13,584
18856	13,322
18857	12,2
18858	11,329
18859	10,623
18860	10,024
18861	9,5353
18862	9,1371
18863	8,8153
18864	8,5602
18865	8,3643
18866	8,2215
18867	8,1267
18868	8,0758
18869	8,065
18870	8,0911
18871	8,1513
18872	8,2431
18873	8,3642
18874	8,5128
18875	8,6874
18876	8,8866
18877	9,1096
18878	9,356
18879	9,6256
18880	9,9191
18881	10,238
18882	10,584
18883	10,961
18884	11,374
18885	11,83
18886	12,339
18887	12,913
18888	13,569
18889	14,33
18890	15,222
18891	16,281
18892	17,545
18893	19,054
18894	20,722
18895	19,506
18896	17,302
18897	15,103
18898	11,344
18899	10,599
18900	9,9958
18901	9,5014
18902	9,0966
18903	8,7675
18904	8,5041
18905	8,2988
18906	8,1454
18907	8,039
18908	7,9751
18909	7,9501
18910	7,9606
18911	8,0039
18912	8,0773
18913	8,1788
18914	8,3066
18915	8,4591
18916	8,6351
18917	8,8338
18918	9,0545
18919	9,2968
18920	9,5604
18921	9,8451
18922	10,15
18923	10,476
18924	10,819
18925	11,178
18926	11,549
18927	11,924
18928	12,294
18929	12,643
18930	12,953
18931	13,194
18932	13,369
18933	13,487
18934	14,161
18935	15,235
18936	16,931
18937	17,931
18938	20,712
18939	19,084
18940	18,123
18941	19,106
18942	16,288
18943	13,963
18944	14,443
18945	12,757
18946	15,692
18947	16,454
18948	24,205
18949	11,821
18950	15,716
18951	16,827
18952	18,194
18953	19,868
18954	21,907
18955	24,128
18956	18,79
18957	15,948
18958	14,115
18959	12,845
18960	11,876
18961	11,109
18962	14,267
18963	14,711
18964	15,052
18965	15,577
18966	16,19
18967	21,525
18968	14,205
18969	22,078
18970	18,379
18971	17,019
18972	15,897
18973	11,262
18974	12,015
18975	12,961
18976	16,093
18977	15,614
18978	17,811
18979	14,277
18980	13,79
18981	11,088
18982	11,867
18983	12,873
18984	14,071
18985	19,718
18986	14,666
18987	14,798
18988	22,664
18989	21,544
18990	17,197
18991	16,127
18992	15,217
18993	14,433
18994	13,748
18995	13,142
18996	12,603
18997	12,117
18998	11,678
18999	11,276
19000	10,909
19001	10,572
19002	10,262
19003	9,9772
19004	9,7177
19005	9,4828
19006	9,2726
19007	9,0881
19008	8,9304
19009	8,801
19010	8,7019
19011	8,6351
19012	8,6033
19013	8,609
19014	8,6553
19015	8,7454
19016	8,8828
19017	9,0713
19018	9,3154
19019	9,6204
19020	9,9928
19021	10,442
19022	10,98
19023	11,62
19024	13,364
19025	16,387
19026	14,504
19027	13,223
19028	12,258
19029	10,327
19030	9,8904
19031	9,5295
19032	9,2361
19033	9,0036
19034	8,827
19035	8,7018
19036	8,6241
19037	8,5905
19038	8,5977
19039	8,6431
19040	8,7242
19041	8,8387
19042	8,9851
19043	9,1617
19044	9,3678
19045	9,6026
19046	9,866
19047	10,158
19048	10,48
19049	10,832
19050	11,215
19051	11,632
19052	12,083
19053	12,57
19054	13,097
19055	13,665
19056	14,276
19057	14,927
19058	15,605
19059	18,349
19060	19,118
19061	16,378
19062	14,749
19063	13,483
19064	12,204
19065	11,449
19066	10,83
19067	10,322
19068	9,8861
19069	9,5261
19070	9,2342
19071	9,0037
19072	8,8295
19073	8,7071
19074	8,6324
19075	8,602
19076	8,6124
19077	8,6607
19078	8,7441
19079	8,8601
19080	9,0066
19081	9,1817
19082	9,384
19083	9,6124
19084	9,8664
19085	10,146
19086	10,452
19087	10,785
19088	11,149
19089	11,547
19090	11,982
19091	12,463
19092	12,998
19093	13,597
19094	14,276
19095	15,053
19096	15,954
19097	17,028
19098	21,919
19099	18,857
19100	18,917
19101	16,572
19102	17,373
19103	13,222
19104	12,175
19105	11,445
19106	10,837
19107	10,324
19108	9,8874
19109	9,5271
19110	9,2342
19111	9,0022
19112	8,826
19113	8,7011
19114	8,6237
19115	8,5904
19116	8,5979
19117	8,6435
19118	8,7247
19119	8,8395
19120	8,9859
19121	9,1627
19122	9,3688
19123	9,6037
19124	9,8672
19125	10,159
19126	10,481
19127	10,833
19128	11,217
19129	11,633
19130	12,084
19131	12,572
19132	13,098
19133	13,666
19134	14,277
19135	14,928
19136	15,606
19137	16,358
19138	17,097
19139	16,898
19140	15,179
19141	14,669
19142	12,5
19143	10,572
19144	10,127
19145	9,7564
19146	9,4538
19147	9,2132
19148	9,03
19149	8,9003
19150	8,8205
19151	8,7872
19152	8,7974
19153	8,8484
19154	8,9375
19155	9,0627
19156	9,2222
19157	9,4144
19158	9,6385
19159	9,894
19160	10,181
19161	10,499
19162	10,85
19163	11,236
19164	11,657
19165	12,118
19166	12,621
19167	13,171
19168	13,774
19169	14,438
19170	15,171
19171	15,981
19172	16,857
19173	17,782
19174	18,571
19175	19,425
19176	19,896
19177	13,751
19178	17,729
19179	15,992
19180	14,727
19181	19,602
19182	19,042
19183	18,024
19184	17,002
19185	14,565
19186	13,915
19187	13,33
19188	12,8
19189	12,317
19190	11,876
19191	11,471
19192	11,099
19193	10,755
19194	10,438
19195	10,147
19196	9,8815
19197	9,6406
19198	9,4251
19199	9,236
19200	9,0747
19201	8,9429
19202	8,8426
19203	8,7764
19204	8,7468
19205	8,7565
19206	8,8087
19207	8,9066
19208	9,0535
19209	9,253
19210	9,5093
19211	9,8269
19212	10,212
19213	10,671
19214	11,215
19215	11,857
19216	12,631
19217	13,599
19218	14,867
19219	14,109
19220	12,344
19221	13,282
19222	19,126
19223	17,179
19224	16,879
19225	15,139
19226	14,417
19227	13,77
19228	13,188
19229	12,661
19230	12,182
19231	11,744
19232	11,342
19233	10,973
19234	10,633
19235	10,32
19236	10,034
19237	9,7735
19238	9,5393
19239	9,3319
19240	9,1526
19241	9,003
19242	8,8852
19243	8,8016
19244	8,7547
19245	8,7476
19246	8,7833
19247	8,8652
19248	8,9967
19249	9,1817
19250	9,4243
19251	9,729
19252	10,102
19253	10,54
19254	11,048
19255	11,66
19256	12,455
19257	20,117
19258	18,819
19259	17,795
19260	16,86
19261	15,981
19262	15,173
19263	14,44
19264	13,776
19265	13,172
19266	12,622
19267	12,119
19268	11,659
19269	11,237
19270	10,852
19271	10,5
19272	10,182
19273	9,8952
19274	9,6397
19275	9,4155
19276	9,2231
19277	9,0635
19278	8,9381
19279	8,8488
19280	8,7976
19281	8,7871
19282	8,8201
19283	8,8996
19284	9,029
19285	9,2117
19286	9,4518
19287	9,7539
19288	10,123
19289	10,568
19290	16,158
19291	16,222
19292	14,629
19293	13,514
19294	12,629
19295	11,882
19296	11,25
19297	10,713
19298	10,265
19299	9,89
19300	9,5816
19301	9,3357
19302	9,1484
19303	9,0165
19304	8,9366
19305	8,9056
19306	8,9207
19307	8,979
19308	9,078
19309	9,2155
19310	9,3895
19311	9,5985
19312	9,8415
19313	10,118
19314	10,428
19315	10,772
19316	11,151
19317	11,568
19318	12,025
19319	12,525
19320	13,074
19321	13,678
19322	14,347
19323	15,093
19324	15,929
19325	16,869
19326	17,916
19327	19,015
19328	20,859
19329	20,307
19330	13,055
19331	15,574
19332	14,681
19333	16,573
19334	14,572
19335	13,977
19336	13,426
19337	12,917
19338	12,445
19339	12,009
19340	11,604
19341	11,228
19342	10,88
19343	10,557
19344	10,259
19345	9,9864
19346	9,7383
19347	9,516
19348	9,3206
19349	9,1537
19350	9,0175
19351	8,9142
19352	8,8464
19353	8,8169
19354	8,8286
19355	8,8846
19356	8,9881
19357	9,1421
19358	9,3501
19359	9,6154
19360	9,942
19361	10,334
19362	10,798
19363	11,346
19364	11,982
19365	12,734
19366	14,383
19367	18,302
19368	17,966
19369	17,236
19370	16,488
19371	15,767
19372	15,081
19373	14,438
19374	13,842
19375	13,291
19376	12,782
19377	12,312
19378	11,877
19379	11,474
19380	11,101
19381	10,756
19382	10,436
19383	10,143
19384	9,8753
19385	9,6339
19386	9,4197
19387	9,2343
19388	9,0797
19389	8,9581
19390	8,8721
19391	8,8246
19392	8,8187
19393	8,8575
19394	8,9444
19395	9,0827
19396	9,2759
19397	9,5276
19398	9,8416
19399	10,223
19400	10,664
19401	12,296
19402	16,908
19403	11,852
19404	12,491
19405	11,225
19406	10,703
19407	10,262
19408	9,8875
19409	9,5796
19410	9,3342
19411	9,1474
19412	9,0158
19413	8,9362
19414	8,9056
19415	8,9209
19416	8,9795
19417	9,0787
19418	9,2163
19419	9,3905
19420	9,5996
19421	9,8428
19422	10,119
19423	10,429
19424	10,774
19425	11,153
19426	11,57
19427	12,026
19428	12,526
19429	13,075
19430	13,68
19431	14,349
19432	15,095
19433	15,93
19434	16,871
19435	19,001
19436	20,1
19437	21,018
19438	16,34
19439	16,719
19440	21,548
19441	21,385
19442	16,455
19443	13,424
19444	12,658
19445	11,927
19446	10,762
19447	10,316
19448	9,9395
19449	9,6281
19450	9,379
19451	9,1895
19452	9,0568
19453	8,9781
19454	8,9507
19455	8,9717
19456	9,0384
19457	9,1482
19458	9,2987
19459	9,488
19460	9,7142
19461	9,9763
19462	10,274
19463	10,606
19464	10,974
19465	11,379
19466	11,823
19467	12,31
19468	12,843
19469	13,429
19470	14,075
19471	14,793
19472	15,596
19473	19,937
19474	21,1
19475	22,439
19476	22,13
19477	14,45
19478	21,788
19479	12,718
19480	13,454
19481	13,593
19482	15,649
19483	14,554
19484	12,739
19485	12,014
19486	11,381
19487	10,834
19488	10,372
19489	9,9758
19490	9,6436
19491	9,3719
19492	9,1577
19493	8,9983
19494	8,8909
19495	8,8326
19496	8,8204
19497	8,8512
19498	8,922
19499	9,0298
19500	9,1719
19501	9,3456
19502	9,5485
19503	9,7788
19504	10,035
19505	10,316
19506	10,62
19507	10,948
19508	11,3
19509	11,677
19510	12,078
19511	12,507
19512	13,445
19513	13,955
19514	14,488
19515	15,035
19516	15,579
19517	16,065
19518	16,462
19519	12,623
19520	9,9369
19521	9,6261
19522	9,3775
19523	9,1885
19524	9,0561
19525	8,9778
19526	8,9507
19527	8,9719
19528	9,0389
19529	9,1489
19530	9,2997
19531	9,4891
19532	9,7154
19533	9,9776
19534	10,275
19535	10,607
19536	10,975
19537	11,381
19538	11,825
19539	12,311
19540	12,845
19541	13,43
19542	14,077
19543	14,795
19544	17,508
19545	18,613
19546	19,758
19547	20,91
19548	21,889
19549	16,631
19550	16,271
19551	15,263
19552	15,273
19553	15,168
19554	11,765
19555	11,207
19556	10,705
19557	10,259
19558	9,874
19559	9,5538
19560	9,2956
19561	9,0964
19562	8,9531
19563	8,8627
19564	8,8223
19565	8,8284
19566	8,878
19567	8,9678
19568	9,0947
19569	9,2559
19570	9,4486
19571	9,6707
19572	9,9203
19573	10,196
19574	10,497
19575	10,822
19576	11,172
19577	11,547
19578	11,948
19579	12,377
19580	12,833
19581	13,318
19582	13,832
19583	14,371
19584	14,927
19585	15,485
19586	16,012
19587	16,464
19588	16,781
19589	12,96
19590	15,38
19591	14,688
19592	13,669
19593	14,101
19594	15,461
19595	16,478
19596	13,612
19597	13,549
19598	15,127
19599	22,206
19600	15,1
19601	12,704
19602	13,612
19603	11,325
19604	10,793
19605	10,335
19606	9,9396
19607	9,6047
19608	9,3289
19609	12,091
19610	12,509
19611	12,947
19612	13,403
19613	13,874
19614	14,35
19615	14,822
19616	15,261
19617	15,632
19618	15,88
19619	16,009
19620	11,711
19621	12,258
19622	14,619
19623	15,979
19624	15,864
19625	15,573
19626	15,18
19627	14,721
19628	14,244
19629	13,761
19630	13,284
19631	12,824
19632	12,383
19633	11,963
19634	9,8372
19635	10,231
19636	10,692
19637	11,198
19638	11,751
19639	12,419
19640	13,015
19641	14,262
19642	14,419
19643	14,632
19644	14,872
19645	22,163
19646	21,242
19647	20,136
19648	18,991
19649	17,87
19650	15,096
19651	14,351
19652	13,679
19653	13,068
19654	9,601
19655	9,9126
19656	10,287
19657	10,72
19658	11,205
19659	22,954
19660	22,31
19661	20,405
19662	19,093
19663	17,91
19664	16,863
19665	15,926
19666	15,095
19667	14,35
19668	13,677
19669	9,9151
19670	10,731
19671	11,252
19672	11,875
19673	22,684
19674	16,089
19675	15,322
19676	16,339
19677	15,938
19678	15,676
19679	15,656
19680	14,863
19681	12,168
19682	13,681
19683	14,159
19684	12,407
19685	11,15
19686	10,604
19687	10,142
19688	9,748
19689	9,4191
19690	9,1536
19691	8,9465
19692	8,7964
19693	8,7017
19694	8,66
19695	8,6686
19696	8,7243
19697	8,8238
19698	8,9635
19699	9,1399
19700	9,3497
19701	9,5896
19702	9,8569
19703	10,149
19704	10,465
19705	10,802
19706	11,158
19707	11,534
19708	12,765
19709	13,203
19710	13,648
19711	14,089
19712	14,491
19713	15,23
19714	15,449
19715	14,495
19716	13,766
19717	13,179
19718	14,813
19719	15,356
19720	13,224
19721	11,728
19722	11,146
19723	10,639
19724	9,8286
19725	9,2666
19726	9,0754
19727	8,9429
19728	8,8677
19729	8,8478
19730	8,881
19731	8,9647
19732	9,0962
19733	9,2727
19734	9,4918
19735	9,7511
19736	10,049
19737	10,384
19738	10,755
19739	11,163
19740	11,609
19741	12,093
19742	12,62
19743	13,192
19744	13,816
19745	14,499
19746	15,249
19747	18,023
19748	19,203
19749	20,512
19750	22,641
19751	10,631
19752	10,197
19753	9,8261
19754	9,5155
19755	9,0743
19756	8,9422
19757	8,8674
19758	8,8478
19759	8,8814
19760	8,9653
19761	9,0971
19762	9,2738
19763	9,493
19764	9,7525
19765	10,05
19766	10,385
19767	10,757
19768	11,165
19769	11,61
19770	12,095
19771	12,622
19772	13,194
19773	14,501
19774	15,244
19775	16,064
19776	16,974
19777	17,954
19778	19,001
19779	20,148
19780	21,236
19781	22,142
19782	14,204
19783	14,453
19784	13,767
19785	13,527
19786	14,389
19787	15,657
19788	15,343
19789	15,025
19790	14,618
19791	14,194
19792	13,763
19793	13,325
19794	12,887
19795	12,462
19796	12,054
19797	11,662
19798	11,288
19799	10,931
19800	10,593
19801	10,275
19802	9,9788
19803	9,7056
19804	9,4578
19805	9,2377
19806	9,0482
19807	8,8922
19808	8,7732
19809	8,6944
19810	8,6591
19811	8,6704
19812	8,7312
19813	8,8439
19814	9,0105
19815	9,2324
19816	10,692
19817	11,194
19818	11,744
19819	12,292
19820	14,989
19821	14,576
19822	12,791
19823	13,168
19824	15,174
19825	14,872
19826	14,455
19827	14,038
19828	13,639
19829	13,221
19830	12,372
19831	11,973
19832	11,585
19833	8,7005
19834	8,87
19835	9,0944
19836	9,3736
19837	9,7072
19838	10,094
19839	10,531
19840	11,006
19841	11,496
19842	11,975
19843	14,954
19844	14,324
19845	14,186
19846	13,846
19847	12,978
19848	12,198
19849	11,521
19850	10,481
19851	10,056
19852	9,6902
19853	9,3816
19854	9,1312
19855	8,9398
19856	12,65
19857	13,228
19858	14,528
19859	15,25
19860	16,041
19861	17,832
19862	18,762
19863	19,692
19864	20,34
19865	19,13
19866	17,937
19867	14,526
19868	13,85
19869	13,226
19870	12,648
19871	8,9409
19872	9,1328
19873	9,6928
19874	10,059
19875	10,486
19876	10,976
19877	11,539
19878	12,172
19879	13,392
19880	14,984
19881	14,247
19882	13,884
19883	13,498
19884	13,084
19885	12,665
19886	12,253
19887	11,851
19888	11,461
19889	9,282
19890	9,6057
19891	10,004
19892	10,471
19893	11,01
19894	11,621
19895	13,13
19896	15,012
19897	14,892
19898	13,417
19899	13,777
19900	14,011
19901	14,108
19902	13,582
19903	14,518
19904	13,643
19905	12,53
19906	12,128
19907	11,736
19908	11,349
19909	10,975
19910	10,613
19911	10,265
19912	9,9358
19913	9,6269
19914	9,3417
19915	9,0838
19916	8,8571
19917	8,6655
19918	8,5134
19919	8,405
19920	8,3442
19921	8,3344
19922	8,3784
19923	8,4781
19924	8,6342
19925	9,1149
19926	9,4402
19927	9,829
19928	10,275
19929	10,815
19930	11,395
19931	11,862
19932	12,252
19933	12,919
19934	14,243
19935	13,384
19936	15,129
19937	13,653
19938	14,11
19939	12,415
19940	14,562
19941	14,823
19942	14,883
19943	18,392
19944	11,216
19945	12,619
19946	12,407
19947	14,086
19948	14,424
19949	14,739
19950	17,618
19951	13,987
19952	13,318
19953	9,5368
19954	9,9159
19955	8,9268
19956	9,2063
19957	8,5277
19958	8,7003
19959	8,3454
19960	8,4096
19961	8,3723
19962	8,3337
19963	8,5879
19964	8,4582
19965	8,9629
19966	8,7575
19967	9,4658
19968	9,2003
19969	10,068
19970	9,756
19971	10,745
19972	10,398
19973	11,47
19974	11,101
19975	12,244
19976	13,084
19977	12,654
19978	10,759
19979	10,291
19980	9,8769
19981	8,9615
19982	9,2119
19983	8,6352
19984	8,7689
19985	8,5455
19986	8,561
19987	8,6846
19988	8,5875
19989	9,0328
19990	8,8341
19991	9,5646
19992	9,2774
19993	10,256
19994	9,8918
19995	11,091
19996	10,657
19997	11,56
19998	13,175
19999	12,6
20000	14,446
20001	13,795
20002	15,913
20003	15,155
20004	16,7
20005	15,124
20006	13,788
20007	14,45
20008	13,169
20009	11,558
20010	10,655
20011	11,089
20012	9,8901
20013	10,255
20014	9,276
20015	9,5631
20016	8,8331
20017	9,0316
20018	8,5871
20019	8,6839
20020	8,5613
20021	8,5454
20022	8,77
20023	8,6359
20024	8,9631
20025	9,88
20026	9,5205
20027	10,763
20028	10,294
20029	11,832
20030	13,372
20031	13,497
20032	11,976
20033	12,359
20034	11,212
20035	10,471
20036	10,837
20037	9,7825
20038	10,118
20039	9,1727
20040	9,466
20041	8,6722
20042	8,9066
20043	8,3173
20044	8,4742
20045	8,1443
20046	8,206
20047	8,1825
20048	8,1357
20049	8,4458
20050	8,2859
20051	8,9299
20052	9,6303
20053	9,2549
20054	10,072
20055	11,74
20056	11,086
20057	14,513
20058	14,665
20059	13,359
20060	13,614
20061	12,326
20062	13,977
20063	13,78
20064	14,058
20065	13,521
20066	11,259
20067	12,373
20068	12,692
20069	13,539
20070	12,115
20071	13,484
20072	11,663
20073	13,735
20074	10,132
20075	10,589
20076	9,3473
20077	9,7169
20078	8,1476
20079	8,215
20080	8,1727
20081	8,1341
20082	8,3941
20083	8,2605
20084	8,7816
20085	8,5692
20086	9,3004
20087	9,0268
20088	9,9172
20089	9,5985
20090	10,604
20091	10,253
20092	11,324
20093	10,959
20094	12,094
20095	12,912
20096	12,49
20097	12,166
20098	12,585
20099	10,066
20100	10,495
20101	9,6723
20102	8,7683
20103	9,0189
20104	8,4372
20105	8,3449
20106	8,3609
20107	8,4893
20108	8,3884
20109	8,8519
20110	8,645
20111	9,4048
20112	9,1064
20113	10,119
20114	9,7434
20115	10,972
20116	10,529
20117	11,949
20118	11,446
20119	13,046
20120	12,483
20121	14,325
20122	13,641
20123	15,723
20124	15,017
20125	16,471
20126	16,595
20127	14,861
20128	15,666
20129	12,46
20130	13,011
20131	11,446
20132	11,942
20133	10,527
20134	10,97
20135	9,7416
20136	10,117
20137	9,105
20138	9,4032
20139	8,6439
20140	8,8507
20141	8,3879
20142	8,4885
20143	8,3613
20144	8,3448
20145	8,438
20146	8,7699
20147	9,6813
20148	9,3275
20149	10,088
20150	11,49
20151	12,851
20152	12,948
20153	11,805
20154	12,177
20155	10,304
20156	10,678
20157	9,6048
20158	9,9442
20159	8,9835
20160	9,2842
20161	8,4694
20162	8,7102
20163	8,106
20164	8,2663
20165	7,9326
20166	7,9933
20167	7,9779
20168	7,9268
20169	8,2509
20170	8,0863
20171	8,7385
20172	9,4269
20173	11,356
20174	10,893
20175	13,952
20176	14,015
20177	13,774
20178	12,494
20179	12,717
20180	12,905
20181	12,31
20182	12,81
20183	10,581
20184	11,734
20185	13,506
20186	11,082
20187	13,011
20188	10,946
20189	14,146
20190	13,839
20191	11,944
20192	12,526
20193	9,8951
20194	11,69
20195	12,451
20196	13,096
20197	10,438
20198	13,279
20199	9,9088
20200	10,354
20201	9,1501
20202	9,5089
20203	8,5505
20204	8,8288
20205	8,1391
20206	8,3194
20207	7,9403
20208	8,0123
20209	7,9602
20210	7,9233
20211	8,1843
20212	8,0483
20213	8,5818
20214	8,3637
20215	9,1145
20216	8,8337
20217	9,7446
20218	9,4196
20219	10,439
20220	11,163
20221	10,798
20222	11,924
20223	11,538
20224	11,84
20225	12,289
20226	9,8257
20227	9,1154
20228	8,5636
20229	8,8151
20230	8,1261
20231	8,1449
20232	8,2711
20233	8,1687
20234	8,6436
20235	8,4306
20236	9,2129
20237	8,9058
20238	9,9448
20239	9,5605
20240	10,809
20241	10,362
20242	11,797
20243	11,296
20244	12,876
20245	12,779
20246	11,282
20247	11,778
20248	10,359
20249	9,5587
20250	9,9427
20251	8,9043
20252	9,2112
20253	8,4295
20254	8,6422
20255	8,1682
20256	8,2703
20257	8,1453
20258	8,1261
20259	8,226
20260	8,8172
20261	8,5652
20262	9,4802
20263	9,1257
20264	9,8707
20265	11,159
20266	10,729
20267	11,682
20268	12,037
20269	10,869
20270	11,248
20271	10,491
20272	9,4125
20273	8,7819
20274	9,0884
20275	8,257
20276	8,5027
20277	7,8886
20278	8,0504
20279	7,7188
20280	7,7767
20281	7,7749
20282	7,7178
20283	8,0598
20284	7,8896
20285	8,5509
20286	9,2497
20287	10,982
20288	13,298
20289	13,229
20290	13,209
20291	12,172
20292	12,964
20293	12,082
20294	12,71
20295	12,485
20296	12,516
20297	11,389
20298	12,319
20299	13,361
20300	12,062
20301	13,205
20302	10,342
20303	10,883
20304	11,566
20305	12,743
20306	10,642
20307	11,555
20308	9,7133
20309	12,678
20310	12,878
20311	12,803
20312	12,795
20313	12,817
20314	12,931
20315	12,482
20316	11,618
20317	11,198
20318	12,351
20319	11,955
20320	11,626
20321	12,052
20322	11,272
20323	12,119
20324	11,705
20325	11,93
20326	11,756
20327	11,414
20328	11,95
20329	11,157
20330	11,308
20331	10,056
20332	8,3633
20333	8,6404
20334	8,1298
20335	7,7336
20336	7,8117
20337	7,7445
20338	7,7114
20339	7,9674
20340	7,831
20341	8,3716
20342	8,1494
20343	8,9156
20344	8,6309
20345	9,5546
20346	9,2264
20347	10,26
20348	11,006
20349	10,633
20350	11,531
20351	12,005
20352	9,5846
20353	8,9061
20354	8,359
20355	8,6116
20356	8,0107
20357	8,1569
20358	7,9004
20359	7,9244
20360	8,0407
20361	7,9395
20362	8,4179
20363	8,2015
20364	8,9986
20365	8,6853
20366	9,7439
20367	9,3545
20368	10,167
20369	11,637
20370	11,123
20371	12,601
20372	11,072
20373	11,571
20374	10,155
20375	10,6
20376	9,3517
20377	9,7369
20378	8,6837
20379	8,9968
20380	8,2004
20381	8,4165
20382	7,9391
20383	8,04
20384	7,9248
20385	7,9004
20386	8,0115
20387	8,3606
20388	9,2806
20389	8,9256
20390	10,043
20391	9,6475
20392	10,832
20393	10,447
20394	11,758
20395	10,841
20396	12,624
20397	13,098
20398	12,532
20399	9,9186
20400	10,281
20401	9,22
20402	7,5124
20403	7,583
20404	7,5182
20405	7,8817
20406	7,7053
20407	8,3758
20408	9,0315
20409	11,07
20410	11,913
20411	12,467
20412	10,975
20413	11,743
20414	10,635
20415	10,423
20416	10,335
20417	11,198
20418	10,62
20419	10,461
20420	9,348
20421	10,832
20422	11,375
20423	11,357
20424	11,488
20425	11,399
20426	9,4378
20427	9,7742
20428	8,7728
20429	9,1015
20430	8,189
20431	8,4644
20432	7,9532
20433	7,6228
20434	9,3675
20435	9,0359
20436	10,077
20437	9,7109
20438	11,202
20439	11,737
20440	9,356
20441	8,7087
20442	8,1647
20443	8,4187
20444	7,8045
20445	7,9578
20446	7,6788
20447	7,7102
20448	10,41
20449	9,9586
20450	11,456
20451	10,944
20452	12,237
20453	10,819
20454	11,203
20455	10,745
20456	9,9205
20457	10,356
20458	9,5127
20459	7,7107
20460	7,6788
20461	7,8054
20462	8,4208
20463	8,1664
20464	9,0673
20465	8,7301
20466	9,8224
20467	9,4302
20468	10,531
20469	10,205
20470	9,8075
20471	9,8904
20472	9,5354
20473	9,0178
20474	8,3698
20475	8,684
20476	7,8302
20477	8,0773
20478	7,4714
20479	7,6246
20480	7,3222
20481	7,3677
20482	7,4107
20483	7,7243
20484	7,5415
20485	8,2206
20486	8,8333
20487	8,5193
20488	11,163
20489	12,259
20490	10,227
20491	12,258
20492	10,759
20493	9,6572
20494	10,871
20495	11,133
20496	11,083
20497	10,078
20498	10,073
20499	10,581
20500	10,301
20501	10,826
20502	9,1957
20503	9,1412
20504	11,027
20505	11,071
20506	10,897
20507	10,881
20508	10,706
20509	10,605
20510	10,336
20511	10,511
20512	10,253
20513	9,257
20514	9,5541
20515	8,9289
20516	8,0351
20517	7,6016
20518	7,7974
20519	7,3592
20520	7,4538
20521	7,3405
20522	7,3209
20523	7,5458
20524	7,4155
20525	7,9556
20526	7,7282
20527	8,5282
20528	8,2241
20529	10,988
20530	11,469
20531	9,1606
20532	9,4845
20533	8,5342
20534	7,9896
20535	8,2446
20536	7,6164
20537	7,7776
20538	7,4716
20539	7,5866
20540	7,4961
20541	7,9561
20542	7,7413
20543	8,5472
20544	8,2261
20545	9,3155
20546	8,9083
20547	9,6849
20548	10,121
20549	8,896
20550	9,2848
20551	8,2291
20552	8,5484
20553	7,7403
20554	7,9545
20555	7,4958
20556	7,5859
20557	7,4717
20558	7,6173
20559	8,2468
20560	7,9914
20561	8,8804
20562	8,5475
20563	9,6775
20564	9,2622
20565	10,248
20566	8,7751
20567	9,0177
20568	8,4667
20569	7,2847
20570	7,156
20571	7,2651
20572	7,5939
20573	7,4048
20574	8,0902
20575	8,6728
20576	8,3754
20577	10,659
20578	10,511
20579	11,151
20580	10,472
20581	9,7542
20582	8,8556
20583	9,4377
20584	11,116
20585	11,929
20586	10,161
20587	10,611
20588	10,017
20589	9,8244
20590	9,8241
20591	9,9899
20592	8,9663
20593	10,466
20594	10,651
20595	10,086
20596	9,9299
20597	9,0878
20598	9,4157
20599	8,774
20600	7,907
20601	7,4675
20602	7,6683
20603	7,2075
20604	7,3119
20605	8,3483
20606	10,803
20607	11,176
20608	8,9997
20609	8,3801
20610	8,0959
20611	7,6241
20612	7,2884
20613	7,3021
20614	7,734
20615	7,5306
20616	8,3152
20617	7,9963
20618	9,0501
20619	8,694
20620	9,04
20621	8,0111
20622	8,3385
20623	7,5294
20624	7,7418
20625	7,2994
20626	7,3412
20627	7,2886
20628	8,1013
20629	7,8426
20630	8,6938
20631	8,3902
20632	9,5675
20633	9,3619
20634	8,9749
20635	8,4899
20636	8,6734
20637	7,9314
20638	7,4325
20639	7,6638
20640	7,1289
20641	7,2643
20642	7,0243
20643	7,0482
20644	7,1545
20645	7,4949
20646	7,3003
20647	7,9882
20648	7,7272
20649	8,2645
20650	10,419
20651	11,496
20652	10,22
20653	9,3419
20654	9,7071
20655	10,337
20656	10,662
20657	9,7573
20658	9,6411
20659	8,9476
20660	9,2544
20661	8,3506
20662	8,6438
20663	7,8083
20664	8,0712
20665	7,3654
20666	7,5702
20667	7,088
20668	7,2023
20669	7,027
20670	7,2068
20671	7,0873
20672	7,6154
20673	7,384
20674	7,886
20675	10,887
20676	10,277
20677	8,2588
20678	8,5474
20679	7,9772
20680	7,5032
20681	7,137
20682	7,2015
20683	7,2035
20684	7,1371
20685	7,5214
20686	7,3324
20687	8,0867
20688	7,7773
20689	8,7566
20690	8,4278
20691	8,4683
20692	7,843
20693	8,1665
20694	7,3438
20695	7,5572
20696	7,1353
20697	7,1995
20698	7,2044
20699	7,1372
20700	7,5046
20701	7,3272
20702	7,9792
20703	7,7253
20704	8,545
20705	8,2562
20706	9,4102
20707	9,1823
20708	7,2814
20709	7,5625
20710	7,0031
20711	7,1195
20712	6,9296
20713	6,9385
20714	7,0812
20715	7,4297
20716	7,2346
20717	7,916
20718	7,6612
20719	8,4529
20720	8,1849
20721	10,221
20722	11,086
20723	10,32
20724	10,681
20725	9,2364
20726	10,206
20727	9,5906
20728	7,8442
20729	10,212
20730	9,4038
20731	8,198
20732	10,693
20733	10,661
20734	10,394
20735	10,019
20736	9,5956
20737	9,7628
20738	9,8238
20739	9,6032
20740	9,45
20741	9,3679
20742	9,5342
20743	9,7644
20744	9,7446
20745	8,2621
20746	8,5399
20747	7,996
20748	7,2982
20749	7,0066
20750	7,1286
20751	6,9201
20752	6,9366
20753	7,0884
20754	6,9723
20755	10,026
20756	9,9687
20757	7,8907
20758	7,4186
20759	7,0238
20760	7,1006
20761	7,0108
20762	7,3438
20763	7,1727
20764	7,5812
20765	7,7691
20766	7,2225
20767	7,4809
20768	7,0145
20769	7,0704
20770	7,4201
20771	7,2401
20772	7,8926
20773	7,6424
20774	8,4296
20775	9,313
20776	9,0579
20777	6,9059
20778	6,9859
20779	6,8724
20780	6,8653
20781	7,0483
20782	7,2065
20783	8,3755
20784	8,1283
20785	10,037
20786	9,8524
20787	9,4867
20788	8,8472
20789	9,0669
20790	9,511
20791	6,8939
20792	9,3033
20793	8,6823
20794	10,303
20795	10,068
20796	9,8959
20797	9,2064
20798	8,7027
20799	8,9274
20800	8,2036
20801	8,457
20802	7,9501
20803	7,2641
20804	6,9615
20805	7,0909
20806	6,8833
20807	9,6993
20808	7,5923
20809	7,8372
20810	7,3745
20811	6,9571
20812	7,0471
20813	6,9291
20814	7,0568
20815	6,9358
20816	6,9701
20817	6,9625
20818	7,3772
20819	7,1942
20820	7,8383
20821	7,595
20822	8,346
20823	8,0916
20824	8,9276
20825	6,8575
20826	6,831
20827	7,0544
20828	6,935
20829	7,4101
20830	7,2154
20831	7,8606
20832	7,6299
20833	8,3246
20834	8,0983
20835	9,7795
20836	9,5517
20837	9,3163
20838	8,7086
20839	9,2994
20840	8,9445
20841	8,6125
20842	6,8463
20843	6,8686
20844	9,7017
20845	9,455
20846	9,1109
20847	8,5858
20848	9,9345
20849	8,9685
20850	9,2301
20851	9,3504
20852	9,201
20853	9,4913
20854	9,0008
20855	8,6111
20856	8,8053
20857	8,1683
20858	7,6952
20859	7,9325
20860	7,2724
20861	7,4747
20862	6,9545
20863	7,0811
20864	8,0568
20865	8,2976
20866	7,5762
20867	7,8104
20868	7,3649
20869	6,9349
20870	7,0339
20871	6,906
20872	6,8917
20873	6,9384
20874	7,3699
20875	7,1884
20876	7,8117
20877	7,58
20878	8,2907
20879	8,0521
20880	8,8115
20881	7,4501
20882	7,8744
20883	7,659
20884	8,2986
20885	8,0928
20886	9,6216
20887	9,0205
20888	9,613
20889	9,3033
20890	8,5358
20891	6,8949
20892	7,1114
20893	9,5521
20894	9,2471
20895	9,5282
20896	8,9617
20897	6,8941
20898	8,5095
20899	8,8289
20900	9,0446
20901	9,2061
20902	8,9054
20903	8,8287
20904	8,7397
20905	8,5401
20906	8,7056
20907	8,1588
20908	7,7265
20909	7,9466
20910	7,2892
20911	7,5126
20912	8,0465
20913	8,2666
20914	7,2052
20915	6,9494
20916	7,0558
20917	6,8963
20918	7,3913
20919	7,2156
20920	8,0459
20921	7,5135
20922	7,3402
20923	7,9103
20924	7,7104
20925	8,29
20926	8,1099
20927	9,3261
20928	9,0838
20929	8,7356
20930	7,6664
20931	7,5773
20932	9,0885
20933	9,2236
20934	8,846
20935	7,0844
20936	8,8905
20937	8,7246
20938	8,4757
20939	8,647
20940	8,462
20941	8,6221
20942	8,6578
20943	8,934
20944	8,8082
20945	8,4958
20946	8,6255
20947	8,1727
20948	8,3444
20949	7,8057
20950	7,9898
20951	8,0653
20952	8,2652
20953	7,6405
20954	7,8564
20955	7,443
20956	7,2369
20957	7,8581
20958	7,6476
20959	8,2546
20960	8,0645
20961	7,7839
20962	8,3007
20963	8,1478
20964	8,7812
20965	8,7361
20966	9,0261
20967	8,4474
20968	8,6062
20969	8,4174
20970	7,4258
20971	8,436
20972	8,5676
20973	8,5446
20974	8,5657
20975	8,35
20976	7,8959
20977	8,039
20978	8,1089
20979	8,2656
20980	7,756
20981	7,9282
20982	8,2631
20983	8,1107
20984	8,0668
20985	8,3197
20986	8,2025
20987	8,6778
20988	8,6428
20989	8,5633
20990	8,522
20991	8,4186
20992	8,4635
20993	8,4861
20994	8,3754
20995	8,5154
20996	8,7055
20997	8,4182
20998	8,5418
20999	7,9302
21000	8,4012
21001	8,5206
21002	8,2925
21003	8,2954
21004	8,165
21005	8,3506
21006	8,257
21007	8,4224
21008	8,4597
21009	8,4857
21010	8,0003
21011	8,497
21012	8,4087
21013	8,4113
21014	8,4766
21015	8,354
21016	8,4524
21017	8,4197
21018	8,4587
21019	8,4103
21020	8,4449
21021	18,038
21022	5,6793
21023	13,298
21024	21,85
21025	11,589
21026	8,6191
21027	12,819
21028	11,591
21029	8,4574
21030	8,036
21031	25,446
21032	10,092
21033	7,302
21034	9,1383
21035	8,431
21036	18,967
21037	17,052
21038	8,078
21039	8,2521
21040	10,132
21041	10,298
21042	6,8325
21043	6,8309
21044	6,9857
21045	6,9614
21046	17,675
21047	14,844
21048	2,5574
21049	13,249
21050	12,911
21051	12,911
21052	13,249
21053	2,5574
21054	14,844
21055	17,675
21056	6,9614
21057	6,9857
21058	6,8309
21059	6,8325
21060	10,298
21061	10,132
21062	8,2521
21063	8,078
21064	17,052
21065	18,967
21066	8,431
21067	9,1383
21068	7,302
21069	10,092
21070	25,446
21071	8,036
21072	8,4574
21073	11,591
21074	12,819
21075	8,6191
21076	11,589
21077	21,85
21078	13,298
21079	5,6793
21080	18,038
21081	8,4449
21082	8,4103
21083	8,4587
21084	8,4197
21085	8,4524
21086	8,354
21087	8,4766
21088	8,4113
21089	8,4087
21090	8,497
21091	8,0003
21092	8,4857
21093	8,4597
21094	8,4224
21095	8,257
21096	8,3506
21097	8,165
21098	8,2954
21099	8,2925
21100	8,5206
21101	8,4012
21102	7,9302
21103	8,5418
21104	8,4182
21105	8,7055
21106	8,5154
21107	8,3754
21108	8,4861
21109	8,4635
21110	8,4186
21111	8,522
21112	8,5633
21113	8,6428
21114	8,6778
21115	8,2025
21116	8,3197
21117	8,0668
21118	8,1107
21119	8,2631
21120	7,9282
21121	7,756
21122	8,2656
21123	8,1089
21124	8,039
21125	7,8959
21126	8,35
21127	8,5657
21128	8,5446
21129	8,5676
21130	8,436
21131	7,4258
21132	8,4174
21133	8,6062
21134	8,4474
21135	9,0261
21136	8,7361
21137	8,7812
21138	8,1478
21139	8,3007
21140	7,7839
21141	8,0645
21142	8,2546
21143	7,6476
21144	7,8581
21145	7,2369
21146	7,443
21147	7,8564
21148	7,6405
21149	8,2652
21150	8,0653
21151	7,9898
21152	7,8057
21153	8,3444
21154	8,1727
21155	8,6255
21156	8,4958
21157	8,8082
21158	8,934
21159	8,6578
21160	8,6221
21161	8,462
21162	8,647
21163	8,4757
21164	8,7246
21165	8,8905
21166	7,0844
21167	8,846
21168	9,2236
21169	9,0885
21170	7,5773
21171	7,6664
21172	8,7356
21173	9,0838
21174	9,3261
21175	8,1099
21176	8,29
21177	7,7104
21178	7,9103
21179	7,3402
21180	7,5135
21181	8,0459
21182	7,2156
21183	7,3913
21184	6,8963
21185	7,0558
21186	6,9494
21187	7,2052
21188	8,2666
21189	8,0465
21190	7,5126
21191	7,2892
21192	7,9466
21193	7,7265
21194	8,1588
21195	8,7056
21196	8,5401
21197	8,7397
21198	8,8287
21199	8,9054
21200	9,2061
21201	9,0446
21202	8,8289
21203	8,5095
21204	6,8941
21205	8,9617
21206	9,5282
21207	9,2471
21208	9,5521
21209	7,1114
21210	6,8949
21211	8,5358
21212	9,3033
21213	9,613
21214	9,0205
21215	9,6216
21216	8,0928
21217	8,2986
21218	7,659
21219	7,8744
21220	7,4501
21221	8,8115
21222	8,0521
21223	8,2907
21224	7,58
21225	7,8117
21226	7,1884
21227	7,3699
21228	6,9384
21229	6,8917
21230	6,906
21231	7,0339
21232	6,9349
21233	7,3649
21234	7,8104
21235	7,5762
21236	8,2976
21237	8,0568
21238	7,0811
21239	6,9545
21240	7,4747
21241	7,2724
21242	7,9325
21243	7,6952
21244	8,1683
21245	8,8053
21246	8,6111
21247	9,0008
21248	9,4913
21249	9,201
21250	9,3504
21251	9,2301
21252	8,9685
21253	9,9345
21254	8,5858
21255	9,1109
21256	9,455
21257	9,7017
21258	6,8686
21259	6,8463
21260	8,6125
21261	8,9445
21262	9,2994
21263	8,7086
21264	9,3163
21265	9,5517
21266	9,7795
21267	8,0983
21268	8,3246
21269	7,6299
21270	7,8606
21271	7,2154
21272	7,4101
21273	6,935
21274	7,0544
21275	6,831
21276	6,8575
21277	8,9276
21278	8,0916
21279	8,346
21280	7,595
21281	7,8383
21282	7,1942
21283	7,3772
21284	6,9625
21285	6,9701
21286	6,9358
21287	7,0568
21288	6,9291
21289	7,0471
21290	6,9571
21291	7,3745
21292	7,8372
21293	7,5923
21294	9,6993
21295	6,8833
21296	7,0909
21297	6,9615
21298	7,2641
21299	7,9501
21300	8,457
21301	8,2036
21302	8,9274
21303	8,7027
21304	9,2064
21305	9,8959
21306	10,068
21307	10,303
21308	8,6823
21309	9,3033
21310	6,8939
21311	9,511
21312	9,0669
21313	8,8472
21314	9,4867
21315	9,8524
21316	10,037
21317	8,1283
21318	8,3755
21319	7,2065
21320	7,0483
21321	6,8653
21322	6,8724
21323	6,9859
21324	6,9059
21325	9,0579
21326	9,313
21327	8,4296
21328	7,6424
21329	7,8926
21330	7,2401
21331	7,4201
21332	7,0704
21333	7,0145
21334	7,4809
21335	7,2225
21336	7,7691
21337	7,5812
21338	7,1727
21339	7,3438
21340	7,0108
21341	7,1006
21342	7,0238
21343	7,4186
21344	7,8907
21345	9,9687
21346	10,026
21347	6,9723
21348	7,0884
21349	6,9366
21350	6,9201
21351	7,1286
21352	7,0066
21353	7,2982
21354	7,996
21355	8,5399
21356	8,2621
21357	9,7446
21358	9,7644
21359	9,5342
21360	9,3679
21361	9,45
21362	9,6032
21363	9,8238
21364	9,7628
21365	9,5956
21366	10,019
21367	10,394
21368	10,661
21369	10,693
21370	8,198
21371	9,4038
21372	10,212
21373	7,8443
21374	9,5906
21375	10,206
21376	9,2364
21377	10,681
21378	10,32
21379	11,086
21380	10,221
21381	8,1849
21382	8,4529
21383	7,6612
21384	7,916
21385	7,2346
21386	7,4297
21387	7,0812
21388	6,9385
21389	6,9296
21390	7,1195
21391	7,0031
21392	7,5625
21393	7,2814
21394	9,1823
21395	9,4102
21396	8,2562
21397	8,545
21398	7,7253
21399	7,9791
21400	7,3272
21401	7,5046
21402	7,1372
21403	7,2044
21404	7,1995
21405	7,1353
21406	7,5572
21407	7,3438
21408	8,1665
21409	7,843
21410	8,4683
21411	8,4278
21412	8,7566
21413	7,7773
21414	8,0867
21415	7,3324
21416	7,5214
21417	7,1371
21418	7,2035
21419	7,2015
21420	7,137
21421	7,5032
21422	7,9772
21423	8,5474
21424	8,2588
21425	10,277
21426	10,887
21427	7,886
21428	7,384
21429	7,6154
21430	7,0873
21431	7,2068
21432	7,027
21433	7,2023
21434	7,088
21435	7,5702
21436	7,3654
21437	8,0712
21438	7,8083
21439	8,6438
21440	8,3506
21441	9,2544
21442	8,9476
21443	9,6411
21444	9,7573
21445	10,662
21446	10,337
21447	9,7071
21448	9,3419
21449	10,22
21450	11,496
21451	10,419
21452	8,2645
21453	7,7272
21454	7,9882
21455	7,3003
21456	7,4949
21457	7,1545
21458	7,0482
21459	7,0243
21460	7,2643
21461	7,1289
21462	7,6638
21463	7,4325
21464	7,9314
21465	8,6734
21466	8,4899
21467	8,9749
21468	9,3619
21469	9,5675
21470	8,3902
21471	8,6938
21472	7,8426
21473	8,1013
21474	7,2886
21475	7,3412
21476	7,2994
21477	7,7418
21478	7,5294
21479	8,3385
21480	8,0111
21481	9,04
21482	8,694
21483	9,0501
21484	7,9963
21485	8,3152
21486	7,5306
21487	7,734
21488	7,3021
21489	7,2884
21490	7,6241
21491	8,0959
21492	8,3801
21493	8,9997
21494	11,176
21495	10,803
21496	8,3483
21497	7,3119
21498	7,2075
21499	7,6683
21500	7,4675
21501	7,907
21502	8,774
21503	9,4157
21504	9,0878
21505	9,9299
21506	10,086
21507	10,651
21508	10,466
21509	8,9663
21510	9,9899
21511	9,8241
21512	9,8244
21513	10,017
21514	10,611
21515	10,161
21516	11,929
21517	11,116
21518	9,4377
21519	8,8556
21520	9,7542
21521	10,472
21522	11,151
21523	10,511
21524	10,659
21525	8,3754
21526	8,6728
21527	8,0902
21528	7,4048
21529	7,5939
21530	7,2651
21531	7,156
21532	7,2847
21533	8,4667
21534	9,0177
21535	8,7751
21536	10,248
21537	9,2622
21538	9,6775
21539	8,5475
21540	8,8804
21541	7,9914
21542	8,2468
21543	7,6173
21544	7,4717
21545	7,5859
21546	7,4958
21547	7,9545
21548	7,7403
21549	8,5484
21550	8,2291
21551	9,2848
21552	8,896
21553	10,121
21554	9,6849
21555	8,9083
21556	9,3155
21557	8,2261
21558	8,5472
21559	7,7413
21560	7,9561
21561	7,4961
21562	7,5866
21563	7,4716
21564	7,7776
21565	7,6164
21566	8,2446
21567	7,9896
21568	8,5342
21569	9,4845
21570	9,1606
21571	11,469
21572	10,988
21573	8,2241
21574	8,5282
21575	7,7282
21576	7,9556
21577	7,4155
21578	7,5458
21579	7,3209
21580	7,3405
21581	7,4538
21582	7,3592
21583	7,7974
21584	7,6016
21585	8,0351
21586	8,9289
21587	9,5541
21588	9,257
21589	10,253
21590	10,511
21591	10,336
21592	10,605
21593	10,706
21594	10,881
21595	10,897
21596	11,071
21597	11,027
21598	9,1412
21599	9,1957
21600	10,826
21601	10,301
21602	10,581
21603	10,073
21604	10,078
21605	11,083
21606	11,133
21607	10,871
21608	9,6572
21609	10,759
21610	12,258
21611	10,227
21612	12,259
21613	11,163
21614	8,5193
21615	8,8333
21616	8,2206
21617	7,5415
21618	7,7243
21619	7,4107
21620	7,3677
21621	7,3222
21622	7,6246
21623	7,4714
21624	8,0773
21625	7,8302
21626	8,684
21627	8,3698
21628	9,0178
21629	9,5354
21630	9,8904
21631	9,8075
21632	10,205
21633	10,531
21634	9,4302
21635	9,8224
21636	8,7301
21637	9,0673
21638	8,1664
21639	8,4208
21640	7,8054
21641	7,6788
21642	7,7107
21643	9,5127
21644	10,356
21645	9,9205
21646	10,745
21647	11,203
21648	10,819
21649	12,237
21650	10,944
21651	11,456
21652	9,9586
21653	10,41
21654	7,7102
21655	7,6788
21656	7,9578
21657	7,8045
21658	8,4187
21659	8,1647
21660	8,7087
21661	9,356
21662	11,737
21663	11,202
21664	9,7109
21665	10,077
21666	9,0359
21667	9,3675
21668	7,6228
21669	7,9532
21670	8,4644
21671	8,189
21672	9,1015
21673	8,7728
21674	9,7742
21675	9,4378
21676	11,399
21677	11,488
21678	11,357
21679	11,375
21680	10,832
21681	9,348
21682	10,461
21683	10,62
21684	11,198
21685	10,335
21686	10,423
21687	10,635
21688	11,743
21689	10,975
21690	12,467
21691	11,913
21692	11,07
21693	9,0315
21694	8,3758
21695	7,7053
21696	7,8817
21697	7,5182
21698	7,583
21699	7,5124
21700	9,22
21701	10,281
21702	9,9186
21703	12,532
21704	13,098
21705	12,624
21706	10,841
21707	11,758
21708	10,447
21709	10,832
21710	9,6475
21711	10,043
21712	8,9256
21713	9,2806
21714	8,3606
21715	8,0115
21716	7,9004
21717	7,9248
21718	8,04
21719	7,9391
21720	8,4165
21721	8,2004
21722	8,9968
21723	8,6837
21724	9,7369
21725	9,3517
21726	10,6
21727	10,155
21728	11,571
21729	11,072
21730	12,601
21731	11,123
21732	11,637
21733	10,167
21734	9,3545
21735	9,7439
21736	8,6853
21737	8,9986
21738	8,2015
21739	8,4179
21740	7,9395
21741	8,0407
21742	7,9244
21743	7,9004
21744	8,1569
21745	8,0107
21746	8,6116
21747	8,359
21748	8,9061
21749	9,5846
21750	12,005
21751	11,531
21752	10,633
21753	11,006
21754	10,26
21755	9,2264
21756	9,5546
21757	8,6309
21758	8,9156
21759	8,1494
21760	8,3716
21761	7,831
21762	7,9674
21763	7,7114
21764	7,7445
21765	7,8117
21766	7,7336
21767	8,1298
21768	8,6404
21769	8,3633
21770	10,056
21771	11,308
21772	11,157
21773	11,95
21774	11,414
21775	11,756
21776	11,93
21777	11,705
21778	12,119
21779	11,272
21780	12,052
21781	11,626
21782	11,955
21783	12,351
21784	11,198
21785	11,618
21786	12,482
21787	12,931
21788	12,817
21789	12,795
21790	12,803
21791	12,878
21792	12,678
21793	9,7133
21794	11,555
21795	10,642
21796	12,743
21797	11,566
21798	10,883
21799	10,342
21800	13,205
21801	12,062
21802	13,361
21803	12,319
21804	11,389
21805	12,516
21806	12,485
21807	12,71
21808	12,082
21809	12,964
21810	12,172
21811	13,209
21812	13,229
21813	13,298
21814	10,982
21815	9,2497
21816	8,5509
21817	7,8896
21818	8,0598
21819	7,7178
21820	7,7749
21821	7,7767
21822	7,7188
21823	8,0504
21824	7,8886
21825	8,5027
21826	8,257
21827	9,0884
21828	8,7819
21829	9,4125
21830	10,491
21831	11,248
21832	10,869
21833	12,037
21834	11,682
21835	10,729
21836	11,159
21837	9,8707
21838	9,1257
21839	9,4802
21840	8,5652
21841	8,8172
21842	8,226
21843	8,1261
21844	8,1453
21845	8,2703
21846	8,1682
21847	8,6422
21848	8,4295
21849	9,2112
21850	8,9043
21851	9,9427
21852	9,5587
21853	10,359
21854	11,778
21855	11,282
21856	12,779
21857	12,876
21858	11,296
21859	11,797
21860	10,362
21861	10,809
21862	9,5605
21863	9,9448
21864	8,9058
21865	9,2129
21866	8,4306
21867	8,6436
21868	8,1687
21869	8,2711
21870	8,1449
21871	8,1261
21872	8,8151
21873	8,5636
21874	9,1154
21875	9,8257
21876	12,289
21877	11,84
21878	11,538
21879	11,924
21880	10,798
21881	11,163
21882	10,439
21883	9,4196
21884	9,7446
21885	8,8337
21886	9,1145
21887	8,3637
21888	8,5818
21889	8,0483
21890	8,1843
21891	7,9233
21892	7,9602
21893	8,0123
21894	7,9403
21895	8,3194
21896	8,1391
21897	8,8289
21898	8,5505
21899	9,5089
21900	9,1501
21901	10,354
21902	9,9088
21903	13,279
21904	10,438
21905	13,096
21906	12,451
21907	11,69
21908	9,8951
21909	12,526
21910	11,944
21911	13,839
21912	14,146
21913	10,946
21914	13,011
21915	11,082
21916	13,506
21917	11,734
21918	10,581
21919	12,81
21920	12,31
21921	12,905
21922	12,717
21923	12,494
21924	13,774
21925	14,015
21926	13,952
21927	10,893
21928	11,356
21929	9,4269
21930	8,7385
21931	8,0863
21932	8,2509
21933	7,9268
21934	7,9779
21935	7,9933
21936	7,9326
21937	8,2663
21938	8,106
21939	8,7102
21940	8,4694
21941	9,2842
21942	8,9835
21943	9,9442
21944	9,6048
21945	10,678
21946	10,304
21947	12,177
21948	11,805
21949	12,948
21950	12,851
21951	11,49
21952	10,088
21953	9,3275
21954	9,6813
21955	8,7699
21956	8,438
21957	8,3448
21958	8,3613
21959	8,4885
21960	8,3879
21961	8,8507
21962	8,6439
21963	9,4032
21964	9,105
21965	10,117
21966	9,7416
21967	10,97
21968	10,527
21969	11,942
21970	11,446
21971	13,011
21972	12,46
21973	15,666
21974	14,861
21975	16,595
21976	16,471
21977	15,017
21978	15,723
21979	13,641
21980	14,325
21981	12,483
21982	13,046
21983	11,446
21984	11,949
21985	10,529
21986	10,972
21987	9,7434
21988	10,119
21989	9,1064
21990	9,4048
21991	8,645
21992	8,8519
21993	8,3884
21994	8,4893
21995	8,3609
21996	8,3449
21997	8,4372
21998	9,0189
21999	8,7683
22000	9,6723
22001	10,495
22002	10,066
22003	12,585
22004	12,166
22005	12,49
22006	12,912
22007	12,094
22008	10,959
22009	11,324
22010	10,253
22011	10,604
22012	9,5985
22013	9,9172
22014	9,0268
22015	9,3004
22016	8,5692
22017	8,7816
22018	8,2605
22019	8,3941
22020	8,1341
22021	8,1727
22022	8,215
22023	8,1476
22024	9,7169
22025	9,3473
22026	10,589
22027	10,132
22028	13,735
22029	11,663
22030	13,484
22031	12,115
22032	13,539
22033	12,692
22034	12,373
22035	11,259
22036	13,521
22037	14,058
22038	13,78
22039	13,977
22040	12,326
22041	13,614
22042	13,359
22043	14,665
22044	14,513
22045	11,086
22046	11,74
22047	10,072
22048	9,2549
22049	9,6303
22050	8,9299
22051	8,2859
22052	8,4458
22053	8,1357
22054	8,1825
22055	8,206
22056	8,1443
22057	8,4742
22058	8,3173
22059	8,9066
22060	8,6722
22061	9,466
22062	9,1727
22063	10,118
22064	9,7825
22065	10,837
22066	10,471
22067	11,212
22068	12,359
22069	11,976
22070	13,497
22071	13,372
22072	11,832
22073	10,294
22074	10,763
22075	9,5205
22076	9,88
22077	8,9631
22078	8,6359
22079	8,77
22080	8,5454
22081	8,5613
22082	8,6839
22083	8,5871
22084	9,0316
22085	8,8331
22086	9,5631
22087	9,276
22088	10,255
22089	9,8901
22090	11,089
22091	10,655
22092	11,558
22093	13,169
22094	14,45
22095	13,788
22096	15,124
22097	16,7
22098	15,155
22099	15,913
22100	13,795
22101	14,446
22102	12,6
22103	13,175
22104	11,56
22105	10,657
22106	11,091
22107	9,8918
22108	10,256
22109	9,2774
22110	9,5646
22111	8,8341
22112	9,0328
22113	8,5875
22114	8,6846
22115	8,561
22116	8,5455
22117	8,7689
22118	8,6352
22119	9,2119
22120	8,9615
22121	9,8769
22122	10,291
22123	10,759
22124	12,654
22125	13,084
22126	12,244
22127	11,101
22128	11,47
22129	10,398
22130	10,745
22131	9,756
22132	10,068
22133	9,2003
22134	9,4658
22135	8,7575
22136	8,9629
22137	8,4582
22138	8,5879
22139	8,3337
22140	8,3723
22141	8,4096
22142	8,3454
22143	8,7003
22144	8,5277
22145	9,2063
22146	8,9268
22147	9,9159
22148	9,5368
22149	13,318
22150	13,987
22151	17,618
22152	14,739
22153	14,424
22154	14,086
22155	12,407
22156	12,619
22157	11,216
22158	18,392
22159	14,883
22160	14,823
22161	14,562
22162	12,415
22163	14,11
22164	13,653
22165	15,129
22166	13,384
22167	14,243
22168	12,919
22169	12,252
22170	11,862
22171	11,395
22172	10,815
22173	10,275
22174	9,829
22175	9,4402
22176	9,1149
22177	8,6342
22178	8,4781
22179	8,3784
22180	8,3344
22181	8,3442
22182	8,405
22183	8,5134
22184	8,6655
22185	8,8571
22186	9,0838
22187	9,3417
22188	9,6269
22189	9,9358
22190	10,265
22191	10,613
22192	10,975
22193	11,349
22194	11,736
22195	12,128
22196	12,53
22197	13,643
22198	14,518
22199	13,582
22200	14,108
22201	14,011
22202	13,777
22203	13,417
22204	14,892
22205	15,012
22206	13,13
22207	11,621
22208	11,01
22209	10,471
22210	10,004
22211	9,6057
22212	9,282
22213	11,461
22214	11,851
22215	12,253
22216	12,665
22217	13,084
22218	13,498
22219	13,884
22220	14,247
22221	14,984
22222	13,392
22223	12,172
22224	11,539
22225	10,976
22226	10,486
22227	10,059
22228	9,6928
22229	9,1328
22230	8,9409
22231	12,648
22232	13,226
22233	13,85
22234	14,526
22235	17,937
22236	19,13
22237	20,34
22238	19,692
22239	18,762
22240	17,832
22241	16,041
22242	15,25
22243	14,528
22244	13,228
22245	12,65
22246	8,9398
22247	9,1312
22248	9,3816
22249	9,6902
22250	10,056
22251	10,481
22252	11,521
22253	12,198
22254	12,978
22255	13,846
22256	14,186
22257	14,324
22258	14,954
22259	11,975
22260	11,496
22261	11,006
22262	10,531
22263	10,094
22264	9,7072
22265	9,3736
22266	9,0944
22267	8,87
22268	8,7005
22269	11,585
22270	11,973
22271	12,372
22272	13,221
22273	13,639
22274	14,038
22275	14,455
22276	14,872
22277	15,174
22278	13,168
22279	12,791
22280	14,576
22281	14,989
22282	12,292
22283	11,744
22284	11,194
22285	10,692
22286	9,2324
22287	9,0105
22288	8,8439
22289	8,7312
22290	8,6704
22291	8,6591
22292	8,6944
22293	8,7732
22294	8,8922
22295	9,0482
22296	9,2377
22297	9,4578
22298	9,7056
22299	9,9788
22300	10,275
22301	10,593
22302	10,931
22303	11,288
22304	11,662
22305	12,054
22306	12,462
22307	12,887
22308	13,325
22309	13,763
22310	14,194
22311	14,618
22312	15,025
22313	15,343
22314	15,657
22315	14,389
22316	13,527
22317	13,767
22318	14,453
22319	14,204
22320	22,142
22321	21,236
22322	20,148
22323	19,001
22324	17,954
22325	16,974
22326	16,064
22327	15,244
22328	14,501
22329	13,194
22330	12,622
22331	12,095
22332	11,61
22333	11,165
22334	10,757
22335	10,385
22336	10,05
22337	9,7525
22338	9,493
22339	9,2738
22340	9,0971
22341	8,9653
22342	8,8814
22343	8,8478
22344	8,8674
22345	8,9422
22346	9,0743
22347	9,5155
22348	9,8261
22349	10,197
22350	10,631
22351	22,641
22352	20,512
22353	19,203
22354	18,023
22355	15,249
22356	14,499
22357	13,816
22358	13,192
22359	12,62
22360	12,093
22361	11,609
22362	11,163
22363	10,755
22364	10,384
22365	10,049
22366	9,7511
22367	9,4918
22368	9,2727
22369	9,0962
22370	8,9647
22371	8,881
22372	8,8478
22373	8,8677
22374	8,9429
22375	9,0754
22376	9,2666
22377	9,8286
22378	10,639
22379	11,146
22380	11,728
22381	13,224
22382	15,356
22383	14,813
22384	13,179
22385	13,766
22386	14,495
22387	15,449
22388	15,23
22389	14,491
22390	14,089
22391	13,648
22392	13,203
22393	12,765
22394	11,534
22395	11,158
22396	10,802
22397	10,465
22398	10,149
22399	9,8569
22400	9,5896
22401	9,3497
22402	9,1399
22403	8,9635
22404	8,8238
22405	8,7243
22406	8,6686
22407	8,66
22408	8,7017
22409	8,7964
22410	8,9465
22411	9,1536
22412	9,4191
22413	9,748
22414	10,142
22415	10,604
22416	11,15
22417	12,407
22418	14,159
22419	13,681
22420	12,168
22421	14,863
22422	15,656
22423	15,676
22424	15,938
22425	16,339
22426	15,322
22427	16,089
22428	22,684
22429	11,875
22430	11,252
22431	10,731
22432	9,9151
22433	13,677
22434	14,35
22435	15,095
22436	15,926
22437	16,863
22438	17,91
22439	19,093
22440	20,405
22441	22,31
22442	22,954
22443	11,205
22444	10,72
22445	10,287
22446	9,9126
22447	9,601
22448	13,068
22449	13,679
22450	14,351
22451	15,096
22452	17,87
22453	18,991
22454	20,136
22455	21,242
22456	22,163
22457	14,872
22458	14,632
22459	14,419
22460	14,262
22461	13,015
22462	12,419
22463	11,751
22464	11,198
22465	10,692
22466	10,231
22467	9,8372
22468	11,963
22469	12,383
22470	12,824
22471	13,284
22472	13,761
22473	14,244
22474	14,721
22475	15,18
22476	15,573
22477	15,864
22478	15,979
22479	14,619
22480	12,258
22481	11,711
22482	16,009
22483	15,88
22484	15,632
22485	15,261
22486	14,822
22487	14,35
22488	13,874
22489	13,403
22490	12,947
22491	12,509
22492	12,091
22493	9,3289
22494	9,6047
22495	9,9396
22496	10,335
22497	10,793
22498	11,325
22499	13,612
22500	12,704
22501	15,1
22502	22,206
22503	15,127
22504	13,549
22505	13,612
22506	16,478
22507	15,461
22508	14,101
22509	13,669
22510	14,688
22511	15,38
22512	12,96
22513	16,781
22514	16,464
22515	16,012
22516	15,485
22517	14,927
22518	14,371
22519	13,832
22520	13,318
22521	12,833
22522	12,377
22523	11,948
22524	11,547
22525	11,172
22526	10,822
22527	10,497
22528	10,196
22529	9,9203
22530	9,6707
22531	9,4486
22532	9,2559
22533	9,0947
22534	8,9678
22535	8,878
22536	8,8284
22537	8,8223
22538	8,8627
22539	8,9531
22540	9,0964
22541	9,2956
22542	9,5538
22543	9,874
22544	10,259
22545	10,705
22546	11,207
22547	11,765
22548	15,168
22549	15,273
22550	15,263
22551	16,271
22552	16,631
22553	21,889
22554	20,91
22555	19,758
22556	18,613
22557	17,508
22558	14,795
22559	14,077
22560	13,43
22561	12,845
22562	12,311
22563	11,825
22564	11,381
22565	10,975
22566	10,607
22567	10,275
22568	9,9776
22569	9,7154
22570	9,4891
22571	9,2997
22572	9,1489
22573	9,0389
22574	8,9719
22575	8,9507
22576	8,9778
22577	9,0561
22578	9,1885
22579	9,3775
22580	9,6261
22581	9,9369
22582	12,623
22583	16,462
22584	16,065
22585	15,579
22586	15,035
22587	14,488
22588	13,955
22589	13,445
22590	12,507
22591	12,078
22592	11,677
22593	11,3
22594	10,948
22595	10,62
22596	10,316
22597	10,035
22598	9,7788
22599	9,5485
22600	9,3456
22601	9,1719
22602	9,0298
22603	8,922
22604	8,8512
22605	8,8204
22606	8,8326
22607	8,8909
22608	8,9983
22609	9,1577
22610	9,3719
22611	9,6436
22612	9,9758
22613	10,372
22614	10,834
22615	11,381
22616	12,014
22617	12,739
22618	14,554
22619	15,649
22620	13,593
22621	13,454
22622	12,718
22623	21,788
22624	14,45
22625	22,13
22626	22,439
22627	21,1
22628	19,937
22629	15,596
22630	14,793
22631	14,075
22632	13,429
22633	12,843
22634	12,31
22635	11,823
22636	11,379
22637	10,974
22638	10,606
22639	10,274
22640	9,9763
22641	9,7142
22642	9,488
22643	9,2987
22644	9,1482
22645	9,0384
22646	8,9717
22647	8,9507
22648	8,9781
22649	9,0568
22650	9,1895
22651	9,379
22652	9,6281
22653	9,9395
22654	10,316
22655	10,762
22656	11,927
22657	12,658
22658	13,424
22659	16,455
22660	21,385
22661	21,548
22662	16,719
22663	16,34
22664	21,018
22665	20,1
22666	19,001
22667	16,871
22668	15,93
22669	15,095
22670	14,349
22671	13,68
22672	13,075
22673	12,526
22674	12,026
22675	11,57
22676	11,153
22677	10,774
22678	10,429
22679	10,119
22680	9,8428
22681	9,5996
22682	9,3905
22683	9,2163
22684	9,0787
22685	8,9795
22686	8,9209
22687	8,9056
22688	8,9362
22689	9,0158
22690	9,1474
22691	9,3342
22692	9,5796
22693	9,8875
22694	10,262
22695	10,703
22696	11,225
22697	12,491
22698	11,852
22699	16,908
22700	12,296
22701	10,664
22702	10,223
22703	9,8416
22704	9,5276
22705	9,2759
22706	9,0827
22707	8,9444
22708	8,8575
22709	8,8187
22710	8,8246
22711	8,8721
22712	8,9581
22713	9,0797
22714	9,2343
22715	9,4197
22716	9,6339
22717	9,8753
22718	10,143
22719	10,436
22720	10,756
22721	11,101
22722	11,474
22723	11,877
22724	12,312
22725	12,782
22726	13,291
22727	13,842
22728	14,438
22729	15,081
22730	15,767
22731	16,488
22732	17,236
22733	17,966
22734	18,302
22735	14,383
22736	12,734
22737	11,982
22738	11,346
22739	10,798
22740	10,334
22741	9,942
22742	9,6154
22743	9,3501
22744	9,1421
22745	8,9881
22746	8,8846
22747	8,8286
22748	8,8169
22749	8,8464
22750	8,9142
22751	9,0175
22752	9,1537
22753	9,3206
22754	9,516
22755	9,7383
22756	9,9864
22757	10,259
22758	10,557
22759	10,88
22760	11,228
22761	11,604
22762	12,009
22763	12,445
22764	12,917
22765	13,426
22766	13,977
22767	14,572
22768	16,573
22769	14,681
22770	15,574
22771	13,055
22772	20,307
22773	20,859
22774	19,015
22775	17,916
22776	16,869
22777	15,929
22778	15,093
22779	14,347
22780	13,678
22781	13,074
22782	12,525
22783	12,025
22784	11,568
22785	11,151
22786	10,772
22787	10,428
22788	10,118
22789	9,8415
22790	9,5985
22791	9,3895
22792	9,2155
22793	9,078
22794	8,979
22795	8,9207
22796	8,9056
22797	8,9366
22798	9,0165
22799	9,1484
22800	9,3357
22801	9,5816
22802	9,89
22803	10,265
22804	10,713
22805	11,25
22806	11,882
22807	12,629
22808	13,514
22809	14,629
22810	16,222
22811	16,158
22812	10,568
22813	10,123
22814	9,7539
22815	9,4518
22816	9,2117
22817	9,029
22818	8,8996
22819	8,8201
22820	8,7871
22821	8,7976
22822	8,8488
22823	8,9381
22824	9,0635
22825	9,2231
22826	9,4155
22827	9,6397
22828	9,8952
22829	10,182
22830	10,5
22831	10,852
22832	11,237
22833	11,659
22834	12,119
22835	12,622
22836	13,172
22837	13,776
22838	14,44
22839	15,173
22840	15,981
22841	16,86
22842	17,795
22843	18,819
22844	20,117
22845	12,455
22846	11,66
22847	11,048
22848	10,54
22849	10,102
22850	9,729
22851	9,4243
22852	9,1817
22853	8,9967
22854	8,8652
22855	8,7833
22856	8,7476
22857	8,7547
22858	8,8016
22859	8,8852
22860	9,003
22861	9,1526
22862	9,3319
22863	9,5393
22864	9,7735
22865	10,034
22866	10,32
22867	10,633
22868	10,973
22869	11,342
22870	11,744
22871	12,182
22872	12,661
22873	13,188
22874	13,77
22875	14,417
22876	15,139
22877	16,879
22878	17,179
22879	19,126
22880	13,282
22881	12,344
22882	14,109
22883	14,867
22884	13,599
22885	12,631
22886	11,857
22887	11,215
22888	10,671
22889	10,212
22890	9,8269
22891	9,5093
22892	9,253
22893	9,0535
22894	8,9066
22895	8,8087
22896	8,7565
22897	8,7468
22898	8,7764
22899	8,8426
22900	8,9429
22901	9,0747
22902	9,236
22903	9,4251
22904	9,6406
22905	9,8815
22906	10,147
22907	10,438
22908	10,755
22909	11,099
22910	11,471
22911	11,876
22912	12,317
22913	12,8
22914	13,33
22915	13,915
22916	14,565
22917	17,002
22918	18,024
22919	19,042
22920	19,602
22921	14,727
22922	15,992
22923	17,729
22924	13,751
22925	19,896
22926	19,425
22927	18,571
22928	17,782
22929	16,857
22930	15,981
22931	15,171
22932	14,438
22933	13,774
22934	13,171
22935	12,621
22936	12,118
22937	11,657
22938	11,236
22939	10,85
22940	10,499
22941	10,181
22942	9,894
22943	9,6385
22944	9,4144
22945	9,2222
22946	9,0627
22947	8,9375
22948	8,8484
22949	8,7974
22950	8,7872
22951	8,8205
22952	8,9003
22953	9,03
22954	9,2132
22955	9,4538
22956	9,7564
22957	10,127
22958	10,572
22959	12,5
22960	14,669
22961	15,179
22962	16,898
22963	17,097
22964	16,358
22965	15,606
22966	14,928
22967	14,277
22968	13,666
22969	13,098
22970	12,572
22971	12,084
22972	11,633
22973	11,217
22974	10,833
22975	10,481
22976	10,159
22977	9,8672
22978	9,6037
22979	9,3688
22980	9,1627
22981	8,9859
22982	8,8395
22983	8,7247
22984	8,6435
22985	8,5979
22986	8,5904
22987	8,6237
22988	8,7011
22989	8,826
22990	9,0022
22991	9,2342
22992	9,5271
22993	9,8874
22994	10,324
22995	10,837
22996	11,445
22997	12,175
22998	13,222
22999	17,373
23000	16,572
23001	18,917
23002	18,857
23003	21,919
23004	17,028
23005	15,954
23006	15,053
23007	14,276
23008	13,597
23009	12,998
23010	12,463
23011	11,982
23012	11,547
23013	11,149
23014	10,785
23015	10,452
23016	10,146
23017	9,8664
23018	9,6124
23019	9,384
23020	9,1817
23021	9,0066
23022	8,8601
23023	8,7441
23024	8,6607
23025	8,6124
23026	8,602
23027	8,6324
23028	8,7071
23029	8,8295
23030	9,0037
23031	9,2342
23032	9,5261
23033	9,8861
23034	10,322
23035	10,83
23036	11,449
23037	12,204
23038	13,483
23039	14,749
23040	16,378
23041	19,118
23042	18,349
23043	15,605
23044	14,927
23045	14,276
23046	13,665
23047	13,097
23048	12,57
23049	12,083
23050	11,632
23051	11,215
23052	10,832
23053	10,48
23054	10,158
23055	9,866
23056	9,6026
23057	9,3678
23058	9,1617
23059	8,9851
23060	8,8387
23061	8,7242
23062	8,6431
23063	8,5977
23064	8,5905
23065	8,6241
23066	8,7018
23067	8,827
23068	9,0036
23069	9,2361
23070	9,5295
23071	9,8904
23072	10,327
23073	12,258
23074	13,223
23075	14,504
23076	16,387
23077	13,364
23078	11,62
23079	10,98
23080	10,442
23081	9,9928
23082	9,6204
23083	9,3154
23084	9,0713
23085	8,8828
23086	8,7454
23087	8,6553
23088	8,609
23089	8,6033
23090	8,6351
23091	8,7019
23092	8,801
23093	8,9304
23094	9,0881
23095	9,2726
23096	9,4828
23097	9,7177
23098	9,9772
23099	10,262
23100	10,572
23101	10,909
23102	11,276
23103	11,678
23104	12,117
23105	12,603
23106	13,142
23107	13,748
23108	14,433
23109	15,217
23110	16,127
23111	17,197
23112	21,544
23113	22,664
23114	14,798
23115	14,666
23116	19,718
23117	14,071
23118	12,873
23119	11,867
23120	11,088
23121	13,79
23122	14,277
23123	17,811
23124	15,614
23125	16,093
23126	12,961
23127	12,015
23128	11,262
23129	15,897
23130	17,019
23131	18,379
23132	22,078
23133	14,205
23134	21,525
23135	16,19
23136	15,577
23137	15,052
23138	14,711
23139	14,267
23140	11,109
23141	11,876
23142	12,845
23143	14,115
23144	15,948
23145	18,79
23146	24,128
23147	21,907
23148	19,868
23149	18,194
23150	16,827
23151	15,716
23152	11,821
23153	24,205
23154	16,454
23155	15,692
23156	12,757
23157	14,443
23158	13,963
23159	16,288
23160	19,106
23161	18,123
23162	19,084
23163	20,712
23164	17,931
23165	16,931
23166	15,235
23167	14,161
23168	13,487
23169	13,369
23170	13,194
23171	12,953
23172	12,643
23173	12,294
23174	11,924
23175	11,549
23176	11,178
23177	10,819
23178	10,476
23179	10,15
23180	9,8451
23181	9,5604
23182	9,2968
23183	9,0545
23184	8,8338
23185	8,6351
23186	8,4591
23187	8,3066
23188	8,1788
23189	8,0773
23190	8,0039
23191	7,9606
23192	7,9501
23193	7,9751
23194	8,039
23195	8,1454
23196	8,2988
23197	8,5041
23198	8,7675
23199	9,0966
23200	9,5014
23201	9,9958
23202	10,599
23203	11,344
23204	15,103
23205	17,302
23206	19,506
23207	20,722
23208	19,054
23209	17,545
23210	16,281
23211	15,222
23212	14,33
23213	13,569
23214	12,913
23215	12,339
23216	11,83
23217	11,374
23218	10,961
23219	10,584
23220	10,238
23221	9,9191
23222	9,6256
23223	9,356
23224	9,1096
23225	8,8866
23226	8,6874
23227	8,5128
23228	8,3642
23229	8,2431
23230	8,1513
23231	8,0911
23232	8,065
23233	8,0758
23234	8,1267
23235	8,2215
23236	8,3643
23237	8,5602
23238	8,8153
23239	9,1371
23240	9,5353
23241	10,024
23242	10,623
23243	11,329
23244	12,2
23245	13,322
23246	13,584
23247	12,411
23248	11,506
23249	10,763
23250	10,148
23251	9,6454
23252	9,2338
23253	8,899
23254	8,6307
23255	8,4212
23256	8,2645
23257	8,1556
23258	8,0902
23259	8,0648
23260	8,076
23261	8,121
23262	8,1974
23263	8,303
23264	8,4359
23265	8,5944
23266	8,7772
23267	8,9833
23268	9,212
23269	9,463
23270	9,7367
23271	10,034
23272	10,356
23273	10,705
23274	11,085
23275	11,502
23276	11,963
23277	12,477
23278	13,058
23279	13,722
23280	14,492
23281	15,395
23282	16,464
23283	17,734
23284	21,044
23285	23,266
23286	14,827
23287	13,384
23288	12,271
23289	11,336
23290	10,593
23291	9,9917
23292	9,4978
23293	9,0939
23294	8,7653
23295	8,5024
23296	8,2975
23297	8,1445
23298	8,0384
23299	7,9748
23300	7,9501
23301	7,9608
23302	8,0042
23303	8,0778
23304	8,1795
23305	8,3073
23306	8,4599
23307	8,636
23308	8,8347
23309	9,0555
23310	9,2978
23311	9,5615
23312	9,8462
23313	10,152
23314	10,477
23315	10,82
23316	11,18
23317	11,55
23318	11,925
23319	12,295
23320	12,645
23321	12,961
23322	13,229
23323	13,375
23324	13,686
23325	13,967
23326	17,874
23327	19,927
23328	15,114
23329	16,781
23330	22,539
23331	20,508
23332	17,435
23333	13,952
23334	13,021
23335	11,9
23336	12,606
23337	15,655
23338	14,127
23339	12,798
23340	11,739
23341	16,654
23342	17,859
23343	19,215
23344	20,742
23345	22,016
23346	21,91
23347	22,117
23348	21,017
23349	20,08
23350	18,902
23351	17,685
23352	11,531
23353	12,625
23354	13,968
23355	15,817
23356	18,389
23357	15,766
23358	14,579
23359	13,55
23360	12,61
23361	12,081
23362	11,933
23363	11,889
23364	11,557
23365	12,663
23366	14,032
23367	15,748
23368	18,213
23369	18,941
23370	19,511
23371	18,155
23372	16,308
23373	14,506
23374	13,025
23375	11,761
23376	10,717
23377	9,8686
23378	9,182
23379	8,6287
23380	8,1848
23381	7,8315
23382	7,554
23383	7,3409
23384	7,1829
23385	7,073
23386	7,0051
23387	6,9746
23388	6,9772
23389	7,0096
23390	7,0687
23391	7,1521
23392	7,2574
23393	7,3827
23394	7,5262
23395	7,6865
23396	7,8621
23397	8,0519
23398	8,2548
23399	8,4699
23400	8,6959
23401	8,9317
23402	9,1755
23403	9,4247
23404	9,6755
23405	9,9221
23406	10,156
23407	10,367
23408	10,539
23409	10,659
23410	10,716
23411	10,717
23412	10,695
23413	10,741
23414	10,928
23415	11,248
23416	11,735
23417	11,777
23418	9,7816
23419	8,2414
23420	6,4842
23421	5,4863
23422	5,0813
23423	4,6796
23424	5,3264
23425	5,1187
23426	5,64
23427	5,8929
23428	6,5892
23429	8,0711
23430	9,5433
23431	11,377
23432	11,686
23433	11,288
23434	11,04
23435	10,76
23436	10,722
23437	10,711
23438	10,718
23439	10,66
23440	10,54
23441	10,367
23442	10,157
23443	9,9229
23444	9,6764
23445	9,4256
23446	9,1764
23447	8,9326
23448	8,6968
23449	8,4708
23450	8,2558
23451	8,0528
23452	7,863
23453	7,6873
23454	7,527
23455	7,3834
23456	7,258
23457	7,1526
23458	7,0692
23459	7,0099
23460	6,9773
23461	6,9745
23462	7,0048
23463	7,0723
23464	7,1819
23465	7,3395
23466	7,5522
23467	7,8291
23468	8,1816
23469	8,6246
23470	9,1768
23471	9,862
23472	10,709
23473	11,731
23474	12,992
23475	14,525
23476	20,566
23477	14,572
23478	13,024
23479	11,774
23480	10,759
23481	9,9161
23482	9,2359
23483	8,69
23484	8,255
23485	7,9119
23486	7,6461
23487	7,4461
23488	7,3031
23489	7,2099
23490	7,161
23491	7,1516
23492	7,178
23493	7,237
23494	7,3259
23495	7,4425
23496	7,5847
23497	7,751
23498	7,9398
23499	8,1501
23500	8,3807
23501	8,6309
23502	8,9003
23503	9,1885
23504	9,4957
23505	9,8227
23506	10,171
23507	10,543
23508	10,942
23509	11,374
23510	11,847
23511	12,37
23512	12,955
23513	13,614
23514	14,355
23515	15,173
23516	16,023
23517	16,816
23518	17,429
23519	17,801
23520	18,329
23521	18,646
23522	18,414
23523	18,344
23524	20,54
23525	23,166
23526	21,999
23527	18,25
23528	15,951
23529	14,395
23530	13,08
23531	11,923
23532	10,918
23533	10,06
23534	9,3637
23535	8,8023
23536	8,3521
23537	7,9943
23538	7,7142
23539	7,5003
23540	7,3434
23541	7,2366
23542	7,1739
23543	7,1508
23544	7,1635
23545	7,2086
23546	7,2836
23547	7,386
23548	7,514
23549	7,6657
23550	7,8399
23551	8,0352
23552	8,2505
23553	8,4852
23554	8,7384
23555	9,0099
23556	9,2995
23557	9,6076
23558	9,9352
23559	10,284
23560	10,656
23561	11,056
23562	11,489
23563	11,964
23564	12,489
23565	13,077
23566	13,738
23567	14,478
23568	15,289
23569	16,142
23570	16,976
23571	17,642
23572	17,514
23573	17,716
23574	18,332
23575	18,049
23576	19,204
23577	18,754
23578	18,315
23579	8,2424
23580	7,2815
23581	9,3632
23582	6,858
23583	9,6264
23584	6,4459
23585	9,9258
23586	6,2313
23587	10,026
23588	9,9926
23589	5,9318
23590	9,9009
23591	9,8534
23592	5,9654
23593	9,8074
23594	9,8005
23595	6,4457
23596	9,774
23597	6,8203
23598	9,7162
23599	7,2138
23600	9,6157
23601	7,8248
23602	9,478
23603	9,3111
23604	8,6834
23605	9,1241
23606	8,9245
23607	9,712
23608	8,7181
23609	9,9645
23610	8,509
23611	10,018
23612	8,3002
23613	9,9993
23614	8,0938
23615	9,9134
23616	7,8916
23617	9,8502
23618	7,6951
23619	9,8126
23620	7,5056
23621	9,7987
23622	7,3245
23623	9,7746
23624	7,1532
23625	9,7155
23626	6,9933
23627	9,6152
23628	6,8463
23629	9,4774
23630	6,7141
23631	9,3105
23632	6,5983
23633	9,1234
23634	6,5011
23635	8,9238
23636	6,4248
23637	8,7173
23638	6,3719
23639	8,5082
23640	6,3454
23641	8,2994
23642	6,3488
23643	8,093
23644	6,3863
23645	7,8908
23646	6,463
23647	7,6942
23648	6,5852
23649	7,5047
23650	6,761
23651	7,3236
23652	7,0004
23653	7,1524
23654	7,3166
23655	6,9925
23656	7,7261
23657	6,8456
23658	8,2496
23659	6,7133
23660	8,9121
23661	6,5977
23662	9,7404
23663	6,5006
23664	10,76
23665	6,4244
23666	11,98
23667	6,3716
23668	13,421
23669	6,3453
23670	14,972
23671	6,3489
23672	16,474
23673	6,3867
23674	18,045
23675	6,4637
23676	19,41
23677	6,5863
23678	20,875
23679	6,7626
23680	7,0027
23681	7,3196
23682	7,73
23683	22,809
23684	8,2548
23685	8,9187
23686	9,749
23687	10,77
23688	22,36
23689	11,994
23690	13,415
23691	20,281
23692	14,923
23693	19,148
23694	16,353
23695	17,843
23696	17,691
23697	16,523
23698	15,009
23699	20,015
23700	13,483
23701	21,137
23702	12,041
23703	10,823
23704	9,8053
23705	8,9794
23706	22,42
23707	8,3214
23708	7,8041
23709	22,143
23710	7,4028
23711	7,0967
23712	21,143
23713	6,8692
23714	20,472
23715	6,7075
23716	6,6015
23717	17,973
23718	6,5434
23719	16,685
23720	6,5272
23721	15,035
23722	6,548
23723	13,489
23724	6,602
23725	12,138
23726	6,686
23727	10,971
23728	6,7975
23729	9,9617
23730	6,9344
23731	9,1198
23732	7,0949
23733	8,4445
23734	7,2774
23735	7,9097
23736	7,4805
23737	7,4915
23738	7,7032
23739	7,1693
23740	7,9444
23741	6,9266
23742	8,203
23743	6,7503
23744	8,4782
23745	6,6302
23746	8,7694
23747	6,5584
23748	9,0757
23749	6,5287
23750	9,3969
23751	6,5361
23752	9,7328
23753	6,5768
23754	10,084
23755	6,6475
23756	10,451
23757	6,7456
23758	10,836
23759	6,8689
23760	11,242
23761	7,0157
23762	11,673
23763	7,1843
23764	12,136
23765	7,3734
23766	12,634
23767	7,5819
23768	13,167
23769	7,8086
23770	13,72
23771	8,0527
23772	14,258
23773	8,3132
23774	14,698
23775	8,5894
23776	14,943
23777	8,8806
23778	14,955
23779	9,1862
23780	14,79
23781	9,5061
23782	14,711
23783	9,8401
23784	14,897
23785	10,189
23786	15,609
23787	10,553
23788	16,599
23789	10,936
23790	11,34
23791	11,769
23792	12,23
23793	19,056
23794	12,725
23795	19,003
23796	13,252
23797	13,795
23798	14,316
23799	14,746
23800	14,955
23801	18,318
23802	14,871
23803	18,171
23804	14,553
23805	18,413
23806	14,369
23807	18,566
23808	14,502
23809	15,073
23810	17,856
23811	15,582
23812	16,363
23813	9,1204
23814	9,2664
23815	9,3599
23816	9,3532
23817	9,2686
23818	9,1635
23819	9,06
23820	9,134
23821	8,9634
23822	9,266
23823	8,8628
23824	9,3603
23825	8,7524
23826	9,3534
23827	8,6288
23828	9,2692
23829	8,4924
23830	9,1634
23831	8,3446
23832	9,0606
23833	8,1871
23834	8,9631
23835	8,0215
23836	8,8626
23837	7,8493
23838	8,752
23839	7,6721
23840	8,6284
23841	7,4913
23842	8,4919
23843	7,3087
23844	8,344
23845	7,1258
23846	8,1865
23847	6,9445
23848	8,0208
23849	6,7667
23850	7,8486
23851	6,5941
23852	7,6713
23853	6,4286
23854	7,4906
23855	6,2721
23856	7,3079
23857	6,1266
23858	7,125
23859	5,9939
23860	6,9437
23861	5,8762
23862	6,7658
23863	5,7757
23864	6,5932
23865	5,6949
23866	6,4277
23867	5,6367
23868	6,2713
23869	5,6044
23870	6,1258
23871	5,6024
23872	5,9932
23873	5,6359
23874	5,8755
23875	5,7115
23876	5,7751
23877	5,8381
23878	5,6944
23879	6,0269
23880	5,6363
23881	6,2928
23882	5,6043
23883	6,6552
23884	5,6025
23885	7,1384
23886	5,6363
23887	7,772
23888	5,7123
23889	8,5883
23890	5,8393
23891	9,6158
23892	6,0288
23893	10,871
23894	6,2955
23895	12,326
23896	6,6589
23897	13,916
23898	7,1435
23899	15,477
23900	7,7789
23901	16,808
23902	8,5972
23903	18,102
23904	9,6276
23905	10,885
23906	12,344
23907	13,894
23908	15,415
23909	16,707
23910	17,85
23911	17,927
23912	16,794
23913	15,475
23914	13,98
23915	12,397
23916	10,946
23917	9,6918
23918	18,034
23919	8,6642
23920	16,914
23921	7,8491
23922	15,599
23923	7,2184
23924	14,131
23925	6,7402
23926	12,542
23927	6,3853
23928	11,104
23929	6,1292
23930	9,8634
23931	5,9526
23932	8,821
23933	5,8408
23934	7,9865
23935	5,7824
23936	7,335
23937	5,7692
23938	6,8365
23939	5,7945
23940	6,4624
23941	5,8536
23942	6,1886
23943	5,9426
23944	5,9957
23945	6,0585
23946	5,8687
23947	6,1991
23948	5,7961
23949	6,3624
23950	5,7693
23951	6,5469
23952	5,7815
23953	6,7513
23954	5,8276
23955	6,9742
23956	5,9038
23957	7,2147
23958	6,007
23959	7,4717
23960	6,1348
23961	7,744
23962	6,2852
23963	8,0305
23964	6,4566
23965	8,3299
23966	6,6476
23967	8,6408
23968	6,8572
23969	8,9616
23970	7,0841
23971	9,2905
23972	7,3274
23973	9,6254
23974	7,5861
23975	9,9642
23976	7,8591
23977	10,305
23978	8,1452
23979	10,645
23980	8,4432
23981	10,982
23982	8,7517
23983	11,316
23984	9,0692
23985	11,643
23986	9,3938
23987	11,959
23988	9,7237
23989	12,251
23990	10,057
23991	12,49
23992	10,391
23993	12,631
23994	10,724
23995	12,622
23996	11,054
23997	12,44
23998	11,38
23999	12,183
24000	11,699
24001	12,073
24002	12,006
24003	12,286
24004	12,512
24005	14,127
24006	12,636
24007	12,594
24008	12,383
24009	12,094
24010	11,976
24011	23,016
24012	27,21
24013	28,249
24014	25,719
24015	26,683
24016	25,264
24017	24,959
24018	23,719
24019	20,728
24020	17,282
24021	14,724
24022	11,783
24023	8,9233
24024	6,1037
24025	3,9202
24026	4,4662
24027	4,3915
24028	8,0831
24029	10,826
24030	13,35
24031	16,418
24032	21,425
24033	19,781
24034	18,325
24035	20,761
24036	19,013
24037	18,047
24038	17,838
24039	18,715
24040	18,884
24041	21,066
24042	24,49
24043	25,236
24044	28,829
24045	27,358
24046	26,479
24047	22,651
24048	18,72
24049	15,738
24050	17,481
24051	20,889
24052	24,68
24053	27,327
24054	30,046
24055	27,121
24056	26,227
24057	23,626
24058	19,433
24059	22,281
24060	24,997
24061	26,268
24062	24,323
24063	23,098
24064	23,126
24065	23,41
24066	23,283
24067	23,236
24068	22,927
24069	23,854
24070	24,219
24071	22,577
24072	24,567
24073	24,708
24074	22,517
24075	19,271
24076	16,647
24077	15,05
24078	14,397
24079	14,883
24080	23,01
24081	24,298
24082	23,381
24083	26,054
24084	24,342
24085	23,084
24086	19,584
24087	17,658
24088	15,729
24089	14,6
24090	14,47
24091	15,517
24092	17,818
24093	20,74
24094	23,739
24095	24,16
24096	25,76
24097	23,006
24098	23,407
24099	23,599
24100	23,282
24101	23,142
24102	23,18
24103	23,264
24104	23,375
24105	20,686
24106	20,97
24107	21,198
24108	21,206
24109	21,17
24110	20,983
24111	20,657
24112	20,159
24113	18,99
24114	17,62
24115	16,488
24116	14,94
24117	13,134
24118	11,362
24119	9,7706
24120	8,4448
24121	7,3899
24122	6,5814
24123	5,9796
24124	5,5441
24125	5,2395
24126	5,0368
24127	4,9136
24128	4,8533
24129	4,8431
24130	4,8741
24131	4,9394
24132	5,034
24133	5,1544
24134	5,2979
24135	5,4624
24136	5,6463
24137	5,8484
24138	6,0677
24139	6,3032
24140	6,5541
24141	6,8194
24142	7,0982
24143	7,3892
24144	7,6912
24145	8,0023
24146	8,3206
24147	8,6432
24148	8,9669
24149	9,2872
24150	9,5987
24151	9,895
24152	10,168
24153	10,409
24154	10,607
24155	10,754
24156	10,839
24157	10,853
24158	10,789
24159	10,638
24160	10,403
24161	10,113
24162	9,8491
24163	9,6975
24164	9,9525
24165	10,607
24166	11,418
24167	12,448
24168	13,643
24169	14,891
24170	16,023
24171	17,019
24172	17,844
24173	18,469
24174	18,866
24175	19,15
24176	18,949
24177	18,523
24178	18,003
24179	17,05
24180	16,012
24181	14,771
24182	13,486
24183	12,476
24184	11,624
24185	10,835
24186	9,9959
24187	9,7237
24188	9,8587
24189	10,13
24190	10,424
24191	10,657
24192	10,801
24193	10,856
24194	10,83
24195	10,733
24196	10,572
24197	10,36
24198	10,106
24199	9,8208
24200	9,5138
24201	9,1928
24202	8,8646
24203	8,5345
24204	8,2066
24205	7,8844
24206	7,5705
24207	7,2669
24208	6,9752
24209	6,6969
24210	6,4331
24211	6,1847
24212	5,9528
24213	5,7382
24214	5,542
24215	5,3655
24216	5,21
24217	5,0776
24218	4,9708
24219	4,893
24220	4,8489
24221	4,845
24222	4,89
24223	4,9962
24224	5,1799
24225	5,4632
24226	5,875
24227	6,4515
24228	7,2347
24229	8,2676
24230	9,5805
24231	11,172
24232	12,97
24233	14,804
24234	16,398
24235	17,601
24236	18,953
24237	20,181
24238	20,712
24239	20,989
24240	21,224
24241	21,217
24242	21,183
24243	20,959
24244	20,695
24245	20,174
24246	18,992
24247	17,568
24248	16,39
24249	14,743
24250	12,894
24251	11,087
24252	9,4944
24253	8,1837
24254	7,1538
24255	6,3724
24256	5,7953
24257	5,3801
24258	5,0905
24259	4,8976
24260	4,7793
24261	4,7192
24262	4,705
24263	4,7276
24264	4,7804
24265	4,8582
24266	4,9571
24267	5,0741
24268	5,2064
24269	5,3518
24270	5,5083
24271	5,6737
24272	5,8462
24273	6,0237
24274	6,2039
24275	6,3846
24276	6,5634
24277	6,738
24278	6,9059
24279	7,0648
24280	7,213
24281	7,3493
24282	7,4734
24283	7,5866
24284	7,6918
24285	7,7944
24286	7,9023
24287	8,0263
24288	8,1787
24289	8,3714
24290	8,6061
24291	8,8651
24292	9,0942
24293	9,2165
24294	9,1573
24295	8,9377
24296	8,7978
24297	8,5224
24298	8,0627
24299	7,6614
24300	7,3373
24301	7,0647
24302	6,8573
24303	6,6869
24304	6,5627
24305	6,4776
24306	6,4347
24307	6,4345
24308	6,4777
24309	6,5609
24310	6,6869
24311	6,8614
24312	7,0717
24313	7,3413
24314	7,6602
24315	8,0683
24316	8,5458
24317	8,8112
24318	8,9385
24319	9,16
24320	9,216
24321	9,0947
24322	8,8651
24323	8,6063
24324	8,3713
24325	8,1787
24326	8,0261
24327	7,902
24328	7,794
24329	7,6914
24330	7,5861
24331	7,4729
24332	7,3488
24333	7,2124
24334	7,0641
24335	6,9051
24336	6,7372
24337	6,5626
24338	6,3837
24339	6,203
24340	6,0227
24341	5,8453
24342	5,6728
24343	5,5073
24344	5,3509
24345	5,2055
24346	5,0733
24347	4,9564
24348	4,8576
24349	4,7799
24350	4,7273
24351	4,7049
24352	4,7195
24353	4,7801
24354	4,8989
24355	5,0927
24356	5,3833
24357	5,8
24358	6,379
24359	7,1631
24360	8,1961
24361	9,5108
24362	11,107
24363	12,915
24364	14,732
24365	16,369
24366	17,602
24367	18,967
24368	20,175
24369	6,8587
24370	7,8813
24371	7,065
24372	6,9625
24373	6,9706
24374	7,0283
24375	8,1637
24376	8,0382
24377	7,7638
24378	7,5371
24379	7,3595
24380	7,2353
24381	7,1688
24382	7,3834
24383	7,4302
24384	7,623
24385	7,8669
24386	8,1543
24387	7,1874
24388	7,0969
24389	6,9342
24390	7,0659
24391	7,378
24392	7,159
24393	8,6788
24394	7,1828
24395	7,3864
24396	7,9718
24397	7,2586
24398	6,9766
24399	7,1921
24400	7,04
24401	7,0294
24402	7,4744
24403	8,2032
24404	7,5076
24405	8,8921
24406	7,5916
24407	7,0517
24408	7,8083
24409	7,9671
24410	8,1839
24411	8,4517
24412	8,7686
24413	9,1267
24414	8,7143
24415	8,4236
24416	8,1608
24417	7,9348
24418	7,7525
24419	7,6177
24420	7,535
24421	9,5373
24422	9,1383
24423	8,7719
24424	8,4551
24425	8,1853
24426	7,9682
24427	7,8091
24428	7,7118
24429	7,5652
24430	7,6742
24431	7,8354
24432	8,0433
24433	8,2939
24434	8,5767
24435	7,1886
24436	7,5897
24437	8,4017
24438	8,4666
24439	7,0592
24440	7,1052
24441	7,7114
24442	7,537
24443	7,5052
24444	7,7051
24445	9,3964
24446	7,1808
24447	7,5127
24448	7,3407
24449	7,2352
24450	7,816
24451	7,4019
24452	7,3367
24453	7,8182
24454	7,5132
24455	7,7409
24456	8,359
24457	8,4712
24458	9,5593
24459	10,624
24460	7,3261
24461	10,807
24462	7,4547
24463	7,6407
24464	8,5855
24465	7,6277
24466	7,4557
24467	7,7628
24468	8,3946
24469	9,7525
24470	9,9032
24471	7,8738
24472	8,262
24473	10,086
24474	7,7235
24475	8,1632
24476	8,0972
24477	8,7938
24478	8,4837
24479	7,8252
24480	8,1603
24481	7,6255
24482	7,7789
24483	7,959
24484	7,9446
24485	8,1756
24486	10,115
24487	7,8409
24488	8,4583
24489	8,2252
24490	8,443
24491	8,3594
24492	8,5216
24493	8,9156
24494	7,9531
24495	8,1581
24496	8,3369
24497	8,3077
24498	8,4663
24499	8,8156
24500	8,637
24501	8,5987
24502	8,7036
24503	8,7197
24504	8,3657
24505	8,8972
24506	8,8485
24507	8,7135
24508	8,1072
24509	8,3669
24510	8,513
24511	8,608
24512	11,056
24513	11,375
24514	12,061
24515	12,269
24516	12,01
24517	12,143
24518	12,32
24519	12,063
24520	8,5735
24521	8,5526
24522	8,2818
24523	8,5747
24524	9,0918
24525	8,8081
24526	8,7338
24527	8,7167
24528	8,7548
24529	8,8459
24530	8,987
24531	9,1752
24532	9,4077
24533	9,6818
24534	9,9952
24535	10,346
24536	10,733
24537	11,156
24538	11,616
24539	12,112
24540	11,214
24541	10,856
24542	10,513
24543	10,189
24544	9,8851
24545	9,6033
24546	9,3464
24547	9,1175
24548	8,9198
24549	8,7568
24550	8,6322
24551	8,5494
24552	8,5121
24553	8,5232
24554	8,5853
24555	12,114
24556	11,617
24557	11,158
24558	10,735
24559	10,348
24560	9,9968
24561	9,6833
24562	9,4091
24563	9,1764
24564	8,9879
24565	8,8466
24566	8,7552
24567	8,7167
24568	8,7335
24569	8,8074
24570	8,8049
24571	8,652
24572	8,5551
24573	8,5126
24574	8,5222
24575	8,5809
24576	8,6852
24577	8,8314
24578	9,0157
24579	9,2341
24580	9,4831
24581	9,7595
24582	10,06
24583	10,383
24584	10,725
24585	11,085
24586	8,6878
24587	9,0818
24588	9,1684
24589	8,8275
24590	8,6869
24591	8,4695
24592	8,6613
24593	8,8468
24594	9,0149
24595	8,8114
24596	8,6138
24597	8,7418
24598	8,9557
24599	9,0612
24600	11,426
24601	12,599
24602	13,082
24603	9,1779
24604	11,591
24605	11,698
24606	13,267
24607	9,2651
24608	8,8422
24609	9,1295
24610	8,8686
24611	9,021
24612	9,0209
24613	9,2991
24614	9,3609
24615	11,928
24616	11,851
24617	13,608
24618	13,349
24619	13,463
24620	9,0274
24621	9,3952
24622	9,0581
24623	9,2139
24624	9,3688
24625	12,339
24626	9,603
24627	9,3525
24628	9,1619
24629	9,0292
24630	8,9523
24631	8,9288
24632	8,9561
24633	9,0315
24634	9,1523
24635	9,3161
24636	9,5206
24637	9,7637
24638	10,044
24639	10,361
24640	10,714
24641	11,104
24642	11,531
24643	11,998
24644	12,508
24645	13,066
24646	11,694
24647	11,318
24648	10,964
24649	10,63
24650	10,319
24651	10,031
24652	9,7662
24653	9,5273
24654	9,316
24655	9,1346
24656	8,9858
24657	8,8725
24658	8,7978
24659	8,7649
24660	8,7768
24661	8,8366
24662	8,9469
24663	9,1102
24664	12,51
24665	12,
24666	11,533
24667	11,105
24668	10,716
24669	10,363
24670	10,046
24671	9,7651
24672	9,5217
24673	9,3171
24674	9,1531
24675	9,032
24676	8,9564
24677	8,9288
24678	8,952
24679	9,0285
24680	9,1608
24681	9,351
24682	9,5137
24683	9,2512
24684	9,0474
24685	8,9004
24686	8,8076
24687	8,7664
24688	8,7736
24689	8,8262
24690	8,9207
24691	9,0538
24692	9,2223
24693	9,4234
24694	9,6542
24695	9,9125
24696	10,196
24697	10,505
24698	10,836
24699	11,189
24700	11,565
24701	9,3222
24702	9,4538
24703	9,239
24704	9,9113
24705	9,7257
24706	9,3836
24707	9,5175
24708	9,6697
24709	9,5473
24710	14,247
24711	13,852
24712	9,5179
24713	9,5106
24714	9,7964
24715	9,9564
24716	13,818
24717	9,7001
24718	10,089
24719	10,035
24720	10,278
24721	9,7435
24722	9,8696
24723	9,7729
24724	10,
24725	12,731
24726	12,778
24727	9,959
24728	10,002
24729	9,8458
24730	10,135
24731	12,93
24732	12,962
24733	10,22
24734	10,451
24735	10,619
24736	10,328
24737	10,2
24738	10,29
24739	10,34
24740	10,395
24741	13,054
24742	15,25
24743	15,866
24744	10,313
24745	10,593
24746	10,295
24747	10,238
24748	10,672
24749	10,507
24750	13,309
24751	10,884
24752	10,536
24753	10,805
24754	10,875
24755	10,863
24756	16,045
24757	10,749
24758	10,968
24759	11,011
24760	11,11
24761	16,073
24762	16,755
24763	15,928
24764	11,121
24765	11,621
24766	11,286
24767	11,291
24768	11,283
24769	11,21
24770	16,907
24771	17,317
24772	16,924
24773	15,598
24774	11,251
24775	11,177
24776	11,102
24777	12,094
24778	11,527
24779	11,537
24780	17,003
24781	16,863
24782	11,088
24783	11,647
24784	10,853
24785	11,807
24786	11,809
24787	11,775
24788	16,502
24789	16,504
24790	11,831
24791	11,726
24792	11,733
24793	11,941
24794	12,21
24795	12,451
24796	12,339
24797	14,625
24798	15,21
24799	10,486
24800	9,9727
24801	9,5492
24802	9,202
24803	8,9215
24804	8,7006
24805	8,5336
24806	8,4159
24807	8,3432
24808	8,312
24809	8,3191
24810	8,3616
24811	8,4371
24812	8,5435
24813	8,679
24814	8,8421
24815	9,0318
24816	9,2474
24817	9,4884
24818	9,7549
24819	10,047
24820	10,365
24821	10,709
24822	11,079
24823	11,476
24824	11,899
24825	12,345
24826	12,813
24827	13,298
24828	13,789
24829	14,955
24830	14,153
24831	13,462
24832	12,857
24833	12,323
24834	11,844
24835	11,412
24836	11,02
24837	10,66
24838	10,33
24839	10,027
24840	9,7486
24841	9,4942
24842	9,2635
24843	9,0567
24844	8,8745
24845	8,7179
24846	8,5884
24847	8,4877
24848	8,4178
24849	8,3811
24850	8,3801
24851	8,4177
24852	8,4972
24853	8,6221
24854	8,7965
24855	9,0251
24856	9,3137
24857	9,6694
24858	10,102
24859	10,626
24860	13,299
24861	12,815
24862	12,347
24863	11,9
24864	11,477
24865	11,081
24866	10,71
24867	10,366
24868	10,048
24869	9,7561
24870	9,4896
24871	9,2484
24872	9,0328
24873	8,843
24874	8,6798
24875	8,5442
24876	8,4377
24877	8,362
24878	8,3192
24879	8,3119
24880	8,3429
24881	8,4153
24882	8,5327
24883	8,6992
24884	8,9197
24885	9,1997
24886	9,5462
24887	9,9691
24888	10,481
24889	10,497
24890	9,987
24891	9,567
24892	9,2242
24893	8,9487
24894	8,7337
24895	8,5733
24896	8,4629
24897	8,3983
24898	8,376
24899	8,3925
24900	8,445
24901	8,5309
24902	8,6478
24903	8,7937
24904	8,967
24905	9,1664
24906	9,3908
24907	9,64
24908	9,9138
24909	10,213
24910	10,539
24911	10,895
24912	11,284
24913	11,712
24914	12,185
24915	12,714
24916	13,311
24917	13,994
24918	14,786
24919	11,68
24920	12,543
24921	12,341
24922	12,245
24923	11,762
24924	11,097
24925	12,422
24926	11,486
24927	12,275
24928	14,89
24929	14,778
24930	15,29
24931	17,527
24932	19,076
24933	12,334
24934	12,868
24935	12,588
24936	15,951
24937	15,89
24938	12,899
24939	13,122
24940	12,837
24941	12,4
24942	16,104
24943	18,677
24944	17,887
24945	13,373
24946	13,184
24947	12,275
24948	13,113
24949	13,424
24950	13,525
24951	14,761
24952	10,672
24953	9,9583
24954	9,3791
24955	8,9081
24956	8,5265
24957	8,2202
24958	7,9787
24959	7,7939
24960	7,6591
24961	7,5689
24962	7,5187
24963	7,5046
24964	7,5232
24965	7,5717
24966	7,6475
24967	7,7483
24968	7,8724
24969	8,018
24970	8,184
24971	8,369
24972	8,5723
24973	8,7931
24974	9,0307
24975	9,2845
24976	9,5535
24977	9,8361
24978	10,13
24979	10,432
24980	10,735
24981	11,031
24982	11,308
24983	11,549
24984	11,737
24985	11,852
24986	15,584
24987	14,654
24988	13,851
24989	13,156
24990	12,549
24991	12,013
24992	11,534
24993	11,101
24994	10,704
24995	10,34
24996	10,001
24997	9,6874
24998	9,3954
24999	9,1244
25000	8,874
25001	8,6442
25002	8,4355
25003	8,2486
25004	8,0844
25005	7,9444
25006	7,8299
25007	7,7429
25008	7,6854
25009	7,6597
25010	7,6688
25011	7,7157
25012	7,8042
25013	7,9388
25014	8,1248
25015	8,3686
25016	8,6785
25017	9,0652
25018	9,5428
25019	10,131
25020	10,855
25021	11,85
25022	11,738
25023	11,55
25024	11,309
25025	11,032
25026	10,736
25027	10,433
25028	10,131
25029	9,8372
25030	9,5545
25031	9,2855
25032	9,0318
25033	8,7941
25034	8,5733
25035	8,3699
25036	8,1848
25037	8,0189
25038	7,8731
25039	7,749
25040	7,648
25041	7,5721
25042	7,5235
25043	7,5046
25044	7,5185
25045	7,5684
25046	7,6583
25047	7,7928
25048	7,9772
25049	8,2181
25050	8,5238
25051	8,9048
25052	9,3747
25053	9,9531
25054	10,665
25055	11,549
25056	10,687
25057	9,9975
25058	9,4246
25059	8,9612
25060	8,5883
25061	8,2919
25062	8,0616
25063	7,8893
25064	7,7684
25065	7,6938
25066	7,6609
25067	7,6661
25068	7,7061
25069	7,7782
25070	7,8799
25071	8,0092
25072	8,1644
25073	8,3439
25074	8,5465
25075	8,7714
25076	9,0178
25077	9,2856
25078	9,575
25079	9,8869
25080	10,223
25081	10,586
25082	10,979
25083	11,41
25084	11,885
25085	12,416
25086	13,017
25087	13,705
25088	14,502
25089	15,427
25090	16,496
25091	12,914
25092	13,732
25093	13,499
25094	13,439
25095	13,68
25096	16,282
25097	13,923
25098	13,117
25099	13,483
25100	18,319
25101	15,831
25102	15,541
25103	21,698
25104	13,955
25105	14,171
25106	14,055
25107	14,374
25108	14,188
25109	17,945
25110	15,671
25111	17,252
25112	18,473
25113	19,251
25114	16,857
25115	20,121
25116	21,66
25117	15,161
25118	11,876
25119	14,793
25120	14,865
25121	14,94
25122	14,683
25123	19,908
25124	15,716
25125	16,667
25126	20,032
25127	12,342
25128	16,429
25129	14,779
25130	15,274
25131	15,788
25132	16,502
25133	15,023
25134	15,259
25135	16,821
25136	16,574
25137	15,305
25138	19,185
25139	17,747
25140	20,03
25141	17,964
25142	17,572
25143	23,084
25144	18,308
25145	18,24
25146	15,631
25147	16,882
25148	18,354
25149	16,765
25150	18,795
25151	19,445
25152	16,782
25153	15,957
25154	17,642
25155	17,109
25156	18,468
25157	18,656
25158	8,8509
25159	7,6997
25160	6,0726
25161	5,9007
25162	6,1289
25163	8,3437
25164	9,3014
25165	22,573
25166	16,209
25167	19,182
25168	20,364
25169	21,05
25170	21,333
25171	21,226
25172	21,629
25173	21,534
25174	21,327
25175	20,763
25176	19,35
25177	20,491
25178	12,244
25179	12,851
25180	13,665
25181	14,633
25182	15,618
25183	16,331
25184	17,111
25185	17,561
25186	17,773
25187	17,895
25188	17,958
25189	18,002
25190	17,67
25191	17,867
25192	17,584
25193	17,627
25194	17,327
25195	16,22
25196	14,894
25197	14,637
25198	12,446
25199	13,23
25200	19,107
25201	20,32
25202	20,977
25203	21,338
25204	21,249
25205	21,546
25206	21,444
25207	21,274
25208	20,927
25209	19,109
25210	20,188
25211	9,0022
25212	8,7368
25213	8,3692
25214	7,9582
25215	7,51
25216	7,2016
25217	6,8836
25218	6,6556
25219	6,4587
25220	6,327
25221	6,2671
25222	6,2768
25223	6,3301
25224	6,4623
25225	6,6497
25226	6,8867
25227	7,2092
25228	7,5611
25229	7,9571
25230	8,3607
25231	9,0027
25232	8,7399
25233	22,581
25234	21,995
25235	19,502
25236	20,478
25237	19,861
25238	17,185
25239	16,211
25240	20,672
25241	19,848
25242	21,477
25243	15,727
25244	19,691
25245	21,028
25246	22,164
25247	22,432
25248	21,731
25249	20,528
25250	19,455
25251	24,374
25252	20,731
25253	17,87
25254	14,427
25255	11,815
25256	10,331
25257	11,408
25258	21,244
25259	21,452
25260	18,392
25261	19,728
25262	17,224
25263	14,386
25264	11,698
25265	9,4244
25266	7,6315
25267	6,2834
25268	5,3075
25269	4,6245
25270	4,1642
25271	3,8694
25272	3,6963
25273	3,6121
25274	3,5931
25275	3,6223
25276	3,688
25277	3,7817
25278	3,8974
25279	4,031
25280	4,1794
25281	4,3402
25282	4,5113
25283	4,691
25284	4,8777
25285	5,0694
25286	5,2642
25287	5,46
25288	5,6544
25289	5,8445
25290	6,0275
25291	6,2001
25292	6,3591
25293	6,501
25294	6,6232
25295	6,7234
25296	6,8014
25297	6,859
25298	6,9022
25299	6,9418
25300	6,9954
25301	7,0876
25302	7,2489
25303	7,5116
25304	7,8996
25305	8,4115
25306	9,0006
25307	9,5589
25308	9,911
25309	9,8735
25310	7,2363
25311	7,2809
25312	7,6133
25313	8,1357
25314	8,7186
25315	9,247
25316	9,6541
25317	9,9155
25318	10,035
25319	10,03
25320	9,9241
25321	9,7407
25322	9,4999
25323	9,2185
25324	8,9099
25325	8,5845
25326	8,2501
25327	7,9127
25328	7,5767
25329	7,2456
25330	6,9218
25331	6,6072
25332	6,3032
25333	6,011
25334	5,7313
25335	5,4649
25336	5,2124
25337	4,9742
25338	4,751
25339	4,5433
25340	4,3521
25341	4,1786
25342	4,0249
25343	3,8935
25344	3,7887
25345	3,7163
25346	3,6851
25347	3,7074
25348	3,8007
25349	3,9893
25350	4,3065
25351	4,7961
25352	5,5142
25353	6,5277
25354	7,9109
25355	9,7249
25356	11,997
25357	14,643
25358	17,399
25359	19,777
25360	9,8738
25361	9,91
25362	9,5585
25363	9,0005
25364	8,4114
25365	7,8995
25366	7,5115
25367	7,2489
25368	7,0877
25369	6,9956
25370	6,942
25371	6,9024
25372	6,8593
25373	6,8018
25374	6,7239
25375	6,6237
25376	6,5016
25377	6,3598
25378	6,2009
25379	6,0284
25380	5,8454
25381	5,6553
25382	5,4611
25383	5,2653
25384	5,0705
25385	4,8788
25386	4,6921
25387	4,5124
25388	4,3412
25389	4,1804
25390	4,032
25391	3,8983
25392	3,7824
25393	3,6886
25394	3,6227
25395	3,5931
25396	3,6116
25397	3,6951
25398	3,8672
25399	4,1605
25400	4,6188
25401	5,2989
25402	6,2709
25403	7,6138
25404	9,4008
25405	11,666
25406	14,352
25407	17,181
25408	19,662
25409	19,723
25410	17,257
25411	14,443
25412	11,767
25413	9,4986
25414	7,704
25415	6,3514
25416	5,3714
25417	4,6861
25418	4,2264
25419	3,9353
25420	3,769
25421	3,6947
25422	3,6888
25423	3,7344
25424	3,8195
25425	3,9362
25426	4,0787
25427	4,2434
25428	4,4277
25429	4,6298
25430	4,8486
25431	5,0833
25432	5,3333
25433	5,5979
25434	5,8766
25435	6,1687
25436	6,4735
25437	6,7899
25438	7,1165
25439	7,4516
25440	7,7927
25441	8,1367
25442	8,4793
25443	8,8148
25444	9,1354
25445	9,431
25446	9,6883
25447	9,8905
25448	10,017
25449	10,043
25450	9,9443
25451	9,7
25452	9,3032
25453	8,775
25454	8,1811
25455	7,6389
25456	7,2881
25457	7,2339
25458	20,335
25459	20,19
25460	20,834
25461	21,437
25462	21,838
25463	21,99
25464	21,809
25465	21,42
25466	20,82
25467	20,294
25468	20,161
25469	7,1137
25470	7,3413
25471	8,4107
25472	9,9064
25473	11,722
25474	13,708
25475	15,733
25476	17,655
25477	19,323
25478	20,61
25479	21,468
25480	21,752
25481	21,46
25482	20,625
25483	19,331
25484	17,65
25485	15,707
25486	13,705
25487	11,701
25488	9,8984
25489	8,4053
25490	7,1175
25491	7,3478
25492	20,336
25493	20,17
25494	20,808
25495	21,4
25496	21,804
25497	21,952
25498	21,797
25499	21,399
25500	20,828
25501	20,344
25502	20,191
25503	8,9742
25504	8,0288
25505	7,635
25506	7,3522
25507	7,1422
25508	6,976
25509	6,8351
25510	6,7229
25511	6,6337
25512	6,5738
25513	6,5426
25514	6,5432
25515	6,5739
25516	6,635
25517	6,724
25518	6,8358
25519	6,9774
25520	7,1439
25521	7,356
25522	7,6387
25523	8,9806
25524	8,0345
25525	20,459
25526	21,858
25527	25,603
25528	30,407
25529	34,28
25530	36,13
25531	36,27
25532	33,145
25533	29,456
25534	24,968
25535	20,612
25536	16,824
25537	14,539
25538	14,586
25539	16,92
25540	20,646
25541	24,812
25542	29,413
25543	33,19
25544	36,314
25545	36,194
25546	34,723
25547	30,228
25548	22,039
25549	25,639
25550	14,243
25551	15,491
25552	18,608
25553	22,71
25554	27,22
25555	31,453
25556	34,882
25557	36,136
25558	35,97
25559	32,856
25560	27,761
25561	23,577
25562	21,087
25563	21,082
25564	23,817
25565	28,05
25566	32,537
25567	35,029
25568	36,484
25569	35,063
25570	31,46
25571	27,21
25572	22,828
25573	15,48
25574	18,618
25575	41,119
25576	37,218
25577	30,338
25578	23,198
25579	18,007
25580	15,865
25581	15,631
25582	15,676
25583	16,477
25584	20,021
25585	26,446
25586	33,691
25587	39,78
25588	41,88
25589	40,143
25590	33,733
25591	24,488
25592	17,762
25593	14,149
25594	13,519
25595	15,444
25596	21,249
25597	29,824
25598	41,864
25599	37,585
25600	28,966
25601	23,568
25602	18,147
25603	13,158
25604	8,7007
25605	4,6124
25606	1,2942
25607	2,8802
25608	6,6043
25609	10,78
25610	15,502
25611	20,739
25612	25,976
25613	31,044
25614	35,656
25615	36,746
25616	36,854
25617	35,274
25618	34,451
25619	33,817
25620	35,893
25621	36,388
25622	36,129
25623	33,422
25624	35,015
25625	29,829
25626	30,813
25627	29,371
25628	24,79
25629	17,421
25630	12,105
25631	14,183
25632	21,384
25633	27,483
25634	30,781
25635	31,149
25636	28,924
25637	24,622
25638	19,894
25639	15,028
25640	10,504
25641	6,4423
25642	2,7684
25643	1,0368
25644	4,4832
25645	8,4879
25646	12,781
25647	17,489
25648	22,651
25649	29,913
25650	30,499
25651	28,747
25652	23,883
25653	16,395
25654	9,484
25655	12,296
25656	20,126
25657	26,893
25658	30,468
25659	31,241
25660	28,808
25661	24,579
25662	19,85
25663	14,957
25664	10,438
25665	6,3966
25666	2,7426
25667	1,0172
25668	4,4471
25669	8,4311
25670	12,714
25671	17,44
25672	22,544
25673	29,913
25674	30,499
25675	28,747
25676	23,883
25677	16,395
25678	9,484
25679	12,296
25680	20,126
25681	26,893
25682	30,468
25683	31,241
25684	28,808
25685	24,579
25686	19,85
25687	14,957
25688	10,438
25689	6,3966
25690	2,7426
25691	1,0172
25692	4,4471
25693	8,4311
25694	12,714
25695	17,44
25696	22,544
25697	29,829
25698	30,813
25699	29,371
25700	24,79
25701	17,421
25702	12,105
25703	14,183
25704	21,384
25705	27,483
25706	30,781
25707	31,149
25708	28,924
25709	24,622
25710	19,894
25711	15,028
25712	10,504
25713	6,4423
25714	2,7684
25715	1,0368
25716	4,4832
25717	8,4879
25718	12,781
25719	17,489
25720	22,651
25721	33,422
25722	27,001
25723	27,039
25724	27,039
25725	27,001
25726	28,966
25727	23,568
25728	18,147
25729	13,158
25730	8,7007
25731	4,6124
25732	1,2942
25733	2,8802
25734	6,6043
25735	10,78
25736	15,502
25737	20,739
25738	25,976
25739	31,044
25740	35,656
25741	36,746
25742	36,854
25743	35,274
25744	34,451
25745	33,817
25746	35,893
25747	36,388
25748	36,129
25749	35,015
25750	44,121
25751	39,271
25752	30,412
25753	20,659
25754	14,119
25755	12,163
25756	12,763
25757	16,706
25758	24,586
25759	34,932
25760	42,246
25761	44,229
25762	41,671
25763	34,721
25764	26,683
25765	19,888
25766	16,685
25767	16,521
25768	16,614
25769	16,393
25770	17,889
25771	23,042
25772	30,932
25773	38,764
25774	44,227
25775	39,093
25776	29,851
25777	19,674
25778	12,821
25779	10,875
25780	11,445
25781	15,54
25782	23,795
25783	34,574
25784	42,206
25785	44,456
25786	41,979
25787	34,988
25788	26,778
25789	19,884
25790	16,791
25791	16,812
25792	16,946
25793	16,603
25794	17,928
25795	23,087
25796	31,126
25797	39,06
25798	44,227
25799	39,093
25800	29,851
25801	19,674
25802	12,821
25803	10,875
25804	11,445
25805	15,54
25806	23,795
25807	34,574
25808	42,206
25809	44,456
25810	41,979
25811	34,988
25812	26,778
25813	19,884
25814	16,791
25815	16,812
25816	16,946
25817	16,603
25818	17,928
25819	23,087
25820	31,126
25821	39,06
25822	44,121
25823	39,271
25824	30,412
25825	20,659
25826	14,119
25827	12,163
25828	12,763
25829	16,706
25830	24,586
25831	34,932
25832	42,246
25833	44,229
25834	41,671
25835	34,721
25836	26,683
25837	19,888
25838	16,685
25839	16,521
25840	16,614
25841	16,393
25842	17,889
25843	23,042
25844	30,932
25845	38,764
25846	41,865
25847	43,289
25848	43,579
25849	43,579
25850	43,289
25851	41,119
25852	37,218
25853	30,338
25854	23,198
25855	18,007
25856	15,865
25857	15,631
25858	15,676
25859	16,477
25860	20,021
25861	26,446
25862	33,691
25863	39,78
25864	41,88
25865	40,143
25866	33,733
25867	24,488
25868	17,762
25869	14,149
25870	13,519
25871	15,444
25872	21,249
25873	29,824
25874	37,585
25875	15,626
25876	18,833
25877	23,061
25878	27,514
25879	31,923
25880	35,767
25881	37,437
25882	36,011
25883	32,859
25884	27,38
25885	22,153
25886	18,594
25887	18,575
25888	21,857
25889	27,162
25890	33,109
25891	36,823
25892	37,173
25893	35,615
25894	31,925
25895	27,512
25896	22,938
25897	18,801
25898	15,639
25899	15,603
25900	18,873
25901	23,155
25902	27,644
25903	32,051
25904	35,846
25905	37,424
25906	35,84
25907	32,543
25908	26,912
25909	21,456
25910	17,711
25911	17,691
25912	21,158
25913	26,686
25914	32,813
25915	36,645
25916	37,147
25917	35,698
25918	32,053
25919	27,645
25920	23,034
25921	18,841
25922	15,621
25923	15,603
25924	18,873
25925	23,155
25926	27,644
25927	32,051
25928	35,846
25929	37,424
25930	35,84
25931	32,543
25932	26,912
25933	21,456
25934	17,711
25935	17,691
25936	21,158
25937	26,686
25938	32,813
25939	36,645
25940	37,147
25941	35,698
25942	32,053
25943	27,645
25944	23,034
25945	18,841
25946	15,621
25947	15,626
25948	18,833
25949	23,061
25950	27,514
25951	31,923
25952	35,767
25953	37,437
25954	36,011
25955	32,859
25956	27,38
25957	22,153
25958	18,594
25959	18,575
25960	21,857
25961	27,162
25962	33,109
25963	36,823
25964	37,173
25965	35,615
25966	31,925
25967	27,512
25968	22,938
25969	18,801
25970	15,639
25971	15,48
25972	14,365
25973	14,316
25974	14,316
25975	14,365
25976	14,243
25977	15,491
25978	18,608
25979	22,71
25980	27,22
25981	31,453
25982	34,882
25983	36,136
25984	35,97
25985	32,856
25986	27,761
25987	23,577
25988	21,087
25989	21,082
25990	23,817
25991	28,05
25992	32,537
25993	35,029
25994	36,484
25995	35,063
25996	31,46
25997	27,21
25998	22,828
25999	18,618
26000	19,853
26001	24,464
26002	30,136
26003	35,318
26004	37,189
26005	37,124
26006	33,8
26007	29,77
26008	25,085
26009	20,859
26010	17,098
26011	14,712
26012	14,667
26013	16,997
26014	20,82
26015	25,225
26016	29,808
26017	33,754
26018	37,093
26019	37,163
26020	34,974
26021	30,261
26022	24,403
26023	19,665
26024	19,051
26025	23,881
26026	29,753
26027	35,078
26028	37,086
26029	37,16
26030	33,913
26031	29,906
26032	25,204
26033	20,926
26034	17,107
26035	14,671
26036	14,625
26037	17,011
26038	20,887
26039	25,345
26040	29,942
26041	33,866
26042	37,127
26043	37,069
26044	34,73
26045	29,878
26046	23,826
26047	18,855
26048	19,051
26049	23,881
26050	29,753
26051	35,078
26052	37,086
26053	37,16
26054	33,913
26055	29,906
26056	25,204
26057	20,926
26058	17,107
26059	14,671
26060	14,625
26061	17,011
26062	20,887
26063	25,345
26064	29,942
26065	33,866
26066	37,127
26067	37,069
26068	34,73
26069	29,878
26070	23,826
26071	18,855
26072	19,853
26073	24,464
26074	30,136
26075	35,318
26076	37,189
26077	37,124
26078	33,8
26079	29,77
26080	25,085
26081	20,859
26082	17,098
26083	14,712
26084	14,667
26085	16,997
26086	20,82
26087	25,225
26088	29,808
26089	33,754
26090	37,093
26091	37,163
26092	34,974
26093	30,261
26094	24,403
26095	19,665
26096	22,039
26097	17,808
26098	16,886
26099	16,886
26100	17,808
26101	20,459
26102	21,858
26103	25,603
26104	30,407
26105	34,28
26106	36,13
26107	36,27
26108	33,145
26109	29,456
26110	24,968
26111	20,612
26112	16,824
26113	14,539
26114	14,586
26115	16,92
26116	20,646
26117	24,812
26118	29,413
26119	33,19
26120	36,314
26121	36,194
26122	34,723
26123	30,228
26124	25,639
26125	7,8888
26126	7,4659
26127	7,1929
26128	6,9952
26129	6,8386
26130	6,7037
26131	6,5939
26132	6,506
26133	6,4463
26134	6,4151
26135	6,4157
26136	6,4464
26137	6,5073
26138	6,5951
26139	6,7043
26140	6,8397
26141	6,9969
26142	7,1966
26143	7,4696
26144	7,8953
26145	7,8831
26146	7,4189
26147	7,1187
26148	6,9142
26149	6,7585
26150	6,6269
26151	6,5205
26152	6,435
26153	6,3768
26154	6,3464
26155	6,3469
26156	6,377
26157	6,4363
26158	6,5215
26159	6,6275
26160	6,7597
26161	6,9159
26162	7,1225
26163	7,4228
26164	7,89
26165	7,8831
26166	7,4189
26167	7,1187
26168	6,9142
26169	6,7585
26170	6,6269
26171	6,5205
26172	6,435
26173	6,3768
26174	6,3464
26175	6,3469
26176	6,377
26177	6,4363
26178	6,5215
26179	6,6275
26180	6,7597
26181	6,9159
26182	7,1225
26183	7,4228
26184	7,89
26185	7,8888
26186	7,4659
26187	7,1929
26188	6,9952
26189	6,8386
26190	6,7037
26191	6,5939
26192	6,506
26193	6,4463
26194	6,4151
26195	6,4157
26196	6,4464
26197	6,5073
26198	6,5951
26199	6,7043
26200	6,8397
26201	6,9969
26202	7,1966
26203	7,4696
26204	7,8953
26205	8,0345
26206	8,9806
26207	7,6387
26208	7,356
26209	7,1439
26210	6,9774
26211	6,8358
26212	6,724
26213	6,635
26214	6,5739
26215	6,5432
26216	6,5426
26217	6,5738
26218	6,6337
26219	6,7229
26220	6,8351
26221	6,976
26222	7,1422
26223	7,3522
26224	7,635
26225	8,0288
26226	8,9742
26227	8,9652
26228	8,9309
26229	8,9309
26230	8,9652
26231	8,9591
26232	8,9257
26233	8,9257
26234	8,9591
26235	19,989
26236	20,516
26237	21,084
26238	21,484
26239	21,631
26240	21,48
26241	21,085
26242	20,537
26243	20,008
26244	19,97
26245	20,406
26246	20,894
26247	21,257
26248	21,393
26249	21,254
26250	20,896
26251	20,427
26252	19,987
26253	19,97
26254	20,406
26255	20,894
26256	21,257
26257	21,393
26258	21,254
26259	20,896
26260	20,427
26261	19,987
26262	19,989
26263	20,516
26264	21,084
26265	21,484
26266	21,631
26267	21,48
26268	21,085
26269	20,537
26270	20,008
26271	20,191
26272	20,344
26273	20,828
26274	21,399
26275	21,797
26276	21,952
26277	21,804
26278	21,4
26279	20,808
26280	20,17
26281	20,336
26282	20,432
26283	20,355
26284	20,355
26285	20,432
26286	20,442
26287	20,365
26288	20,365
26289	20,442
26290	7,2257
26291	8,2795
26292	9,7725
26293	11,577
26294	13,54
26295	15,539
26296	17,433
26297	19,075
26298	20,342
26299	21,179
26300	21,454
26301	21,166
26302	20,347
26303	19,077
26304	17,426
26305	15,511
26306	13,545
26307	11,557
26308	9,7629
26309	8,2715
26310	7,2309
26311	7,281
26312	8,2828
26313	9,7307
26314	11,499
26315	13,428
26316	15,39
26317	17,248
26318	18,858
26319	20,098
26320	20,914
26321	21,183
26322	20,898
26323	20,097
26324	18,859
26325	17,241
26326	15,362
26327	13,434
26328	11,48
26329	9,7236
26330	8,2754
26331	7,2853
26332	7,281
26333	8,2828
26334	9,7307
26335	11,499
26336	13,428
26337	15,39
26338	17,248
26339	18,858
26340	20,098
26341	20,914
26342	21,183
26343	20,898
26344	20,097
26345	18,859
26346	17,241
26347	15,362
26348	13,434
26349	11,48
26350	9,7236
26351	8,2754
26352	7,2853
26353	7,2257
26354	8,2795
26355	9,7725
26356	11,577
26357	13,54
26358	15,539
26359	17,433
26360	19,075
26361	20,342
26362	21,179
26363	21,454
26364	21,166
26365	20,347
26366	19,077
26367	17,426
26368	15,511
26369	13,545
26370	11,557
26371	9,7628
26372	8,2715
26373	7,2309
26374	7,3479
26375	7,1175
26376	8,4053
26377	9,8984
26378	11,701
26379	13,705
26380	15,707
26381	17,65
26382	19,331
26383	20,626
26384	21,46
26385	21,752
26386	21,468
26387	20,61
26388	19,323
26389	17,655
26390	15,733
26391	13,708
26392	11,722
26393	9,9064
26394	8,4107
26395	7,3413
26396	7,1137
26397	7,0638
26398	7,1262
26399	7,1262
26400	7,0638
26401	7,0677
26402	7,1296
26403	7,1296
26404	7,0677
26405	20,009
26406	20,544
26407	21,123
26408	21,52
26409	21,67
26410	21,498
26411	21,106
26412	20,531
26413	19,979
26414	19,99
26415	20,434
26416	20,933
26417	21,292
26418	21,432
26419	21,273
26420	20,917
26421	20,421
26422	19,959
26423	19,99
26424	20,434
26425	20,933
26426	21,292
26427	21,432
26428	21,273
26429	20,917
26430	20,421
26431	19,959
26432	20,009
26433	20,544
26434	21,123
26435	21,52
26436	21,67
26437	21,498
26438	21,106
26439	20,531
26440	19,979
26441	20,161
26442	20,294
26443	20,82
26444	21,42
26445	21,809
26446	21,99
26447	21,838
26448	21,437
26449	20,834
26450	20,19
26451	20,335
26452	20,391
26453	20,315
26454	20,315
26455	20,391
26456	20,433
26457	20,357
26458	20,357
26459	20,433
26460	20,084
26461	17,602
26462	14,628
26463	11,787
26464	9,3967
26465	7,5376
26466	6,1668
26467	5,1973
26468	4,5358
26469	4,103
26470	3,8369
26471	3,6914
26472	3,6337
26473	3,6404
26474	3,6954
26475	3,7876
26476	3,9094
26477	4,0558
26478	4,2232
26479	4,4095
26480	4,6132
26481	4,8332
26482	5,0689
26483	5,3196
26484	5,585
26485	5,8644
26486	6,1573
26487	6,463
26488	6,7804
26489	7,1084
26490	7,4451
26491	7,7884
26492	8,1351
26493	8,4812
26494	8,8211
26495	9,1473
26496	9,4498
26497	9,7152
26498	9,9261
26499	10,061
26500	10,094
26501	9,9985
26502	9,7514
26503	9,3455
26504	8,8041
26505	8,1997
26506	7,6576
26507	7,3206
26508	7,259
26509	19,994
26510	17,648
26511	14,747
26512	11,899
26513	9,466
26514	7,5583
26515	6,1493
26516	5,1568
26517	4,4853
26518	4,0516
26519	3,7893
26520	3,6498
26521	3,5984
26522	3,6109
26523	3,6708
26524	3,767
26525	3,892
26526	4,0408
26527	4,2102
26528	4,398
26529	4,6029
26530	4,8239
26531	5,0603
26532	5,3117
26533	5,5776
26534	5,8575
26535	6,151
26536	6,4571
26537	6,7751
26538	7,1037
26539	7,4411
26540	7,7852
26541	8,1329
26542	8,4801
26543	8,8213
26544	9,1488
26545	9,4524
26546	9,7184
26547	9,9292
26548	10,063
26549	10,093
26550	9,9934
26551	9,7442
26552	9,3421
26553	8,8164
26554	8,2423
26555	7,7368
26556	7,4148
26557	7,3266
26558	19,994
26559	17,648
26560	14,747
26561	11,899
26562	9,466
26563	7,5583
26564	6,1493
26565	5,1568
26566	4,4853
26567	4,0516
26568	3,7893
26569	3,6498
26570	3,5984
26571	3,6109
26572	3,6708
26573	3,767
26574	3,892
26575	4,0408
26576	4,2102
26577	4,398
26578	4,6029
26579	4,8239
26580	5,0603
26581	5,3117
26582	5,5776
26583	5,8575
26584	6,151
26585	6,4571
26586	6,7751
26587	7,1037
26588	7,4411
26589	7,7852
26590	8,1329
26591	8,4801
26592	8,8213
26593	9,1488
26594	9,4524
26595	9,7185
26596	9,9292
26597	10,063
26598	10,093
26599	9,9934
26600	9,7442
26601	9,3421
26602	8,8164
26603	8,2423
26604	7,7368
26605	7,4148
26606	7,3266
26607	20,084
26608	17,602
26609	14,628
26610	11,787
26611	9,3967
26612	7,5376
26613	6,1668
26614	5,1973
26615	4,5358
26616	4,103
26617	3,8369
26618	3,6914
26619	3,6337
26620	3,6404
26621	3,6954
26622	3,7876
26623	3,9094
26624	4,0558
26625	4,2232
26626	4,4095
26627	4,6132
26628	4,8332
26629	5,0689
26630	5,3196
26631	5,585
26632	5,8644
26633	6,1573
26634	6,463
26635	6,7804
26636	7,1084
26637	7,4451
26638	7,7884
26639	8,1351
26640	8,4812
26641	8,8211
26642	9,1473
26643	9,4498
26644	9,7152
26645	9,9261
26646	10,061
26647	10,094
26648	9,9985
26649	9,7514
26650	9,3455
26651	8,8041
26652	8,1997
26653	7,6576
26654	7,3206
26655	7,259
26656	19,723
26657	17,257
26658	14,443
26659	11,767
26660	9,4986
26661	7,704
26662	6,3514
26663	5,3714
26664	4,6861
26665	4,2264
26666	3,9353
26667	3,769
26668	3,6947
26669	3,6888
26670	3,7344
26671	3,8195
26672	3,9362
26673	4,0787
26674	4,2434
26675	4,4277
26676	4,6298
26677	4,8486
26678	5,0833
26679	5,3333
26680	5,5979
26681	5,8766
26682	6,1687
26683	6,4735
26684	6,7899
26685	7,1165
26686	7,4516
26687	7,7927
26688	8,1367
26689	8,4793
26690	8,8148
26691	9,1354
26692	9,431
26693	9,6883
26694	9,8905
26695	10,017
26696	10,043
26697	9,9443
26698	9,7
26699	9,3032
26700	8,775
26701	8,1811
26702	7,6389
26703	7,2881
26704	7,2339
26705	10,01
26706	9,9526
26707	9,9526
26708	10,01
26709	10,098
26710	10,096
26711	10,096
26712	10,098
26713	9,7226
26714	9,7687
26715	9,7687
26716	9,7226
26717	9,113
26718	9,1809
26719	9,1809
26720	9,113
26721	8,4679
26722	8,5366
26723	8,5366
26724	8,4679
26725	7,9119
26726	7,968
26727	7,968
26728	7,9119
26729	7,4974
26730	7,5357
26731	7,5357
26732	7,4974
26733	7,2245
26734	7,2461
26735	7,2461
26736	7,2245
26737	7,064
26738	7,0733
26739	7,0733
26740	7,064
26741	6,9784
26742	6,9804
26743	6,9804
26744	6,9784
26745	6,933
26746	6,9316
26747	6,9316
26748	6,933
26749	6,9006
26750	6,8983
26751	6,8983
26752	6,9006
26753	6,8629
26754	6,8609
26755	6,8609
26756	6,8629
26757	6,8087
26758	6,8074
26759	6,8074
26760	6,8087
26761	6,7325
26762	6,7319
26763	6,7319
26764	6,7325
26765	6,6326
26766	6,6323
26767	6,6323
26768	6,6326
26769	6,5098
26770	6,5097
26771	6,5097
26772	6,5098
26773	6,3666
26774	6,3664
26775	6,3664
26776	6,3666
26777	6,2061
26778	6,2055
26779	6,2055
26780	6,2061
26781	6,0317
26782	6,0307
26783	6,0307
26784	6,0317
26785	5,8469
26786	5,8453
26787	5,8453
26788	5,8469
26789	5,6549
26790	5,6527
26791	5,6527
26792	5,6549
26793	5,4589
26794	5,456
26795	5,456
26796	5,4589
26797	5,2614
26798	5,2578
26799	5,2578
26800	5,2614
26801	5,065
26802	5,0607
26803	5,0607
26804	5,065
26805	4,8718
26806	4,8666
26807	4,8666
26808	4,8718
26809	4,6836
26810	4,6775
26811	4,6775
26812	4,6836
26813	4,5022
26814	4,4952
26815	4,4952
26816	4,5022
26817	4,3293
26818	4,3211
26819	4,3211
26820	4,3293
26821	4,1665
26822	4,1569
26823	4,1569
26824	4,1665
26825	4,0156
26826	4,0043
26827	4,0043
26828	4,0156
26829	3,8788
26830	3,8655
26831	3,8655
26832	3,8788
26833	3,7589
26834	3,743
26835	3,743
26836	3,7589
26837	3,6598
26838	3,6406
26839	3,6406
26840	3,6598
26841	3,5868
26842	3,5637
26843	3,5637
26844	3,5868
26845	3,5478
26846	3,5197
26847	3,5197
26848	3,5478
26849	3,5538
26850	3,5199
26851	3,5199
26852	3,5538
26853	3,621
26854	3,5807
26855	3,5807
26856	3,621
26857	3,7724
26858	3,726
26859	3,726
26860	3,7724
26861	4,0409
26862	3,9902
26863	3,9902
26864	4,0409
26865	4,4719
26866	4,4217
26867	4,4217
26868	4,4719
26869	5,1276
26870	5,0865
26871	5,0865
26872	5,1276
26873	6,0877
26874	6,0687
26875	6,0687
26876	6,0877
26877	7,4468
26878	7,4655
26879	7,4655
26880	7,4468
26881	9,2959
26882	9,3636
26883	9,3636
26884	9,2959
26885	11,681
26886	11,793
26887	11,793
26888	11,681
26889	14,532
26890	14,653
26891	14,653
26892	14,532
26893	17,526
26894	17,575
26895	17,575
26896	17,526
26897	20,026
26898	19,939
26899	19,939
26900	20,026
26901	9,8738
26902	9,91
26903	9,5585
26904	9,0005
26905	8,4114
26906	7,8995
26907	7,5115
26908	7,2489
26909	7,0877
26910	6,9956
26911	6,942
26912	6,9024
26913	6,8593
26914	6,8018
26915	6,7239
26916	6,6237
26917	6,5016
26918	6,3598
26919	6,2009
26920	6,0284
26921	5,8454
26922	5,6553
26923	5,4611
26924	5,2653
26925	5,0705
26926	4,8788
26927	4,6921
26928	4,5124
26929	4,3412
26930	4,1804
26931	4,032
26932	3,8983
26933	3,7824
26934	3,6886
26935	3,6227
26936	3,5931
26937	3,6116
26938	3,6951
26939	3,8672
26940	4,1605
26941	4,6188
26942	5,2989
26943	6,2709
26944	7,6138
26945	9,4008
26946	11,666
26947	14,352
26948	17,181
26949	19,662
26950	7,2605
26951	7,3141
26952	7,6325
26953	8,1539
26954	8,7465
26955	9,2878
26956	9,7046
26957	9,9697
26958	10,087
26959	10,076
26960	9,9617
26961	9,7696
26962	9,5206
26963	9,2322
26964	8,9177
26965	8,5876
26966	8,2495
26967	7,9092
26968	7,571
26969	7,2381
26970	6,9129
26971	6,5971
26972	6,2922
26973	5,9991
26974	5,7188
26975	5,4517
26976	5,1984
26977	4,9594
26978	4,7351
26979	4,5261
26980	4,3332
26981	4,1575
26982	4,0007
26983	3,8652
26984	3,7547
26985	3,6748
26986	3,6335
26987	3,6424
26988	3,7184
26989	3,8856
26990	4,1776
26991	4,6408
26992	5,3371
26993	6,3436
26994	7,7499
26995	9,6333
26996	12,03
26997	14,84
26998	17,752
26999	20,136
27000	7,3275
27001	7,408
27002	7,7134
27003	8,1992
27004	8,7611
27005	9,2856
27006	9,6975
27007	9,9641
27008	10,085
27009	10,077
27010	9,9646
27011	9,7729
27012	9,5234
27013	9,2339
27014	8,9183
27015	8,5869
27016	8,2477
27017	7,9064
27018	7,5673
27019	7,2336
27020	6,9078
27021	6,5915
27022	6,2861
27023	5,9925
27024	5,7117
27025	5,4441
27026	5,1902
27027	4,9505
27028	4,7253
27029	4,5153
27030	4,3211
27031	4,1438
27032	3,9848
27033	3,8467
27034	3,7329
27035	3,6488
27036	3,6024
27037	3,6054
27038	3,6753
27039	3,8369
27040	4,1259
27041	4,5915
27042	5,2994
27043	6,3308
27044	7,7764
27045	9,7079
27046	12,145
27047	14,958
27048	17,793
27049	20,044
27050	7,3275
27051	7,408
27052	7,7134
27053	8,1992
27054	8,7611
27055	9,2856
27056	9,6975
27057	9,9641
27058	10,085
27059	10,077
27060	9,9646
27061	9,7729
27062	9,5234
27063	9,2339
27064	8,9183
27065	8,5869
27066	8,2477
27067	7,9064
27068	7,5673
27069	7,2336
27070	6,9078
27071	6,5915
27072	6,2861
27073	5,9925
27074	5,7117
27075	5,4441
27076	5,1902
27077	4,9505
27078	4,7253
27079	4,5153
27080	4,3211
27081	4,1438
27082	3,9848
27083	3,8467
27084	3,7329
27085	3,6488
27086	3,6024
27087	3,6054
27088	3,6753
27089	3,8369
27090	4,1259
27091	4,5915
27092	5,2994
27093	6,3308
27094	7,7764
27095	9,7079
27096	12,145
27097	14,958
27098	17,793
27099	20,044
27100	7,2605
27101	7,3141
27102	7,6325
27103	8,1539
27104	8,7465
27105	9,2878
27106	9,7046
27107	9,9697
27108	10,087
27109	10,076
27110	9,9617
27111	9,7696
27112	9,5206
27113	9,2322
27114	8,9177
27115	8,5876
27116	8,2495
27117	7,9092
27118	7,571
27119	7,2381
27120	6,9129
27121	6,5971
27122	6,2922
27123	5,9991
27124	5,7188
27125	5,4517
27126	5,1984
27127	4,9594
27128	4,7351
27129	4,5261
27130	4,3332
27131	4,1575
27132	4,0007
27133	3,8652
27134	3,7547
27135	3,6748
27136	3,6335
27137	3,6424
27138	3,7184
27139	3,8856
27140	4,1776
27141	4,6408
27142	5,3371
27143	6,3436
27144	7,7499
27145	9,6333
27146	12,03
27147	14,84
27148	17,752
27149	20,136
27150	7,2363
27151	7,2809
27152	7,6133
27153	8,1357
27154	8,7186
27155	9,247
27156	9,6541
27157	9,9155
27158	10,035
27159	10,03
27160	9,9241
27161	9,7407
27162	9,4999
27163	9,2185
27164	8,9099
27165	8,5845
27166	8,2501
27167	7,9127
27168	7,5767
27169	7,2456
27170	6,9218
27171	6,6072
27172	6,3032
27173	6,011
27174	5,7313
27175	5,4649
27176	5,2124
27177	4,9742
27178	4,751
27179	4,5433
27180	4,3521
27181	4,1786
27182	4,0249
27183	3,8935
27184	3,7887
27185	3,7163
27186	3,6851
27187	3,7074
27188	3,8007
27189	3,9893
27190	4,3065
27191	4,7961
27192	5,5142
27193	6,5277
27194	7,9109
27195	9,7249
27196	11,997
27197	14,643
27198	17,399
27199	19,777
27200	20,09
27201	17,569
27202	14,568
27203	11,714
27204	9,3204
27205	7,4646
27206	6,1001
27207	5,1359
27208	4,4773
27209	4,0442
27210	3,7744
27211	3,622
27212	3,5541
27213	3,5477
27214	3,5864
27215	3,6591
27216	3,7581
27217	3,8779
27218	4,0146
27219	4,1654
27220	4,3282
27221	4,5011
27222	4,6825
27223	4,8707
27224	5,0639
27225	5,2604
27226	5,4579
27227	5,654
27228	5,8459
27229	6,0308
27230	6,2053
27231	6,3659
27232	6,5092
27233	6,632
27234	6,732
27235	6,8084
27236	6,8626
27237	6,9004
27238	6,9328
27239	6,9783
27240	7,0639
27241	7,2244
27242	7,4975
27243	7,912
27244	8,4681
27245	9,1132
27246	9,7229
27247	10,099
27248	10,01
27249	20,
27250	17,617
27251	14,689
27252	11,826
27253	9,3886
27254	7,4838
27255	6,0815
27256	5,0949
27257	4,4271
27258	3,9935
27259	3,7279
27260	3,5817
27261	3,5202
27262	3,5195
27263	3,5632
27264	3,64
27265	3,7422
27266	3,8645
27267	4,0033
27268	4,1558
27269	4,32
27270	4,494
27271	4,6764
27272	4,8655
27273	5,0596
27274	5,2568
27275	5,455
27276	5,6518
27277	5,8444
27278	6,0298
27279	6,2048
27280	6,3657
27281	6,5091
27282	6,6318
27283	6,7314
27284	6,8071
27285	6,8606
27286	6,898
27287	6,9314
27288	6,9803
27289	7,0732
27290	7,246
27291	7,5358
27292	7,9681
27293	8,5367
27294	9,181
27295	9,7691
27296	10,097
27297	9,9523
27298	20,
27299	17,617
27300	14,689
27301	11,826
27302	9,3886
27303	7,4838
27304	6,0815
27305	5,0949
27306	4,4271
27307	3,9935
27308	3,7279
27309	3,5817
27310	3,5202
27311	3,5195
27312	3,5632
27313	3,64
27314	3,7422
27315	3,8645
27316	4,0033
27317	4,1558
27318	4,32
27319	4,494
27320	4,6764
27321	4,8655
27322	5,0596
27323	5,2568
27324	5,455
27325	5,6518
27326	5,8444
27327	6,0298
27328	6,2048
27329	6,3657
27330	6,5091
27331	6,6318
27332	6,7314
27333	6,8071
27334	6,8606
27335	6,898
27336	6,9314
27337	6,9803
27338	7,0732
27339	7,246
27340	7,5358
27341	7,9681
27342	8,5367
27343	9,181
27344	9,7691
27345	10,097
27346	9,9523
27347	20,09
27348	17,569
27349	14,568
27350	11,714
27351	9,3204
27352	7,4646
27353	6,1001
27354	5,1359
27355	4,4773
27356	4,0442
27357	3,7744
27358	3,622
27359	3,5541
27360	3,5477
27361	3,5864
27362	3,6591
27363	3,7581
27364	3,8779
27365	4,0146
27366	4,1654
27367	4,3282
27368	4,5011
27369	4,6825
27370	4,8707
27371	5,0639
27372	5,2604
27373	5,4579
27374	5,654
27375	5,8459
27376	6,0308
27377	6,2053
27378	6,3659
27379	6,5092
27380	6,632
27381	6,732
27382	6,8084
27383	6,8626
27384	6,9004
27385	6,9328
27386	6,9783
27387	7,0639
27388	7,2244
27389	7,4975
27390	7,912
27391	8,4681
27392	9,1132
27393	9,7229
27394	10,099
27395	10,01
27396	19,728
27397	17,224
27398	14,386
27399	11,698
27400	9,4244
27401	7,6315
27402	6,2834
27403	5,3075
27404	4,6245
27405	4,1642
27406	3,8694
27407	3,6963
27408	3,6121
27409	3,5931
27410	3,6223
27411	3,688
27412	3,7817
27413	3,8974
27414	4,031
27415	4,1794
27416	4,3402
27417	4,5113
27418	4,691
27419	4,8777
27420	5,0694
27421	5,2642
27422	5,46
27423	5,6544
27424	5,8445
27425	6,0275
27426	6,2001
27427	6,3591
27428	6,501
27429	6,6232
27430	6,7234
27431	6,8014
27432	6,859
27433	6,9022
27434	6,9418
27435	6,9954
27436	7,0876
27437	7,2489
27438	7,5116
27439	7,8996
27440	8,4115
27441	9,0006
27442	9,5589
27443	9,911
27444	9,8735
27445	12,79
27446	12,978
27447	12,653
27448	12,623
27449	13,029
27450	12,862
27451	12,767
27452	12,931
27453	12,609
27454	12,579
27455	12,982
27456	12,79
27457	12,931
27458	12,609
27459	12,579
27460	12,982
27461	12,978
27462	12,653
27463	12,623
27464	13,029
27465	12,862
27466	13,119
27467	13,373
27468	13,075
27469	13,196
27470	13,095
27471	13,324
27472	13,028
27473	13,119
27474	13,324
27475	13,028
27476	13,373
27477	13,075
27478	13,196
27479	2,9636
27480	3,8853
27481	3,5798
27482	3,7496
27483	2,7472
27484	1,7933
27485	2,9701
27486	3,9309
27487	3,5959
27488	3,7568
27489	1,8376
27490	2,9636
27491	3,9309
27492	3,5959
27493	3,7568
27494	1,8376
27495	3,8853
27496	3,5798
27497	3,7496
27498	2,7472
27499	1,7933
27500	14,692
27501	14,707
27502	14,552
27503	14,667
27504	14,707
27505	14,772
27506	14,683
27507	14,7
27508	14,521
27509	14,645
27510	14,689
27511	14,692
27512	14,7
27513	14,521
27514	14,645
27515	14,689
27516	14,707
27517	14,552
27518	14,667
27519	14,707
27520	14,772
27521	17,439
27522	16,912
27523	16,971
27524	18,305
27525	17,506
27526	17,578
27527	17,394
27528	16,866
27529	16,904
27530	18,19
27531	17,414
27532	17,439
27533	16,866
27534	16,904
27535	18,19
27536	17,414
27537	16,912
27538	16,971
27539	18,305
27540	17,506
27541	17,578
27542	6,9611
27543	6,9721
27544	6,9218
27545	6,9447
27546	7,0079
27547	6,9613
27548	6,9611
27549	6,9721
27550	6,9219
27551	6,9446
27552	7,0077
27553	6,9611
27554	6,9721
27555	6,9219
27556	6,9446
27557	7,0077
27558	6,9721
27559	6,9218
27560	6,9447
27561	7,0079
27562	6,9613
27563	6,9859
27564	7,0308
27565	6,9649
27566	6,9858
27567	6,9859
27568	7,0306
27569	6,9649
27570	6,9859
27571	7,0306
27572	6,9649
27573	7,0308
27574	6,9649
27575	6,9858
27576	6,8308
27577	6,8284
27578	6,8327
27579	6,8384
27580	6,8428
27581	6,8309
27582	6,8308
27583	6,8284
27584	6,8326
27585	6,8384
27586	6,8426
27587	6,8308
27588	6,8284
27589	6,8326
27590	6,8384
27591	6,8426
27592	6,8284
27593	6,8327
27594	6,8384
27595	6,8428
27596	6,8309
27597	6,8323
27598	6,8557
27599	6,8291
27600	6,8324
27601	6,8323
27602	6,8557
27603	6,8291
27604	6,8323
27605	6,8557
27606	6,8291
27607	6,8557
27608	6,8291
27609	6,8324
27610	10,271
27611	10,193
27612	10,435
27613	10,086
27614	10,371
27615	10,288
27616	10,266
27617	10,182
27618	10,424
27619	10,076
27620	10,36
27621	10,271
27622	10,182
27623	10,424
27624	10,076
27625	10,36
27626	10,193
27627	10,435
27628	10,086
27629	10,371
27630	10,288
27631	10,106
27632	9,9487
27633	10,184
27634	10,121
27635	10,101
27636	9,9386
27637	10,174
27638	10,106
27639	9,9386
27640	10,174
27641	9,9487
27642	10,184
27643	10,121
27644	8,2376
27645	8,1524
27646	8,0769
27647	8,356
27648	8,3449
27649	8,2462
27650	8,2347
27651	8,147
27652	8,0717
27653	8,3499
27654	8,3389
27655	8,2376
27656	8,147
27657	8,0717
27658	8,3499
27659	8,3389
27660	8,1524
27661	8,0769
27662	8,356
27663	8,3449
27664	8,2462
27665	8,0656
27666	7,9494
27667	8,1092
27668	8,0731
27669	8,063
27670	7,9446
27671	8,1039
27672	8,0656
27673	7,9446
27674	8,1039
27675	7,9494
27676	8,1092
27677	8,0731
27678	16,005
27679	16,117
27680	16,604
27681	15,727
27682	15,098
27683	16,589
27684	15,849
27685	15,882
27686	16,222
27687	15,42
27688	14,835
27689	16,005
27690	15,882
27691	16,222
27692	15,42
27693	14,835
27694	16,117
27695	16,604
27696	15,727
27697	15,098
27698	16,589
27699	19,498
27700	17,821
27701	19,793
27702	18,599
27703	22,346
27704	19,182
27705	19,597
27706	17,974
27707	19,976
27708	18,788
27709	22,528
27710	19,498
27711	17,974
27712	19,976
27713	18,788
27714	22,528
27715	17,821
27716	19,793
27717	18,599
27718	22,346
27719	19,182
27720	8,417
27721	8,4304
27722	8,41
27723	8,4155
27724	8,4254
27725	8,4142
27726	8,4247
27727	8,4044
27728	8,4099
27729	8,417
27730	8,4247
27731	8,4044
27732	8,4099
27733	8,4304
27734	8,41
27735	8,4155
27736	8,4254
27737	9,1142
27738	9,0632
27739	9,0908
27740	9,2114
27741	9,1286
27742	9,1095
27743	9,0541
27744	9,0816
27745	9,2014
27746	9,1142
27747	9,0541
27748	9,0816
27749	9,2014
27750	9,0632
27751	9,0908
27752	9,2114
27753	9,1286
27754	7,299
27755	7,3592
27756	7,2915
27757	7,2399
27758	7,3008
27759	7,2984
27760	7,3577
27761	7,2902
27762	7,2389
27763	7,299
27764	7,3577
27765	7,2902
27766	7,2389
27767	7,3592
27768	7,2915
27769	7,2399
27770	7,3008
27771	10,049
27772	9,9245
27773	10,089
27774	10,176
27775	10,075
27776	10,041
27777	9,9083
27778	10,072
27779	10,158
27780	10,049
27781	9,9083
27782	10,072
27783	10,158
27784	9,9245
27785	10,089
27786	10,176
27787	10,075
27788	26,004
27789	25,019
27790	24,317
27791	28,31
27792	25,655
27793	26,123
27794	25,196
27795	24,592
27796	28,57
27797	26,004
27798	25,196
27799	24,592
27800	28,57
27801	25,019
27802	24,317
27803	28,31
27804	25,655
27805	8,0229
27806	7,8896
27807	8,1032
27808	8,0882
27809	8,0308
27810	8,0202
27811	7,8848
27812	8,0976
27813	8,0826
27814	8,0229
27815	7,8848
27816	8,0976
27817	8,0826
27818	7,8896
27819	8,1032
27820	8,0882
27821	8,0308
27822	8,4429
27823	8,4225
27824	8,4598
27825	8,4504
27826	8,4516
27827	8,44
27828	8,4168
27829	8,454
27830	8,4446
27831	8,4429
27832	8,4168
27833	8,454
27834	8,4446
27835	8,4225
27836	8,4598
27837	8,4504
27838	8,4516
27839	11,51
27840	11,51
27841	11,174
27842	11,556
27843	11,825
27844	11,558
27845	11,494
27846	11,479
27847	11,146
27848	11,523
27849	11,79
27850	11,51
27851	11,479
27852	11,146
27853	11,523
27854	11,79
27855	11,51
27856	11,174
27857	11,556
27858	11,825
27859	11,558
27860	12,701
27861	12,66
27862	12,609
27863	12,996
27864	12,491
27865	12,771
27866	12,679
27867	12,616
27868	12,565
27869	12,948
27870	12,449
27871	12,701
27872	12,616
27873	12,565
27874	12,948
27875	12,449
27876	12,66
27877	12,609
27878	12,996
27879	12,491
27880	12,771
27881	8,6027
27882	8,5569
27883	8,578
27884	8,6347
27885	8,6474
27886	8,6125
27887	8,5994
27888	8,5506
27889	8,5716
27890	8,628
27891	8,6406
27892	8,6027
27893	8,5506
27894	8,5716
27895	8,628
27896	8,6406
27897	8,5569
27898	8,578
27899	8,6347
27900	8,6474
27901	8,6125
27902	11,512
27903	11,478
27904	11,44
27905	11,635
27906	11,558
27907	11,497
27908	11,448
27909	11,411
27910	11,604
27911	11,512
27912	11,448
27913	11,411
27914	11,604
27915	11,478
27916	11,44
27917	11,635
27918	11,558
27919	24,687
27920	25,373
27921	25,081
27922	25,142
27923	24,204
27924	23,649
27925	23,886
27926	24,613
27927	24,087
27928	23,324
27929	22,077
27930	24,687
27931	24,613
27932	24,087
27933	23,324
27934	22,077
27935	25,373
27936	25,081
27937	25,142
27938	24,204
27939	23,649
27940	13,197
27941	13,043
27942	13,09
27943	13,425
27944	13,255
27945	13,181
27946	13,007
27947	13,058
27948	13,394
27949	13,197
27950	13,007
27951	13,058
27952	13,394
27953	13,043
27954	13,09
27955	13,425
27956	13,255
27957	5,6316
27958	5,466
27959	5,6149
27960	5,7702
27961	5,6443
27962	5,6463
27963	5,5056
27964	5,6504
27965	5,7797
27966	5,6316
27967	5,5056
27968	5,6504
27969	5,7797
27970	5,466
27971	5,6149
27972	5,7702
27973	5,6443
27974	17,126
27975	17,438
27976	16,756
27977	17,373
27978	17,613
27979	17,001
27980	17,162
27981	16,485
27982	17,186
27983	17,126
27984	17,162
27985	16,485
27986	17,186
27987	17,438
27988	16,756
27989	17,373
27990	17,613
27991	8,4307
27992	8,4163
27993	8,4209
27994	8,4372
27995	8,4493
27996	8,4443
27997	8,4392
27998	8,4279
27999	8,4107
28000	8,4153
28001	8,4316
28002	8,4435
28003	8,4386
28004	8,4307
28005	8,4107
28006	8,4153
28007	8,4316
28008	8,4435
28009	8,4386
28010	8,4163
28011	8,4209
28012	8,4372
28013	8,4493
28014	8,4443
28015	8,4392
28016	8,3965
28017	8,3712
28018	8,3947
28019	8,4048
28020	8,3938
28021	8,3658
28022	8,3892
28023	8,3965
28024	8,3658
28025	8,3892
28026	8,3712
28027	8,3947
28028	8,4048
28029	8,4442
28030	8,444
28031	8,456
28032	8,4236
28033	8,4494
28034	8,4529
28035	8,4414
28036	8,4383
28037	8,4502
28038	8,418
28039	8,4437
28040	8,4442
28041	8,4383
28042	8,4502
28043	8,418
28044	8,4437
28045	8,444
28046	8,456
28047	8,4236
28048	8,4494
28049	8,4529
28050	8,4055
28051	8,3757
28052	8,4366
28053	8,4028
28054	8,414
28055	8,4028
28056	8,3703
28057	8,4309
28058	8,3973
28059	8,4055
28060	8,3703
28061	8,4309
28062	8,3973
28063	8,3757
28064	8,4366
28065	8,4028
28066	8,414
28067	8,4381
28068	8,4445
28069	8,4466
28070	8,4353
28071	8,4388
28072	8,4381
28073	8,4388
28074	8,4445
28075	8,4466
28076	8,3409
28077	8,314
28078	8,3125
28079	8,3488
28080	8,3382
28081	8,3088
28082	8,3074
28083	8,3409
28084	8,3088
28085	8,3074
28086	8,314
28087	8,3125
28088	8,3488
28089	8,4621
28090	8,4749
28091	8,4874
28092	8,4708
28093	8,4592
28094	8,469
28095	8,4814
28096	8,4621
28097	8,469
28098	8,4814
28099	8,4749
28100	8,4874
28101	8,4708
28102	8,3974
28103	8,3699
28104	8,3822
28105	8,4058
28106	8,3947
28107	8,3645
28108	8,3767
28109	8,3974
28110	8,3645
28111	8,3767
28112	8,3699
28113	8,3822
28114	8,4058
28115	8,3949
28116	8,4411
28117	8,341
28118	8,3935
28119	8,4032
28120	8,3922
28121	8,4354
28122	8,3357
28123	8,3879
28124	8,3949
28125	8,4354
28126	8,3357
28127	8,3879
28128	8,4411
28129	8,341
28130	8,3935
28131	8,4032
28132	8,482
28133	8,4963
28134	8,5177
28135	8,491
28136	8,479
28137	8,4903
28138	8,5116
28139	8,482
28140	8,4903
28141	8,5116
28142	8,4963
28143	8,5177
28144	8,491
28145	7,9907
28146	8,0732
28147	7,9569
28148	7,9559
28149	7,9965
28150	7,9888
28151	8,069
28152	7,9532
28153	7,9521
28154	7,9907
28155	8,069
28156	7,9532
28157	7,9521
28158	8,0732
28159	7,9569
28160	7,9559
28161	7,9965
28162	8,471
28163	8,5015
28164	8,4884
28165	8,4321
28166	8,4799
28167	8,4681
28168	8,4955
28169	8,4824
28170	8,4264
28171	8,471
28172	8,4955
28173	8,4824
28174	8,4264
28175	8,5015
28176	8,4884
28177	8,4321
28178	8,4799
28179	8,4453
28180	8,4296
28181	8,4612
28182	8,4516
28183	8,4539
28184	8,4424
28185	8,424
28186	8,4554
28187	8,4458
28188	8,4453
28189	8,424
28190	8,4554
28191	8,4458
28192	8,4296
28193	8,4612
28194	8,4516
28195	8,4539
28196	8,4084
28197	8,3754
28198	8,4091
28199	8,4168
28200	8,4056
28201	8,3699
28202	8,4035
28203	8,4084
28204	8,3699
28205	8,4035
28206	8,3754
28207	8,4091
28208	8,4168
28209	8,2447
28210	8,2931
28211	8,3054
28212	8,2194
28213	8,1514
28214	8,2196
28215	8,2521
28216	8,2422
28217	8,2879
28218	8,3002
28219	8,2146
28220	8,1469
28221	8,2148
28222	8,2447
28223	8,2879
28224	8,3002
28225	8,2146
28226	8,1469
28227	8,2148
28228	8,2931
28229	8,3054
28230	8,2194
28231	8,1514
28232	8,2196
28233	8,2521
28234	8,3372
28235	8,3243
28236	8,3452
28237	8,3345
28238	8,3191
28239	8,3372
28240	8,3191
28241	8,3243
28242	8,3452
28243	8,1536
28244	8,2197
28245	8,2183
28246	8,1276
28247	8,1267
28248	8,1604
28249	8,1513
28250	8,2149
28251	8,2135
28252	8,1232
28253	8,1223
28254	8,1536
28255	8,2149
28256	8,2135
28257	8,1232
28258	8,1223
28259	8,2197
28260	8,2183
28261	8,1276
28262	8,1267
28263	8,1604
28264	8,2826
28265	8,2686
28266	8,2903
28267	8,2801
28268	8,2635
28269	8,2826
28270	8,2635
28271	8,2686
28272	8,2903
28273	8,2798
28274	8,2683
28275	8,3361
28276	8,2874
28277	8,2773
28278	8,2633
28279	8,3308
28280	8,2798
28281	8,2633
28282	8,3308
28283	8,2683
28284	8,3361
28285	8,2874
28286	8,5053
28287	8,4488
28288	8,5311
28289	8,5145
28290	8,5023
28291	8,443
28292	8,5249
28293	8,5053
28294	8,443
28295	8,5249
28296	8,4488
28297	8,5311
28298	8,5145
28299	8,3873
28300	8,3211
28301	8,3973
28302	8,3956
28303	8,3845
28304	8,3158
28305	8,3917
28306	8,3873
28307	8,3158
28308	8,3917
28309	8,3211
28310	8,3973
28311	8,3956
28312	7,9211
28313	8,011
28314	7,8344
28315	7,8856
28316	7,9265
28317	7,9192
28318	8,0071
28319	7,8311
28320	7,8821
28321	7,9211
28322	8,0071
28323	7,8311
28324	7,8821
28325	8,011
28326	7,8344
28327	7,8856
28328	7,9265
28329	8,5262
28330	8,4675
28331	8,5609
28332	8,5505
28333	8,5355
28334	8,5232
28335	8,4616
28336	8,5546
28337	8,5443
28338	8,5262
28339	8,4616
28340	8,5546
28341	8,5443
28342	8,4675
28343	8,5609
28344	8,5505
28345	8,5355
28346	8,4041
28347	8,3306
28348	8,4208
28349	8,3984
28350	8,4126
28351	8,4013
28352	8,3253
28353	8,4151
28354	8,3929
28355	8,4041
28356	8,3253
28357	8,4151
28358	8,3929
28359	8,3306
28360	8,4208
28361	8,3984
28362	8,4126
28363	8,6879
28364	8,6407
28365	8,6483
28366	8,7517
28367	8,632
28368	8,7336
28369	8,6984
28370	8,6844
28371	8,634
28372	8,6416
28373	8,7444
28374	8,6253
28375	8,7264
28376	8,6879
28377	8,634
28378	8,6416
28379	8,7444
28380	8,6253
28381	8,7264
28382	8,6407
28383	8,6483
28384	8,7517
28385	8,632
28386	8,7336
28387	8,6984
28388	8,5002
28389	8,4886
28390	8,4791
28391	8,538
28392	8,5093
28393	8,4972
28394	8,4827
28395	8,4732
28396	8,5318
28397	8,5002
28398	8,4827
28399	8,4732
28400	8,5318
28401	8,4886
28402	8,4791
28403	8,538
28404	8,5093
28405	8,3618
28406	8,408
28407	8,3515
28408	8,3699
28409	8,3591
28410	8,4024
28411	8,3461
28412	8,3618
28413	8,4024
28414	8,3461
28415	8,408
28416	8,3515
28417	8,3699
28418	8,4714
28419	8,4407
28420	8,5031
28421	8,4802
28422	8,4684
28423	8,4349
28424	8,497
28425	8,4714
28426	8,4349
28427	8,497
28428	8,4407
28429	8,5031
28430	8,4802
28431	8,4491
28432	8,4808
28433	8,4554
28434	8,4577
28435	8,4462
28436	8,4749
28437	8,4496
28438	8,4491
28439	8,4749
28440	8,4496
28441	8,4808
28442	8,4554
28443	8,4577
28444	8,4046
28445	8,3581
28446	8,4157
28447	8,413
28448	8,4018
28449	8,3527
28450	8,41
28451	8,4046
28452	8,3527
28453	8,41
28454	8,3581
28455	8,4157
28456	8,413
28457	8,5069
28458	8,5301
28459	8,5312
28460	8,516
28461	8,5039
28462	8,524
28463	8,5251
28464	8,5069
28465	8,524
28466	8,5251
28467	8,5301
28468	8,5312
28469	8,516
28470	8,5476
28471	8,5898
28472	8,557
28473	8,5445
28474	8,5834
28475	8,5476
28476	8,5834
28477	8,5898
28478	8,557
28479	8,6261
28480	8,6464
28481	8,5909
28482	8,6753
28483	8,6361
28484	8,6228
28485	8,6396
28486	8,5844
28487	8,6684
28488	8,6261
28489	8,6396
28490	8,5844
28491	8,6684
28492	8,6464
28493	8,5909
28494	8,6753
28495	8,6361
28496	8,6603
28497	8,715
28498	8,6708
28499	8,6569
28500	8,7079
28501	8,6603
28502	8,7079
28503	8,715
28504	8,6708
28505	8,1907
28506	8,2507
28507	8,1248
28508	8,1653
28509	8,1978
28510	8,1883
28511	8,2458
28512	8,1203
28513	8,1607
28514	8,1907
28515	8,2458
28516	8,1203
28517	8,1607
28518	8,2507
28519	8,1248
28520	8,1653
28521	8,1978
28522	8,3067
28523	8,2993
28524	8,3145
28525	8,3042
28526	8,2942
28527	8,3067
28528	8,2942
28529	8,2993
28530	8,3145
28531	8,0562
28532	8,0437
28533	7,972
28534	8,01
28535	8,0625
28536	8,0541
28537	8,0396
28538	7,9681
28539	8,006
28540	8,0562
28541	8,0396
28542	7,9681
28543	8,006
28544	8,0437
28545	7,972
28546	8,01
28547	8,0625
28548	8,0999
28549	8,1768
28550	8,0776
28551	8,1064
28552	8,0977
28553	8,1722
28554	8,0734
28555	8,0999
28556	8,1722
28557	8,0734
28558	8,1768
28559	8,0776
28560	8,1064
28561	8,2507
28562	8,2479
28563	8,2581
28564	8,2482
28565	8,2429
28566	8,2507
28567	8,2429
28568	8,2479
28569	8,2581
28570	7,9191
28571	7,8335
28572	8,0091
28573	7,8837
28574	7,9246
28575	7,9173
28576	7,8302
28577	8,0052
28578	7,8802
28579	7,9191
28580	7,8302
28581	8,0052
28582	7,8802
28583	7,8335
28584	8,0091
28585	7,8837
28586	7,9246
28587	7,7488
28588	7,694
28589	7,6903
28590	7,7531
28591	7,7474
28592	7,6914
28593	7,6876
28594	7,7488
28595	7,6914
28596	7,6876
28597	7,694
28598	7,6903
28599	7,7531
28600	8,2531
28601	8,1771
28602	8,2544
28603	8,2606
28604	8,2506
28605	8,1724
28606	8,2494
28607	8,2531
28608	8,1724
28609	8,2494
28610	8,1771
28611	8,2544
28612	8,2606
28613	8,0981
28614	8,0771
28615	8,1046
28616	8,0959
28617	8,0729
28618	8,0981
28619	8,0729
28620	8,0771
28621	8,1046
28622	8,0288
28623	7,9588
28624	8,0051
28625	8,1113
28626	8,0349
28627	8,0268
28628	7,955
28629	8,0011
28630	8,1068
28631	8,0288
28632	7,955
28633	8,0011
28634	8,1068
28635	7,9588
28636	8,0051
28637	8,1113
28638	8,0349
28639	7,8869
28640	7,8318
28641	7,8423
28642	7,8923
28643	7,8851
28644	7,8285
28645	7,8389
28646	7,8869
28647	7,8285
28648	7,8389
28649	7,8318
28650	7,8423
28651	7,8923
28652	8,3366
28653	8,3357
28654	8,2658
28655	8,3989
28656	8,3446
28657	8,3339
28658	8,3303
28659	8,2607
28660	8,3933
28661	8,3366
28662	8,3303
28663	8,2607
28664	8,3933
28665	8,3357
28666	8,2658
28667	8,3989
28668	8,3446
28669	8,5499
28670	8,5822
28671	8,5059
28672	8,5594
28673	8,5468
28674	8,5758
28675	8,4998
28676	8,5499
28677	8,5758
28678	8,4998
28679	8,5822
28680	8,5059
28681	8,5594
28682	8,529
28683	8,4779
28684	8,5702
28685	8,552
28686	8,5383
28687	8,5259
28688	8,4719
28689	8,5638
28690	8,5457
28691	8,529
28692	8,4719
28693	8,5638
28694	8,5457
28695	8,4779
28696	8,5702
28697	8,552
28698	8,5383
28699	8,5516
28700	8,4797
28701	8,5884
28702	8,6215
28703	8,5612
28704	8,5484
28705	8,4737
28706	8,5818
28707	8,6148
28708	8,5516
28709	8,4737
28710	8,5818
28711	8,6148
28712	8,4797
28713	8,5884
28714	8,6215
28715	8,5612
28716	8,4217
28717	8,3569
28718	8,4368
28719	8,4303
28720	8,4188
28721	8,3515
28722	8,431
28723	8,4217
28724	8,3515
28725	8,431
28726	8,3569
28727	8,4368
28728	8,4303
28729	7,4213
28730	7,4953
28731	7,3772
28732	7,4621
28733	7,424
28734	7,4204
28735	7,4932
28736	7,3756
28737	7,4602
28738	7,4213
28739	7,4932
28740	7,3756
28741	7,4602
28742	7,4953
28743	7,3772
28744	7,4621
28745	7,424
28746	8,4031
28747	8,3245
28748	8,4251
28749	8,4117
28750	8,4003
28751	8,3191
28752	8,4193
28753	8,4031
28754	8,3191
28755	8,4193
28756	8,3245
28757	8,4251
28758	8,4117
28759	8,5898
28760	8,5133
28761	8,6177
28762	8,5997
28763	8,5865
28764	8,5072
28765	8,611
28766	8,5898
28767	8,5072
28768	8,611
28769	8,5133
28770	8,6177
28771	8,5997
28772	8,4328
28773	8,3443
28774	8,4487
28775	8,4416
28776	8,4299
28777	8,3389
28778	8,4427
28779	8,4328
28780	8,3389
28781	8,4427
28782	8,3443
28783	8,4487
28784	8,4416
28785	9,0041
28786	8,9403
28787	9,1047
28788	8,9522
28789	9,0173
28790	8,9997
28791	8,9319
28792	9,0952
28793	8,9437
28794	9,0041
28795	8,9319
28796	9,0952
28797	8,9437
28798	8,9403
28799	9,1047
28800	8,9522
28801	9,0173
28802	8,718
28803	8,7431
28804	8,6662
28805	8,7757
28806	8,7289
28807	8,7145
28808	8,7358
28809	8,6593
28810	8,7682
28811	8,718
28812	8,7358
28813	8,6593
28814	8,7682
28815	8,7431
28816	8,6662
28817	8,7757
28818	8,7289
28819	8,7629
28820	8,8417
28821	8,7272
28822	8,7739
28823	8,7592
28824	8,8339
28825	8,72
28826	8,7629
28827	8,8339
28828	8,72
28829	8,8417
28830	8,7272
28831	8,7739
28832	8,1364
28833	8,2138
28834	8,1187
28835	8,0502
28836	8,1433
28837	8,1342
28838	8,2089
28839	8,1143
28840	8,0461
28841	8,1364
28842	8,2089
28843	8,1143
28844	8,0461
28845	8,2138
28846	8,1187
28847	8,0502
28848	8,1433
28849	8,2877
28850	8,2843
28851	8,2955
28852	8,2851
28853	8,2791
28854	8,2877
28855	8,2791
28856	8,2843
28857	8,2955
28858	7,7762
28859	7,6725
28860	7,7163
28861	7,7391
28862	7,8691
28863	7,7808
28864	7,7746
28865	7,6697
28866	7,7135
28867	7,7362
28868	7,8656
28869	7,7762
28870	7,6697
28871	7,7135
28872	7,7362
28873	7,8656
28874	7,6725
28875	7,7163
28876	7,7391
28877	7,8691
28878	7,7808
28879	8,0539
28880	8,149
28881	7,9519
28882	8,045
28883	8,0602
28884	8,0518
28885	8,1444
28886	7,9481
28887	8,0408
28888	8,0539
28889	8,1444
28890	7,9481
28891	8,0408
28892	8,149
28893	7,9519
28894	8,045
28895	8,0602
28896	8,2421
28897	8,2468
28898	8,2496
28899	8,2396
28900	8,2417
28901	8,2421
28902	8,2417
28903	8,2468
28904	8,2496
28905	7,6413
28906	7,7442
28907	7,5365
28908	7,6118
28909	7,6451
28910	7,6401
28911	7,7413
28912	7,5344
28913	7,6094
28914	7,6413
28915	7,7413
28916	7,5344
28917	7,6094
28918	7,7442
28919	7,5365
28920	7,6118
28921	7,6451
28922	7,8498
28923	7,8293
28924	7,8548
28925	7,8481
28926	7,8259
28927	7,8498
28928	7,8259
28929	7,8293
28930	7,8548
28931	7,2345
28932	7,3321
28933	7,1543
28934	7,2206
28935	7,2155
28936	7,236
28937	7,234
28938	7,3308
28939	7,1536
28940	7,2197
28941	7,2146
28942	7,2345
28943	7,3308
28944	7,1536
28945	7,2197
28946	7,2146
28947	7,3321
28948	7,1543
28949	7,2206
28950	7,2155
28951	7,236
28952	7,4388
28953	7,533
28954	7,4086
28955	7,4058
28956	7,4413
28957	7,4379
28958	7,5309
28959	7,407
28960	7,4043
28961	7,4388
28962	7,5309
28963	7,407
28964	7,4043
28965	7,533
28966	7,4086
28967	7,4058
28968	7,4413
28969	7,848
28970	7,7397
28971	7,9513
28972	7,8273
28973	7,853
28974	7,8463
28975	7,7368
28976	7,9476
28977	7,824
28978	7,848
28979	7,7368
28980	7,9476
28981	7,824
28982	7,7397
28983	7,9513
28984	7,8273
28985	7,853
28986	7,6342
28987	7,6074
28988	7,638
28989	7,633
28990	7,605
28991	7,6342
28992	7,605
28993	7,6074
28994	7,638
28995	8,2525
28996	8,1545
28997	8,2543
28998	8,2601
28999	8,25
29000	8,1499
29001	8,2492
29002	8,2525
29003	8,1499
29004	8,2492
29005	8,1545
29006	8,2543
29007	8,2601
29008	8,0547
29009	8,0457
29010	8,061
29011	8,0526
29012	8,0415
29013	8,0547
29014	8,0415
29015	8,0457
29016	8,061
29017	7,9798
29018	7,889
29019	8,0714
29020	7,9586
29021	7,9858
29022	7,9779
29023	7,8854
29024	8,067
29025	7,9547
29026	7,9798
29027	7,8854
29028	8,067
29029	7,9547
29030	7,889
29031	8,0714
29032	7,9586
29033	7,9858
29034	7,7976
29035	7,7289
29036	7,7574
29037	7,8024
29038	7,796
29039	7,726
29040	7,7543
29041	7,7976
29042	7,726
29043	7,7543
29044	7,7289
29045	7,7574
29046	7,8024
29047	8,3308
29048	8,2475
29049	8,4079
29050	8,3396
29051	8,3389
29052	8,3281
29053	8,2425
29054	8,4022
29055	8,3341
29056	8,3308
29057	8,2425
29058	8,4022
29059	8,3341
29060	8,2475
29061	8,4079
29062	8,3396
29063	8,3389
29064	8,1609
29065	8,1549
29066	8,1774
29067	8,168
29068	8,1586
29069	8,1502
29070	8,1727
29071	8,1609
29072	8,1502
29073	8,1727
29074	8,1549
29075	8,1774
29076	8,168
29077	8,6089
29078	8,5473
29079	8,6512
29080	8,6189
29081	8,6056
29082	8,541
29083	8,6443
29084	8,6089
29085	8,541
29086	8,6443
29087	8,5473
29088	8,6512
29089	8,6188
29090	8,4806
29091	8,5047
29092	8,471
29093	8,4897
29094	8,4776
29095	8,4985
29096	8,465
29097	8,4806
29098	8,4985
29099	8,465
29100	8,5047
29101	8,471
29102	8,4897
29103	8,7891
29104	8,853
29105	8,8399
29106	8,707
29107	8,7407
29108	8,8006
29109	8,7853
29110	8,8451
29111	8,832
29112	8,6998
29113	8,7334
29114	8,7891
29115	8,8451
29116	8,832
29117	8,6998
29118	8,7334
29119	8,853
29120	8,8399
29121	8,707
29122	8,7407
29123	8,8006
29124	8,9133
29125	8,8713
29126	8,9924
29127	8,9785
29128	8,9257
29129	8,9092
29130	8,8634
29131	8,9837
29132	8,9699
29133	8,9133
29134	8,8634
29135	8,9837
29136	8,9699
29137	8,8713
29138	8,9924
29139	8,9785
29140	8,9257
29141	8,6406
29142	8,5523
29143	8,6754
29144	8,7102
29145	8,6509
29146	8,6372
29147	8,5459
29148	8,6683
29149	8,7031
29150	8,6406
29151	8,5459
29152	8,6683
29153	8,7031
29154	8,5523
29155	8,6754
29156	8,7102
29157	8,6509
29158	8,6055
29159	8,5284
29160	8,6195
29161	8,6665
29162	8,6154
29163	8,6022
29164	8,5222
29165	8,6127
29166	8,6596
29167	8,6055
29168	8,5222
29169	8,6127
29170	8,6596
29171	8,5284
29172	8,6195
29173	8,6665
29174	8,6154
29175	8,4472
29176	8,364
29177	8,4599
29178	8,4561
29179	8,4442
29180	8,3585
29181	8,4539
29182	8,4472
29183	8,3585
29184	8,4539
29185	8,364
29186	8,4599
29187	8,4561
29188	8,6297
29189	8,6759
29190	8,6786
29191	8,5515
29192	8,64
29193	8,6263
29194	8,6688
29195	8,6715
29196	8,545
29197	8,6297
29198	8,6688
29199	8,6715
29200	8,545
29201	8,6759
29202	8,6786
29203	8,5515
29204	8,64
29205	8,4605
29206	8,3584
29207	8,4846
29208	8,4696
29209	8,4575
29210	8,3528
29211	8,4784
29212	8,4605
29213	8,3528
29214	8,4784
29215	8,3584
29216	8,4846
29217	8,4696
29218	8,7062
29219	8,7908
29220	8,7592
29221	8,6076
29222	8,7172
29223	8,7025
29224	8,7831
29225	8,7515
29226	8,6007
29227	8,7062
29228	8,7831
29229	8,7515
29230	8,6007
29231	8,7908
29232	8,7592
29233	8,6076
29234	8,7172
29235	8,8701
29236	8,9486
29237	8,8247
29238	8,8823
29239	8,8661
29240	8,94
29241	8,8169
29242	8,8701
29243	8,94
29244	8,8169
29245	8,9486
29246	8,8247
29247	8,8823
29248	7,0832
29249	7,0662
29250	7,0713
29251	7,0839
29252	7,0829
29253	7,0659
29254	7,0709
29255	7,0832
29256	7,0659
29257	7,0709
29258	7,0662
29259	7,0713
29260	7,0839
29261	8,8265
29262	8,7595
29263	8,8869
29264	8,8382
29265	8,8226
29266	8,7521
29267	8,8788
29268	8,8265
29269	8,7521
29270	8,8788
29271	8,7595
29272	8,8869
29273	8,8382
29274	9,1984
29275	9,2525
29276	9,1132
29277	9,3526
29278	9,2135
29279	9,1934
29280	9,2422
29281	9,1037
29282	9,3415
29283	9,1984
29284	9,2422
29285	9,1037
29286	9,3415
29287	9,2525
29288	9,1132
29289	9,3526
29290	9,2135
29291	9,0656
29292	9,1264
29293	9,0056
29294	9,147
29295	9,0793
29296	9,0611
29297	9,1169
29298	8,9968
29299	9,1374
29300	9,0656
29301	9,1169
29302	8,9968
29303	9,1374
29304	9,1264
29305	9,0056
29306	9,147
29307	9,0793
29308	7,5715
29309	7,6154
29310	7,5389
29311	7,575
29312	7,5702
29313	7,6129
29314	7,5366
29315	7,5715
29316	7,6129
29317	7,5366
29318	7,6154
29319	7,5389
29320	7,575
29321	7,6597
29322	7,5812
29323	7,6637
29324	7,6584
29325	7,5788
29326	7,6597
29327	7,5788
29328	7,5812
29329	7,6637
29330	8,717
29331	8,6204
29332	8,7991
29333	8,7751
29334	8,7281
29335	8,7133
29336	8,6134
29337	8,7913
29338	8,7673
29339	8,717
29340	8,6134
29341	8,7913
29342	8,7673
29343	8,6204
29344	8,7991
29345	8,7751
29346	8,7281
29347	9,0611
29348	9,1735
29349	9,0228
29350	8,9818
29351	9,0747
29352	9,0566
29353	9,1638
29354	9,014
29355	8,9732
29356	9,0611
29357	9,1638
29358	9,014
29359	8,9732
29360	9,1735
29361	9,0228
29362	8,9818
29363	9,0747
29364	9,2995
29365	9,2899
29366	9,4457
29367	9,3154
29368	9,2942
29369	9,2795
29370	9,4342
29371	9,2995
29372	9,2795
29373	9,4342
29374	9,2899
29375	9,4457
29376	9,3154
29377	8,0988
29378	8,1893
29379	8,0004
29380	8,0909
29381	8,1054
29382	8,0965
29383	8,1845
29384	7,9964
29385	8,0865
29386	8,0988
29387	8,1845
29388	7,9964
29389	8,0865
29390	8,1893
29391	8,0004
29392	8,0909
29393	8,1054
29394	8,2771
29395	8,2826
29396	8,2848
29397	8,2745
29398	8,2774
29399	8,2771
29400	8,2774
29401	8,2826
29402	8,2848
29403	7,7032
29404	7,8018
29405	7,6044
29406	7,6766
29407	7,7075
29408	7,7018
29409	7,7986
29410	7,602
29411	7,6738
29412	7,7032
29413	7,7986
29414	7,602
29415	7,6738
29416	7,8018
29417	7,6044
29418	7,6766
29419	7,7075
29420	7,9012
29421	7,8833
29422	7,9321
29423	7,9066
29424	7,8994
29425	7,8797
29426	7,9284
29427	7,9012
29428	7,8797
29429	7,9284
29430	7,8833
29431	7,9321
29432	7,9066
29433	7,3366
29434	7,4205
29435	7,258
29436	7,2936
29437	7,3388
29438	7,3359
29439	7,4188
29440	7,2568
29441	7,2923
29442	7,3366
29443	7,4188
29444	7,2568
29445	7,2923
29446	7,4205
29447	7,258
29448	7,2936
29449	7,3388
29450	7,5083
29451	7,475
29452	7,5114
29453	7,5073
29454	7,473
29455	7,5083
29456	7,473
29457	7,475
29458	7,5114
29459	8,0353
29460	8,0381
29461	7,9222
29462	8,1428
29463	8,0416
29464	8,0332
29465	8,0338
29466	7,9184
29467	8,1382
29468	8,0353
29469	8,0338
29470	7,9184
29471	8,1382
29472	8,0381
29473	7,9222
29474	8,1428
29475	8,0416
29476	7,2134
29477	7,2969
29478	7,1955
29479	7,1343
29480	7,2147
29481	7,2129
29482	7,2957
29483	7,1946
29484	7,1337
29485	7,2134
29486	7,2957
29487	7,1946
29488	7,1337
29489	7,2969
29490	7,1955
29491	7,1343
29492	7,2147
29493	7,3875
29494	7,3728
29495	7,4841
29496	7,3898
29497	7,3867
29498	7,3712
29499	7,4821
29500	7,3875
29501	7,3712
29502	7,4821
29503	7,3728
29504	7,4841
29505	7,3898
29506	6,8965
29507	6,9169
29508	6,8903
29509	6,889
29510	6,8964
29511	6,8965
29512	6,9169
29513	6,8904
29514	6,889
29515	6,8965
29516	6,9169
29517	6,8904
29518	6,889
29519	6,9169
29520	6,8903
29521	6,889
29522	6,8964
29523	7,055
29524	6,9961
29525	7,1239
29526	7,0402
29527	7,0555
29528	7,0548
29529	6,996
29530	7,1234
29531	7,0399
29532	7,055
29533	6,996
29534	7,1234
29535	7,0399
29536	6,9961
29537	7,1239
29538	7,0402
29539	7,0555
29540	6,9491
29541	6,9382
29542	6,9493
29543	6,9491
29544	6,9382
29545	6,9491
29546	6,9382
29547	6,9382
29548	6,9493
29549	7,2031
29550	7,1878
29551	7,2889
29552	7,2043
29553	7,2026
29554	7,1869
29555	7,2878
29556	7,2031
29557	7,1869
29558	7,2878
29559	7,1878
29560	7,2889
29561	7,2043
29562	8,2537
29563	8,1454
29564	8,2697
29565	8,2615
29566	8,2511
29567	8,1407
29568	8,2644
29569	8,2537
29570	8,1407
29571	8,2644
29572	8,1454
29573	8,2697
29574	8,2615
29575	8,0359
29576	8,0407
29577	7,9214
29578	8,0422
29579	8,0338
29580	8,0364
29581	7,9176
29582	8,0359
29583	8,0364
29584	7,9176
29585	8,0407
29586	7,9214
29587	8,0422
29588	7,5073
29589	7,3926
29590	7,6114
29591	7,4856
29592	7,5105
29593	7,5062
29594	7,3909
29595	7,6089
29596	7,4835
29597	7,5073
29598	7,3909
29599	7,6089
29600	7,4835
29601	7,3926
29602	7,6114
29603	7,4856
29604	7,5105
29605	7,2857
29606	7,1933
29607	7,2753
29608	7,2878
29609	7,2851
29610	7,1924
29611	7,274
29612	7,2857
29613	7,1924
29614	7,274
29615	7,1933
29616	7,2753
29617	7,2878
29618	7,9369
29619	7,8274
29620	8,0424
29621	7,9295
29622	7,9427
29623	7,935
29624	7,8239
29625	8,0381
29626	7,9256
29627	7,9369
29628	7,8239
29629	8,0381
29630	7,9256
29631	7,8274
29632	8,0424
29633	7,9295
29634	7,9427
29635	7,7189
29636	7,7022
29637	7,7234
29638	7,7174
29639	7,6992
29640	7,7189
29641	7,6992
29642	7,7022
29643	7,7234
29644	8,1469
29645	8,152
29646	8,2472
29647	8,154
29648	8,1445
29649	8,1472
29650	8,242
29651	8,1469
29652	8,1472
29653	8,242
29654	8,152
29655	8,2472
29656	8,154
29657	8,6878
29658	8,6083
29659	8,7397
29660	8,6985
29661	8,6842
29662	8,6015
29663	8,7322
29664	8,6878
29665	8,6015
29666	8,7322
29667	8,6083
29668	8,7396
29669	8,6985
29670	8,5241
29671	8,5612
29672	8,4365
29673	8,5337
29674	8,5209
29675	8,5546
29676	8,4305
29677	8,5241
29678	8,5546
29679	8,4305
29680	8,5612
29681	8,4365
29682	8,5337
29683	8,7216
29684	8,7676
29685	8,8024
29686	8,7325
29687	8,718
29688	8,7601
29689	8,7947
29690	8,7216
29691	8,7601
29692	8,7947
29693	8,7676
29694	8,8024
29695	8,7325
29696	8,8094
29697	8,8976
29698	8,8548
29699	8,821
29700	8,8056
29701	8,8895
29702	8,8469
29703	8,8094
29704	8,8895
29705	8,8469
29706	8,8976
29707	8,8548
29708	8,821
29709	8,8848
29710	8,9438
29711	8,7953
29712	8,9644
29713	8,8971
29714	8,8807
29715	8,9352
29716	8,7875
29717	8,9558
29718	8,8848
29719	8,9352
29720	8,7875
29721	8,9558
29722	8,9438
29723	8,7953
29724	8,9644
29725	8,8971
29726	9,1814
29727	9,2557
29728	9,1133
29729	9,2613
29730	9,1962
29731	9,1764
29732	9,2454
29733	9,1039
29734	9,251
29735	9,1814
29736	9,2454
29737	9,1039
29738	9,251
29739	9,2557
29740	9,1133
29741	9,2613
29742	9,1962
29743	9,0217
29744	8,9174
29745	9,1161
29746	9,0355
29747	9,0172
29748	8,9088
29749	9,1064
29750	9,0217
29751	8,9088
29752	9,1064
29753	8,9174
29754	9,1161
29755	9,0355
29756	8,8086
29757	8,8796
29758	8,6967
29759	8,8207
29760	8,8046
29761	8,8711
29762	8,6891
29763	8,8086
29764	8,8711
29765	8,6891
29766	8,8796
29767	8,6967
29768	8,8207
29769	8,4935
29770	8,3866
29771	8,5324
29772	8,47
29773	8,5993
29774	8,5031
29775	8,4903
29776	8,3807
29777	8,5257
29778	8,4638
29779	8,5924
29780	8,4935
29781	8,3807
29782	8,5257
29783	8,4638
29784	8,5924
29785	8,3866
29786	8,5324
29787	8,47
29788	8,5993
29789	8,5031
29790	6,8939
29791	6,9084
29792	6,8925
29793	6,909
29794	6,894
29795	6,8939
29796	6,9083
29797	6,8924
29798	6,9088
29799	6,8939
29800	6,9083
29801	6,8924
29802	6,9088
29803	6,9084
29804	6,8925
29805	6,909
29806	6,894
29807	8,9405
29808	8,8654
29809	9,0169
29810	8,9532
29811	8,9363
29812	8,8573
29813	9,008
29814	8,9405
29815	8,8573
29816	9,008
29817	8,8654
29818	9,0169
29819	8,9532
29820	9,498
29821	9,541
29822	9,3527
29823	9,7024
29824	9,5866
29825	9,5161
29826	9,492
29827	9,5288
29828	9,3416
29829	9,689
29830	9,5739
29831	9,498
29832	9,5288
29833	9,3416
29834	9,689
29835	9,5739
29836	9,541
29837	9,3527
29838	9,7024
29839	9,5866
29840	9,5161
29841	9,2217
29842	9,1574
29843	9,3278
29844	9,281
29845	9,2369
29846	9,2166
29847	9,1476
29848	9,317
29849	9,2706
29850	9,2217
29851	9,1476
29852	9,317
29853	9,2706
29854	9,1574
29855	9,3278
29856	9,281
29857	9,2369
29858	9,5219
29859	9,5602
29860	9,4773
29861	9,6396
29862	9,4325
29863	9,54
29864	9,5158
29865	9,5479
29866	9,4655
29867	9,6268
29868	9,4211
29869	9,5219
29870	9,5479
29871	9,4655
29872	9,6268
29873	9,4211
29874	9,5602
29875	9,4773
29876	9,6396
29877	9,4325
29878	9,54
29879	7,1098
29880	7,0916
29881	7,0313
29882	7,1449
29883	7,1108
29884	7,1095
29885	7,0909
29886	7,0309
29887	7,1441
29888	7,1098
29889	7,0909
29890	7,0309
29891	7,1441
29892	7,0916
29893	7,0313
29894	7,1449
29895	7,1108
29896	6,8952
29897	6,8761
29898	6,8702
29899	6,9293
29900	6,895
29901	6,8952
29902	6,8761
29903	6,8702
29904	6,9293
29905	6,8952
29906	6,8761
29907	6,8702
29908	6,9293
29909	6,8761
29910	6,8702
29911	6,9293
29912	6,895
29913	8,5195
29914	8,5588
29915	8,4166
29916	8,4957
29917	8,5293
29918	8,5162
29919	8,5521
29920	8,4106
29921	8,4894
29922	8,5195
29923	8,5521
29924	8,4106
29925	8,4894
29926	8,5588
29927	8,4166
29928	8,4957
29929	8,5293
29930	9,2771
29931	9,4044
29932	9,2317
29933	9,2928
29934	9,2719
29935	9,3932
29936	9,2216
29937	9,2771
29938	9,3932
29939	9,2216
29940	9,4044
29941	9,2317
29942	9,2928
29943	9,5818
29944	9,5538
29945	9,7342
29946	9,6005
29947	9,5755
29948	9,5416
29949	9,7207
29950	9,5818
29951	9,5416
29952	9,7207
29953	9,5538
29954	9,7342
29955	9,6005
29956	8,9978
29957	8,8971
29958	9,0899
29959	9,0779
29960	9,0114
29961	8,9933
29962	8,8886
29963	9,0804
29964	9,0683
29965	8,9978
29966	8,8886
29967	9,0804
29968	9,0683
29969	8,8971
29970	9,0899
29971	9,0779
29972	9,0114
29973	9,5901
29974	9,5313
29975	9,6824
29976	9,609
29977	9,5839
29978	9,5192
29979	9,6693
29980	9,5901
29981	9,5192
29982	9,6693
29983	9,5313
29984	9,6824
29985	9,609
29986	8,0816
29987	8,1844
29988	7,9736
29989	8,0845
29990	8,0884
29991	8,0794
29992	8,1796
29993	7,9696
29994	8,08
29995	8,0816
29996	8,1796
29997	7,9696
29998	8,08
29999	8,1844
30000	7,9736
30001	8,0845
30002	8,0884
30003	8,2852
30004	8,299
30005	8,3786
30006	8,2932
30007	8,2825
30008	8,2936
30009	8,3728
30010	8,2852
30011	8,2936
30012	8,3728
30013	8,299
30014	8,3786
30015	8,2932
30016	7,6521
30017	7,758
30018	7,5468
30019	7,6363
30020	7,6562
30021	7,6508
30022	7,7548
30023	7,5445
30024	7,6336
30025	7,6521
30026	7,7548
30027	7,5445
30028	7,6336
30029	7,758
30030	7,5468
30031	7,6363
30032	7,6562
30033	7,8654
30034	7,8579
30035	7,8708
30036	7,8636
30037	7,8542
30038	7,8654
30039	7,8542
30040	7,8579
30041	7,8708
30042	7,4453
30043	7,4232
30044	7,3475
30045	7,4482
30046	7,4444
30047	7,4213
30048	7,3459
30049	7,4453
30050	7,4213
30051	7,3459
30052	7,4232
30053	7,3475
30054	7,4482
30055	8,7914
30056	8,6818
30057	8,8505
30058	8,7484
30059	8,8034
30060	8,7874
30061	8,6744
30062	8,8421
30063	8,7408
30064	8,7914
30065	8,6744
30066	8,8421
30067	8,7408
30068	8,6818
30069	8,8505
30070	8,7484
30071	8,8034
30072	8,0411
30073	8,1593
30074	7,9214
30075	8,06
30076	8,0477
30077	8,0389
30078	8,1544
30079	7,9175
30080	8,0554
30081	8,0411
30082	8,1544
30083	7,9175
30084	8,0554
30085	8,1593
30086	7,9214
30087	8,06
30088	8,0477
30089	8,2771
30090	8,3048
30091	8,2639
30092	8,2853
30093	8,2744
30094	8,2992
30095	8,2587
30096	8,2771
30097	8,2992
30098	8,2587
30099	8,3048
30100	8,2639
30101	8,2853
30102	7,5739
30103	7,6866
30104	7,4668
30105	7,5784
30106	7,5774
30107	7,5776
30108	7,5727
30109	7,6837
30110	7,4648
30111	7,5758
30112	7,575
30113	7,5739
30114	7,6837
30115	7,4648
30116	7,5758
30117	7,575
30118	7,6866
30119	7,4668
30120	7,5784
30121	7,5774
30122	7,5776
30123	7,8032
30124	7,8146
30125	7,8056
30126	7,8083
30127	7,8015
30128	7,811
30129	7,8022
30130	7,8032
30131	7,811
30132	7,8022
30133	7,8146
30134	7,8056
30135	7,8083
30136	7,186
30137	7,2717
30138	7,1844
30139	7,1068
30140	7,1875
30141	7,1856
30142	7,2704
30143	7,1834
30144	7,1062
30145	7,186
30146	7,2704
30147	7,1834
30148	7,1062
30149	7,2717
30150	7,1844
30151	7,1068
30152	7,1875
30153	7,3658
30154	7,3655
30155	7,3683
30156	7,365
30157	7,3638
30158	7,3658
30159	7,3638
30160	7,3655
30161	7,3683
30162	6,9381
30163	6,9451
30164	6,9817
30165	6,9383
30166	6,9381
30167	6,9449
30168	6,9814
30169	6,9381
30170	6,9449
30171	6,9814
30172	6,9451
30173	6,9817
30174	6,9383
30175	6,8916
30176	6,8914
30177	6,9057
30178	6,9049
30179	6,8916
30180	6,8916
30181	6,8913
30182	6,9056
30183	6,9047
30184	6,8916
30185	6,8913
30186	6,9056
30187	6,9047
30188	6,8914
30189	6,9057
30190	6,9049
30191	6,8916
30192	6,9053
30193	6,9306
30194	6,9269
30195	6,9057
30196	6,9052
30197	6,9301
30198	6,9265
30199	6,9053
30200	6,9301
30201	6,9265
30202	6,9306
30203	6,9269
30204	6,9057
30205	7,0329
30206	6,9768
30207	7,0349
30208	7,1008
30209	7,0335
30210	7,0327
30211	6,9766
30212	7,0344
30213	7,1002
30214	7,0329
30215	6,9766
30216	7,0344
30217	7,1002
30218	6,9768
30219	7,0349
30220	7,1008
30221	7,0335
30222	6,9347
30223	6,9411
30224	6,9348
30225	6,9346
30226	6,9409
30227	6,9347
30228	6,9409
30229	6,9411
30230	6,9348
30231	7,3609
30232	7,4624
30233	7,3617
30234	7,2664
30235	7,368
30236	7,3633
30237	7,3601
30238	7,4604
30239	7,36
30240	7,2652
30241	7,3665
30242	7,3609
30243	7,4604
30244	7,36
30245	7,2652
30246	7,3665
30247	7,4624
30248	7,3617
30249	7,2664
30250	7,368
30251	7,3633
30252	7,8019
30253	7,684
30254	7,9229
30255	7,8134
30256	7,8038
30257	7,807
30258	7,8002
30259	7,6811
30260	7,919
30261	7,8098
30262	7,8005
30263	7,8019
30264	7,6811
30265	7,919
30266	7,8098
30267	7,8005
30268	7,684
30269	7,9229
30270	7,8134
30271	7,8038
30272	7,807
30273	7,5701
30274	7,5751
30275	7,5746
30276	7,5738
30277	7,5689
30278	7,5726
30279	7,5722
30280	7,5701
30281	7,5726
30282	7,5722
30283	7,5751
30284	7,5746
30285	7,5738
30286	8,284
30287	8,165
30288	8,3148
30289	8,3958
30290	8,2922
30291	8,2813
30292	8,1601
30293	8,3091
30294	8,3899
30295	8,284
30296	8,1601
30297	8,3091
30298	8,3899
30299	8,165
30300	8,3148
30301	8,3958
30302	8,2922
30303	8,0457
30304	8,0651
30305	8,0524
30306	8,0435
30307	8,0605
30308	8,0457
30309	8,0605
30310	8,0651
30311	8,0524
30312	7,0795
30313	7,012
30314	7,1689
30315	7,08
30316	7,0805
30317	7,0792
30318	7,0117
30319	7,1679
30320	7,0792
30321	7,0795
30322	7,0117
30323	7,1679
30324	7,0792
30325	7,012
30326	7,1689
30327	7,08
30328	7,0805
30329	6,9541
30330	6,9055
30331	6,9518
30332	6,9541
30333	6,9543
30334	6,954
30335	6,9054
30336	6,9515
30337	6,954
30338	6,9541
30339	6,9054
30340	6,9515
30341	6,954
30342	6,9055
30343	6,9518
30344	6,9541
30345	6,9543
30346	7,4695
30347	7,3661
30348	7,5766
30349	7,4664
30350	7,4726
30351	7,4685
30352	7,3644
30353	7,5741
30354	7,4642
30355	7,4695
30356	7,3644
30357	7,5741
30358	7,4642
30359	7,3661
30360	7,5766
30361	7,4664
30362	7,4726
30363	7,269
30364	7,2615
30365	7,271
30366	7,2683
30367	7,26
30368	7,269
30369	7,26
30370	7,2615
30371	7,271
30372	7,9226
30373	7,8041
30374	8,0393
30375	7,9305
30376	7,9286
30377	7,9206
30378	7,8006
30379	8,0348
30380	7,9264
30381	7,9226
30382	7,8006
30383	8,0348
30384	7,9264
30385	7,8041
30386	8,0393
30387	7,9305
30388	7,9286
30389	7,6877
30390	7,6907
30391	7,6922
30392	7,6862
30393	7,6876
30394	7,6877
30395	7,6876
30396	7,6907
30397	7,6922
30398	8,1559
30399	8,1734
30400	8,2688
30401	8,1634
30402	8,1535
30403	8,1683
30404	8,2634
30405	8,1559
30406	8,1683
30407	8,2634
30408	8,1734
30409	8,2688
30410	8,1634
30411	8,7859
30412	8,692
30413	8,8486
30414	8,7975
30415	8,782
30416	8,6847
30417	8,8405
30418	8,7859
30419	8,6847
30420	8,8405
30421	8,692
30422	8,8486
30423	8,7975
30424	8,594
30425	8,641
30426	8,4885
30427	8,6043
30428	8,5905
30429	8,6338
30430	8,4821
30431	8,594
30432	8,6338
30433	8,4821
30434	8,641
30435	8,4885
30436	8,6043
30437	8,9791
30438	9,0843
30439	8,9304
30440	8,9921
30441	8,9748
30442	9,075
30443	8,922
30444	8,9791
30445	9,075
30446	8,922
30447	9,0843
30448	8,9304
30449	8,9921
30450	9,4622
30451	9,3969
30452	9,5693
30453	9,4017
30454	9,4796
30455	9,4563
30456	9,3857
30457	9,5569
30458	9,3905
30459	9,4622
30460	9,3857
30461	9,5569
30462	9,3905
30463	9,3969
30464	9,5693
30465	9,4017
30466	9,4796
30467	9,176
30468	9,2532
30469	9,1101
30470	9,2615
30471	9,191
30472	9,171
30473	9,2429
30474	9,1006
30475	9,251
30476	9,176
30477	9,2429
30478	9,1006
30479	9,251
30480	9,2532
30481	9,1101
30482	9,2615
30483	9,191
30484	9,3233
30485	9,424
30486	9,3395
30487	9,318
30488	9,4126
30489	9,3233
30490	9,4126
30491	9,424
30492	9,3395
30493	9,2041
30494	9,0769
30495	9,2888
30496	9,2197
30497	9,1989
30498	9,0672
30499	9,2778
30500	9,2041
30501	9,0672
30502	9,2778
30503	9,0769
30504	9,2888
30505	9,2197
30506	8,9458
30507	8,8188
30508	9,0272
30509	8,9594
30510	8,9413
30511	8,8104
30512	9,0176
30513	8,9458
30514	8,8104
30515	9,0176
30516	8,8188
30517	9,0272
30518	8,9594
30519	9,8973
30520	10,085
30521	9,8896
30522	9,9509
30523	9,9196
30524	9,8899
30525	10,069
30526	9,875
30527	9,9356
30528	9,8973
30529	10,069
30530	9,875
30531	9,9356
30532	10,085
30533	9,8896
30534	9,9509
30535	9,9196
30536	8,5684
30537	8,4508
30538	8,617
30539	8,5788
30540	8,5649
30541	8,4444
30542	8,6097
30543	8,5684
30544	8,4444
30545	8,6097
30546	8,4508
30547	8,617
30548	8,5788
30549	9,0873
30550	8,999
30551	9,1851
30552	9,1014
30553	9,0825
30554	8,99
30555	9,1751
30556	9,0873
30557	8,99
30558	9,1751
30559	8,999
30560	9,1851
30561	9,1014
30562	9,4261
30563	9,3542
30564	9,5732
30565	9,4434
30566	9,4203
30567	9,3431
30568	9,5607
30569	9,4261
30570	9,3431
30571	9,5607
30572	9,3542
30573	9,5732
30574	9,4434
30575	9,6682
30576	9,768
30577	9,5205
30578	9,8375
30579	9,6883
30580	9,6615
30581	9,7538
30582	9,508
30583	9,823
30584	9,6682
30585	9,7538
30586	9,508
30587	9,823
30588	9,768
30589	9,5205
30590	9,8375
30591	9,6883
30592	6,8685
30593	6,8429
30594	6,8706
30595	6,8686
30596	6,8685
30597	6,8429
30598	6,8705
30599	6,8685
30600	6,8429
30601	6,8705
30602	6,8429
30603	6,8706
30604	6,8686
30605	6,8457
30606	6,8315
30607	6,8648
30608	6,8694
30609	6,8461
30610	6,8456
30611	6,8314
30612	6,8644
30613	6,869
30614	6,8457
30615	6,8314
30616	6,8644
30617	6,869
30618	6,8315
30619	6,8648
30620	6,8694
30621	6,8461
30622	8,5948
30623	8,4788
30624	8,7131
30625	8,646
30626	8,6054
30627	8,5912
30628	8,4723
30629	8,7055
30630	8,6385
30631	8,5948
30632	8,4723
30633	8,7055
30634	8,6385
30635	8,4788
30636	8,7131
30637	8,646
30638	8,6054
30639	8,9222
30640	8,9837
30641	8,8772
30642	8,8101
30643	9,0361
30644	8,9355
30645	8,9177
30646	8,9744
30647	8,8686
30648	8,8018
30649	9,0266
30650	8,9222
30651	8,9744
30652	8,8686
30653	8,8018
30654	9,0266
30655	8,9837
30656	8,8772
30657	8,8101
30658	9,0361
30659	8,9355
30660	9,2714
30661	9,3789
30662	9,1603
30663	9,3683
30664	9,2099
30665	9,2882
30666	9,2658
30667	9,367
30668	9,1498
30669	9,3566
30670	9,1993
30671	9,2714
30672	9,367
30673	9,1498
30674	9,3566
30675	9,1993
30676	9,3789
30677	9,1603
30678	9,3683
30679	9,2099
30680	9,2882
30681	8,689
30682	8,7584
30683	8,5584
30684	8,6363
30685	8,7007
30686	8,6851
30687	8,7501
30688	8,5512
30689	8,6289
30690	8,689
30691	8,7501
30692	8,5512
30693	8,6289
30694	8,7584
30695	8,5584
30696	8,6363
30697	8,7007
30698	9,2887
30699	9,377
30700	9,3176
30701	9,2208
30702	9,3053
30703	9,2832
30704	9,3654
30705	9,3066
30706	9,2103
30707	9,2887
30708	9,3654
30709	9,3066
30710	9,2103
30711	9,377
30712	9,3176
30713	9,2208
30714	9,3053
30715	9,5215
30716	9,675
30717	9,4739
30718	9,5396
30719	9,5155
30720	9,6619
30721	9,4622
30722	9,5215
30723	9,6619
30724	9,4622
30725	9,675
30726	9,4739
30727	9,5396
30728	9,7453
30729	9,7293
30730	9,7566
30731	9,8605
30732	9,7658
30733	9,7385
30734	9,7158
30735	9,743
30736	9,8461
30737	9,7453
30738	9,7158
30739	9,743
30740	9,8461
30741	9,7293
30742	9,7566
30743	9,8605
30744	9,7658
30745	8,0867
30746	8,1994
30747	7,9687
30748	8,1013
30749	8,0936
30750	8,0844
30751	8,1943
30752	7,9646
30753	8,0965
30754	8,0867
30755	8,1943
30756	7,9646
30757	8,0965
30758	8,1994
30759	7,9687
30760	8,1013
30761	8,0936
30762	8,3106
30763	8,3364
30764	8,319
30765	8,3078
30766	8,3306
30767	8,3106
30768	8,3306
30769	8,3364
30770	8,319
30771	7,6231
30772	7,7359
30773	7,5117
30774	7,6199
30775	7,6272
30776	7,6217
30777	7,7327
30778	7,5094
30779	7,6171
30780	7,6231
30781	7,7327
30782	7,5094
30783	7,6171
30784	7,7359
30785	7,5117
30786	7,6199
30787	7,6272
30788	7,8514
30789	7,8568
30790	7,8569
30791	7,8496
30792	7,853
30793	7,8514
30794	7,853
30795	7,8568
30796	7,8569
30797	7,2126
30798	7,3055
30799	7,1284
30800	7,2045
30801	7,2311
30802	7,2143
30803	7,212
30804	7,304
30805	7,1275
30806	7,2033
30807	7,23
30808	7,2126
30809	7,304
30810	7,1275
30811	7,2033
30812	7,23
30813	7,3055
30814	7,1284
30815	7,2045
30816	7,2311
30817	7,2143
30818	7,4054
30819	7,3985
30820	7,4082
30821	7,4045
30822	7,3966
30823	7,4054
30824	7,3966
30825	7,3985
30826	7,4082
30827	6,9345
30828	6,9887
30829	6,8898
30830	6,9471
30831	6,9289
30832	6,9348
30833	6,9344
30834	6,9883
30835	6,8897
30836	6,9469
30837	6,9287
30838	6,9345
30839	6,9883
30840	6,8897
30841	6,9469
30842	6,9287
30843	6,9887
30844	6,8898
30845	6,9471
30846	6,9289
30847	6,9348
30848	7,053
30849	7,0454
30850	7,0699
30851	7,0538
30852	7,0527
30853	7,0447
30854	7,0693
30855	7,053
30856	7,0447
30857	7,0693
30858	7,0454
30859	7,0699
30860	7,0538
30861	6,831
30862	6,8404
30863	6,831
30864	6,831
30865	6,8403
30866	6,831
30867	6,8403
30868	6,8404
30869	6,831
30870	6,8574
30871	6,8598
30872	6,8575
30873	6,8574
30874	6,8597
30875	6,8574
30876	6,8597
30877	6,8598
30878	6,8575
30879	8,9053
30880	8,7861
30881	8,9717
30882	9,0315
30883	8,9187
30884	8,9009
30885	8,7778
30886	8,9624
30887	9,022
30888	8,9053
30889	8,7778
30890	8,9624
30891	9,022
30892	8,7861
30893	8,9717
30894	9,0315
30895	8,9187
30896	8,0796
30897	8,2053
30898	7,9531
30899	8,1127
30900	8,0868
30901	8,0772
30902	8,2
30903	7,9488
30904	8,1076
30905	8,0796
30906	8,2
30907	7,9488
30908	8,1076
30909	8,2053
30910	7,9531
30911	8,1127
30912	8,0868
30913	8,3312
30914	8,3727
30915	8,34
30916	8,3283
30917	8,3665
30918	8,3312
30919	8,3665
30920	8,3727
30921	8,34
30922	7,5882
30923	7,7061
30924	7,4767
30925	7,6086
30926	7,5923
30927	7,5868
30928	7,7029
30929	7,4745
30930	7,6057
30931	7,5882
30932	7,7029
30933	7,4745
30934	7,6057
30935	7,7061
30936	7,4767
30937	7,6086
30938	7,5923
30939	7,8289
30940	7,8538
30941	7,8345
30942	7,8271
30943	7,8499
30944	7,8289
30945	7,8499
30946	7,8538
30947	7,8345
30948	7,1913
30949	7,2771
30950	7,2095
30951	7,1144
30952	7,193
30953	7,1907
30954	7,2756
30955	7,2081
30956	7,1135
30957	7,1913
30958	7,2756
30959	7,2081
30960	7,1135
30961	7,2771
30962	7,2095
30963	7,1144
30964	7,193
30965	7,3725
30966	7,3899
30967	7,3753
30968	7,3716
30969	7,3878
30970	7,3725
30971	7,3878
30972	7,3899
30973	7,3753
30974	6,9615
30975	6,9396
30976	6,9897
30977	6,9982
30978	6,9621
30979	6,9613
30980	6,9392
30981	6,9891
30982	6,9977
30983	6,9615
30984	6,9392
30985	6,9891
30986	6,9977
30987	6,9396
30988	6,9897
30989	6,9982
30990	6,9621
30991	6,9684
30992	6,9423
30993	7,0032
30994	7,0127
30995	6,9694
30996	6,9681
30997	6,9418
30998	7,0024
30999	7,0117
31000	6,9684
31001	6,9418
31002	7,0024
31003	7,0117
31004	6,9423
31005	7,0032
31006	7,0127
31007	6,9694
31008	6,9347
31009	6,9689
31010	6,9353
31011	6,9344
31012	6,9682
31013	6,9347
31014	6,9682
31015	6,9689
31016	6,9353
31017	7,0538
31018	7,1273
31019	7,1044
31020	6,9996
31021	7,0556
31022	7,0532
31023	7,1258
31024	7,1029
31025	6,9987
31026	7,0538
31027	7,1258
31028	7,1029
31029	6,9987
31030	7,1273
31031	7,1044
31032	6,9996
31033	7,0556
31034	6,9281
31035	6,934
31036	6,9632
31037	6,9371
31038	6,9287
31039	6,928
31040	6,9337
31041	6,9625
31042	6,9366
31043	6,9281
31044	6,9337
31045	6,9625
31046	6,9366
31047	6,934
31048	6,9632
31049	6,9371
31050	6,9287
31051	7,0455
31052	6,9932
31053	7,0673
31054	7,1093
31055	7,0465
31056	7,0452
31057	6,9927
31058	7,0664
31059	7,1085
31060	7,0455
31061	6,9927
31062	7,0664
31063	7,1085
31064	6,9932
31065	7,0673
31066	7,1093
31067	7,0465
31068	6,9561
31069	6,9843
31070	6,9567
31071	6,956
31072	6,9837
31073	6,9561
31074	6,9837
31075	6,9843
31076	6,9567
31077	7,3699
31078	7,4741
31079	7,3878
31080	7,2728
31081	7,3727
31082	7,369
31083	7,4718
31084	7,3858
31085	7,2713
31086	7,3699
31087	7,4718
31088	7,3858
31089	7,2713
31090	7,4741
31091	7,3878
31092	7,2728
31093	7,3727
31094	7,8279
31095	7,7042
31096	7,8524
31097	7,9551
31098	7,8335
31099	7,826
31100	7,701
31101	7,8485
31102	7,9509
31103	7,8279
31104	7,701
31105	7,8485
31106	7,9509
31107	7,7042
31108	7,8524
31109	7,9551
31110	7,8335
31111	7,5855
31112	7,6065
31113	7,5896
31114	7,5842
31115	7,6035
31116	7,5855
31117	7,6035
31118	7,6065
31119	7,5896
31120	9,6665
31121	9,8051
31122	9,5957
31123	9,7184
31124	9,6861
31125	9,6599
31126	9,7911
31127	9,5831
31128	9,705
31129	9,6665
31130	9,7911
31131	9,5831
31132	9,705
31133	9,8051
31134	9,5957
31135	9,7184
31136	9,6861
31137	6,8827
31138	6,9152
31139	6,904
31140	6,8627
31141	6,883
31142	6,8826
31143	6,915
31144	6,9036
31145	6,8625
31146	6,8827
31147	6,915
31148	6,9036
31149	6,8625
31150	6,9152
31151	6,904
31152	6,8627
31153	6,883
31154	7,0888
31155	7,019
31156	7,1698
31157	7,1028
31158	7,0901
31159	7,0883
31160	7,0183
31161	7,1687
31162	7,1017
31163	7,0888
31164	7,0183
31165	7,1687
31166	7,1017
31167	7,019
31168	7,1698
31169	7,1028
31170	7,0901
31171	6,9604
31172	6,9776
31173	6,961
31174	6,9602
31175	6,977
31176	6,9604
31177	6,977
31178	6,9776
31179	6,961
31180	7,2603
31181	7,2733
31182	7,3607
31183	7,2626
31184	7,2596
31185	7,2716
31186	7,3588
31187	7,2603
31188	7,2716
31189	7,3588
31190	7,2733
31191	7,3607
31192	7,2626
31193	7,9396
31194	8,0645
31195	7,961
31196	7,8169
31197	7,9459
31198	7,9374
31199	8,0598
31200	7,9566
31201	7,8132
31202	7,9396
31203	8,0598
31204	7,9566
31205	7,8132
31206	8,0645
31207	7,961
31208	7,8169
31209	7,9459
31210	8,441
31211	8,3161
31212	8,5638
31213	8,4826
31214	8,4115
31215	8,4506
31216	8,4378
31217	8,3103
31218	8,5568
31219	8,4759
31220	8,4054
31221	8,441
31222	8,3103
31223	8,5568
31224	8,4759
31225	8,4054
31226	8,3161
31227	8,5638
31228	8,4826
31229	8,4115
31230	8,4506
31231	8,1903
31232	8,2189
31233	8,1982
31234	8,1877
31235	8,2134
31236	8,1903
31237	8,2134
31238	8,2189
31239	8,1982
31240	8,906
31241	8,7969
31242	8,9895
31243	8,9189
31244	8,9018
31245	8,7889
31246	8,9804
31247	8,906
31248	8,7889
31249	8,9804
31250	8,7969
31251	8,9895
31252	8,9189
31253	8,684
31254	8,7413
31255	8,6952
31256	8,6802
31257	8,7334
31258	8,684
31259	8,7334
31260	8,7413
31261	8,6952
31262	9,1816
31263	9,3062
31264	9,1216
31265	9,1965
31266	9,1766
31267	9,2955
31268	9,112
31269	9,1816
31270	9,2955
31271	9,112
31272	9,3062
31273	9,1216
31274	9,1965
31275	9,8583
31276	9,9479
31277	9,7155
31278	10,025
31279	9,8808
31280	9,8508
31281	9,9321
31282	9,7015
31283	10,008
31284	9,8583
31285	9,9321
31286	9,7015
31287	10,008
31288	9,9479
31289	9,7155
31290	10,025
31291	9,8808
31292	10,026
31293	9,8835
31294	10,206
31295	10,042
31296	10,051
31297	10,018
31298	9,868
31299	10,188
31300	10,025
31301	10,026
31302	9,868
31303	10,188
31304	10,025
31305	9,8835
31306	10,206
31307	10,042
31308	10,051
31309	10,259
31310	10,309
31311	10,459
31312	10,252
31313	10,286
31314	10,251
31315	10,291
31316	10,44
31317	10,234
31318	10,259
31319	10,291
31320	10,44
31321	10,234
31322	10,309
31323	10,459
31324	10,252
31325	10,286
31326	8,6631
31327	8,5391
31328	8,7278
31329	8,6746
31330	8,6592
31331	8,532
31332	8,7196
31333	8,6631
31334	8,532
31335	8,7196
31336	8,5391
31337	8,7278
31338	8,6746
31339	9,2764
31340	9,3935
31341	9,1744
31342	9,2925
31343	9,271
31344	9,3819
31345	9,1642
31346	9,2764
31347	9,3819
31348	9,1642
31349	9,3935
31350	9,1744
31351	9,2925
31352	6,8925
31353	6,9305
31354	6,9269
31355	6,8676
31356	6,8934
31357	6,8923
31358	6,9298
31359	6,9262
31360	6,8672
31361	6,8925
31362	6,9298
31363	6,9262
31364	6,8672
31365	6,9305
31366	6,9269
31367	6,8676
31368	6,8934
31369	9,4789
31370	9,3469
31371	9,5891
31372	9,5974
31373	9,4982
31374	9,4726
31375	9,3349
31376	9,5757
31377	9,5837
31378	9,4789
31379	9,3349
31380	9,5757
31381	9,5837
31382	9,3469
31383	9,5891
31384	9,5974
31385	9,4982
31386	9,042
31387	9,1275
31388	8,9264
31389	9,0569
31390	9,037
31391	9,1169
31392	8,9171
31393	9,042
31394	9,1169
31395	8,9171
31396	9,1275
31397	8,9264
31398	9,0569
31399	8,825
31400	8,6771
31401	8,9012
31402	8,9655
31403	8,8383
31404	8,8206
31405	8,669
31406	8,8918
31407	8,956
31408	8,825
31409	8,669
31410	8,8918
31411	8,956
31412	8,6771
31413	8,9012
31414	8,9655
31415	8,8383
31416	9,4562
31417	9,535
31418	9,5785
31419	9,4745
31420	9,4501
31421	9,5225
31422	9,5654
31423	9,4562
31424	9,5225
31425	9,5654
31426	9,535
31427	9,5785
31428	9,4745
31429	9,817
31430	9,997
31431	9,7734
31432	9,849
31433	9,8382
31434	9,81
31435	9,9815
31436	9,7596
31437	9,8347
31438	9,817
31439	9,9815
31440	9,7596
31441	9,8347
31442	9,997
31443	9,7734
31444	9,849
31445	9,8382
31446	9,9973
31447	9,8595
31448	10,089
31449	10,094
31450	9,9844
31451	10,021
31452	9,9895
31453	9,845
31454	10,073
31455	10,078
31456	9,969
31457	9,9973
31458	9,845
31459	10,073
31460	10,078
31461	9,969
31462	9,8595
31463	10,089
31464	10,094
31465	9,9844
31466	10,021
31467	8,1159
31468	8,2385
31469	8,1433
31470	7,9892
31471	8,1233
31472	8,1134
31473	8,233
31474	8,1381
31475	7,9847
31476	8,1159
31477	8,233
31478	8,1381
31479	7,9847
31480	8,2385
31481	8,1433
31482	7,9892
31483	8,1233
31484	8,3604
31485	8,3991
31486	8,3695
31487	8,3574
31488	8,3928
31489	8,3604
31490	8,3928
31491	8,3991
31492	8,3695
31493	7,2032
31494	7,1198
31495	7,2132
31496	7,296
31497	7,2052
31498	7,2026
31499	7,1188
31500	7,2117
31501	7,2944
31502	7,2032
31503	7,1188
31504	7,2117
31505	7,2944
31506	7,1198
31507	7,2132
31508	7,296
31509	7,2052
31510	7,0465
31511	7,0582
31512	6,9839
31513	7,0476
31514	7,0461
31515	7,0573
31516	6,9834
31517	7,0465
31518	7,0573
31519	6,9834
31520	7,0582
31521	6,9839
31522	7,0476
31523	6,8644
31524	6,8613
31525	6,878
31526	6,8959
31527	6,8649
31528	6,8642
31529	6,861
31530	6,8776
31531	6,8953
31532	6,8644
31533	6,861
31534	6,8776
31535	6,8953
31536	6,8613
31537	6,878
31538	6,8959
31539	6,8649
31540	6,8718
31541	6,8952
31542	6,8958
31543	6,8722
31544	6,8717
31545	6,8948
31546	6,8956
31547	6,8718
31548	6,8948
31549	6,8956
31550	6,8952
31551	6,8958
31552	6,8722
31553	6,9833
31554	6,9381
31555	7,0293
31556	7,0431
31557	6,9849
31558	6,9828
31559	6,9373
31560	7,028
31561	7,0418
31562	6,9833
31563	6,9373
31564	7,028
31565	7,0418
31566	6,9381
31567	7,0293
31568	7,0431
31569	6,9849
31570	6,9043
31571	6,9473
31572	6,9053
31573	6,904
31574	6,9464
31575	6,9043
31576	6,9464
31577	6,9473
31578	6,9053
31579	9,0333
31580	9,1617
31581	9,097
31582	8,9134
31583	9,0481
31584	9,0284
31585	9,1512
31586	9,0867
31587	8,9042
31588	9,0333
31589	9,1512
31590	9,0867
31591	8,9042
31592	9,1617
31593	9,097
31594	8,9134
31595	9,0481
31596	9,2848
31597	9,4311
31598	9,3351
31599	9,222
31600	9,3017
31601	9,2792
31602	9,4191
31603	9,3235
31604	9,2114
31605	9,2848
31606	9,4191
31607	9,3235
31608	9,2114
31609	9,4311
31610	9,3351
31611	9,222
31612	9,3017
31613	8,4132
31614	8,4702
31615	8,2796
31616	8,4231
31617	8,41
31618	8,4632
31619	8,2737
31620	8,4132
31621	8,4632
31622	8,2737
31623	8,4702
31624	8,2796
31625	8,4231
31626	7,6344
31627	7,7553
31628	7,5202
31629	7,6724
31630	7,6392
31631	7,6328
31632	7,7516
31633	7,5174
31634	7,6689
31635	7,6344
31636	7,7516
31637	7,5174
31638	7,6689
31639	7,7553
31640	7,5202
31641	7,6724
31642	7,6392
31643	7,882
31644	7,9228
31645	8,0128
31646	7,8884
31647	7,8799
31648	7,9182
31649	8,008
31650	7,882
31651	7,9182
31652	8,008
31653	7,9228
31654	8,0128
31655	7,8884
31656	7,236
31657	7,3199
31658	7,2748
31659	7,1626
31660	7,2385
31661	7,2352
31662	7,3179
31663	7,2728
31664	7,1613
31665	7,236
31666	7,3179
31667	7,2728
31668	7,1613
31669	7,3199
31670	7,2748
31671	7,1626
31672	7,2385
31673	7,4143
31674	7,4523
31675	7,4178
31676	7,4131
31677	7,4497
31678	7,4143
31679	7,4497
31680	7,4523
31681	7,4178
31682	7,0671
31683	7,0298
31684	7,131
31685	7,1256
31686	7,0691
31687	7,0665
31688	7,0287
31689	7,1294
31690	7,1239
31691	7,0671
31692	7,0287
31693	7,1294
31694	7,1239
31695	7,0298
31696	7,131
31697	7,1256
31698	7,0691
31699	7,0121
31700	7,067
31701	7,0104
31702	7,0135
31703	7,0116
31704	7,0657
31705	7,0095
31706	7,0121
31707	7,0657
31708	7,0095
31709	7,067
31710	7,0104
31711	7,0135
31712	7,4729
31713	7,3385
31714	7,6117
31715	7,5181
31716	7,5066
31717	7,4777
31718	7,4713
31719	7,3359
31720	7,6079
31721	7,5148
31722	7,5032
31723	7,4729
31724	7,3359
31725	7,6079
31726	7,5148
31727	7,5032
31728	7,3385
31729	7,6117
31730	7,5181
31731	7,5066
31732	7,4777
31733	7,2175
31734	7,267
31735	7,2694
31736	7,2205
31737	7,2165
31738	7,2648
31739	7,2671
31740	7,2175
31741	7,2648
31742	7,2671
31743	7,267
31744	7,2694
31745	7,2205
31746	7,7581
31747	7,7933
31748	7,8118
31749	7,7647
31750	7,7559
31751	7,7888
31752	7,8072
31753	7,7581
31754	7,7888
31755	7,8072
31756	7,7933
31757	7,8118
31758	7,7647
31759	7,5723
31760	7,4506
31761	7,6648
31762	7,7175
31763	7,5776
31764	7,5705
31765	7,4476
31766	7,6609
31767	7,7134
31768	7,5723
31769	7,4476
31770	7,6609
31771	7,7134
31772	7,4506
31773	7,6648
31774	7,7175
31775	7,5776
31776	7,1683
31777	7,2475
31778	7,2408
31779	7,1078
31780	7,171
31781	7,1674
31782	7,2453
31783	7,2386
31784	7,1063
31785	7,1683
31786	7,2453
31787	7,2386
31788	7,1063
31789	7,2475
31790	7,2408
31791	7,1078
31792	7,171
31793	7,3375
31794	7,4191
31795	7,3413
31796	7,3362
31797	7,4161
31798	7,3375
31799	7,4161
31800	7,4191
31801	7,3413
31802	7,0084
31803	7,0071
31804	7,0655
31805	7,0269
31806	7,0098
31807	7,008
31808	7,0062
31809	7,0642
31810	7,0259
31811	7,0084
31812	7,0062
31813	7,0642
31814	7,0259
31815	7,0071
31816	7,0655
31817	7,0269
31818	7,0098
31819	7,0978
31820	7,0523
31821	7,1427
31822	7,158
31823	7,0994
31824	7,0972
31825	7,0514
31826	7,1412
31827	7,1566
31828	7,0978
31829	7,0514
31830	7,1412
31831	7,1566
31832	7,0523
31833	7,1427
31834	7,158
31835	7,0994
31836	7,0216
31837	7,0723
31838	7,0229
31839	7,0211
31840	7,071
31841	7,0216
31842	7,071
31843	7,0723
31844	7,0229
31845	7,4128
31846	7,4509
31847	7,3166
31848	7,5186
31849	7,4163
31850	7,4117
31851	7,4482
31852	7,3147
31853	7,5158
31854	7,4128
31855	7,4482
31856	7,3147
31857	7,5158
31858	7,4509
31859	7,3166
31860	7,5186
31861	7,4163
31862	7,8801
31863	7,9208
31864	7,7535
31865	8,0131
31866	7,8864
31867	7,878
31868	7,9162
31869	7,7498
31870	8,0083
31871	7,8801
31872	7,9162
31873	7,7498
31874	8,0083
31875	7,9208
31876	7,7535
31877	8,0131
31878	7,8864
31879	9,9312
31880	9,9635
31881	9,8634
31882	10,119
31883	9,9536
31884	9,9237
31885	9,9483
31886	9,8488
31887	10,103
31888	9,9312
31889	9,9483
31890	9,8488
31891	10,103
31892	9,9635
31893	9,8634
31894	10,119
31895	9,9537
31896	9,9877
31897	10,119
31898	9,8818
31899	9,9792
31900	10,011
31901	9,98
31902	10,102
31903	9,8673
31904	9,9639
31905	9,9877
31906	10,102
31907	9,8673
31908	9,9639
31909	10,119
31910	9,8818
31911	9,9792
31912	10,011
31913	6,9697
31914	7,0189
31915	6,9361
31916	7,0222
31917	6,9712
31918	6,9692
31919	7,0177
31920	6,9353
31921	7,0209
31922	6,9697
31923	7,0177
31924	6,9353
31925	7,0209
31926	7,0189
31927	6,9361
31928	7,0222
31929	6,9712
31930	7,0845
31931	7,1713
31932	7,1388
31933	7,0869
31934	7,0838
31935	7,1694
31936	7,1369
31937	7,0845
31938	7,1694
31939	7,1369
31940	7,1713
31941	7,1388
31942	7,0869
31943	6,9349
31944	6,9197
31945	6,963
31946	6,9756
31947	6,9359
31948	6,9346
31949	6,9191
31950	6,9623
31951	6,9746
31952	6,9349
31953	6,9191
31954	6,9623
31955	6,9746
31956	6,9197
31957	6,963
31958	6,9756
31959	6,9359
31960	6,9184
31961	6,9662
31962	6,8843
31963	6,9194
31964	6,918
31965	6,9652
31966	6,8838
31967	6,9184
31968	6,9652
31969	6,8838
31970	6,9662
31971	6,8843
31972	6,9194
31973	7,1254
31974	7,0591
31975	7,2044
31976	7,1575
31977	7,1274
31978	7,1248
31979	7,0581
31980	7,2028
31981	7,1559
31982	7,1254
31983	7,0581
31984	7,2028
31985	7,1559
31986	7,0591
31987	7,2044
31988	7,1575
31989	7,1274
31990	7,0045
31991	7,04
31992	7,0057
31993	7,004
31994	7,0388
31995	7,0045
31996	7,0388
31997	7,04
31998	7,0057
31999	7,2934
32000	7,3229
32001	7,3919
32002	7,2963
32003	7,2925
32004	7,3207
32005	7,3897
32006	7,2934
32007	7,3207
32008	7,3897
32009	7,3229
32010	7,3919
32011	7,2963
32012	7,9843
32013	8,1152
32014	8,02
32015	7,8563
32016	7,9913
32017	7,982
32018	8,1099
32019	8,015
32020	7,8521
32021	7,9843
32022	8,1099
32023	8,015
32024	7,8521
32025	8,1152
32026	8,02
32027	7,8563
32028	7,9913
32029	8,5223
32030	8,385
32031	8,574
32032	8,6595
32033	8,5329
32034	8,5188
32035	8,3786
32036	8,5666
32037	8,6519
32038	8,5223
32039	8,3786
32040	8,5666
32041	8,6519
32042	8,385
32043	8,574
32044	8,6595
32045	8,5329
32046	8,2475
32047	8,2908
32048	8,2562
32049	8,2446
32050	8,2846
32051	8,2475
32052	8,2846
32053	8,2908
32054	8,2562
32055	9,7107
32056	9,6091
32057	9,8496
32058	9,731
32059	9,7039
32060	9,5961
32061	9,8349
32062	9,7107
32063	9,5961
32064	9,8349
32065	9,6091
32066	9,8496
32067	9,731
32068	9,7287
32069	9,6191
32070	9,8566
32071	9,5595
32072	9,7561
32073	9,9296
32074	9,7501
32075	9,7216
32076	9,6058
32077	9,8416
32078	9,5463
32079	9,7414
32080	9,9139
32081	9,7287
32082	9,6058
32083	9,8416
32084	9,5463
32085	9,7414
32086	9,9139
32087	9,6191
32088	9,8566
32089	9,5595
32090	9,7561
32091	9,9296
32092	9,7501
32093	9,503
32094	9,3671
32095	9,5217
32096	9,4968
32097	9,3555
32098	9,503
32099	9,3555
32100	9,3671
32101	9,5217
32102	9,3402
32103	9,3838
32104	9,4793
32105	9,2036
32106	9,3568
32107	9,3346
32108	9,3726
32109	9,4673
32110	9,1934
32111	9,3402
32112	9,3726
32113	9,4673
32114	9,1934
32115	9,3838
32116	9,4793
32117	9,2036
32118	9,3568
32119	9,4214
32120	9,5777
32121	9,4385
32122	9,4157
32123	9,5652
32124	9,4214
32125	9,5652
32126	9,5777
32127	9,4385
32128	9,571
32129	9,6827
32130	9,5645
32131	9,4601
32132	9,7498
32133	9,5903
32134	9,5646
32135	9,6692
32136	9,5515
32137	9,4482
32138	9,7357
32139	9,571
32140	9,6692
32141	9,5515
32142	9,4482
32143	9,7357
32144	9,6827
32145	9,5645
32146	9,4601
32147	9,7498
32148	9,5903
32149	9,7883
32150	9,6579
32151	9,9473
32152	9,8096
32153	9,7813
32154	9,6447
32155	9,9319
32156	9,7883
32157	9,6447
32158	9,9319
32159	9,6579
32160	9,9473
32161	9,8096
32162	9,727
32163	9,6508
32164	9,7046
32165	9,7485
32166	9,7198
32167	9,637
32168	9,6903
32169	9,727
32170	9,637
32171	9,6903
32172	9,6508
32173	9,7046
32174	9,7485
32175	9,5626
32176	9,4371
32177	9,4692
32178	9,5824
32179	9,5561
32180	9,4246
32181	9,4568
32182	9,5626
32183	9,4246
32184	9,4568
32185	9,4371
32186	9,4692
32187	9,5824
32188	9,98
32189	10,135
32190	10,083
32191	10,004
32192	9,9722
32193	10,118
32194	10,067
32195	9,98
32196	10,118
32197	10,067
32198	10,135
32199	10,083
32200	10,004
32201	10,347
32202	10,487
32203	10,179
32204	10,452
32205	10,375
32206	10,338
32207	10,468
32208	10,162
32209	10,432
32210	10,347
32211	10,468
32212	10,162
32213	10,432
32214	10,487
32215	10,179
32216	10,452
32217	10,375
32218	10,609
32219	10,632
32220	10,729
32221	10,64
32222	10,599
32223	10,612
32224	10,707
32225	10,609
32226	10,612
32227	10,707
32228	10,632
32229	10,729
32230	10,64
32231	10,64
32232	10,64
32233	10,843
32234	10,672
32235	10,63
32236	10,62
32237	10,821
32238	10,64
32239	10,62
32240	10,821
32241	10,64
32242	10,843
32243	10,672
32244	8,183
32245	8,3167
32246	8,2966
32247	8,0246
32248	8,192
32249	8,18
32250	8,3103
32251	8,2902
32252	8,0192
32253	8,183
32254	8,3103
32255	8,2902
32256	8,0192
32257	8,3167
32258	8,2966
32259	8,0246
32260	8,192
32261	9,3782
32262	9,1988
32263	9,203
32264	9,5529
32265	9,5183
32266	9,3935
32267	9,373
32268	9,1892
32269	9,1934
32270	9,5421
32271	9,5076
32272	9,3782
32273	9,1892
32274	9,1934
32275	9,5421
32276	9,5076
32277	9,1988
32278	9,203
32279	9,5529
32280	9,5183
32281	9,3935
32282	10,17
32283	10,207
32284	10,074
32285	10,268
32286	10,195
32287	10,162
32288	10,19
32289	10,058
32290	10,25
32291	10,17
32292	10,19
32293	10,058
32294	10,25
32295	10,207
32296	10,074
32297	10,268
32298	10,195
32299	7,833
32300	7,6909
32301	7,8527
32302	7,8762
32303	7,8397
32304	7,8308
32305	7,687
32306	7,8482
32307	7,8716
32308	7,833
32309	7,687
32310	7,8482
32311	7,8716
32312	7,6909
32313	7,8527
32314	7,8762
32315	7,8397
32316	9,5578
32317	9,4744
32318	9,6536
32319	9,5775
32320	9,5512
32321	9,4617
32322	9,6397
32323	9,5578
32324	9,4617
32325	9,6397
32326	9,4744
32327	9,6536
32328	9,5775
32329	10,164
32330	10,108
32331	10,37
32332	10,203
32333	10,189
32334	10,155
32335	10,092
32336	10,352
32337	10,186
32338	10,164
32339	10,092
32340	10,352
32341	10,186
32342	10,108
32343	10,37
32344	10,203
32345	10,189
32346	9,2081
32347	9,0774
32348	9,31
32349	9,2251
32350	9,2025
32351	9,0668
32352	9,2979
32353	9,2081
32354	9,0668
32355	9,2979
32356	9,0774
32357	9,31
32358	9,2251
32359	10,629
32360	10,6
32361	10,869
32362	10,441
32363	10,661
32364	10,619
32365	10,579
32366	10,846
32367	10,422
32368	10,629
32369	10,579
32370	10,846
32371	10,422
32372	10,6
32373	10,869
32374	10,441
32375	10,661
32376	10,274
32377	10,2
32378	10,373
32379	10,449
32380	10,302
32381	10,265
32382	10,183
32383	10,354
32384	10,43
32385	10,274
32386	10,183
32387	10,354
32388	10,43
32389	10,2
32390	10,373
32391	10,449
32392	10,302
32393	11,025
32394	10,933
32395	11,237
32396	11,06
32397	11,061
32398	11,012
32399	10,909
32400	11,21
32401	11,036
32402	11,025
32403	10,909
32404	11,21
32405	11,036
32406	10,933
32407	11,237
32408	11,06
32409	11,061
32410	10,177
32411	10,279
32412	10,092
32413	10,368
32414	10,203
32415	10,168
32416	10,261
32417	10,075
32418	10,349
32419	10,177
32420	10,261
32421	10,075
32422	10,349
32423	10,279
32424	10,092
32425	10,368
32426	10,203
32427	8,1711
32428	8,3036
32429	8,0369
32430	8,2097
32431	8,1793
32432	8,1684
32433	8,2976
32434	8,032
32435	8,2038
32436	8,1711
32437	8,2976
32438	8,032
32439	8,2038
32440	8,3036
32441	8,0369
32442	8,2097
32443	8,1793
32444	8,4362
32445	8,5661
32446	8,4856
32447	8,4462
32448	8,4329
32449	8,5588
32450	8,4786
32451	8,4362
32452	8,5588
32453	8,4786
32454	8,5661
32455	8,4856
32456	8,4462
32457	7,6529
32458	7,7767
32459	7,5348
32460	7,6829
32461	7,6345
32462	7,6578
32463	7,6512
32464	7,7729
32465	7,532
32466	7,6793
32467	7,6314
32468	7,6529
32469	7,7729
32470	7,532
32471	7,6793
32472	7,6314
32473	7,7767
32474	7,5348
32475	7,6829
32476	7,6345
32477	7,6578
32478	7,9051
32479	7,9391
32480	7,8834
32481	7,9117
32482	7,9029
32483	7,9345
32484	7,8793
32485	7,9051
32486	7,9345
32487	7,8793
32488	7,9391
32489	7,8834
32490	7,9117
32491	7,2304
32492	7,3226
32493	7,1489
32494	7,2589
32495	7,2329
32496	7,2296
32497	7,3206
32498	7,1476
32499	7,257
32500	7,2304
32501	7,3206
32502	7,1476
32503	7,257
32504	7,3226
32505	7,1489
32506	7,2589
32507	7,2329
32508	7,4237
32509	7,4525
32510	7,4073
32511	7,4273
32512	7,4225
32513	7,4499
32514	7,4051
32515	7,4237
32516	7,4499
32517	7,4051
32518	7,4525
32519	7,4073
32520	7,4273
32521	7,0784
32522	7,1102
32523	7,0201
32524	7,0801
32525	7,0779
32526	7,1088
32527	7,0192
32528	7,0784
32529	7,1088
32530	7,0192
32531	7,1102
32532	7,0201
32533	7,0801
32534	6,9364
32535	6,925
32536	6,9612
32537	6,9863
32538	6,9377
32539	6,936
32540	6,9243
32541	6,9602
32542	6,9851
32543	6,9364
32544	6,9243
32545	6,9602
32546	6,9851
32547	6,925
32548	6,9612
32549	6,9863
32550	6,9377
32551	6,9279
32552	6,9702
32553	6,9443
32554	6,9289
32555	6,9275
32556	6,9692
32557	6,9435
32558	6,9279
32559	6,9692
32560	6,9435
32561	6,9702
32562	6,9442
32563	6,9289
32564	7,1152
32565	7,051
32566	7,1892
32567	7,1817
32568	7,1177
32569	7,1143
32570	7,0496
32571	7,1872
32572	7,1796
32573	7,1152
32574	7,0496
32575	7,1872
32576	7,1796
32577	7,051
32578	7,1892
32579	7,1817
32580	7,1177
32581	7,0002
32582	7,058
32583	7,0019
32584	6,9996
32585	7,0565
32586	7,0002
32587	7,0565
32588	7,058
32589	7,0019
32590	7,5538
32591	7,4091
32592	7,5775
32593	7,6012
32594	7,559
32595	7,5521
32596	7,4062
32597	7,5739
32598	7,5975
32599	7,5538
32600	7,4062
32601	7,5739
32602	7,5975
32603	7,4091
32604	7,5775
32605	7,6012
32606	7,559
32607	7,2756
32608	7,3201
32609	7,3427
32610	7,2791
32611	7,2744
32612	7,3176
32613	7,34
32614	7,2756
32615	7,3176
32616	7,34
32617	7,3201
32618	7,3427
32619	7,2791
32620	9,1549
32621	9,2711
32622	9,0546
32623	9,2478
32624	9,1713
32625	9,1494
32626	9,2596
32627	9,0442
32628	9,2363
32629	9,1549
32630	9,2596
32631	9,0442
32632	9,2363
32633	9,2711
32634	9,0546
32635	9,2478
32636	9,1713
32637	9,3798
32638	9,461
32639	9,398
32640	9,3737
32641	9,4482
32642	9,3798
32643	9,4482
32644	9,461
32645	9,398
32646	8,2407
32647	8,3827
32648	8,1017
32649	8,306
32650	8,1932
32651	8,25
32652	8,2377
32653	8,3759
32654	8,0962
32655	8,2993
32656	8,1875
32657	8,2407
32658	8,3759
32659	8,0962
32660	8,2993
32661	8,1875
32662	8,3827
32663	8,1017
32664	8,306
32665	8,1932
32666	8,25
32667	8,5263
32668	8,5996
32669	8,6588
32670	8,5375
32671	8,5226
32672	8,5916
32673	8,6508
32674	8,5263
32675	8,5916
32676	8,6508
32677	8,5996
32678	8,6588
32679	8,5375
32680	7,7154
32681	7,8379
32682	7,6018
32683	7,7707
32684	7,7213
32685	7,7134
32686	7,8334
32687	7,5984
32688	7,7663
32689	7,7154
32690	7,8334
32691	7,5984
32692	7,7663
32693	7,8379
32694	7,6018
32695	7,7707
32696	7,7213
32697	7,9666
32698	8,0251
32699	7,9741
32700	7,9642
32701	8,0196
32702	7,9666
32703	8,0196
32704	8,0251
32705	7,9741
32706	7,3212
32707	7,4036
32708	7,254
32709	7,3808
32710	7,3248
32711	7,3201
32712	7,4009
32713	7,2519
32714	7,3779
32715	7,3212
32716	7,4009
32717	7,2519
32718	7,3779
32719	7,4036
32720	7,254
32721	7,3808
32722	7,3248
32723	7,497
32724	7,5533
32725	7,5016
32726	7,4955
32727	7,5498
32728	7,497
32729	7,5498
32730	7,5533
32731	7,5016
32732	7,1329
32733	7,1591
32734	7,1236
32735	7,2032
32736	7,0756
32737	7,1355
32738	7,1321
32739	7,1573
32740	7,1219
32741	7,201
32742	7,0743
32743	7,1329
32744	7,1573
32745	7,1219
32746	7,201
32747	7,0743
32748	7,1591
32749	7,1236
32750	7,2032
32751	7,0756
32752	7,1355
32753	7,1996
32754	7,263
32755	7,1466
32756	7,2025
32757	7,1986
32758	7,2606
32759	7,145
32760	7,1996
32761	7,2606
32762	7,145
32763	7,263
32764	7,1466
32765	7,2025
32766	7,1944
32767	7,1549
32768	7,2586
32769	7,2775
32770	7,1975
32771	7,1933
32772	7,153
32773	7,2562
32774	7,2749
32775	7,1944
32776	7,153
32777	7,2562
32778	7,2749
32779	7,1549
32780	7,2586
32781	7,2775
32782	7,1975
32783	7,1308
32784	7,2073
32785	7,1335
32786	7,13
32787	7,2051
32788	7,1308
32789	7,2051
32790	7,2073
32791	7,1335
32792	7,5483
32793	7,4378
32794	7,6857
32795	7,6361
32796	7,5537
32797	7,5465
32798	7,4347
32799	7,6816
32800	7,6321
32801	7,5483
32802	7,4347
32803	7,6816
32804	7,6321
32805	7,4378
32806	7,6857
32807	7,6361
32808	7,5537
32809	7,3371
32810	7,4238
32811	7,3411
32812	7,3358
32813	7,4206
32814	7,3371
32815	7,4206
32816	7,4238
32817	7,3411
32818	8,1516
32819	7,9887
32820	8,3
32821	8,2374
32822	8,1605
32823	8,1486
32824	7,9834
32825	8,2936
32826	8,2311
32827	8,1516
32828	7,9834
32829	8,2936
32830	8,2311
32831	7,9887
32832	8,3
32833	8,2374
32834	8,1605
32835	7,8311
32836	7,9134
32837	7,8382
32838	7,8288
32839	7,9083
32840	7,8311
32841	7,9083
32842	7,9134
32843	7,8382
32844	8,4508
32845	8,5937
32846	8,5635
32847	8,4613
32848	8,4473
32849	8,5862
32850	8,5561
32851	8,4508
32852	8,5862
32853	8,5561
32854	8,5937
32855	8,5635
32856	8,4613
32857	8,4107
32858	8,5733
32859	8,2401
32860	8,535
32861	8,4209
32862	8,4073
32863	8,5659
32864	8,2339
32865	8,5277
32866	8,4107
32867	8,5659
32868	8,2339
32869	8,5277
32870	8,5733
32871	8,2401
32872	8,535
32873	8,4209
32874	8,7366
32875	8,8775
32876	8,8827
32877	8,7486
32878	8,7327
32879	8,8691
32880	8,8742
32881	8,7366
32882	8,8691
32883	8,8742
32884	8,8775
32885	8,8827
32886	8,7486
32887	7,7662
32888	7,9165
32889	7,6353
32890	7,8716
32891	7,7728
32892	7,7639
32893	7,9115
32894	7,6314
32895	7,8667
32896	7,7662
32897	7,9115
32898	7,6314
32899	7,8667
32900	7,9165
32901	7,6353
32902	7,8716
32903	7,7728
32904	8,0727
32905	8,1845
32906	7,9691
32907	8,0811
32908	8,0699
32909	8,1784
32910	7,9639
32911	8,0727
32912	8,1784
32913	7,9639
32914	8,1845
32915	7,9691
32916	8,0811
32917	7,3257
32918	7,414
32919	7,2555
32920	7,419
32921	7,3297
32922	7,3244
32923	7,411
32924	7,2532
32925	7,4158
32926	7,3257
32927	7,411
32928	7,2532
32929	7,4158
32930	7,414
32931	7,2555
32932	7,419
32933	7,3297
32934	7,5128
32935	7,6138
32936	7,518
32937	7,5111
32938	7,6099
32939	7,5128
32940	7,6099
32941	7,6138
32942	7,518
32943	7,1327
32944	7,1581
32945	7,1251
32946	7,2096
32947	7,1353
32948	7,1318
32949	7,1562
32950	7,1234
32951	7,2073
32952	7,1327
32953	7,1562
32954	7,1234
32955	7,2073
32956	7,1581
32957	7,1251
32958	7,2096
32959	7,1353
32960	7,1983
32961	7,125
32962	7,2825
32963	7,2014
32964	7,1972
32965	7,1234
32966	7,2799
32967	7,1983
32968	7,1234
32969	7,2799
32970	7,125
32971	7,2825
32972	7,2014
32973	7,1967
32974	7,1576
32975	7,2611
32976	7,252
32977	7,1995
32978	7,1957
32979	7,1558
32980	7,2587
32981	7,2499
32982	7,1967
32983	7,1558
32984	7,2587
32985	7,2499
32986	7,1576
32987	7,2611
32988	7,252
32989	7,1995
32990	7,1328
32991	7,203
32992	7,1353
32993	7,1319
32994	7,2008
32995	7,1328
32996	7,2008
32997	7,203
32998	7,1353
32999	7,4956
33000	7,5519
33001	7,4024
33002	7,6002
33003	7,5002
33004	7,4941
33005	7,5484
33006	7,3997
33007	7,5968
33008	7,4956
33009	7,5484
33010	7,3997
33011	7,5968
33012	7,5519
33013	7,4024
33014	7,6002
33015	7,5002
33016	7,9647
33017	8,1019
33018	8,0215
33019	7,836
33020	7,9722
33021	7,9622
33022	8,0963
33023	8,016
33024	7,8316
33025	7,9647
33026	8,0963
33027	8,016
33028	7,8316
33029	8,1019
33030	8,0215
33031	7,836
33032	7,9722
33033	8,5287
33034	8,3853
33035	8,4779
33036	8,5982
33037	8,5399
33038	8,525
33039	8,3785
33040	8,4709
33041	8,5902
33042	8,5287
33043	8,3785
33044	8,4709
33045	8,5902
33046	8,3853
33047	8,4779
33048	8,5982
33049	8,5399
33050	8,2433
33051	8,3022
33052	8,1959
33053	8,2526
33054	8,2402
33055	8,2955
33056	8,1902
33057	8,2433
33058	8,2955
33059	8,1902
33060	8,3022
33061	8,1959
33062	8,2526
33063	10,234
33064	10,266
33065	10,355
33066	10,26
33067	10,225
33068	10,248
33069	10,336
33070	10,234
33071	10,248
33072	10,336
33073	10,266
33074	10,355
33075	10,26
33076	10,83
33077	10,982
33078	10,695
33079	10,864
33080	10,819
33081	10,958
33082	10,673
33083	10,83
33084	10,958
33085	10,673
33086	10,982
33087	10,695
33088	10,864
33089	7,8746
33090	7,7381
33091	8,0113
33092	7,9491
33093	7,8814
33094	7,8723
33095	7,734
33096	8,0063
33097	7,9443
33098	7,8746
33099	7,734
33100	8,0063
33101	7,9443
33102	7,7381
33103	8,0113
33104	7,9491
33105	7,8814
33106	7,3769
33107	7,4879
33108	7,2839
33109	7,4487
33110	7,3811
33111	7,3755
33112	7,4847
33113	7,2814
33114	7,4455
33115	7,3769
33116	7,4847
33117	7,2814
33118	7,4455
33119	7,4879
33120	7,2839
33121	7,4487
33122	7,3811
33123	7,6062
33124	7,6773
33125	7,6117
33126	7,6044
33127	7,6733
33128	7,6062
33129	7,6733
33130	7,6773
33131	7,6117
33132	7,083
33133	7,1354
33134	7,0462
33135	7,1523
33136	7,0856
33137	7,0822
33138	7,1335
33139	7,0447
33140	7,1502
33141	7,083
33142	7,1335
33143	7,0447
33144	7,1502
33145	7,1354
33146	7,0462
33147	7,1523
33148	7,0856
33149	7,2014
33150	7,2729
33151	7,2046
33152	7,2003
33153	7,2704
33154	7,2014
33155	7,2704
33156	7,2729
33157	7,2046
33158	7,0235
33159	7,0173
33160	7,0893
33161	7,0256
33162	7,0228
33163	7,016
33164	7,0875
33165	7,0235
33166	7,016
33167	7,0875
33168	7,0173
33169	7,0893
33170	7,0256
33171	7,1975
33172	7,1349
33173	7,2731
33174	7,2476
33175	7,2003
33176	7,1965
33177	7,1332
33178	7,2709
33179	7,2453
33180	7,1975
33181	7,1332
33182	7,2709
33183	7,2453
33184	7,1349
33185	7,2731
33186	7,2476
33187	7,2003
33188	7,0842
33189	7,1389
33190	7,0481
33191	7,0864
33192	7,0834
33193	7,137
33194	7,0467
33195	7,0842
33196	7,137
33197	7,0467
33198	7,1389
33199	7,0481
33200	7,0864
33201	7,5619
33202	7,4563
33203	7,6766
33204	7,6074
33205	7,5275
33206	7,5668
33207	7,5602
33208	7,4534
33209	7,6728
33210	7,6037
33211	7,5245
33212	7,5619
33213	7,4534
33214	7,6728
33215	7,6037
33216	7,5245
33217	7,4563
33218	7,6766
33219	7,6074
33220	7,5275
33221	7,5668
33222	7,3591
33223	7,406
33224	7,3629
33225	7,3579
33226	7,4031
33227	7,3591
33228	7,4031
33229	7,406
33230	7,3629
33231	8,0577
33232	7,9256
33233	8,1949
33234	8,1079
33235	8,0658
33236	8,0551
33237	7,9208
33238	8,189
33239	8,1021
33240	8,0577
33241	7,9208
33242	8,189
33243	8,1021
33244	7,9256
33245	8,1949
33246	8,1079
33247	8,0658
33248	7,7976
33249	7,8441
33250	7,7628
33251	7,804
33252	7,7954
33253	7,8394
33254	7,7589
33255	7,7976
33256	7,8394
33257	7,7589
33258	7,8441
33259	7,7628
33260	7,804
33261	8,624
33262	8,4789
33263	8,7747
33264	8,6888
33265	8,6358
33266	8,6201
33267	8,4717
33268	8,7661
33269	8,6804
33270	8,624
33271	8,4717
33272	8,7661
33273	8,6804
33274	8,4789
33275	8,7747
33276	8,6888
33277	8,6358
33278	8,3341
33279	8,3908
33280	8,344
33281	8,3308
33282	8,3837
33283	8,3341
33284	8,3837
33285	8,3908
33286	8,344
33287	9,2271
33288	9,0772
33289	9,309
33290	9,1502
33291	9,2435
33292	9,2217
33293	9,0671
33294	9,2975
33295	9,1399
33296	9,2271
33297	9,0671
33298	9,2975
33299	9,1399
33300	9,0772
33301	9,309
33302	9,1502
33303	9,2435
33304	8,9243
33305	8,9947
33306	8,8615
33307	8,9383
33308	8,9196
33309	8,9849
33310	8,8527
33311	8,9243
33312	8,9849
33313	8,8527
33314	8,9947
33315	8,8615
33316	8,9383
33317	9,6086
33318	9,6691
33319	9,7559
33320	9,6281
33321	9,6022
33322	9,6559
33323	9,7419
33324	9,6086
33325	9,6559
33326	9,7419
33327	9,6691
33328	9,7559
33329	9,6281
33330	9,7233
33331	9,8907
33332	9,7437
33333	9,7165
33334	9,8759
33335	9,7233
33336	9,8759
33337	9,8907
33338	9,7437
33339	10,61
33340	10,458
33341	10,519
33342	10,798
33343	10,716
33344	10,642
33345	10,6
33346	10,439
33347	10,499
33348	10,775
33349	10,695
33350	10,61
33351	10,439
33352	10,499
33353	10,775
33354	10,695
33355	10,458
33356	10,519
33357	10,798
33358	10,716
33359	10,642
33360	10,292
33361	10,454
33362	10,195
33363	10,319
33364	10,283
33365	10,434
33366	10,178
33367	10,292
33368	10,434
33369	10,178
33370	10,454
33371	10,195
33372	10,319
33373	9,6711
33374	9,4969
33375	9,7332
33376	9,8658
33377	9,6926
33378	9,664
33379	9,4839
33380	9,7184
33381	9,8501
33382	9,6711
33383	9,4839
33384	9,7184
33385	9,8501
33386	9,4969
33387	9,7332
33388	9,8658
33389	9,6926
33390	9,3122
33391	9,1442
33392	9,3828
33393	9,2103
33394	9,33
33395	9,3063
33396	9,1333
33397	9,3703
33398	9,1993
33399	9,3122
33400	9,1333
33401	9,3703
33402	9,1993
33403	9,1442
33404	9,3828
33405	9,2103
33406	9,33
33407	10,177
33408	10,328
33409	10,268
33410	10,203
33411	10,168
33412	10,31
33413	10,25
33414	10,177
33415	10,31
33416	10,25
33417	10,328
33418	10,268
33419	10,203
33420	11,424
33421	11,272
33422	11,649
33423	11,489
33424	11,467
33425	11,409
33426	11,245
33427	11,617
33428	11,459
33429	11,424
33430	11,245
33431	11,617
33432	11,459
33433	11,272
33434	11,649
33435	11,489
33436	11,467
33437	10,37
33438	10,567
33439	10,4
33440	10,399
33441	10,361
33442	10,546
33443	10,38
33444	10,37
33445	10,546
33446	10,38
33447	10,567
33448	10,4
33449	10,399
33450	8,249
33451	8,1109
33452	8,3029
33453	8,391
33454	8,2582
33455	8,2459
33456	8,1053
33457	8,2963
33458	8,3842
33459	8,249
33460	8,1053
33461	8,2963
33462	8,3842
33463	8,1109
33464	8,3029
33465	8,391
33466	8,2582
33467	7,7173
33468	7,8439
33469	7,5986
33470	7,7632
33471	7,7232
33472	7,7153
33473	7,8394
33474	7,5951
33475	7,7589
33476	7,7173
33477	7,8394
33478	7,5951
33479	7,7589
33480	7,8439
33481	7,5986
33482	7,7632
33483	7,7232
33484	7,9756
33485	8,0244
33486	7,9832
33487	7,9731
33488	8,0189
33489	7,9756
33490	8,0189
33491	8,0244
33492	7,9832
33493	7,2946
33494	7,3862
33495	7,2167
33496	7,3425
33497	7,298
33498	7,2935
33499	7,3836
33500	7,2148
33501	7,3398
33502	7,2946
33503	7,3836
33504	7,2148
33505	7,3398
33506	7,3862
33507	7,2167
33508	7,3425
33509	7,298
33510	7,4873
33511	7,5331
33512	7,4918
33513	7,4858
33514	7,5297
33515	7,4873
33516	7,5297
33517	7,5331
33518	7,4918
33519	7,1501
33520	7,2007
33521	7,0964
33522	7,1528
33523	7,1493
33524	7,1986
33525	7,0949
33526	7,1501
33527	7,1986
33528	7,0949
33529	7,2007
33530	7,0964
33531	7,1528
33532	7,0444
33533	7,0256
33534	7,0777
33535	7,1115
33536	7,0466
33537	7,0436
33538	7,0242
33539	7,076
33540	7,1096
33541	7,0444
33542	7,0242
33543	7,076
33544	7,1096
33545	7,0256
33546	7,0777
33547	7,1115
33548	7,0466
33549	7,0208
33550	7,0819
33551	7,0314
33552	7,0229
33553	7,0202
33554	7,0801
33555	7,03
33556	7,0208
33557	7,0801
33558	7,03
33559	7,0819
33560	7,0314
33561	7,0229
33562	7,2584
33563	7,1855
33564	7,3379
33565	7,3365
33566	7,262
33567	7,2572
33568	7,1834
33569	7,3352
33570	7,3337
33571	7,2584
33572	7,1834
33573	7,3352
33574	7,3337
33575	7,1855
33576	7,3379
33577	7,3365
33578	7,262
33579	7,1243
33580	7,1974
33581	7,1271
33582	7,1233
33583	7,1951
33584	7,1243
33585	7,1951
33586	7,1974
33587	7,1271
33588	7,6542
33589	7,5369
33590	7,7853
33591	7,7522
33592	7,6599
33593	7,6523
33594	7,5335
33595	7,781
33596	7,7479
33597	7,6542
33598	7,5335
33599	7,781
33600	7,7479
33601	7,5369
33602	7,7853
33603	7,7522
33604	7,6599
33605	7,425
33606	7,5151
33607	7,4295
33608	7,4235
33609	7,5116
33610	7,425
33611	7,5116
33612	7,5151
33613	7,4295
33614	7,9196
33615	8,0293
33616	7,9267
33617	7,9172
33618	8,0242
33619	7,9196
33620	8,0242
33621	8,0293
33622	7,9267
33623	8,656
33624	8,566
33625	8,4942
33626	8,7476
33627	8,8272
33628	8,6664
33629	8,6526
33630	8,5593
33631	8,4877
33632	8,7404
33633	8,8199
33634	8,656
33635	8,5593
33636	8,4877
33637	8,7404
33638	8,8199
33639	8,566
33640	8,4942
33641	8,7476
33642	8,8272
33643	8,6664
33644	8,4739
33645	8,6161
33646	8,3112
33647	8,4835
33648	8,4707
33649	8,6093
33650	8,3053
33651	8,4739
33652	8,6093
33653	8,3053
33654	8,6161
33655	8,3112
33656	8,4835
33657	8,95
33658	8,8115
33659	9,0935
33660	8,8716
33661	8,965
33662	8,9451
33663	8,8022
33664	9,0826
33665	8,8623
33666	8,95
33667	8,8022
33668	9,0826
33669	8,8623
33670	8,8115
33671	9,0935
33672	8,8716
33673	8,965
33674	9,3315
33675	9,4381
33676	9,283
33677	9,3498
33678	9,3254
33679	9,4252
33680	9,2708
33681	9,3315
33682	9,4252
33683	9,2708
33684	9,4381
33685	9,283
33686	9,3498
33687	9,5336
33688	9,5914
33689	9,6388
33690	9,5539
33691	9,5269
33692	9,5774
33693	9,6248
33694	9,5336
33695	9,5774
33696	9,6248
33697	9,5914
33698	9,6388
33699	9,5539
33700	8,372
33701	8,5212
33702	8,2268
33703	8,449
33704	8,3829
33705	8,3684
33706	8,5133
33707	8,2202
33708	8,4411
33709	8,372
33710	8,5133
33711	8,2202
33712	8,4411
33713	8,5212
33714	8,2268
33715	8,449
33716	8,3829
33717	8,6721
33718	8,7648
33719	8,6851
33720	8,6678
33721	8,7555
33722	8,6721
33723	8,7555
33724	8,7648
33725	8,6851
33726	7,8303
33727	7,9549
33728	7,9015
33729	7,7184
33730	7,8377
33731	7,8279
33732	7,9494
33733	7,896
33734	7,714
33735	7,8303
33736	7,9494
33737	7,896
33738	7,714
33739	7,9549
33740	7,9015
33741	7,7184
33742	7,8377
33743	8,0862
33744	8,1565
33745	8,0952
33746	8,0832
33747	8,1499
33748	8,0862
33749	8,1499
33750	8,1565
33751	8,0952
33752	7,2817
33753	7,301
33754	7,2798
33755	7,3685
33756	7,2858
33757	7,2803
33758	7,2982
33759	7,2771
33760	7,3652
33761	7,2817
33762	7,2982
33763	7,2771
33764	7,3652
33765	7,301
33766	7,2798
33767	7,3685
33768	7,2858
33769	7,3339
33770	7,4153
33771	7,3843
33772	7,3383
33773	7,3324
33774	7,4117
33775	7,3812
33776	7,3339
33777	7,4117
33778	7,3812
33779	7,4153
33780	7,3843
33781	7,3383
33782	7,2923
33783	7,3857
33784	7,3248
33785	7,2966
33786	7,2909
33787	7,3823
33788	7,3218
33789	7,2923
33790	7,3823
33791	7,3218
33792	7,3857
33793	7,3248
33794	7,2966
33795	7,7304
33796	7,6207
33797	7,8602
33798	7,8337
33799	7,7372
33800	7,7282
33801	7,6166
33802	7,8552
33803	7,8287
33804	7,7304
33805	7,6166
33806	7,8552
33807	7,8287
33808	7,6207
33809	7,8602
33810	7,8337
33811	7,7372
33812	7,5201
33813	7,6215
33814	7,439
33815	7,5257
33816	7,5182
33817	7,6172
33818	7,4356
33819	7,5201
33820	7,6172
33821	7,4356
33822	7,6215
33823	7,439
33824	7,5257
33825	8,3219
33826	8,157
33827	8,4967
33828	8,4257
33829	8,3318
33830	8,3185
33831	8,1509
33832	8,4894
33833	8,4186
33834	8,3219
33835	8,1509
33836	8,4894
33837	8,4186
33838	8,157
33839	8,4967
33840	8,4257
33841	8,3318
33842	7,9974
33843	8,1041
33844	8,0056
33845	7,9946
33846	8,0981
33847	7,9974
33848	8,0981
33849	8,1041
33850	8,0056
33851	9,0176
33852	8,8465
33853	9,1397
33854	9,031
33855	9,0131
33856	8,8381
33857	9,1303
33858	9,0176
33859	8,8381
33860	9,1303
33861	8,8465
33862	9,1397
33863	9,031
33864	8,6745
33865	8,775
33866	8,6862
33867	8,6706
33868	8,7668
33869	8,6745
33870	8,7668
33871	8,775
33872	8,6862
33873	9,0276
33874	9,1601
33875	8,8431
33876	9,0411
33877	9,0232
33878	9,1506
33879	8,8348
33880	9,0276
33881	9,1506
33882	8,8348
33883	9,1601
33884	8,8431
33885	9,0411
33886	7,9827
33887	8,1382
33888	7,8491
33889	8,0949
33890	7,9909
33891	7,98
33892	8,1322
33893	7,8442
33894	8,089
33895	7,9827
33896	8,1322
33897	7,8442
33898	8,089
33899	8,1382
33900	7,8491
33901	8,0949
33902	7,9909
33903	8,2988
33904	8,4132
33905	8,4775
33906	8,3086
33907	8,2956
33908	8,4062
33909	8,4703
33910	8,2988
33911	8,4062
33912	8,4703
33913	8,4132
33914	8,4775
33915	8,3086
33916	7,5213
33917	7,6172
33918	7,6226
33919	7,4423
33920	7,5269
33921	7,5194
33922	7,6131
33923	7,6183
33924	7,4388
33925	7,5213
33926	7,6131
33927	7,6183
33928	7,4388
33929	7,6172
33930	7,6226
33931	7,4423
33932	7,5269
33933	7,7228
33934	7,8303
33935	7,7295
33936	7,7206
33937	7,8253
33938	7,7228
33939	7,8253
33940	7,8303
33941	7,7295
33942	7,295
33943	7,2813
33944	7,3874
33945	7,3285
33946	7,2993
33947	7,2936
33948	7,2786
33949	7,384
33950	7,3256
33951	7,295
33952	7,2786
33953	7,384
33954	7,3256
33955	7,2813
33956	7,3874
33957	7,3285
33958	7,2993
33959	7,2815
33960	7,3684
33961	7,3006
33962	7,2856
33963	7,2801
33964	7,3651
33965	7,2978
33966	7,2815
33967	7,3651
33968	7,2978
33969	7,3684
33970	7,3006
33971	7,2856
33972	7,6141
33973	7,687
33974	7,5247
33975	7,7169
33976	7,6201
33977	7,6121
33978	7,6824
33979	7,5211
33980	7,7125
33981	7,6141
33982	7,6824
33983	7,5211
33984	7,7125
33985	7,687
33986	7,5247
33987	7,7169
33988	7,6201
33989	8,081
33990	8,2194
33991	8,1528
33992	7,9515
33993	8,0899
33994	8,078
33995	8,2128
33996	8,1462
33997	7,9461
33998	8,081
33999	8,2128
34000	8,1462
34001	7,9461
34002	8,2194
34003	8,1528
34004	7,9515
34005	8,0899
34006	8,3621
34007	8,4374
34008	8,513
34009	8,3729
34010	8,3585
34011	8,4296
34012	8,5051
34013	8,3621
34014	8,4296
34015	8,5051
34016	8,4374
34017	8,513
34018	8,3729
34019	8,9743
34020	9,0545
34021	8,8206
34022	8,9895
34023	8,9692
34024	9,0437
34025	8,8113
34026	8,9743
34027	9,0437
34028	8,8113
34029	9,0545
34030	8,8206
34031	8,9895
34032	11,112
34033	10,937
34034	11,266
34035	11,15
34036	11,099
34037	10,912
34038	11,238
34039	11,112
34040	10,912
34041	11,238
34042	10,937
34043	11,266
34044	11,15
34045	10,746
34046	10,846
34047	10,653
34048	10,78
34049	10,735
34050	10,822
34051	10,631
34052	10,746
34053	10,822
34054	10,631
34055	10,846
34056	10,653
34057	10,78
34058	8,3331
34059	8,4228
34060	8,2415
34061	8,1779
34062	8,3422
34063	8,33
34064	8,4165
34065	8,2357
34066	8,1722
34067	8,3331
34068	8,4165
34069	8,2357
34070	8,1722
34071	8,4228
34072	8,2415
34073	8,1779
34074	8,3422
34075	7,3049
34076	7,2475
34077	7,3769
34078	7,3716
34079	7,3091
34080	7,3035
34081	7,2449
34082	7,3739
34083	7,3683
34084	7,3049
34085	7,2449
34086	7,3739
34087	7,3683
34088	7,2475
34089	7,3769
34090	7,3716
34091	7,3091
34092	7,2015
34093	7,2728
34094	7,1713
34095	7,2051
34096	7,2003
34097	7,2699
34098	7,1691
34099	7,2015
34100	7,2699
34101	7,1691
34102	7,2728
34103	7,1713
34104	7,2051
34105	7,6579
34106	7,5542
34107	7,7727
34108	7,719
34109	7,6642
34110	7,6558
34111	7,5505
34112	7,7681
34113	7,7143
34114	7,6579
34115	7,5505
34116	7,7681
34117	7,7143
34118	7,5542
34119	7,7727
34120	7,719
34121	7,6642
34122	7,4591
34123	7,5222
34124	7,4642
34125	7,4574
34126	7,5183
34127	7,4591
34128	7,5183
34129	7,5222
34130	7,4642
34131	7,8941
34132	7,9554
34133	8,0247
34134	7,9018
34135	7,8915
34136	7,9497
34137	8,0191
34138	7,8941
34139	7,9497
34140	8,0191
34141	7,9554
34142	8,0247
34143	7,9018
34144	8,7515
34145	8,9072
34146	8,8284
34147	8,5992
34148	8,765
34149	8,7471
34150	8,8975
34151	8,8188
34152	8,591
34153	8,7515
34154	8,8975
34155	8,8188
34156	8,591
34157	8,9072
34158	8,8284
34159	8,5992
34160	8,765
34161	9,3851
34162	9,2247
34163	9,4544
34164	9,4034
34165	9,379
34166	9,2134
34167	9,4415
34168	9,3851
34169	9,2134
34170	9,4415
34171	9,2247
34172	9,4544
34173	9,4034
34174	9,0615
34175	9,1464
34176	9,0772
34177	9,0563
34178	9,1352
34179	9,0615
34180	9,1352
34181	9,1464
34182	9,0772
34183	9,892
34184	9,9722
34185	10,057
34186	9,7942
34187	9,9147
34188	9,8844
34189	9,9567
34190	10,041
34191	9,7797
34192	9,892
34193	9,9567
34194	10,041
34195	9,7797
34196	9,9722
34197	10,057
34198	9,7942
34199	9,9147
34200	10,046
34201	10,232
34202	10,07
34203	10,038
34204	10,214
34205	10,046
34206	10,214
34207	10,232
34208	10,07
34209	10,6
34210	10,729
34211	10,536
34212	10,713
34213	10,631
34214	10,59
34215	10,707
34216	10,516
34217	10,691
34218	10,6
34219	10,707
34220	10,516
34221	10,691
34222	10,729
34223	10,536
34224	10,713
34225	10,631
34226	10,417
34227	10,313
34228	10,601
34229	10,262
34230	10,446
34231	10,408
34232	10,295
34233	10,58
34234	10,245
34235	10,417
34236	10,295
34237	10,58
34238	10,245
34239	10,313
34240	10,601
34241	10,262
34242	10,446
34243	8,9415
34244	8,7974
34245	9,0291
34246	8,875
34247	8,9564
34248	8,9365
34249	8,7882
34250	9,0185
34251	8,8657
34252	8,9415
34253	8,7882
34254	9,0185
34255	8,8657
34256	8,7974
34257	9,0291
34258	8,875
34259	8,9564
34260	9,9488
34261	10,079
34262	9,7974
34263	10,059
34264	9,8482
34265	9,9735
34266	9,9406
34267	10,062
34268	9,782
34269	10,042
34270	9,8328
34271	9,9488
34272	10,062
34273	9,782
34274	10,042
34275	9,8328
34276	10,079
34277	9,7974
34278	10,059
34279	9,8482
34280	9,9735
34281	9,7852
34282	9,623
34283	9,9133
34284	9,9204
34285	9,8085
34286	9,7775
34287	9,6086
34288	9,8968
34289	9,9042
34290	9,7852
34291	9,6086
34292	9,8968
34293	9,9042
34294	9,623
34295	9,9133
34296	9,9204
34297	9,8085
34298	9,7858
34299	9,6585
34300	9,9145
34301	9,8089
34302	9,7782
34303	9,644
34304	9,898
34305	9,7858
34306	9,644
34307	9,898
34308	9,6585
34309	9,9145
34310	9,8089
34311	9,9762
34312	10,095
34313	9,839
34314	9,846
34315	10,135
34316	10,001
34317	9,968
34318	10,078
34319	9,8239
34320	9,8305
34321	10,118
34322	9,9762
34323	10,078
34324	9,8239
34325	9,8305
34326	10,118
34327	10,095
34328	9,839
34329	9,846
34330	10,135
34331	10,001
34332	10,561
34333	10,801
34334	10,485
34335	10,591
34336	10,551
34337	10,779
34338	10,466
34339	10,561
34340	10,779
34341	10,466
34342	10,801
34343	10,485
34344	10,591
34345	10,117
34346	10,297
34347	10,143
34348	10,108
34349	10,278
34350	10,117
34351	10,278
34352	10,297
34353	10,143
34354	11,844
34355	11,624
34356	12,017
34357	12,011
34358	11,895
34359	11,827
34360	11,592
34361	11,981
34362	11,975
34363	11,844
34364	11,592
34365	11,981
34366	11,975
34367	11,624
34368	12,017
34369	12,011
34370	11,895
34371	11,052
34372	11,018
34373	11,203
34374	10,94
34375	11,09
34376	11,039
34377	10,993
34378	11,176
34379	10,916
34380	11,052
34381	10,993
34382	11,176
34383	10,916
34384	11,018
34385	11,203
34386	10,94
34387	11,09
34388	9,4053
34389	9,2614
34390	9,5169
34391	9,5593
34392	9,4247
34393	9,3989
34394	9,2493
34395	9,503
34396	9,5455
34397	9,4053
34398	9,2493
34399	9,503
34400	9,5455
34401	9,2614
34402	9,5169
34403	9,5593
34404	9,4247
34405	8,8368
34406	8,6741
34407	9,0068
34408	8,9275
34409	8,8481
34410	8,833
34411	8,667
34412	8,9988
34413	8,9197
34414	8,8368
34415	8,667
34416	8,9988
34417	8,9197
34418	8,6741
34419	9,0068
34420	8,9275
34421	8,8481
34422	9,7259
34423	9,904
34424	9,5084
34425	10,
34426	9,8264
34427	9,7429
34428	9,7202
34429	9,892
34430	9,4978
34431	9,9882
34432	9,8146
34433	9,7259
34434	9,892
34435	9,4978
34436	9,9882
34437	9,8146
34438	9,904
34439	9,5084
34440	10,
34441	9,8264
34442	9,7429
34443	10,422
34444	10,68
34445	10,226
34446	10,568
34447	10,243
34448	10,452
34449	10,412
34450	10,658
34451	10,207
34452	10,546
34453	10,224
34454	10,422
34455	10,658
34456	10,207
34457	10,546
34458	10,224
34459	10,68
34460	10,226
34461	10,568
34462	10,243
34463	10,452
34464	11,088
34465	11,06
34466	11,33
34467	11,126
34468	11,075
34469	11,035
34470	11,302
34471	11,088
34472	11,035
34473	11,302
34474	11,06
34475	11,33
34476	11,126
34477	10,462
34478	10,515
34479	10,648
34480	10,491
34481	10,452
34482	10,495
34483	10,627
34484	10,462
34485	10,495
34486	10,627
34487	10,515
34488	10,648
34489	10,491
34490	10,606
34491	10,538
34492	10,715
34493	10,771
34494	10,638
34495	10,595
34496	10,517
34497	10,693
34498	10,748
34499	10,606
34500	10,517
34501	10,693
34502	10,748
34503	10,538
34504	10,715
34505	10,771
34506	10,638
34507	8,3575
34508	8,5042
34509	8,215
34510	8,4279
34511	8,3682
34512	8,3539
34513	8,4964
34514	8,2085
34515	8,4202
34516	8,3575
34517	8,4964
34518	8,2085
34519	8,4202
34520	8,5042
34521	8,215
34522	8,4279
34523	8,3682
34524	8,6515
34525	8,731
34526	8,5932
34527	8,6643
34528	8,6473
34529	8,7219
34530	8,5853
34531	8,6515
34532	8,7219
34533	8,5853
34534	8,731
34535	8,5932
34536	8,6643
34537	8,0754
34538	8,1383
34539	7,9415
34540	8,0843
34541	8,0725
34542	8,1319
34543	7,9362
34544	8,0754
34545	8,1319
34546	7,9362
34547	8,1383
34548	7,9415
34549	8,0843
34550	7,397
34551	7,4858
34552	7,3222
34553	7,4612
34554	7,4017
34555	7,3954
34556	7,4823
34557	7,3193
34558	7,4576
34559	7,397
34560	7,4823
34561	7,3193
34562	7,4576
34563	7,4858
34564	7,3222
34565	7,4612
34566	7,4017
34567	7,5843
34568	7,6458
34569	7,6948
34570	7,5901
34571	7,5823
34572	7,6415
34573	7,6905
34574	7,5843
34575	7,6415
34576	7,6905
34577	7,6458
34578	7,6948
34579	7,5901
34580	7,2586
34581	7,327
34582	7,2106
34583	7,2625
34584	7,2573
34585	7,3239
34586	7,2082
34587	7,2586
34588	7,3239
34589	7,2082
34590	7,327
34591	7,2106
34592	7,2625
34593	7,1504
34594	7,229
34595	7,1619
34596	7,1563
34597	7,1537
34598	7,1493
34599	7,2262
34600	7,1596
34601	7,154
34602	7,1504
34603	7,2262
34604	7,1596
34605	7,154
34606	7,229
34607	7,1619
34608	7,1563
34609	7,1537
34610	7,2779
34611	7,3671
34612	7,3451
34613	7,2261
34614	7,282
34615	7,2765
34616	7,3639
34617	7,3421
34618	7,2236
34619	7,2779
34620	7,3639
34621	7,3421
34622	7,2236
34623	7,3671
34624	7,3451
34625	7,2261
34626	7,282
34627	8,4507
34628	8,6038
34629	8,5593
34630	8,2946
34631	8,4603
34632	8,4475
34633	8,597
34634	8,5526
34635	8,2886
34636	8,4507
34637	8,597
34638	8,5526
34639	8,2886
34640	8,6038
34641	8,5593
34642	8,2946
34643	8,4603
34644	8,9981
34645	8,8789
34646	9,0879
34647	9,1868
34648	9,0099
34649	8,9941
34650	8,8714
34651	9,0798
34652	9,1785
34653	8,9981
34654	8,8714
34655	9,0798
34656	9,1785
34657	8,8789
34658	9,0879
34659	9,1868
34660	9,0099
34661	8,7571
34662	8,8786
34663	8,7679
34664	8,7536
34665	8,8711
34666	8,7571
34667	8,8711
34668	8,8786
34669	8,7679
34670	10,203
34671	10,347
34672	10,066
34673	10,23
34674	10,194
34675	10,328
34676	10,05
34677	10,203
34678	10,328
34679	10,05
34680	10,347
34681	10,066
34682	10,23
34683	9,2318
34684	9,4397
34685	9,0423
34686	9,3154
34687	9,25
34688	9,2258
34689	9,4264
34690	9,0312
34691	9,3025
34692	9,2318
34693	9,4264
34694	9,0312
34695	9,3025
34696	9,4397
34697	9,0423
34698	9,3154
34699	9,25
34700	9,6409
34701	9,716
34702	9,6628
34703	9,6337
34704	9,7007
34705	9,6409
34706	9,7007
34707	9,716
34708	9,6628
34709	8,526
34710	8,689
34711	8,3749
34712	8,616
34713	8,5389
34714	8,5218
34715	8,6797
34716	8,367
34717	8,6067
34718	8,526
34719	8,6797
34720	8,367
34721	8,6067
34722	8,689
34723	8,3749
34724	8,616
34725	8,5389
34726	8,855
34727	8,948
34728	8,8702
34729	8,8499
34730	8,937
34731	8,855
34732	8,937
34733	8,948
34734	8,8702
34735	7,976
34736	8,0991
34737	8,0607
34738	7,8666
34739	7,9852
34740	7,9729
34741	8,0924
34742	8,0539
34743	7,861
34744	7,976
34745	8,0924
34746	8,0539
34747	7,861
34748	8,0991
34749	8,0607
34750	7,8666
34751	7,9852
34752	8,2286
34753	8,3135
34754	8,2395
34755	8,225
34756	8,3056
34757	8,2286
34758	8,3056
34759	8,3135
34760	8,2395
34761	7,6058
34762	7,6962
34763	7,5485
34764	7,5238
34765	7,6807
34766	7,6127
34767	7,6035
34768	7,691
34769	7,5441
34770	7,5198
34771	7,6758
34772	7,6058
34773	7,691
34774	7,5441
34775	7,5198
34776	7,6758
34777	7,6962
34778	7,5485
34779	7,5238
34780	7,6807
34781	7,6127
34782	7,4617
34783	7,4675
34784	7,5614
34785	7,476
34786	7,4677
34787	7,4597
34788	7,4635
34789	7,5568
34790	7,472
34791	7,4617
34792	7,4635
34793	7,5568
34794	7,472
34795	7,4675
34796	7,5614
34797	7,476
34798	7,4677
34799	7,575
34800	7,5244
34801	7,6463
34802	7,4694
34803	7,6828
34804	7,5816
34805	7,5728
34806	7,5203
34807	7,6417
34808	7,4657
34809	7,6778
34810	7,575
34811	7,5203
34812	7,6417
34813	7,4657
34814	7,6778
34815	7,5244
34816	7,6463
34817	7,4694
34818	7,6828
34819	7,5816
34820	7,4856
34821	7,5898
34822	7,4917
34823	7,4836
34824	7,5851
34825	7,4856
34826	7,5851
34827	7,5898
34828	7,4917
34829	7,9405
34830	7,8303
34831	8,0736
34832	8,053
34833	7,9489
34834	7,9377
34835	7,8251
34836	8,0675
34837	8,0468
34838	7,9405
34839	7,8251
34840	8,0675
34841	8,0468
34842	7,8303
34843	8,0736
34844	8,053
34845	7,9489
34846	7,728
34847	7,8385
34848	7,7354
34849	7,7256
34850	7,833
34851	7,728
34852	7,833
34853	7,8385
34854	7,7354
34855	8,5295
34856	8,3694
34857	8,7013
34858	8,6391
34859	8,5408
34860	8,5257
34861	8,3623
34862	8,6933
34863	8,631
34864	8,5295
34865	8,3623
34866	8,6933
34867	8,631
34868	8,3694
34869	8,7013
34870	8,6391
34871	8,5408
34872	8,2128
34873	8,3228
34874	8,2226
34875	8,2095
34876	8,3157
34877	8,2128
34878	8,3157
34879	8,3228
34880	8,2226
34881	9,26
34882	9,0677
34883	9,4603
34884	9,3744
34885	9,2749
34886	9,2551
34887	9,0584
34888	9,4498
34889	9,364
34890	9,26
34891	9,0584
34892	9,4498
34893	9,364
34894	9,0677
34895	9,4603
34896	9,3744
34897	9,2749
34898	8,8744
34899	8,9895
34900	8,8873
34901	8,87
34902	8,9804
34903	8,8744
34904	8,9804
34905	8,9895
34906	8,8873
34907	10,089
34908	9,8763
34909	10,178
34910	10,323
34911	10,208
34912	10,108
34913	10,083
34914	9,8644
34915	10,165
34916	10,309
34917	10,195
34918	10,089
34919	9,8644
34920	10,165
34921	10,309
34922	10,195
34923	9,8763
34924	10,178
34925	10,323
34926	10,208
34927	10,108
34928	9,6571
34929	9,7752
34930	9,6738
34931	9,6515
34932	9,7637
34933	9,6571
34934	9,7637
34935	9,7752
34936	9,6738
34937	8,8866
34938	9,0883
34939	8,7066
34940	8,7734
34941	9,0012
34942	8,8996
34943	8,8823
34944	9,079
34945	8,6985
34946	8,7652
34947	8,9921
34948	8,8866
34949	9,079
34950	8,6985
34951	8,7652
34952	8,9921
34953	9,0883
34954	8,7066
34955	8,7734
34956	9,0012
34957	8,8996
34958	9,2906
34959	9,4014
34960	9,3055
34961	9,2856
34962	9,391
34963	9,2906
34964	9,391
34965	9,4014
34966	9,3055
34967	8,2098
34968	8,3672
34969	8,0729
34970	8,3226
34971	8,2196
34972	8,2066
34973	8,3602
34974	8,0669
34975	8,3156
34976	8,2098
34977	8,3602
34978	8,0669
34979	8,3156
34980	8,3672
34981	8,0729
34982	8,3226
34983	8,2196
34984	8,5284
34985	8,6398
34986	8,5397
34987	8,5246
34988	8,6318
34989	8,5284
34990	8,6318
34991	8,6398
34992	8,5397
34993	7,729
34994	7,8313
34995	7,6472
34996	7,8396
34997	7,7364
34998	7,7266
34999	7,826
35000	7,6426
35001	7,8341
35002	7,729
35003	7,826
35004	7,6426
35005	7,8341
35006	7,8313
35007	7,6472
35008	7,8396
35009	7,7364
35010	7,942
35011	8,0542
35012	7,9504
35013	7,9392
35014	8,048
35015	7,942
35016	8,048
35017	8,0542
35018	7,9504
35019	7,4859
35020	7,525
35021	7,4676
35022	7,5902
35023	7,492
35024	7,4839
35025	7,5208
35026	7,4636
35027	7,5854
35028	7,4859
35029	7,5208
35030	7,4636
35031	7,5854
35032	7,525
35033	7,4676
35034	7,5902
35035	7,492
35036	7,5757
35037	7,4727
35038	7,6836
35039	7,5822
35040	7,5735
35041	7,4689
35042	7,6785
35043	7,5757
35044	7,4689
35045	7,6785
35046	7,4727
35047	7,6836
35048	7,5822
35049	7,4616
35050	7,5614
35051	7,4758
35052	7,4676
35053	7,4596
35054	7,5567
35055	7,4717
35056	7,4616
35057	7,5567
35058	7,4717
35059	7,5614
35060	7,4758
35061	7,4676
35062	7,7645
35063	7,6795
35064	7,8651
35065	7,8513
35066	7,7723
35067	7,7619
35068	7,6747
35069	7,8595
35070	7,8454
35071	7,7645
35072	7,6747
35073	7,8595
35074	7,8454
35075	7,6795
35076	7,8651
35077	7,8513
35078	7,7723
35079	7,6049
35080	7,6954
35081	7,5478
35082	7,5228
35083	7,6118
35084	7,6026
35085	7,6901
35086	7,5434
35087	7,5189
35088	7,6049
35089	7,6901
35090	7,5434
35091	7,5189
35092	7,6954
35093	7,5478
35094	7,5228
35095	7,6118
35096	8,2265
35097	8,0971
35098	8,3675
35099	8,3114
35100	8,2374
35101	8,2229
35102	8,0905
35103	8,3597
35104	8,3035
35105	8,2265
35106	8,0905
35107	8,3597
35108	8,3035
35109	8,0971
35110	8,3675
35111	8,3114
35112	8,2374
35113	7,9743
35114	8,059
35115	7,8997
35116	7,9835
35117	7,9712
35118	8,0522
35119	7,8943
35120	7,9743
35121	8,0522
35122	7,8943
35123	8,059
35124	7,8997
35125	7,9835
35126	8,5129
35127	8,5986
35128	8,6643
35129	8,5257
35130	8,5086
35131	8,5894
35132	8,6551
35133	8,5129
35134	8,5894
35135	8,6551
35136	8,5986
35137	8,6643
35138	8,5257
35139	9,4512
35140	9,2941
35141	9,5601
35142	9,4711
35143	9,4445
35144	9,2816
35145	9,5458
35146	9,4512
35147	9,2816
35148	9,5458
35149	9,2941
35150	9,5601
35151	9,4711
35152	9,1317
35153	9,2292
35154	8,9751
35155	9,149
35156	9,1259
35157	9,2168
35158	8,9644
35159	9,1317
35160	9,2168
35161	8,9644
35162	9,2292
35163	8,9751
35164	9,149
35165	11,396
35166	11,168
35167	11,539
35168	11,439
35169	11,381
35170	11,141
35171	11,509
35172	11,396
35173	11,141
35174	11,509
35175	11,168
35176	11,539
35177	11,439
35178	10,927
35179	11,041
35180	10,964
35181	10,915
35182	11,015
35183	10,927
35184	11,015
35185	11,041
35186	10,964
35187	8,2093
35188	8,3595
35189	8,0743
35190	8,1169
35191	8,3083
35192	8,2182
35193	8,2064
35194	8,3532
35195	8,0688
35196	8,1114
35197	8,302
35198	8,2093
35199	8,3532
35200	8,0688
35201	8,1114
35202	8,302
35203	8,3595
35204	8,0743
35205	8,1169
35206	8,3083
35207	8,2182
35208	8,5114
35209	8,6046
35210	8,5215
35211	8,5081
35212	8,5976
35213	8,5114
35214	8,5976
35215	8,6046
35216	8,5215
35217	7,7169
35218	7,8272
35219	7,6226
35220	7,6205
35221	7,8179
35222	7,7237
35223	7,7147
35224	7,8223
35225	7,6184
35226	7,6164
35227	7,8129
35228	7,7169
35229	7,8223
35230	7,6184
35231	7,6164
35232	7,8129
35233	7,8272
35234	7,6226
35235	7,6205
35236	7,8179
35237	7,7237
35238	7,9427
35239	7,8464
35240	8,0437
35241	7,9505
35242	7,9401
35243	7,8416
35244	8,0381
35245	7,9427
35246	7,8416
35247	8,0381
35248	7,8464
35249	8,0437
35250	7,9505
35251	7,4066
35252	7,4667
35253	7,3641
35254	7,3149
35255	7,5043
35256	7,4119
35257	7,4048
35258	7,4629
35259	7,3606
35260	7,3118
35261	7,5001
35262	7,4066
35263	7,4629
35264	7,3606
35265	7,3118
35266	7,5001
35267	7,4667
35268	7,3641
35269	7,3149
35270	7,5043
35271	7,4119
35272	7,5358
35273	7,4413
35274	7,6362
35275	7,5418
35276	7,5339
35277	7,4378
35278	7,6317
35279	7,5358
35280	7,4378
35281	7,6317
35282	7,4413
35283	7,6362
35284	7,5418
35285	7,3126
35286	7,3168
35287	7,3259
35288	7,2298
35289	7,4022
35290	7,3176
35291	7,311
35292	7,3135
35293	7,3226
35294	7,2271
35295	7,3983
35296	7,3126
35297	7,3135
35298	7,3226
35299	7,2271
35300	7,3983
35301	7,3168
35302	7,3259
35303	7,2298
35304	7,4022
35305	7,3176
35306	7,3321
35307	7,2445
35308	7,4257
35309	7,3371
35310	7,3304
35311	7,2417
35312	7,4218
35313	7,3321
35314	7,2417
35315	7,4218
35316	7,2445
35317	7,4257
35318	7,3371
35319	7,4442
35320	7,392
35321	7,5125
35322	7,5249
35323	7,45
35324	7,4423
35325	7,3883
35326	7,5083
35327	7,5204
35328	7,4442
35329	7,3883
35330	7,5083
35331	7,5204
35332	7,392
35333	7,5125
35334	7,5249
35335	7,45
35336	7,3505
35337	7,4355
35338	7,3557
35339	7,3487
35340	7,4314
35341	7,3505
35342	7,4314
35343	7,4355
35344	7,3557
35345	7,7843
35346	7,6832
35347	7,8986
35348	7,8591
35349	7,7921
35350	7,7816
35351	7,6784
35352	7,8929
35353	7,8532
35354	7,7843
35355	7,6784
35356	7,8929
35357	7,8532
35358	7,6832
35359	7,8986
35360	7,8591
35361	7,7921
35362	7,5904
35363	7,6676
35364	7,5971
35365	7,5882
35366	7,6625
35367	7,5904
35368	7,6625
35369	7,6676
35370	7,5971
35371	8,0195
35372	8,0939
35373	8,152
35374	8,0288
35375	8,0163
35376	8,087
35377	8,1452
35378	8,0195
35379	8,087
35380	8,1452
35381	8,0939
35382	8,152
35383	8,0288
35384	8,903
35385	9,0659
35386	8,9889
35387	8,7443
35388	8,9185
35389	8,8979
35390	9,0548
35391	8,9778
35392	8,7348
35393	8,903
35394	9,0548
35395	8,9778
35396	8,7348
35397	9,0659
35398	8,9889
35399	8,7443
35400	8,9185
35401	9,5199
35402	9,3766
35403	9,6301
35404	9,5404
35405	9,5131
35406	9,3638
35407	9,6154
35408	9,5199
35409	9,3638
35410	9,6154
35411	9,3766
35412	9,6301
35413	9,5404
35414	9,227
35415	9,3171
35416	9,245
35417	9,221
35418	9,3043
35419	9,227
35420	9,3043
35421	9,3171
35422	9,245
35423	10,209
35424	10,31
35425	10,395
35426	10,235
35427	10,2
35428	10,291
35429	10,376
35430	10,209
35431	10,291
35432	10,376
35433	10,31
35434	10,395
35435	10,235
35436	10,46
35437	10,379
35438	10,627
35439	10,49
35440	10,449
35441	10,359
35442	10,605
35443	10,46
35444	10,359
35445	10,605
35446	10,379
35447	10,627
35448	10,49
35449	10,287
35450	10,167
35451	10,461
35452	10,317
35453	10,278
35454	10,148
35455	10,44
35456	10,287
35457	10,148
35458	10,44
35459	10,167
35460	10,461
35461	10,317
35462	10,554
35463	10,611
35464	10,461
35465	10,697
35466	10,585
35467	10,544
35468	10,59
35469	10,441
35470	10,675
35471	10,554
35472	10,59
35473	10,441
35474	10,675
35475	10,611
35476	10,461
35477	10,697
35478	10,585
35479	10,654
35480	10,749
35481	10,756
35482	10,565
35483	10,685
35484	10,643
35485	10,727
35486	10,734
35487	10,545
35488	10,654
35489	10,727
35490	10,734
35491	10,545
35492	10,749
35493	10,756
35494	10,565
35495	10,685
35496	10,824
35497	10,928
35498	10,83
35499	10,858
35500	10,812
35501	10,905
35502	10,808
35503	10,824
35504	10,905
35505	10,808
35506	10,928
35507	10,83
35508	10,858
35509	10,84
35510	10,936
35511	10,98
35512	10,874
35513	10,828
35514	10,912
35515	10,956
35516	10,84
35517	10,912
35518	10,956
35519	10,936
35520	10,98
35521	10,874
35522	11,011
35523	11,051
35524	11,16
35525	11,047
35526	10,998
35527	11,026
35528	11,134
35529	11,011
35530	11,026
35531	11,134
35532	11,051
35533	11,16
35534	11,047
35535	10,967
35536	10,873
35537	11,227
35538	11,003
35539	10,954
35540	10,85
35541	11,199
35542	10,967
35543	10,85
35544	11,199
35545	10,873
35546	11,227
35547	11,003
35548	9,1127
35549	8,9616
35550	9,2163
35551	9,1298
35552	9,107
35553	8,951
35554	9,2041
35555	9,1127
35556	8,951
35557	9,2041
35558	8,9616
35559	9,2163
35560	9,1298
35561	9,1749
35562	9,346
35563	9,2617
35564	9,1874
35565	9,1707
35566	9,3373
35567	9,2531
35568	9,1749
35569	9,3373
35570	9,2531
35571	9,346
35572	9,2617
35573	9,1874
35574	10,769
35575	10,628
35576	10,959
35577	10,803
35578	10,758
35579	10,606
35580	10,935
35581	10,769
35582	10,606
35583	10,935
35584	10,628
35585	10,959
35586	10,803
35587	10,268
35588	10,493
35589	10,325
35590	10,288
35591	10,261
35592	10,479
35593	10,311
35594	10,268
35595	10,479
35596	10,311
35597	10,493
35598	10,325
35599	10,288
35600	10,546
35601	10,632
35602	10,669
35603	10,567
35604	10,539
35605	10,617
35606	10,655
35607	10,546
35608	10,617
35609	10,655
35610	10,632
35611	10,669
35612	10,567
35613	10,028
35614	10,163
35615	9,8486
35616	10,055
35617	10,02
35618	10,145
35619	9,8322
35620	10,028
35621	10,145
35622	9,8322
35623	10,163
35624	9,8486
35625	10,055
35626	10,034
35627	9,8898
35628	10,21
35629	10,06
35630	10,025
35631	9,8732
35632	10,191
35633	10,034
35634	9,8732
35635	10,191
35636	9,8898
35637	10,21
35638	10,06
35639	11,022
35640	11,355
35641	10,927
35642	11,059
35643	11,009
35644	11,327
35645	10,904
35646	11,022
35647	11,327
35648	10,904
35649	11,355
35650	10,927
35651	11,059
35652	11,07
35653	11,199
35654	10,955
35655	11,118
35656	11,108
35657	11,058
35658	11,173
35659	10,931
35660	11,092
35661	11,07
35662	11,173
35663	10,931
35664	11,092
35665	11,199
35666	10,955
35667	11,118
35668	11,108
35669	10,814
35670	10,963
35671	10,823
35672	10,989
35673	10,848
35674	10,802
35675	10,939
35676	10,8
35677	10,964
35678	10,814
35679	10,939
35680	10,8
35681	10,964
35682	10,963
35683	10,823
35684	10,989
35685	10,848
35686	9,6198
35687	9,4693
35688	9,7305
35689	9,793
35690	9,6422
35691	9,6123
35692	9,4553
35693	9,7147
35694	9,7772
35695	9,6198
35696	9,4553
35697	9,7147
35698	9,7772
35699	9,4693
35700	9,7305
35701	9,793
35702	9,6422
35703	10,7
35704	10,923
35705	10,496
35706	10,861
35707	10,735
35708	10,689
35709	10,898
35710	10,475
35711	10,836
35712	10,7
35713	10,898
35714	10,475
35715	10,836
35716	10,923
35717	10,496
35718	10,861
35719	10,735
35720	12,16
35721	11,915
35722	12,309
35723	12,571
35724	12,218
35725	12,141
35726	11,88
35727	12,269
35728	12,528
35729	12,16
35730	11,88
35731	12,269
35732	12,528
35733	11,915
35734	12,309
35735	12,571
35736	12,218
35737	10,179
35738	10,384
35739	10,24
35740	10,01
35741	10,075
35742	10,208
35743	10,169
35744	10,363
35745	10,22
35746	9,9921
35747	10,057
35748	10,179
35749	10,363
35750	10,22
35751	9,9921
35752	10,057
35753	10,384
35754	10,24
35755	10,01
35756	10,075
35757	10,208
35758	12,163
35759	12,587
35760	12,295
35761	11,87
35762	12,221
35763	12,144
35764	12,543
35765	12,256
35766	11,836
35767	12,163
35768	12,543
35769	12,256
35770	11,836
35771	12,587
35772	12,295
35773	11,87
35774	12,221
35775	11,1
35776	11,224
35777	11,205
35778	10,963
35779	11,138
35780	11,088
35781	11,198
35782	11,179
35783	10,939
35784	11,1
35785	11,198
35786	11,179
35787	10,939
35788	11,224
35789	11,205
35790	10,963
35791	11,138
35792	8,4983
35793	8,6531
35794	8,3489
35795	8,5808
35796	8,5109
35797	8,4941
35798	8,644
35799	8,3413
35800	8,5717
35801	8,4983
35802	8,644
35803	8,3413
35804	8,5717
35805	8,6531
35806	8,3489
35807	8,5808
35808	8,5109
35809	8,8086
35810	8,907
35811	8,8234
35812	8,8037
35813	8,8963
35814	8,8086
35815	8,8963
35816	8,907
35817	8,8234
35818	8,2029
35819	8,2785
35820	8,0678
35821	8,2135
35822	8,1994
35823	8,2708
35824	8,0614
35825	8,2029
35826	8,2708
35827	8,0614
35828	8,2785
35829	8,0678
35830	8,2135
35831	7,5309
35832	7,6168
35833	7,4609
35834	7,6093
35835	7,5373
35836	7,5288
35837	7,6122
35838	7,457
35839	7,6045
35840	7,5309
35841	7,6122
35842	7,457
35843	7,6045
35844	7,6168
35845	7,4609
35846	7,6093
35847	7,5373
35848	7,712
35849	7,7874
35850	7,8213
35851	7,7194
35852	7,7095
35853	7,7818
35854	7,816
35855	7,712
35856	7,7818
35857	7,816
35858	7,7874
35859	7,8213
35860	7,7194
35861	7,4015
35862	7,4838
35863	7,3591
35864	7,407
35865	7,3996
35866	7,4795
35867	7,3556
35868	7,4015
35869	7,4795
35870	7,3556
35871	7,4838
35872	7,3591
35873	7,407
35874	7,3591
35875	7,3308
35876	7,4053
35877	7,2696
35878	7,4544
35879	7,3642
35880	7,3574
35881	7,3274
35882	7,4018
35883	7,2667
35884	7,4504
35885	7,3591
35886	7,3274
35887	7,4018
35888	7,2667
35889	7,4504
35890	7,3308
35891	7,4053
35892	7,2696
35893	7,4544
35894	7,3642
35895	7,3139
35896	7,4053
35897	7,3152
35898	7,3189
35899	7,3123
35900	7,4014
35901	7,3118
35902	7,3139
35903	7,4014
35904	7,3118
35905	7,4053
35906	7,3152
35907	7,3189
35908	7,6141
35909	7,5339
35910	7,7128
35911	7,5155
35912	7,7168
35913	7,6204
35914	7,612
35915	7,5299
35916	7,7083
35917	7,5118
35918	7,7121
35919	7,6141
35920	7,5299
35921	7,7083
35922	7,5118
35923	7,7121
35924	7,5339
35925	7,7128
35926	7,5155
35927	7,7168
35928	7,6204
35929	7,462
35930	7,5603
35931	7,4677
35932	7,4602
35933	7,556
35934	7,462
35935	7,556
35936	7,5603
35937	7,4677
35938	8,0635
35939	7,9387
35940	8,2073
35941	7,9583
35942	8,1706
35943	8,0718
35944	8,0608
35945	7,9335
35946	8,2014
35947	7,9532
35948	8,1647
35949	8,0635
35950	7,9335
35951	8,2014
35952	7,9532
35953	8,1647
35954	7,9387
35955	8,2073
35956	7,9583
35957	8,1706
35958	8,0718
35959	7,8182
35960	7,7137
35961	7,9227
35962	7,8254
35963	7,8158
35964	7,7094
35965	7,9174
35966	7,8182
35967	7,7094
35968	7,9174
35969	7,7137
35970	7,9227
35971	7,8254
35972	8,6663
35973	8,5096
35974	8,8324
35975	8,7706
35976	8,6769
35977	8,6627
35978	8,503
35979	8,8249
35980	8,7632
35981	8,6663
35982	8,503
35983	8,8249
35984	8,7632
35985	8,5096
35986	8,8324
35987	8,7706
35988	8,6769
35989	8,354
35990	8,2473
35991	8,4572
35992	8,3634
35993	8,3509
35994	8,2414
35995	8,4506
35996	8,354
35997	8,2414
35998	8,4506
35999	8,2473
36000	8,4572
36001	8,3634
36002	8,998
36003	9,0998
36004	9,1868
36005	9,0099
36006	8,9941
36007	9,0916
36008	9,1785
36009	8,998
36010	9,0916
36011	9,1785
36012	9,0998
36013	9,1868
36014	9,0099
36015	9,5127
36016	9,6924
36017	9,6017
36018	9,4438
36019	9,5263
36020	9,5081
36021	9,6829
36022	9,5924
36023	9,4349
36024	9,5127
36025	9,6829
36026	9,5924
36027	9,4349
36028	9,6924
36029	9,6017
36030	9,4438
36031	9,5263
36032	9,8656
36033	9,827
36034	9,9615
36035	10,064
36036	9,8805
36037	9,8607
36038	9,8172
36039	9,9513
36040	10,053
36041	9,8656
36042	9,8172
36043	9,9513
36044	10,053
36045	9,827
36046	9,9615
36047	10,064
36048	9,8805
36049	9,7829
36050	9,8409
36051	9,5816
36052	9,7977
36053	9,7781
36054	9,831
36055	9,5724
36056	9,7829
36057	9,831
36058	9,5724
36059	9,8409
36060	9,5816
36061	9,7977
36062	10,158
36063	10,322
36064	9,9728
36065	10,283
36066	10,186
36067	10,149
36068	10,302
36069	9,9555
36070	10,263
36071	10,158
36072	10,302
36073	9,9555
36074	10,263
36075	10,322
36076	9,9728
36077	10,283
36078	10,186
36079	10,479
36080	10,633
36081	10,51
36082	10,469
36083	10,611
36084	10,479
36085	10,611
36086	10,633
36087	10,51
36088	9,3958
36089	9,5915
36090	9,2175
36091	9,5051
36092	9,4164
36093	9,389
36094	9,5766
36095	9,2048
36096	9,4904
36097	9,3958
36098	9,5766
36099	9,2048
36100	9,4904
36101	9,5915
36102	9,2175
36103	9,5051
36104	9,4164
36105	9,782
36106	9,8949
36107	9,8062
36108	9,774
36109	9,8778
36110	9,782
36111	9,8778
36112	9,8949
36113	9,8062
36114	8,7046
36115	8,87
36116	8,5493
36117	8,8016
36118	8,7199
36119	8,6996
36120	8,859
36121	8,5399
36122	8,7906
36123	8,7046
36124	8,859
36125	8,5399
36126	8,7906
36127	8,87
36128	8,5493
36129	8,8016
36130	8,7199
36131	9,0377
36132	9,1445
36133	9,0554
36134	9,0318
36135	9,1318
36136	9,0377
36137	9,1318
36138	9,1445
36139	9,0554
36140	8,1474
36141	8,2702
36142	8,2424
36143	8,041
36144	8,1588
36145	8,1436
36146	8,2621
36147	8,2341
36148	8,0339
36149	8,1474
36150	8,2621
36151	8,2341
36152	8,0339
36153	8,2702
36154	8,2424
36155	8,041
36156	8,1588
36157	8,399
36158	8,4939
36159	8,4121
36160	8,3946
36161	8,4844
36162	8,399
36163	8,4844
36164	8,4939
36165	8,4121
36166	7,7903
36167	7,7384
36168	7,8907
36169	7,8617
36170	7,7993
36171	7,7873
36172	7,7326
36173	7,8839
36174	7,8554
36175	7,7903
36176	7,7326
36177	7,8839
36178	7,8554
36179	7,7384
36180	7,8907
36181	7,8617
36182	7,7993
36183	7,6653
36184	7,6756
36185	7,7734
36186	7,6763
36187	7,6734
36188	7,6626
36189	7,6702
36190	7,7673
36191	7,6709
36192	7,6653
36193	7,6702
36194	7,7673
36195	7,6709
36196	7,6756
36197	7,7734
36198	7,6763
36199	7,6734
36200	7,6967
36201	7,801
36202	7,5977
36203	7,7051
36204	7,6939
36205	7,7947
36206	7,5929
36207	7,6967
36208	7,7947
36209	7,5929
36210	7,801
36211	7,5977
36212	7,7051
36213	9,4858
36214	9,6906
36215	9,5989
36216	9,2956
36217	9,5019
36218	9,4804
36219	9,6792
36220	9,5876
36221	9,2854
36222	9,4858
36223	9,6792
36224	9,5876
36225	9,2854
36226	9,6906
36227	9,5989
36228	9,2956
36229	9,5019
36230	10,323
36231	10,11
36232	10,557
36233	10,447
36234	10,343
36235	10,316
36236	10,098
36237	10,543
36238	10,433
36239	10,323
36240	10,098
36241	10,543
36242	10,433
36243	10,11
36244	10,557
36245	10,447
36246	10,343
36247	9,8903
36248	10,009
36249	9,9084
36250	9,8843
36251	9,9967
36252	9,8903
36253	9,9967
36254	10,009
36255	9,9084
36256	10,708
36257	10,94
36258	10,811
36259	10,73
36260	10,701
36261	10,924
36262	10,796
36263	10,708
36264	10,924
36265	10,796
36266	10,94
36267	10,811
36268	10,73
36269	11,162
36270	10,977
36271	11,292
36272	11,348
36273	11,186
36274	11,153
36275	10,961
36276	11,275
36277	11,331
36278	11,162
36279	10,961
36280	11,275
36281	11,331
36282	10,977
36283	11,292
36284	11,348
36285	11,186
36286	10,782
36287	10,911
36288	10,804
36289	10,774
36290	10,896
36291	10,782
36292	10,896
36293	10,911
36294	10,804
36295	12,14
36296	12,268
36297	11,995
36298	12,343
36299	12,014
36300	12,198
36301	12,121
36302	12,229
36303	11,958
36304	12,303
36305	11,978
36306	12,14
36307	12,229
36308	11,958
36309	12,303
36310	11,978
36311	12,268
36312	11,995
36313	12,343
36314	12,014
36315	12,198
36316	10,905
36317	11,164
36318	10,645
36319	10,998
36320	10,928
36321	10,897
36322	11,148
36323	10,63
36324	10,982
36325	10,905
36326	11,148
36327	10,63
36328	10,982
36329	11,164
36330	10,645
36331	10,998
36332	10,928
36333	11,412
36334	11,506
36335	11,692
36336	11,439
36337	11,404
36338	11,489
36339	11,673
36340	11,412
36341	11,489
36342	11,673
36343	11,506
36344	11,692
36345	11,439
36346	9,928
36347	10,156
36348	10,033
36349	9,7215
36350	9,9463
36351	9,922
36352	10,143
36353	10,021
36354	9,71
36355	9,928
36356	10,143
36357	10,021
36358	9,71
36359	10,156
36360	10,033
36361	9,7215
36362	9,9463
36363	10,376
36364	10,485
36365	10,397
36366	10,369
36367	10,471
36368	10,376
36369	10,471
36370	10,485
36371	10,397
36372	7,6963
36373	7,6754
36374	7,7377
36375	7,8006
36376	7,5973
36377	7,7046
36378	7,6935
36379	7,6699
36380	7,732
36381	7,7943
36382	7,5924
36383	7,6963
36384	7,6699
36385	7,732
36386	7,7943
36387	7,5924
36388	7,6754
36389	7,7377
36390	7,8006
36391	7,5973
36392	7,7046
36393	7,6653
36394	7,7734
36395	7,6765
36396	7,6733
36397	7,6626
36398	7,7673
36399	7,6711
36400	7,6653
36401	7,7673
36402	7,6711
36403	7,7734
36404	7,6765
36405	7,6733
36406	7,941
36407	7,8606
36408	8,0395
36409	8,0382
36410	7,9511
36411	7,9377
36412	7,8543
36413	8,0324
36414	8,0307
36415	7,941
36416	7,8543
36417	8,0324
36418	8,0307
36419	7,8606
36420	8,0395
36421	8,0382
36422	7,9511
36423	7,7894
36424	7,8899
36425	7,7985
36426	7,7864
36427	7,8831
36428	7,7894
36429	7,8831
36430	7,8899
36431	7,7985
36432	8,3969
36433	8,2683
36434	8,5384
36435	8,4918
36436	8,4099
36437	8,3925
36438	8,2602
36439	8,5291
36440	8,4823
36441	8,3969
36442	8,2602
36443	8,5291
36444	8,4823
36445	8,2683
36446	8,5384
36447	8,4918
36448	8,4099
36449	8,1457
36450	8,2408
36451	8,1571
36452	8,1419
36453	8,2324
36454	8,1457
36455	8,2324
36456	8,2408
36457	8,1571
36458	8,6835
36459	8,7813
36460	8,8403
36461	8,6986
36462	8,6785
36463	8,7704
36464	8,8295
36465	8,6835
36466	8,7704
36467	8,8295
36468	8,7813
36469	8,8403
36470	8,6986
36471	9,3226
36472	9,4376
36473	9,1617
36474	9,4947
36475	9,3426
36476	9,3159
36477	9,4232
36478	9,1493
36479	9,4805
36480	9,3226
36481	9,4232
36482	9,1493
36483	9,4805
36484	9,4376
36485	9,1617
36486	9,4947
36487	9,3426
36488	11,656
36489	11,401
36490	11,799
36491	11,704
36492	11,64
36493	11,372
36494	11,765
36495	11,656
36496	11,372
36497	11,765
36498	11,401
36499	11,799
36500	11,704
36501	11,135
36502	11,306
36503	11,175
36504	11,121
36505	11,277
36506	11,135
36507	11,277
36508	11,306
36509	11,175
36510	9,6869
36511	9,8725
36512	9,5187
36513	9,785
36514	9,7013
36515	9,6821
36516	9,8625
36517	9,5095
36518	9,7751
36519	9,6869
36520	9,8625
36521	9,5095
36522	9,7751
36523	9,8725
36524	9,5187
36525	9,785
36526	9,7013
36527	10,052
36528	10,246
36529	10,145
36530	10,067
36531	10,046
36532	10,235
36533	10,135
36534	10,052
36535	10,235
36536	10,135
36537	10,246
36538	10,145
36539	10,067
36540	9,0156
36541	9,1821
36542	9,1118
36543	8,8564
36544	9,0278
36545	9,0115
36546	9,1736
36547	9,1033
36548	8,8486
36549	9,0156
36550	9,1736
36551	9,1033
36552	8,8486
36553	9,1821
36554	9,1118
36555	8,8564
36556	9,0278
36557	9,3454
36558	9,4402
36559	9,3587
36560	9,341
36561	9,4311
36562	9,3454
36563	9,4311
36564	9,4402
36565	9,3587
36566	7,6099
36567	7,7014
36568	7,5628
36569	7,6748
36570	7,6176
36571	7,6074
36572	7,6956
36573	7,5579
36574	7,6694
36575	7,6099
36576	7,6956
36577	7,5579
36578	7,6694
36579	7,7014
36580	7,5628
36581	7,6748
36582	7,6176
36583	7,9368
36584	8,0504
36585	8,0226
36586	7,8388
36587	7,9466
36588	7,9335
36589	8,0434
36590	8,0153
36591	7,8327
36592	7,9368
36593	8,0434
36594	8,0153
36595	7,8327
36596	8,0504
36597	8,0226
36598	7,8388
36599	7,9466
36600	8,4423
36601	8,3041
36602	8,5936
36603	8,5288
36604	8,3656
36605	8,4555
36606	8,4379
36607	8,2959
36608	8,584
36609	8,5192
36610	8,3575
36611	8,4423
36612	8,2959
36613	8,584
36614	8,5192
36615	8,3575
36616	8,3041
36617	8,5936
36618	8,5288
36619	8,3656
36620	8,4555
36621	8,17
36622	8,2551
36623	8,1814
36624	8,1663
36625	8,2468
36626	8,17
36627	8,2468
36628	8,2551
36629	8,1814
36630	9,0717
36631	8,9095
36632	9,2394
36633	9,1703
36634	9,0895
36635	9,0657
36636	8,8984
36637	9,2266
36638	9,1575
36639	9,0717
36640	8,8984
36641	9,2266
36642	9,1575
36643	8,9095
36644	9,2394
36645	9,1703
36646	9,0895
36647	8,747
36648	8,6672
36649	8,8377
36650	8,7624
36651	8,7419
36652	8,6577
36653	8,8266
36654	8,747
36655	8,6577
36656	8,8266
36657	8,6672
36658	8,8377
36659	8,7624
36660	9,7348
36661	9,5727
36662	9,8775
36663	9,7584
36664	9,727
36665	9,558
36666	9,8606
36667	9,7348
36668	9,558
36669	9,8606
36670	9,5727
36671	9,8775
36672	9,7584
36673	9,4034
36674	9,5201
36675	9,424
36676	9,3966
36677	9,5053
36678	9,4034
36679	9,5053
36680	9,5201
36681	9,424
36682	11,329
36683	11,395
36684	11,524
36685	11,371
36686	11,315
36687	11,367
36688	11,494
36689	11,329
36690	11,367
36691	11,494
36692	11,395
36693	11,524
36694	11,371
36695	11,418
36696	11,374
36697	11,56
36698	11,292
36699	11,46
36700	11,403
36701	11,346
36702	11,53
36703	11,265
36704	11,418
36705	11,346
36706	11,53
36707	11,265
36708	11,374
36709	11,56
36710	11,292
36711	11,46
36712	11,287
36713	11,308
36714	11,502
36715	11,329
36716	11,273
36717	11,28
36718	11,473
36719	11,287
36720	11,28
36721	11,473
36722	11,308
36723	11,502
36724	11,329
36725	11,305
36726	11,59
36727	11,347
36728	11,292
36729	11,559
36730	11,305
36731	11,559
36732	11,59
36733	11,347
36734	10,773
36735	10,85
36736	10,964
36737	10,7
36738	10,808
36739	10,762
36740	10,826
36741	10,938
36742	10,677
36743	10,773
36744	10,826
36745	10,938
36746	10,677
36747	10,85
36748	10,964
36749	10,7
36750	10,808
36751	9,3149
36752	9,1599
36753	9,4977
36754	9,3347
36755	9,3083
36756	9,1475
36757	9,483
36758	9,3149
36759	9,1475
36760	9,483
36761	9,1599
36762	9,4977
36763	9,3347
36764	10,433
36765	10,347
36766	10,626
36767	10,522
36768	10,449
36769	10,427
36770	10,336
36771	10,615
36772	10,511
36773	10,433
36774	10,336
36775	10,615
36776	10,511
36777	10,347
36778	10,626
36779	10,522
36780	10,449
36781	10,591
36782	10,427
36783	10,705
36784	10,719
36785	10,608
36786	10,586
36787	10,416
36788	10,694
36789	10,708
36790	10,591
36791	10,416
36792	10,694
36793	10,708
36794	10,427
36795	10,705
36796	10,719
36797	10,608
36798	11,13
36799	10,955
36800	11,315
36801	11,299
36802	11,171
36803	11,117
36804	10,93
36805	11,286
36806	11,271
36807	11,13
36808	10,93
36809	11,286
36810	11,271
36811	10,955
36812	11,315
36813	11,299
36814	11,171
36815	10,284
36816	10,442
36817	10,103
36818	10,314
36819	10,274
36820	10,42
36821	10,084
36822	10,284
36823	10,42
36824	10,084
36825	10,442
36826	10,103
36827	10,314
36828	10,371
36829	10,196
36830	10,605
36831	10,499
36832	10,402
36833	10,361
36834	10,176
36835	10,582
36836	10,477
36837	10,371
36838	10,176
36839	10,582
36840	10,477
36841	10,196
36842	10,605
36843	10,499
36844	10,402
36845	10,579
36846	10,752
36847	10,713
36848	10,437
36849	10,612
36850	10,568
36851	10,729
36852	10,689
36853	10,416
36854	10,579
36855	10,729
36856	10,689
36857	10,416
36858	10,752
36859	10,713
36860	10,437
36861	10,612
36862	11,663
36863	11,452
36864	12,053
36865	11,837
36866	11,605
36867	11,711
36868	11,647
36869	11,423
36870	12,016
36871	11,803
36872	11,574
36873	11,663
36874	11,423
36875	12,016
36876	11,803
36877	11,574
36878	11,452
36879	12,053
36880	11,837
36881	11,605
36882	11,711
36883	10,914
36884	11,012
36885	11,071
36886	10,95
36887	10,902
36888	10,987
36889	11,045
36890	10,914
36891	10,987
36892	11,045
36893	11,012
36894	11,071
36895	10,95
36896	12,362
36897	12,321
36898	12,552
36899	12,425
36900	12,342
36901	12,281
36902	12,509
36903	12,362
36904	12,281
36905	12,509
36906	12,321
36907	12,552
36908	12,425
36909	11,826
36910	11,66
36911	12,036
36912	11,654
36913	11,878
36914	11,809
36915	11,627
36916	11,999
36917	11,622
36918	11,826
36919	11,627
36920	11,999
36921	11,622
36922	11,66
36923	12,036
36924	11,654
36925	11,878
36926	11,003
36927	11,234
36928	10,798
36929	11,169
36930	11,043
36931	10,989
36932	11,206
36933	10,774
36934	11,141
36935	11,003
36936	11,206
36937	10,774
36938	11,141
36939	11,234
36940	10,798
36941	11,169
36942	11,043
36943	9,0025
36944	9,1115
36945	8,8319
36946	9,0199
36947	8,9967
36948	9,099
36949	8,8212
36950	9,0025
36951	9,099
36952	8,8212
36953	9,1115
36954	8,8319
36955	9,0199
36956	8,3548
36957	8,4406
36958	8,2193
36959	8,5067
36960	8,3674
36961	8,3506
36962	8,4315
36963	8,2115
36964	8,4976
36965	8,3548
36966	8,4315
36967	8,2115
36968	8,4976
36969	8,4406
36970	8,2193
36971	8,5067
36972	8,3674
36973	7,6916
36974	7,7745
36975	7,6262
36976	7,7809
36977	7,6998
36978	7,6888
36979	7,7687
36980	7,6211
36981	7,7747
36982	7,6916
36983	7,7687
36984	7,6211
36985	7,7747
36986	7,7745
36987	7,6262
36988	7,7809
36989	7,6998
36990	7,866
36991	7,9525
36992	7,974
36993	7,8754
36994	7,8629
36995	7,9455
36996	7,9673
36997	7,866
36998	7,9455
36999	7,9673
37000	7,9525
37001	7,974
37002	7,8754
37003	7,5066
37004	7,5334
37005	7,4986
37006	7,6034
37007	7,4151
37008	7,5135
37009	7,5043
37010	7,5287
37011	7,4941
37012	7,5981
37013	7,4111
37014	7,5066
37015	7,5287
37016	7,4941
37017	7,5981
37018	7,4111
37019	7,5334
37020	7,4986
37021	7,6034
37022	7,4151
37023	7,5135
37024	7,5706
37025	7,6636
37026	7,578
37027	7,5681
37028	7,6579
37029	7,5706
37030	7,6579
37031	7,6636
37032	7,578
37033	7,5011
37034	7,6015
37035	7,5225
37036	7,5079
37037	7,4988
37038	7,5963
37039	7,5179
37040	7,5011
37041	7,5963
37042	7,5179
37043	7,6015
37044	7,5225
37045	7,5079
37046	9,1987
37047	9,2956
37048	9,0366
37049	9,3697
37050	9,2114
37051	9,1944
37052	9,2868
37053	9,0284
37054	9,3608
37055	9,1987
37056	9,2868
37057	9,0284
37058	9,3608
37059	9,2956
37060	9,0366
37061	9,3697
37062	9,2114
37063	10,254
37064	10,27
37065	10,249
37066	10,254
37067	10,27
37068	9,8935
37069	9,7181
37070	9,9941
37071	9,9085
37072	9,8885
37073	9,7084
37074	9,9838
37075	9,8935
37076	9,7084
37077	9,9838
37078	9,7181
37079	9,9941
37080	9,9085
37081	12,426
37082	12,181
37083	12,542
37084	12,777
37085	12,489
37086	12,405
37087	12,142
37088	12,499
37089	12,732
37090	12,426
37091	12,142
37092	12,499
37093	12,732
37094	12,181
37095	12,542
37096	12,777
37097	12,489
37098	12,97
37099	13,043
37100	13,454
37101	13,099
37102	13,046
37103	12,946
37104	12,995
37105	13,403
37106	13,05
37107	12,97
37108	12,995
37109	13,403
37110	13,05
37111	13,043
37112	13,454
37113	13,099
37114	13,046
37115	12,513
37116	12,619
37117	12,378
37118	12,762
37119	12,579
37120	12,492
37121	12,576
37122	12,337
37123	12,717
37124	12,513
37125	12,576
37126	12,337
37127	12,717
37128	12,619
37129	12,378
37130	12,762
37131	12,579
37132	10,811
37133	10,897
37134	11,018
37135	10,829
37136	10,805
37137	10,885
37138	11,006
37139	10,811
37140	10,885
37141	11,006
37142	10,897
37143	11,018
37144	10,829
37145	11,724
37146	11,936
37147	11,691
37148	11,811
37149	11,539
37150	11,744
37151	11,717
37152	11,922
37153	11,677
37154	11,798
37155	11,526
37156	11,724
37157	11,922
37158	11,677
37159	11,798
37160	11,526
37161	11,936
37162	11,691
37163	11,811
37164	11,539
37165	11,744
37166	10,395
37167	10,587
37168	10,199
37169	10,54
37170	10,426
37171	10,384
37172	10,565
37173	10,18
37174	10,517
37175	10,395
37176	10,565
37177	10,18
37178	10,517
37179	10,587
37180	10,199
37181	10,54
37182	10,426
37183	10,772
37184	10,941
37185	10,808
37186	10,76
37187	10,915
37188	10,772
37189	10,915
37190	10,941
37191	10,808
37192	9,6078
37193	9,8053
37194	9,4287
37195	9,7208
37196	9,6316
37197	9,5999
37198	9,7883
37199	9,414
37200	9,7039
37201	9,6078
37202	9,7883
37203	9,414
37204	9,7039
37205	9,8053
37206	9,4287
37207	9,7208
37208	9,6316
37209	9,9976
37210	10,126
37211	10,025
37212	9,9885
37213	10,107
37214	9,9976
37215	10,107
37216	10,126
37217	10,025
37218	8,8957
37219	9,0697
37220	8,9956
37221	8,7395
37222	8,9136
37223	8,8898
37224	9,0569
37225	8,9827
37226	8,7284
37227	8,8957
37228	9,0569
37229	8,9827
37230	8,7284
37231	9,0697
37232	8,9956
37233	8,7395
37234	8,9136
37235	9,2462
37236	9,3462
37237	9,2668
37238	9,2393
37239	9,3315
37240	9,2462
37241	9,3315
37242	9,3462
37243	9,2668
37244	8,3375
37245	8,4387
37246	8,2342
37247	8,4602
37248	8,3514
37249	8,3329
37250	8,4286
37251	8,2255
37252	8,4504
37253	8,3375
37254	8,4286
37255	8,2255
37256	8,4504
37257	8,4387
37258	8,2342
37259	8,4602
37260	8,3514
37261	7,9925
37262	7,9455
37263	8,0982
37264	8,0611
37265	8,0039
37266	7,9887
37267	7,9381
37268	8,0898
37269	8,0532
37270	7,9925
37271	7,9381
37272	8,0898
37273	8,0532
37274	7,9455
37275	8,0982
37276	8,0611
37277	8,0039
37278	7,8831
37279	7,8906
37280	7,8983
37281	7,9945
37282	7,8934
37283	7,8796
37284	7,8836
37285	7,8914
37286	7,9868
37287	7,8831
37288	7,8836
37289	7,8914
37290	7,9868
37291	7,8906
37292	7,8983
37293	7,9945
37294	7,8934
37295	7,9069
37296	8,0156
37297	7,9176
37298	7,9033
37299	8,0077
37300	7,9069
37301	8,0077
37302	8,0156
37303	7,9176
37304	8,0222
37305	7,9683
37306	8,0989
37307	8,1364
37308	7,9077
37309	8,0328
37310	8,0187
37311	7,9613
37312	8,0916
37313	8,1287
37314	7,9013
37315	8,0222
37316	7,9613
37317	8,0916
37318	8,1287
37319	7,9013
37320	7,9683
37321	8,0989
37322	8,1364
37323	7,9077
37324	8,0328
37325	7,9218
37326	8,0352
37327	7,8092
37328	7,9322
37329	7,9184
37330	8,0275
37331	7,803
37332	7,9218
37333	8,0275
37334	7,803
37335	8,0352
37336	7,8092
37337	7,9322
37338	8,3965
37339	8,2868
37340	8,5279
37341	8,5091
37342	8,2819
37343	8,4085
37344	8,3925
37345	8,2791
37346	8,5196
37347	8,5005
37348	8,2745
37349	8,3965
37350	8,2791
37351	8,5196
37352	8,5005
37353	8,2745
37354	8,2868
37355	8,5279
37356	8,5091
37357	8,2819
37358	8,4085
37359	8,1817
37360	8,2957
37361	8,0666
37362	8,1929
37363	8,178
37364	8,2875
37365	8,0598
37366	8,1817
37367	8,2875
37368	8,0598
37369	8,2957
37370	8,0666
37371	8,1929
37372	8,9728
37373	8,8172
37374	9,1499
37375	9,0808
37376	8,8612
37377	8,9872
37378	8,968
37379	8,8081
37380	9,1398
37381	9,0707
37382	8,8521
37383	8,9728
37384	8,8081
37385	9,1398
37386	9,0707
37387	8,8521
37388	8,8172
37389	9,1499
37390	9,0808
37391	8,8612
37392	8,9872
37393	8,6619
37394	8,7724
37395	8,5479
37396	8,675
37397	8,6575
37398	8,7631
37399	8,5398
37400	8,6619
37401	8,7631
37402	8,5398
37403	8,7724
37404	8,5479
37405	8,675
37406	9,7076
37407	9,5185
37408	9,9183
37409	9,8124
37410	9,7252
37411	9,7018
37412	9,5074
37413	9,906
37414	9,8002
37415	9,7076
37416	9,5074
37417	9,906
37418	9,8002
37419	9,5185
37420	9,9183
37421	9,8124
37422	9,7252
37423	9,3252
37424	9,43
37425	9,2156
37426	9,3411
37427	9,3199
37428	9,419
37429	9,2056
37430	9,3252
37431	9,419
37432	9,2056
37433	9,43
37434	9,2156
37435	9,3411
37436	10,563
37437	10,347
37438	10,803
37439	10,67
37440	10,585
37441	10,556
37442	10,334
37443	10,787
37444	10,655
37445	10,563
37446	10,334
37447	10,787
37448	10,655
37449	10,347
37450	10,803
37451	10,67
37452	10,585
37453	10,123
37454	10,227
37455	10,142
37456	10,116
37457	10,214
37458	10,123
37459	10,214
37460	10,227
37461	10,142
37462	11,526
37463	11,284
37464	11,633
37465	11,748
37466	11,553
37467	11,517
37468	11,267
37469	11,615
37470	11,73
37471	11,526
37472	11,267
37473	11,615
37474	11,73
37475	11,284
37476	11,633
37477	11,748
37478	11,553
37479	11,031
37480	11,14
37481	11,056
37482	11,023
37483	11,124
37484	11,031
37485	11,124
37486	11,14
37487	11,056
37488	12,544
37489	12,589
37490	12,639
37491	12,263
37492	12,794
37493	12,578
37494	12,533
37495	12,566
37496	12,616
37497	12,241
37498	12,77
37499	12,544
37500	12,566
37501	12,616
37502	12,241
37503	12,77
37504	12,589
37505	12,639
37506	12,263
37507	12,794
37508	12,578
37509	11,082
37510	11,343
37511	11,173
37512	10,84
37513	11,107
37514	11,074
37515	11,326
37516	11,156
37517	10,825
37518	11,082
37519	11,326
37520	11,156
37521	10,825
37522	11,343
37523	11,173
37524	10,84
37525	11,107
37526	11,591
37527	11,675
37528	11,85
37529	11,619
37530	11,582
37531	11,656
37532	11,83
37533	11,591
37534	11,656
37535	11,83
37536	11,675
37537	11,85
37538	11,619
37539	10,135
37540	9,9278
37541	10,234
37542	10,365
37543	10,154
37544	10,128
37545	9,9154
37546	10,221
37547	10,352
37548	10,135
37549	9,9154
37550	10,221
37551	10,352
37552	9,9278
37553	10,234
37554	10,365
37555	10,154
37556	9,328
37557	9,5232
37558	9,1521
37559	9,4322
37560	9,2225
37561	9,3439
37562	9,3228
37563	9,5121
37564	9,142
37565	9,4211
37566	9,2124
37567	9,328
37568	9,5121
37569	9,142
37570	9,4211
37571	9,2124
37572	9,5232
37573	9,1521
37574	9,4322
37575	9,2225
37576	9,3439
37577	9,7146
37578	9,8165
37579	9,614
37580	9,7322
37581	9,7087
37582	9,8044
37583	9,6027
37584	9,7146
37585	9,8044
37586	9,6027
37587	9,8165
37588	9,614
37589	9,7322
37590	8,6634
37591	8,8188
37592	8,5294
37593	8,7739
37594	8,5504
37595	8,6765
37596	8,6591
37597	8,8097
37598	8,521
37599	8,7647
37600	8,5422
37601	8,6634
37602	8,8097
37603	8,521
37604	8,7647
37605	8,5422
37606	8,8188
37607	8,5294
37608	8,7739
37609	8,5504
37610	8,6765
37611	8,9746
37612	9,0825
37613	8,8637
37614	8,989
37615	8,9698
37616	9,0724
37617	8,8546
37618	8,9746
37619	9,0724
37620	8,8546
37621	9,0825
37622	8,8637
37623	8,989
37624	8,1828
37625	8,2881
37626	8,0998
37627	8,2967
37628	8,0677
37629	8,194
37630	8,179
37631	8,2803
37632	8,0925
37633	8,2886
37634	8,0609
37635	8,1828
37636	8,2803
37637	8,0925
37638	8,2886
37639	8,0609
37640	8,2881
37641	8,0998
37642	8,2967
37643	8,0677
37644	8,194
37645	8,3978
37646	8,5105
37647	8,2833
37648	8,4098
37649	8,3938
37650	8,5018
37651	8,2759
37652	8,3978
37653	8,5018
37654	8,2759
37655	8,5105
37656	8,2833
37657	8,4098
37658	7,9222
37659	7,9689
37660	7,8985
37661	8,0356
37662	7,8096
37663	7,9326
37664	7,9188
37665	7,9619
37666	7,8916
37667	8,028
37668	7,8034
37669	7,9222
37670	7,9619
37671	7,8916
37672	8,028
37673	7,8034
37674	7,9689
37675	7,8985
37676	8,0356
37677	7,8096
37678	7,9326
37679	8,023
37680	8,1372
37681	7,9085
37682	8,0336
37683	8,0194
37684	8,1294
37685	7,9021
37686	8,023
37687	8,1294
37688	7,9021
37689	8,1372
37690	7,9085
37691	8,0336
37692	7,9065
37693	7,8905
37694	7,9449
37695	8,0152
37696	7,9172
37697	7,903
37698	7,8835
37699	7,9375
37700	8,0073
37701	7,9065
37702	7,8835
37703	7,9375
37704	8,0073
37705	7,8905
37706	7,9449
37707	8,0152
37708	7,9172
37709	7,8831
37710	7,9945
37711	7,8935
37712	7,8797
37713	7,9868
37714	7,8831
37715	7,9868
37716	7,9945
37717	7,8935
37718	8,1362
37719	8,0601
37720	8,2328
37721	8,2391
37722	8,1486
37723	8,132
37724	8,0522
37725	8,2241
37726	8,23
37727	8,1362
37728	8,0522
37729	8,2241
37730	8,23
37731	8,0601
37732	8,2328
37733	8,2391
37734	8,1486
37735	7,9917
37736	8,0974
37737	8,0031
37738	7,9879
37739	8,089
37740	7,9917
37741	8,089
37742	8,0974
37743	8,0031
37744	8,5856
37745	8,4582
37746	8,7296
37747	8,6866
37748	8,6012
37749	8,5804
37750	8,4485
37751	8,7186
37752	8,6753
37753	8,5856
37754	8,4485
37755	8,7186
37756	8,6753
37757	8,4582
37758	8,7296
37759	8,6866
37760	8,6012
37761	8,3359
37762	8,437
37763	8,3497
37764	8,3313
37765	8,427
37766	8,3359
37767	8,427
37768	8,437
37769	8,3497
37770	8,8765
37771	8,981
37772	9,0403
37773	8,8942
37774	8,8705
37775	8,9682
37776	9,0277
37777	8,8765
37778	8,9682
37779	9,0277
37780	8,981
37781	9,0403
37782	8,8942
37783	9,5459
37784	9,6679
37785	9,3771
37786	9,7328
37787	9,5691
37788	9,5382
37789	9,6514
37790	9,3627
37791	9,7163
37792	9,5459
37793	9,6514
37794	9,3627
37795	9,7163
37796	9,6679
37797	9,3771
37798	9,7328
37799	9,5691
37800	11,915
37801	11,692
37802	12,066
37803	11,969
37804	11,897
37805	11,659
37806	12,029
37807	11,915
37808	11,659
37809	12,029
37810	11,692
37811	12,066
37812	11,969
37813	11,454
37814	11,616
37815	11,5
37816	11,438
37817	11,583
37818	11,454
37819	11,583
37820	11,616
37821	11,5
37822	10,604
37823	10,795
37824	10,423
37825	10,69
37826	10,622
37827	10,599
37828	10,783
37829	10,411
37830	10,678
37831	10,604
37832	10,783
37833	10,411
37834	10,678
37835	10,795
37836	10,423
37837	10,69
37838	10,622
37839	10,976
37840	11,057
37841	11,164
37842	10,994
37843	10,97
37844	11,045
37845	11,152
37846	10,976
37847	11,045
37848	11,152
37849	11,057
37850	11,164
37851	10,994
37852	10,233
37853	10,325
37854	10,059
37855	10,249
37856	10,227
37857	10,314
37858	10,048
37859	10,233
37860	10,314
37861	10,048
37862	10,325
37863	10,059
37864	10,249
37865	9,2044
37866	9,3697
37867	9,051
37868	9,3023
37869	9,2176
37870	9,2
37871	9,3606
37872	9,0425
37873	9,2931
37874	9,2044
37875	9,3606
37876	9,0425
37877	9,2931
37878	9,3697
37879	9,051
37880	9,3023
37881	9,2176
37882	9,5309
37883	9,6277
37884	9,7071
37885	9,5451
37886	9,5262
37887	9,6179
37888	9,6974
37889	9,5309
37890	9,6179
37891	9,6974
37892	9,6277
37893	9,7071
37894	9,5451
37895	8,6119
37896	8,7539
37897	8,4825
37898	8,7137
37899	8,5102
37900	8,6233
37901	8,6081
37902	8,746
37903	8,4752
37904	8,7057
37905	8,503
37906	8,6119
37907	8,746
37908	8,4752
37909	8,7057
37910	8,503
37911	8,7539
37912	8,4825
37913	8,7137
37914	8,5102
37915	8,6233
37916	8,8951
37917	8,9954
37918	8,7967
37919	8,9074
37920	8,8911
37921	8,9869
37922	8,7889
37923	8,8951
37924	8,9869
37925	8,7889
37926	8,9954
37927	8,7967
37928	8,9074
37929	8,1329
37930	8,2422
37931	8,0403
37932	8,2395
37933	8,0268
37934	8,1428
37935	8,1296
37936	8,2353
37937	8,0339
37938	8,2324
37939	8,0208
37940	8,1329
37941	8,2353
37942	8,0339
37943	8,2324
37944	8,0208
37945	8,2422
37946	8,0403
37947	8,2395
37948	8,0268
37949	8,1428
37950	8,354
37951	8,459
37952	8,2502
37953	8,3646
37954	8,3505
37955	8,4515
37956	8,2436
37957	8,354
37958	8,4515
37959	8,2436
37960	8,459
37961	8,2502
37962	8,3646
37963	7,816
37964	7,8811
37965	7,7695
37966	7,9234
37967	7,7102
37968	7,825
37969	7,8131
37970	7,875
37971	7,7636
37972	7,9168
37973	7,7048
37974	7,816
37975	7,875
37976	7,7636
37977	7,9168
37978	7,7048
37979	7,8811
37980	7,7695
37981	7,9234
37982	7,7102
37983	7,825
37984	7,9519
37985	8,0594
37986	7,8454
37987	7,9612
37988	7,9487
37989	8,0525
37990	7,8397
37991	7,9518
37992	8,0525
37993	7,8397
37994	8,0594
37995	7,8454
37996	7,9612
37997	7,6965
37998	7,7093
37999	7,7033
38000	7,8007
38001	7,5952
38002	7,7054
38003	7,6936
38004	7,7035
38005	7,6973
38006	7,7941
38007	7,59
38008	7,6965
38009	7,7035
38010	7,6973
38011	7,7941
38012	7,59
38013	7,7093
38014	7,7033
38015	7,8007
38016	7,5952
38017	7,7054
38018	7,7298
38019	7,8361
38020	7,6257
38021	7,7386
38022	7,7269
38023	7,8295
38024	7,6205
38025	7,7298
38026	7,8295
38027	7,6205
38028	7,8361
38029	7,6257
38030	7,7386
38031	7,7953
38032	7,7527
38033	7,8936
38034	7,8572
38035	7,8051
38036	7,792
38037	7,7464
38038	7,8862
38039	7,8504
38040	7,7953
38041	7,7464
38042	7,8862
38043	7,8504
38044	7,7527
38045	7,8936
38046	7,8572
38047	7,8051
38048	7,7182
38049	7,8196
38050	7,6204
38051	7,7274
38052	7,7151
38053	7,8127
38054	7,615
38055	7,7182
38056	7,8127
38057	7,615
38058	7,8196
38059	7,6204
38060	7,7274
38061	8,1096
38062	8,2225
38063	8,2027
38064	8,0149
38065	8,1217
38066	8,1056
38067	8,2139
38068	8,1939
38069	8,0073
38070	8,1096
38071	8,2139
38072	8,1939
38073	8,0073
38074	8,2225
38075	8,2027
38076	8,0149
38077	8,1217
38078	8,6143
38079	8,4756
38080	8,7077
38081	8,7692
38082	8,6299
38083	8,609
38084	8,4659
38085	8,6964
38086	8,758
38087	8,6143
38088	8,4659
38089	8,6964
38090	8,758
38091	8,4756
38092	8,7077
38093	8,7692
38094	8,6299
38095	8,3404
38096	8,4327
38097	8,3541
38098	8,3359
38099	8,4228
38100	8,3404
38101	8,4228
38102	8,4327
38103	8,3541
38104	10,01
38105	10,162
38106	9,8238
38107	10,038
38108	10,001
38109	10,143
38110	9,8067
38111	10,01
38112	10,143
38113	9,8067
38114	10,162
38115	9,8238
38116	10,038
38117	11,239
38118	11,082
38119	11,436
38120	11,044
38121	11,28
38122	11,225
38123	11,056
38124	11,406
38125	11,018
38126	11,239
38127	11,056
38128	11,406
38129	11,018
38130	11,082
38131	11,436
38132	11,044
38133	11,28
38134	11,092
38135	11,228
38136	11,286
38137	11,131
38138	11,079
38139	11,201
38140	11,258
38141	11,092
38142	11,201
38143	11,258
38144	11,228
38145	11,286
38146	11,131
38147	11,863
38148	12,072
38149	11,673
38150	11,785
38151	11,915
38152	11,846
38153	12,035
38154	11,641
38155	11,752
38156	11,863
38157	12,035
38158	11,641
38159	11,752
38160	12,072
38161	11,673
38162	11,785
38163	11,915
38164	11,343
38165	11,498
38166	11,256
38167	11,385
38168	11,328
38169	11,468
38170	11,229
38171	11,343
38172	11,468
38173	11,229
38174	11,498
38175	11,256
38176	11,385
38177	11,672
38178	11,774
38179	11,714
38180	11,722
38181	11,657
38182	11,741
38183	11,682
38184	11,672
38185	11,741
38186	11,682
38187	11,774
38188	11,714
38189	11,722
38190	11,845
38191	11,95
38192	11,775
38193	12,06
38194	11,896
38195	11,828
38196	11,914
38197	11,742
38198	12,024
38199	11,845
38200	11,914
38201	11,742
38202	12,024
38203	11,95
38204	11,775
38205	12,06
38206	11,896
38207	11,625
38208	11,81
38209	11,551
38210	11,689
38211	11,673
38212	11,609
38213	11,776
38214	11,521
38215	11,657
38216	11,625
38217	11,776
38218	11,521
38219	11,657
38220	11,81
38221	11,551
38222	11,689
38223	11,673
38224	12,027
38225	12,007
38226	12,221
38227	11,894
38228	12,082
38229	12,009
38230	11,971
38231	12,183
38232	11,86
38233	12,027
38234	11,971
38235	12,183
38236	11,86
38237	12,007
38238	12,221
38239	11,894
38240	12,082
38241	11,203
38242	11,389
38243	11,175
38244	11,339
38245	11,244
38246	11,19
38247	11,36
38248	11,147
38249	11,31
38250	11,203
38251	11,36
38252	11,147
38253	11,31
38254	11,389
38255	11,175
38256	11,339
38257	11,244
38258	11,961
38259	11,927
38260	12,19
38261	12,015
38262	11,943
38263	11,891
38264	12,151
38265	11,961
38266	11,891
38267	12,151
38268	11,927
38269	12,19
38270	12,015
38271	11,547
38272	11,721
38273	11,555
38274	11,594
38275	11,531
38276	11,688
38277	11,524
38278	11,547
38279	11,688
38280	11,524
38281	11,721
38282	11,555
38283	11,594
38284	11,867
38285	11,93
38286	11,675
38287	12,125
38288	11,92
38289	11,85
38290	11,895
38291	11,643
38292	12,087
38293	11,867
38294	11,895
38295	11,643
38296	12,087
38297	11,93
38298	11,675
38299	12,125
38300	11,92
38301	12,252
38302	12,486
38303	12,231
38304	12,311
38305	12,232
38306	12,444
38307	12,192
38308	12,252
38309	12,444
38310	12,192
38311	12,486
38312	12,231
38313	12,311
38314	11,129
38315	11,348
38316	11,094
38317	11,17
38318	11,116
38319	11,319
38320	11,067
38321	11,129
38322	11,319
38323	11,067
38324	11,348
38325	11,094
38326	11,17
38327	11,539
38328	11,524
38329	11,77
38330	11,586
38331	11,523
38332	11,492
38333	11,736
38334	11,539
38335	11,492
38336	11,736
38337	11,524
38338	11,77
38339	11,586
38340	12,377
38341	12,615
38342	12,394
38343	12,323
38344	12,44
38345	12,357
38346	12,571
38347	12,353
38348	12,283
38349	12,377
38350	12,571
38351	12,353
38352	12,283
38353	12,615
38354	12,394
38355	12,323
38356	12,44
38357	12,809
38358	12,802
38359	12,843
38360	13,109
38361	12,881
38362	12,786
38363	12,756
38364	12,797
38365	13,061
38366	12,809
38367	12,756
38368	12,797
38369	13,061
38370	12,802
38371	12,843
38372	13,109
38373	12,881
38374	12,7
38375	12,704
38376	12,909
38377	12,769
38378	12,677
38379	12,66
38380	12,862
38381	12,7
38382	12,66
38383	12,862
38384	12,704
38385	12,909
38386	12,769
38387	12,679
38388	12,699
38389	12,901
38390	12,748
38391	12,657
38392	12,655
38393	12,854
38394	12,679
38395	12,655
38396	12,854
38397	12,699
38398	12,901
38399	12,748
38400	12,687
38401	12,74
38402	12,938
38403	12,453
38404	12,756
38405	12,664
38406	12,696
38407	12,891
38408	12,412
38409	12,687
38410	12,696
38411	12,891
38412	12,412
38413	12,74
38414	12,938
38415	12,453
38416	12,756
38417	12,759
38418	12,52
38419	13,045
38420	12,83
38421	12,736
38422	12,478
38423	12,996
38424	12,759
38425	12,478
38426	12,996
38427	12,52
38428	13,045
38429	12,83
38430	12,621
38431	12,726
38432	12,366
38433	12,923
38434	12,655
38435	12,61
38436	12,702
38437	12,345
38438	12,898
38439	12,621
38440	12,702
38441	12,345
38442	12,898
38443	12,726
38444	12,366
38445	12,923
38446	12,655
38447	9,6726
38448	9,9846
38449	9,4436
38450	9,764
38451	9,7518
38452	9,697
38453	9,6645
38454	9,9662
38455	9,4288
38456	9,7468
38457	9,7355
38458	9,6726
38459	9,9662
38460	9,4288
38461	9,7468
38462	9,7355
38463	9,9846
38464	9,4436
38465	9,764
38466	9,7518
38467	9,697
38468	11,477
38469	11,29
38470	11,678
38471	11,524
38472	11,462
38473	11,261
38474	11,645
38475	11,477
38476	11,261
38477	11,645
38478	11,29
38479	11,678
38480	11,524
38481	10,584
38482	10,741
38483	10,38
38484	10,619
38485	10,572
38486	10,716
38487	10,359
38488	10,584
38489	10,716
38490	10,359
38491	10,741
38492	10,38
38493	10,619
38494	12,628
38495	12,914
38496	12,422
38497	12,776
38498	12,696
38499	12,606
38500	12,867
38501	12,38
38502	12,73
38503	12,628
38504	12,867
38505	12,38
38506	12,73
38507	12,914
38508	12,422
38509	12,776
38510	12,696
38511	11,487
38512	11,279
38513	11,758
38514	11,535
38515	11,471
38516	11,25
38517	11,724
38518	11,487
38519	11,25
38520	11,724
38521	11,279
38522	11,758
38523	11,535
38524	10,819
38525	10,563
38526	10,924
38527	10,934
38528	10,857
38529	10,807
38530	10,54
38531	10,897
38532	10,908
38533	10,819
38534	10,54
38535	10,897
38536	10,908
38537	10,563
38538	10,924
38539	10,934
38540	10,857
38541	10,29
38542	10,343
38543	10,563
38544	10,321
38545	10,28
38546	10,321
38547	10,541
38548	10,29
38549	10,321
38550	10,541
38551	10,343
38552	10,563
38553	10,321
38554	13,073
38555	13,09
38556	13,034
38557	13,295
38558	13,151
38559	13,048
38560	13,041
38561	12,985
38562	13,244
38563	13,073
38564	13,041
38565	12,985
38566	13,244
38567	13,09
38568	13,034
38569	13,295
38570	13,151
38571	11,969
38572	12,175
38573	11,998
38574	12,025
38575	11,951
38576	12,137
38577	11,961
38578	11,969
38579	12,137
38580	11,961
38581	12,175
38582	11,998
38583	12,025
38584	13,223
38585	13,213
38586	13,075
38587	13,449
38588	13,305
38589	13,198
38590	13,164
38591	13,026
38592	13,399
38593	13,223
38594	13,164
38595	13,026
38596	13,399
38597	13,213
38598	13,075
38599	13,449
38600	13,305
38601	12,218
38602	12,046
38603	12,474
38604	12,278
38605	12,198
38606	12,008
38607	12,432
38608	12,218
38609	12,008
38610	12,432
38611	12,046
38612	12,474
38613	12,278
38614	11,313
38615	11,541
38616	11,102
38617	11,492
38618	11,359
38619	11,298
38620	11,509
38621	11,073
38622	11,46
38623	11,313
38624	11,509
38625	11,073
38626	11,46
38627	11,541
38628	11,102
38629	11,492
38630	11,359
38631	12,411
38632	12,515
38633	12,838
38634	12,474
38635	12,39
38636	12,473
38637	12,792
38638	12,411
38639	12,473
38640	12,792
38641	12,515
38642	12,838
38643	12,474
38644	12,38
38645	12,632
38646	12,379
38647	12,443
38648	12,36
38649	12,588
38650	12,339
38651	12,38
38652	12,588
38653	12,339
38654	12,632
38655	12,379
38656	12,443
38657	12,596
38658	12,312
38659	12,992
38660	12,664
38661	12,575
38662	12,272
38663	12,944
38664	12,596
38665	12,272
38666	12,944
38667	12,312
38668	12,992
38669	12,664
38670	11,99
38671	11,81
38672	12,128
38673	12,045
38674	11,972
38675	11,776
38676	12,09
38677	11,99
38678	11,776
38679	12,09
38680	11,81
38681	12,128
38682	12,045
38683	12,841
38684	12,852
38685	13,141
38686	12,914
38687	12,818
38688	12,806
38689	13,092
38690	12,841
38691	12,806
38692	13,092
38693	12,852
38694	13,141
38695	12,914
38696	12,136
38697	12,075
38698	12,211
38699	12,303
38700	12,158
38701	12,129
38702	12,061
38703	12,196
38704	12,288
38705	12,136
38706	12,061
38707	12,196
38708	12,288
38709	12,075
38710	12,211
38711	12,303
38712	12,158
38713	13,076
38714	13,128
38715	13,253
38716	13,155
38717	13,052
38718	13,079
38719	13,203
38720	13,076
38721	13,079
38722	13,203
38723	13,128
38724	13,253
38725	13,155
38726	13,096
38727	13,145
38728	13,498
38729	13,174
38730	13,071
38731	13,096
38732	13,446
38733	13,096
38734	13,096
38735	13,446
38736	13,145
38737	13,498
38738	13,174
38739	13,162
38740	13,502
38741	13,243
38742	13,138
38743	13,452
38744	13,162
38745	13,452
38746	13,502
38747	13,243
38748	10,92
38749	11,112
38750	10,752
38751	10,957
38752	10,907
38753	11,085
38754	10,729
38755	10,92
38756	11,085
38757	10,729
38758	11,112
38759	10,752
38760	10,957
38761	9,2157
38762	9,3047
38763	9,0269
38764	9,2361
38765	9,209
38766	9,2903
38767	9,0144
38768	9,2157
38769	9,2903
38770	9,0144
38771	9,3047
38772	9,0269
38773	9,2361
38774	8,5258
38775	8,6186
38776	8,3906
38777	8,6812
38778	8,5408
38779	8,5208
38780	8,6077
38781	8,3813
38782	8,6705
38783	8,5258
38784	8,6077
38785	8,3813
38786	8,6705
38787	8,6186
38788	8,3906
38789	8,6812
38790	8,5408
38791	7,8722
38792	7,9526
38793	7,8114
38794	7,9686
38795	7,8827
38796	7,8688
38797	7,9453
38798	7,8048
38799	7,9609
38800	7,8722
38801	7,9453
38802	7,8048
38803	7,9609
38804	7,9526
38805	7,8114
38806	7,9686
38807	7,8827
38808	8,0404
38809	8,1342
38810	8,1471
38811	8,052
38812	8,0366
38813	8,1257
38814	8,1389
38815	8,0404
38816	8,1257
38817	8,1389
38818	8,1342
38819	8,1471
38820	8,052
38821	7,7027
38822	7,7265
38823	7,6991
38824	7,8053
38825	7,7118
38826	7,6997
38827	7,7203
38828	7,6932
38829	7,7985
38830	7,7027
38831	7,7203
38832	7,6932
38833	7,7985
38834	7,7265
38835	7,6991
38836	7,8053
38837	7,7118
38838	7,7589
38839	7,8584
38840	7,7685
38841	7,7558
38842	7,8513
38843	7,7589
38844	7,8513
38845	7,8584
38846	7,7685
38847	7,7619
38848	7,7291
38849	7,8142
38850	7,8688
38851	7,6569
38852	7,7708
38853	7,759
38854	7,7232
38855	7,8083
38856	7,8622
38857	7,6516
38858	7,7619
38859	7,7232
38860	7,8083
38861	7,8622
38862	7,6516
38863	7,7291
38864	7,8142
38865	7,8688
38866	7,6569
38867	7,7708
38868	7,7041
38869	7,8093
38870	7,7129
38871	7,7012
38872	7,8027
38873	7,7041
38874	7,8027
38875	7,8093
38876	7,7129
38877	8,0344
38878	7,9512
38879	8,1353
38880	8,1416
38881	7,928
38882	8,044
38883	8,0312
38884	7,945
38885	8,1287
38886	8,1347
38887	7,9222
38888	8,0344
38889	7,945
38890	8,1287
38891	8,1347
38892	7,9222
38893	7,9512
38894	8,1353
38895	8,1416
38896	7,928
38897	8,044
38898	7,8734
38899	7,981
38900	7,7671
38901	7,8825
38902	7,8704
38903	7,9743
38904	7,7616
38905	7,8734
38906	7,9743
38907	7,7616
38908	7,981
38909	7,7671
38910	7,8825
38911	8,4844
38912	8,3612
38913	8,6231
38914	8,5883
38915	8,3818
38916	8,4954
38917	8,4807
38918	8,3541
38919	8,6155
38920	8,5805
38921	8,3749
38922	8,4844
38923	8,3541
38924	8,6155
38925	8,5805
38926	8,3749
38927	8,3612
38928	8,6231
38929	8,5883
38930	8,3818
38931	8,4954
38932	8,24
38933	8,3459
38934	8,1346
38935	8,2502
38936	8,2365
38937	8,3385
38938	8,1283
38939	8,24
38940	8,3385
38941	8,1283
38942	8,3459
38943	8,1346
38944	8,2502
38945	9,0671
38946	8,9153
38947	9,2301
38948	9,166
38949	8,9713
38950	9,0799
38951	9,0629
38952	8,9071
38953	9,2212
38954	9,1571
38955	8,9632
38956	9,0671
38957	8,9071
38958	9,2212
38959	9,1571
38960	8,9632
38961	8,9153
38962	9,2301
38963	9,166
38964	8,9713
38965	9,0799
38966	8,7621
38967	8,8635
38968	8,6616
38969	8,7739
38970	8,7581
38971	8,8552
38972	8,6541
38973	8,7621
38974	8,8552
38975	8,6541
38976	8,8635
38977	8,6616
38978	8,7739
38979	9,3896
38980	9,4872
38981	9,5613
38982	9,4033
38983	9,385
38984	9,4777
38985	9,5518
38986	9,3896
38987	9,4777
38988	9,5518
38989	9,4872
38990	9,5613
38991	9,4033
38992	10,463
38993	10,655
38994	10,56
38995	10,28
38996	10,48
38997	10,458
38998	10,644
38999	10,548
39000	10,269
39001	10,463
39002	10,644
39003	10,548
39004	10,269
39005	10,655
39006	10,56
39007	10,28
39008	10,48
39009	11,216
39010	11,032
39011	11,438
39012	11,282
39013	11,308
39014	11,236
39015	11,21
39016	11,019
39017	11,425
39018	11,269
39019	11,295
39020	11,216
39021	11,019
39022	11,425
39023	11,269
39024	11,295
39025	11,032
39026	11,438
39027	11,282
39028	11,308
39029	11,236
39030	10,839
39031	10,937
39032	10,857
39033	10,833
39034	10,924
39035	10,839
39036	10,924
39037	10,937
39038	10,857
39039	12,002
39040	11,832
39041	12,077
39042	12,023
39043	11,995
39044	11,818
39045	12,063
39046	12,002
39047	11,818
39048	12,063
39049	11,832
39050	12,077
39051	12,023
39052	11,648
39053	11,713
39054	11,668
39055	11,641
39056	11,7
39057	11,648
39058	11,7
39059	11,713
39060	11,668
39061	10,669
39062	10,884
39063	10,459
39064	10,815
39065	10,705
39066	10,657
39067	10,858
39068	10,437
39069	10,789
39070	10,669
39071	10,858
39072	10,437
39073	10,789
39074	10,884
39075	10,459
39076	10,815
39077	10,705
39078	11,09
39079	11,262
39080	11,131
39081	11,077
39082	11,232
39083	11,09
39084	11,232
39085	11,262
39086	11,131
39087	9,8253
39088	9,6349
39089	9,9364
39090	10,037
39091	9,8525
39092	9,8163
39093	9,618
39094	9,9171
39095	10,017
39096	9,8253
39097	9,618
39098	9,9171
39099	10,017
39100	9,6349
39101	9,9364
39102	10,037
39103	9,8525
39104	9,091
39105	9,2656
39106	8,9374
39107	9,1926
39108	9,1118
39109	9,0841
39110	9,2508
39111	8,9244
39112	9,1778
39113	9,091
39114	9,2508
39115	8,9244
39116	9,1778
39117	9,2656
39118	8,9374
39119	9,1926
39120	9,1118
39121	9,4407
39122	9,5424
39123	9,4643
39124	9,4328
39125	9,5256
39126	9,4407
39127	9,5256
39128	9,5424
39129	9,4643
39130	8,5376
39131	8,6603
39132	8,6399
39133	8,4373
39134	8,5542
39135	8,5321
39136	8,6487
39137	8,628
39138	8,4268
39139	8,5376
39140	8,6487
39141	8,628
39142	8,4268
39143	8,6603
39144	8,6399
39145	8,4373
39146	8,5542
39147	8,7865
39148	8,6887
39149	8,8887
39150	8,8049
39151	8,7803
39152	8,6774
39153	8,8755
39154	8,7865
39155	8,6774
39156	8,8755
39157	8,6887
39158	8,8887
39159	8,8049
39160	8,2028
39161	8,1599
39162	8,3084
39163	8,2694
39164	8,2167
39165	8,1982
39166	8,1509
39167	8,2983
39168	8,2598
39169	8,2028
39170	8,1509
39171	8,2983
39172	8,2598
39173	8,1599
39174	8,3084
39175	8,2694
39176	8,2167
39177	8,1048
39178	8,1109
39179	8,123
39180	8,2141
39181	8,1176
39182	8,1006
39183	8,1023
39184	8,1146
39185	8,2048
39186	8,1048
39187	8,1023
39188	8,1146
39189	8,2048
39190	8,1109
39191	8,123
39192	8,2141
39193	8,1176
39194	8,1233
39195	8,231
39196	8,1365
39197	8,119
39198	8,2214
39199	8,1233
39200	8,2214
39201	8,231
39202	8,1365
39203	8,249
39204	8,1956
39205	8,3264
39206	8,3584
39207	8,2618
39208	8,2448
39209	8,1871
39210	8,3177
39211	8,3492
39212	8,249
39213	8,1871
39214	8,3177
39215	8,3492
39216	8,1956
39217	8,3264
39218	8,3584
39219	8,2618
39220	8,1472
39221	8,2571
39222	8,1598
39223	8,143
39224	8,248
39225	8,1472
39226	8,248
39227	8,2571
39228	8,1598
39229	8,6191
39230	8,5122
39231	8,7491
39232	8,7243
39233	8,633
39234	8,6145
39235	8,5032
39236	8,7396
39237	8,7144
39238	8,6191
39239	8,5032
39240	8,7396
39241	8,7144
39242	8,5122
39243	8,7491
39244	8,7243
39245	8,633
39246	8,4075
39247	8,5153
39248	8,4207
39249	8,4031
39250	8,5059
39251	8,4075
39252	8,5059
39253	8,5153
39254	8,4207
39255	9,1846
39256	9,0328
39257	9,3589
39258	9,2823
39259	9,2005
39260	9,1793
39261	9,0226
39262	9,3479
39263	9,2712
39264	9,1846
39265	9,0226
39266	9,3479
39267	9,2712
39268	9,0328
39269	9,3589
39270	9,2823
39271	9,2005
39272	8,8796
39273	8,9813
39274	8,8944
39275	8,8747
39276	8,9709
39277	8,8796
39278	8,9709
39279	8,9813
39280	8,8944
39281	9,9112
39282	9,7232
39283	10,122
39284	10,001
39285	9,9301
39286	9,9049
39287	9,7112
39288	10,109
39289	9,9881
39290	9,9112
39291	9,7112
39292	10,109
39293	9,9881
39294	9,7232
39295	10,122
39296	10,001
39297	9,9301
39298	9,5298
39299	9,6235
39300	9,5471
39301	9,5241
39302	9,6115
39303	9,5298
39304	9,6115
39305	9,6235
39306	9,5471
39307	10,325
39308	10,412
39309	10,551
39310	10,346
39311	10,318
39312	10,398
39313	10,537
39314	10,325
39315	10,398
39316	10,537
39317	10,412
39318	10,551
39319	10,346
39320	11,731
39321	11,492
39322	11,817
39323	11,982
39324	11,759
39325	11,721
39326	11,474
39327	11,798
39328	11,962
39329	11,731
39330	11,474
39331	11,798
39332	11,962
39333	11,492
39334	11,817
39335	11,982
39336	11,759
39337	11,24
39338	11,326
39339	11,01
39340	11,265
39341	11,232
39342	11,308
39343	10,994
39344	11,24
39345	11,308
39346	10,994
39347	11,326
39348	11,01
39349	11,265
39350	12,72
39351	12,842
39352	12,479
39353	13,013
39354	12,755
39355	12,708
39356	12,818
39357	12,456
39358	12,988
39359	12,72
39360	12,818
39361	12,456
39362	12,988
39363	12,842
39364	12,479
39365	13,013
39366	12,755
39367	12,817
39368	12,908
39369	12,551
39370	13,117
39371	12,852
39372	12,805
39373	12,883
39374	12,529
39375	13,091
39376	12,817
39377	12,883
39378	12,529
39379	13,091
39380	12,908
39381	12,551
39382	13,117
39383	12,852
39384	11,254
39385	11,509
39386	11,018
39387	11,332
39388	11,279
39389	11,246
39390	11,491
39391	11,002
39392	11,315
39393	11,254
39394	11,491
39395	11,002
39396	11,315
39397	11,509
39398	11,018
39399	11,332
39400	11,279
39401	11,749
39402	11,83
39403	12,016
39404	11,778
39405	11,74
39406	11,811
39407	11,996
39408	11,749
39409	11,811
39410	11,996
39411	11,83
39412	12,016
39413	11,778
39414	10,327
39415	10,554
39416	10,124
39417	10,414
39418	10,348
39419	10,32
39420	10,539
39421	10,111
39422	10,4
39423	10,327
39424	10,539
39425	10,111
39426	10,4
39427	10,554
39428	10,124
39429	10,414
39430	10,348
39431	10,771
39432	10,856
39433	10,683
39434	10,794
39435	10,763
39436	10,84
39437	10,668
39438	10,771
39439	10,84
39440	10,668
39441	10,856
39442	10,683
39443	10,794
39444	9,5317
39445	9,7252
39446	9,3607
39447	9,6253
39448	9,549
39449	9,5259
39450	9,7132
39451	9,3496
39452	9,6133
39453	9,5317
39454	9,7132
39455	9,3496
39456	9,6133
39457	9,7252
39458	9,3607
39459	9,6253
39460	9,549
39461	9,9133
39462	10,003
39463	9,9322
39464	9,907
39465	9,99
39466	9,9133
39467	9,99
39468	10,003
39469	9,9322
39470	8,8811
39471	9,0344
39472	8,7505
39473	8,9828
39474	8,8959
39475	8,8762
39476	9,0242
39477	8,741
39478	8,9724
39479	8,8811
39480	9,0242
39481	8,741
39482	8,9724
39483	9,0344
39484	8,7505
39485	8,9828
39486	8,8959
39487	9,1863
39488	9,284
39489	9,2022
39490	9,181
39491	9,2729
39492	9,1863
39493	9,2729
39494	9,284
39495	9,2022
39496	8,4086
39497	8,5134
39498	8,3273
39499	8,5164
39500	8,4218
39501	8,4042
39502	8,5044
39503	8,3186
39504	8,5069
39505	8,4086
39506	8,5044
39507	8,3186
39508	8,5069
39509	8,5134
39510	8,3273
39511	8,5164
39512	8,4218
39513	8,6204
39514	8,7256
39515	8,6343
39516	8,6158
39517	8,7157
39518	8,6204
39519	8,7157
39520	8,7256
39521	8,6343
39522	8,1477
39523	8,1962
39524	8,1233
39525	8,2575
39526	8,1603
39527	8,1435
39528	8,1878
39529	8,1149
39530	8,2484
39531	8,1477
39532	8,1878
39533	8,1149
39534	8,2484
39535	8,1962
39536	8,1233
39537	8,2575
39538	8,1603
39539	8,2498
39540	8,3592
39541	8,2625
39542	8,2455
39543	8,35
39544	8,2498
39545	8,35
39546	8,3592
39547	8,2625
39548	8,123
39549	8,1107
39550	8,2307
39551	8,1593
39552	8,1362
39553	8,1186
39554	8,1022
39555	8,2211
39556	8,1504
39557	8,123
39558	8,1022
39559	8,2211
39560	8,1504
39561	8,1107
39562	8,2307
39563	8,1593
39564	8,1362
39565	8,1049
39566	8,2141
39567	8,1176
39568	8,1007
39569	8,2049
39570	8,1049
39571	8,2049
39572	8,2141
39573	8,1176
39574	8,7844
39575	8,6585
39576	8,9317
39577	8,8866
39578	8,8028
39579	8,7783
39580	8,6469
39581	8,9187
39582	8,8734
39583	8,7844
39584	8,6469
39585	8,9187
39586	8,8734
39587	8,6585
39588	8,9317
39589	8,8866
39590	8,8028
39591	8,536
39592	8,6383
39593	8,4359
39594	8,5525
39595	8,5305
39596	8,6264
39597	8,4254
39598	8,536
39599	8,6264
39600	8,4254
39601	8,6383
39602	8,4359
39603	8,5525
39604	9,0808
39605	9,185
39606	9,2481
39607	9,1015
39608	9,0739
39609	9,1702
39610	9,2334
39611	9,0808
39612	9,1702
39613	9,2334
39614	9,185
39615	9,2481
39616	9,1015
39617	9,781
39618	9,9039
39619	9,5995
39620	9,9777
39621	9,8078
39622	9,7721
39623	9,8849
39624	9,5828
39625	9,9587
39626	9,781
39627	9,8849
39628	9,5828
39629	9,9587
39630	9,9039
39631	9,5995
39632	9,9777
39633	9,8078
39634	12,189
39635	11,981
39636	12,348
39637	12,249
39638	12,169
39639	11,944
39640	12,307
39641	12,189
39642	11,944
39643	12,307
39644	11,981
39645	12,348
39646	12,249
39647	11,753
39648	11,924
39649	11,805
39650	11,735
39651	11,888
39652	11,753
39653	11,888
39654	11,924
39655	11,805
39656	11,504
39657	11,703
39658	11,323
39659	11,427
39660	11,589
39661	11,524
39662	11,498
39663	11,689
39664	11,31
39665	11,414
39666	11,575
39667	11,504
39668	11,689
39669	11,31
39670	11,414
39671	11,575
39672	11,703
39673	11,323
39674	11,427
39675	11,589
39676	11,524
39677	11,889
39678	12,087
39679	11,979
39680	11,91
39681	11,882
39682	12,073
39683	11,964
39684	11,889
39685	12,073
39686	11,964
39687	12,087
39688	11,979
39689	11,91
39690	10,768
39691	10,954
39692	10,594
39693	10,851
39694	10,786
39695	10,762
39696	10,942
39697	10,582
39698	10,839
39699	10,768
39700	10,942
39701	10,582
39702	10,839
39703	10,954
39704	10,594
39705	10,851
39706	10,786
39707	11,131
39708	11,216
39709	11,15
39710	11,125
39711	11,203
39712	11,131
39713	11,203
39714	11,216
39715	11,15
39716	10,411
39717	10,496
39718	10,239
39719	10,428
39720	10,405
39721	10,484
39722	10,228
39723	10,411
39724	10,484
39725	10,228
39726	10,496
39727	10,239
39728	10,428
39729	9,3958
39730	9,5601
39731	9,2457
39732	9,4871
39733	9,4101
39734	9,391
39735	9,5502
39736	9,2365
39737	9,4772
39738	9,3958
39739	9,5502
39740	9,2365
39741	9,4772
39742	9,5601
39743	9,2457
39744	9,4871
39745	9,4101
39746	9,7193
39747	9,8079
39748	9,8922
39749	9,7345
39750	9,7143
39751	9,7974
39752	9,8818
39753	9,7193
39754	9,7974
39755	9,8818
39756	9,8079
39757	9,8922
39758	9,7345
39759	8,8124
39760	8,9533
39761	8,6874
39762	8,9102
39763	8,8252
39764	8,8082
39765	8,9446
39766	8,6791
39767	8,9012
39768	8,8124
39769	8,9446
39770	8,6791
39771	8,9012
39772	8,9533
39773	8,6874
39774	8,9102
39775	8,8252
39776	9,092
39777	9,1865
39778	9,1055
39779	9,0875
39780	9,1772
39781	9,092
39782	9,1772
39783	9,1865
39784	9,1055
39785	8,3444
39786	8,4526
39787	8,2539
39788	8,4477
39789	8,356
39790	8,3405
39791	8,4447
39792	8,2463
39793	8,4394
39794	8,3444
39795	8,4447
39796	8,2463
39797	8,4394
39798	8,4526
39799	8,2539
39800	8,4477
39801	8,356
39802	8,5616
39803	8,6624
39804	8,5737
39805	8,5576
39806	8,6538
39807	8,5616
39808	8,6538
39809	8,6624
39810	8,5737
39811	8,0301
39812	8,0961
39813	7,9837
39814	8,136
39815	8,041
39816	8,0265
39817	8,0887
39818	7,9764
39819	8,1281
39820	8,0301
39821	8,0887
39822	7,9764
39823	8,1281
39824	8,0961
39825	7,9837
39826	8,136
39827	8,041
39828	8,1657
39829	8,2707
39830	8,1768
39831	8,1619
39832	8,2627
39833	8,1657
39834	8,2627
39835	8,2707
39836	8,1768
39837	7,9049
39838	7,9207
39839	7,91
39840	8,0096
39841	7,916
39842	7,9012
39843	7,9134
39844	7,9025
39845	8,0015
39846	7,9049
39847	7,9134
39848	7,9025
39849	8,0015
39850	7,9207
39851	7,91
39852	8,0096
39853	7,916
39854	7,942
39855	8,0478
39856	7,9529
39857	7,9384
39858	8,0399
39859	7,942
39860	8,0399
39861	8,0478
39862	7,9529
39863	7,9919
39864	7,9535
39865	8,0516
39866	8,0924
39867	8,0041
39868	7,9879
39869	7,9456
39870	8,0432
39871	8,0834
39872	7,9919
39873	7,9456
39874	8,0432
39875	8,0834
39876	7,9535
39877	8,0516
39878	8,0924
39879	8,0041
39880	7,9212
39881	8,024
39882	7,9326
39883	7,9173
39884	8,0155
39885	7,9212
39886	8,0155
39887	8,024
39888	7,9326
39889	8,2951
39890	8,2036
39891	8,4073
39892	8,3912
39893	8,3097
39894	8,2902
39895	8,1944
39896	8,3971
39897	8,3806
39898	8,2951
39899	8,1944
39900	8,3971
39901	8,3806
39902	8,2036
39903	8,4073
39904	8,3912
39905	8,3097
39906	8,1171
39907	8,0219
39908	8,2151
39909	8,1303
39910	8,1127
39911	8,014
39912	8,2055
39913	8,1171
39914	8,014
39915	8,2055
39916	8,0219
39917	8,2151
39918	8,1303
39919	8,7982
39920	8,6596
39921	8,9564
39922	8,8942
39923	8,8165
39924	8,7921
39925	8,6481
39926	8,9434
39927	8,881
39928	8,7982
39929	8,6481
39930	8,9434
39931	8,881
39932	8,6596
39933	8,9564
39934	8,8942
39935	8,8165
39936	8,5233
39937	8,6186
39938	8,5396
39939	8,5179
39940	8,6068
39941	8,5233
39942	8,6068
39943	8,6186
39944	8,5396
39945	9,469
39946	9,2931
39947	9,668
39948	9,5746
39949	9,37
39950	9,4929
39951	9,4611
39952	9,2782
39953	9,6509
39954	9,5576
39955	9,3552
39956	9,469
39957	9,2782
39958	9,6509
39959	9,5576
39960	9,3552
39961	9,2931
39962	9,668
39963	9,5746
39964	9,37
39965	9,4929
39966	9,1152
39967	9,2144
39968	9,0226
39969	9,1361
39970	9,1082
39971	9,1995
39972	9,0097
39973	9,1152
39974	9,1995
39975	9,0097
39976	9,2144
39977	9,0226
39978	9,1361
39979	10,3
39980	10,085
39981	10,422
39982	10,333
39983	10,29
39984	10,065
39985	10,399
39986	10,3
39987	10,065
39988	10,399
39989	10,085
39990	10,422
39991	10,333
39992	9,8629
39993	9,977
39994	9,751
39995	9,8904
39996	9,8537
39997	9,9575
39998	9,734
39999	9,8629
40000	9,9575
40001	9,734
40002	9,977
40003	9,751
40004	9,8904
40005	13,144
40006	13,408
40007	13,234
40008	13,224
40009	13,119
40010	13,357
40011	13,184
40012	13,144
40013	13,357
40014	13,184
40015	13,408
40016	13,234
40017	13,224
40018	10,382
40019	10,119
40020	10,458
40021	10,766
40022	10,415
40023	10,371
40024	10,099
40025	10,435
40026	10,74
40027	10,382
40028	10,099
40029	10,435
40030	10,74
40031	10,119
40032	10,458
40033	10,766
40034	10,415
40035	12,968
40036	12,843
40037	13,262
40038	13,043
40039	12,944
40040	12,797
40041	13,213
40042	12,968
40043	12,797
40044	13,213
40045	12,843
40046	13,262
40047	13,043
40048	12,345
40049	12,398
40050	12,585
40051	12,362
40052	12,408
40053	12,325
40054	12,357
40055	12,542
40056	12,322
40057	12,345
40058	12,357
40059	12,542
40060	12,322
40061	12,398
40062	12,585
40063	12,362
40064	12,408
40065	11,609
40066	11,45
40067	11,829
40068	11,658
40069	11,593
40070	11,42
40071	11,794
40072	11,609
40073	11,42
40074	11,794
40075	11,45
40076	11,829
40077	11,658
40078	9,849
40079	9,6197
40080	9,9396
40081	9,8766
40082	9,8398
40083	9,6027
40084	9,9202
40085	9,849
40086	9,6027
40087	9,9202
40088	9,6197
40089	9,9396
40090	9,8766
40091	12,417
40092	12,595
40093	12,516
40094	12,226
40095	12,482
40096	12,396
40097	12,551
40098	12,473
40099	12,187
40100	12,417
40101	12,551
40102	12,473
40103	12,187
40104	12,595
40105	12,516
40106	12,226
40107	12,482
40108	11,854
40109	11,64
40110	12,077
40111	11,908
40112	11,836
40113	11,607
40114	12,039
40115	11,854
40116	11,607
40117	12,039
40118	11,64
40119	12,077
40120	11,908
40121	13,765
40122	13,927
40123	13,495
40124	13,535
40125	13,976
40126	13,809
40127	13,75
40128	13,896
40129	13,467
40130	13,507
40131	13,945
40132	13,765
40133	13,896
40134	13,467
40135	13,507
40136	13,945
40137	13,927
40138	13,495
40139	13,535
40140	13,976
40141	13,809
40142	14,066
40143	14,429
40144	14,164
40145	13,743
40146	14,114
40147	14,05
40148	14,394
40149	14,131
40150	13,713
40151	14,066
40152	14,394
40153	14,131
40154	13,713
40155	14,429
40156	14,164
40157	13,743
40158	14,114
40159	10,879
40160	10,662
40161	11,042
40162	10,919
40163	10,866
40164	10,637
40165	11,013
40166	10,879
40167	10,637
40168	11,013
40169	10,662
40170	11,042
40171	10,919
40172	12,887
40173	12,696
40174	13,085
40175	12,961
40176	12,863
40177	12,651
40178	13,037
40179	12,887
40180	12,651
40181	13,037
40182	12,696
40183	13,085
40184	12,961
40185	11,012
40186	10,776
40187	11,306
40188	11,118
40189	11,054
40190	10,998
40191	10,75
40192	11,275
40193	11,089
40194	11,012
40195	10,75
40196	11,275
40197	11,089
40198	10,776
40199	11,306
40200	11,118
40201	11,054
40202	13,361
40203	13,398
40204	13,665
40205	13,342
40206	13,447
40207	13,336
40208	13,347
40209	13,613
40210	13,291
40211	13,361
40212	13,347
40213	13,613
40214	13,291
40215	13,398
40216	13,665
40217	13,342
40218	13,447
40219	11,647
40220	11,868
40221	11,423
40222	11,887
40223	11,699
40224	11,629
40225	11,831
40226	11,39
40227	11,85
40228	11,647
40229	11,831
40230	11,39
40231	11,85
40232	11,868
40233	11,423
40234	11,887
40235	11,699
40236	10,52
40237	10,775
40238	10,274
40239	10,643
40240	10,557
40241	10,508
40242	10,749
40243	10,252
40244	10,617
40245	10,52
40246	10,749
40247	10,252
40248	10,617
40249	10,775
40250	10,274
40251	10,643
40252	10,557
40253	12,692
40254	12,49
40255	12,997
40256	12,762
40257	12,67
40258	12,447
40259	12,95
40260	12,692
40261	12,447
40262	12,95
40263	12,49
40264	12,997
40265	12,762
40266	12,273
40267	12,482
40268	12,369
40269	12,295
40270	12,266
40271	12,467
40272	12,354
40273	12,273
40274	12,467
40275	12,354
40276	12,482
40277	12,369
40278	12,295
40279	12,784
40280	12,825
40281	12,778
40282	13,032
40283	12,856
40284	12,761
40285	12,778
40286	12,732
40287	12,984
40288	12,784
40289	12,778
40290	12,732
40291	12,984
40292	12,825
40293	12,778
40294	13,032
40295	12,856
40296	12,679
40297	12,574
40298	12,782
40299	12,853
40300	12,702
40301	12,671
40302	12,559
40303	12,766
40304	12,837
40305	12,679
40306	12,559
40307	12,766
40308	12,837
40309	12,574
40310	12,782
40311	12,853
40312	12,702
40313	12,457
40314	12,305
40315	12,581
40316	12,48
40317	12,45
40318	12,291
40319	12,565
40320	12,457
40321	12,291
40322	12,565
40323	12,305
40324	12,581
40325	12,48
40326	13,625
40327	13,725
40328	13,852
40329	13,447
40330	13,711
40331	13,599
40332	13,674
40333	13,804
40334	13,397
40335	13,625
40336	13,674
40337	13,804
40338	13,397
40339	13,725
40340	13,852
40341	13,447
40342	13,711
40343	13,852
40344	13,838
40345	13,885
40346	14,194
40347	13,946
40348	13,825
40349	13,786
40350	13,832
40351	14,149
40352	13,852
40353	13,786
40354	13,832
40355	14,149
40356	13,838
40357	13,885
40358	14,194
40359	13,946
40360	13,793
40361	14,096
40362	13,885
40363	13,768
40364	14,049
40365	13,793
40366	14,049
40367	14,096
40368	13,885
40369	10,83
40370	11,06
40371	10,996
40372	10,868
40373	10,817
40374	11,033
40375	10,969
40376	10,83
40377	11,033
40378	10,969
40379	11,06
40380	10,996
40381	10,868
40382	11,283
40383	11,482
40384	11,327
40385	11,269
40386	11,45
40387	11,283
40388	11,45
40389	11,482
40390	11,327
40391	9,3882
40392	9,4908
40393	9,2065
40394	9,4114
40395	9,3805
40396	9,4743
40397	9,1921
40398	9,3882
40399	9,4743
40400	9,1921
40401	9,4908
40402	9,2065
40403	9,4114
40404	8,7089
40405	8,8045
40406	8,5744
40407	8,8657
40408	8,7266
40409	8,703
40410	8,7918
40411	8,5634
40412	8,8532
40413	8,7089
40414	8,7918
40415	8,5634
40416	8,8532
40417	8,8045
40418	8,5744
40419	8,8657
40420	8,7266
40421	8,0649
40422	8,1433
40423	8,0082
40424	8,1638
40425	8,0777
40426	8,0607
40427	8,1343
40428	8,
40429	8,1545
40430	8,0649
40431	8,1343
40432	8,
40433	8,1545
40434	8,1433
40435	8,0082
40436	8,1638
40437	8,0777
40438	8,2275
40439	8,3241
40440	8,333
40441	8,2415
40442	8,2228
40443	8,3139
40444	8,3231
40445	8,2275
40446	8,3139
40447	8,3231
40448	8,3241
40449	8,333
40450	8,2415
40451	7,908
40452	7,9297
40453	7,9079
40454	8,0117
40455	7,9193
40456	7,9043
40457	7,922
40458	7,9006
40459	8,0034
40460	7,908
40461	7,922
40462	7,9006
40463	8,0034
40464	7,9297
40465	7,9079
40466	8,0117
40467	7,9193
40468	7,9581
40469	8,0595
40470	7,97
40471	7,9541
40472	8,0508
40473	7,9581
40474	8,0508
40475	8,0595
40476	7,97
40477	7,9752
40478	7,9419
40479	8,029
40480	8,0812
40481	7,9861
40482	7,9716
40483	7,9346
40484	8,0218
40485	8,0733
40486	7,9752
40487	7,9346
40488	8,0218
40489	8,0733
40490	7,9419
40491	8,029
40492	8,0812
40493	7,9861
40494	7,9143
40495	8,0196
40496	7,9253
40497	7,9107
40498	8,0116
40499	7,9143
40500	8,0116
40501	8,0196
40502	7,9253
40503	8,2474
40504	8,1658
40505	8,3475
40506	8,3516
40507	8,2587
40508	8,2436
40509	8,1583
40510	8,3398
40511	8,3435
40512	8,2474
40513	8,1583
40514	8,3398
40515	8,3435
40516	8,1658
40517	8,3475
40518	8,3516
40519	8,2587
40520	8,0876
40521	8,1932
40522	8,0986
40523	8,0839
40524	8,1853
40525	8,0876
40526	8,1853
40527	8,1932
40528	8,0986
40529	8,6895
40530	8,5694
40531	8,8261
40532	8,7887
40533	8,7019
40534	8,6854
40535	8,5613
40536	8,8176
40537	8,78
40538	8,6895
40539	8,5613
40540	8,8176
40541	8,78
40542	8,5694
40543	8,8261
40544	8,7887
40545	8,7019
40546	8,4497
40547	8,5518
40548	8,4615
40549	8,4458
40550	8,5434
40551	8,4497
40552	8,5434
40553	8,5518
40554	8,4615
40555	9,2609
40556	9,1126
40557	9,4227
40558	9,3536
40559	9,2749
40560	9,2563
40561	9,1036
40562	9,4132
40563	9,3439
40564	9,2609
40565	9,1036
40566	9,4132
40567	9,3439
40568	9,1126
40569	9,4227
40570	9,3536
40571	9,2749
40572	8,9616
40573	9,0576
40574	8,9747
40575	8,9572
40576	9,0484
40577	8,9616
40578	9,0484
40579	9,0576
40580	8,9747
40581	9,9181
40582	9,752
40583	10,101
40584	10,007
40585	9,8257
40586	9,9338
40587	9,9128
40588	9,7419
40589	10,09
40590	9,9966
40591	9,8156
40592	9,9181
40593	9,7419
40594	10,09
40595	9,9966
40596	9,8156
40597	9,752
40598	10,101
40599	10,007
40600	9,8257
40601	9,9338
40602	9,5801
40603	9,6712
40604	9,5949
40605	9,5752
40606	9,661
40607	9,5801
40608	9,661
40609	9,6712
40610	9,5949
40611	10,649
40612	10,467
40613	10,732
40614	10,841
40615	10,666
40616	10,643
40617	10,455
40618	10,72
40619	10,829
40620	10,649
40621	10,455
40622	10,72
40623	10,829
40624	10,467
40625	10,732
40626	10,841
40627	10,666
40628	10,277
40629	10,363
40630	10,186
40631	10,293
40632	10,271
40633	10,351
40634	10,175
40635	10,277
40636	10,351
40637	10,175
40638	10,363
40639	10,186
40640	10,293
40641	12,141
40642	11,962
40643	12,237
40644	12,163
40645	12,134
40646	11,948
40647	12,222
40648	12,141
40649	11,948
40650	12,222
40651	11,962
40652	12,237
40653	12,163
40654	11,77
40655	11,86
40656	11,588
40657	11,791
40658	11,764
40659	11,846
40660	11,574
40661	11,77
40662	11,846
40663	11,574
40664	11,86
40665	11,588
40666	11,791
40667	12,825
40668	13,114
40669	12,607
40670	12,898
40671	12,802
40672	13,065
40673	12,564
40674	12,825
40675	13,065
40676	12,564
40677	13,114
40678	12,607
40679	12,898
40680	12,732
40681	12,881
40682	12,803
40683	12,709
40684	12,834
40685	12,732
40686	12,834
40687	12,881
40688	12,803
40689	11,411
40690	11,59
40691	11,183
40692	11,458
40693	11,395
40694	11,556
40695	11,153
40696	11,411
40697	11,556
40698	11,153
40699	11,59
40700	11,183
40701	11,458
40702	10,036
40703	9,8385
40704	10,143
40705	10,26
40706	10,067
40707	10,026
40708	9,8193
40709	10,122
40710	10,238
40711	10,036
40712	9,8193
40713	10,122
40714	10,238
40715	9,8385
40716	10,143
40717	10,26
40718	10,067
40719	9,2876
40720	9,4628
40721	9,3859
40722	9,1362
40723	9,3115
40724	9,2797
40725	9,4459
40726	9,369
40727	9,1212
40728	9,2876
40729	9,4459
40730	9,369
40731	9,1212
40732	9,4628
40733	9,3859
40734	9,1362
40735	9,3115
40736	9,6363
40737	9,7381
40738	9,6633
40739	9,6274
40740	9,7191
40741	9,6363
40742	9,7191
40743	9,7381
40744	9,6633
40745	8,7376
40746	8,8353
40747	8,6399
40748	8,8606
40749	8,7569
40750	8,7311
40751	8,8215
40752	8,6276
40753	8,8471
40754	8,7376
40755	8,8215
40756	8,6276
40757	8,8471
40758	8,8353
40759	8,6399
40760	8,8606
40761	8,7569
40762	8,4104
40763	8,3708
40764	8,5103
40765	8,4759
40766	8,4269
40767	8,4049
40768	8,3601
40769	8,4985
40770	8,4646
40771	8,4104
40772	8,3601
40773	8,4985
40774	8,4646
40775	8,3708
40776	8,5103
40777	8,4759
40778	8,4269
40779	8,3197
40780	8,3255
40781	8,3397
40782	8,4211
40783	8,3348
40784	8,3147
40785	8,3153
40786	8,3298
40787	8,4103
40788	8,3197
40789	8,3153
40790	8,3298
40791	8,4103
40792	8,3255
40793	8,3397
40794	8,4211
40795	8,3348
40796	8,3352
40797	8,4361
40798	8,3508
40799	8,33
40800	8,4249
40801	8,3352
40802	8,4249
40803	8,4361
40804	8,3508
40805	8,4638
40806	8,4122
40807	8,5405
40808	8,563
40809	8,4786
40810	8,4588
40811	8,4023
40812	8,5305
40813	8,5524
40814	8,4638
40815	8,4023
40816	8,5305
40817	8,5524
40818	8,4122
40819	8,5405
40820	8,563
40821	8,4786
40822	8,3632
40823	8,464
40824	8,378
40825	8,3582
40826	8,4535
40827	8,3632
40828	8,4535
40829	8,464
40830	8,378
40831	8,8245
40832	8,7216
40833	8,9519
40834	8,9171
40835	8,8402
40836	8,8193
40837	8,7114
40838	8,9412
40839	8,9061
40840	8,8245
40841	8,7114
40842	8,9412
40843	8,9061
40844	8,7216
40845	8,9519
40846	8,9171
40847	8,8402
40848	8,6187
40849	8,7151
40850	8,6338
40851	8,6136
40852	8,7044
40853	8,6187
40854	8,7044
40855	8,7151
40856	8,6338
40857	9,3741
40858	9,2275
40859	9,5449
40860	9,4568
40861	9,3916
40862	9,3683
40863	9,2163
40864	9,5329
40865	9,4448
40866	9,3741
40867	9,2163
40868	9,5329
40869	9,4448
40870	9,2275
40871	9,5449
40872	9,4568
40873	9,3916
40874	9,0776
40875	9,1655
40876	9,094
40877	9,0721
40878	9,1541
40879	9,0776
40880	9,1541
40881	9,1655
40882	9,094
40883	10,084
40884	9,9006
40885	10,292
40886	10,156
40887	10,104
40888	10,077
40889	9,8877
40890	10,278
40891	10,142
40892	10,084
40893	9,8877
40894	10,278
40895	10,142
40896	9,9006
40897	10,292
40898	10,156
40899	10,104
40900	9,7106
40901	9,7879
40902	9,7292
40903	9,7044
40904	9,7751
40905	9,7106
40906	9,7751
40907	9,7879
40908	9,7292
40909	10,93
40910	10,716
40911	11,172
40912	10,994
40913	10,854
40914	10,954
40915	10,922
40916	10,701
40917	11,155
40918	10,978
40919	10,838
40920	10,93
40921	10,701
40922	11,155
40923	10,978
40924	10,838
40925	10,716
40926	11,172
40927	10,994
40928	10,854
40929	10,954
40930	10,491
40931	10,558
40932	10,513
40933	10,484
40934	10,544
40935	10,491
40936	10,544
40937	10,558
40938	10,513
40939	11,893
40940	11,655
40941	12,158
40942	11,957
40943	11,922
40944	11,883
40945	11,636
40946	12,137
40947	11,938
40948	11,893
40949	11,636
40950	12,137
40951	11,938
40952	11,655
40953	12,158
40954	11,957
40955	11,922
40956	11,401
40957	11,462
40958	11,428
40959	11,393
40960	11,444
40961	11,401
40962	11,444
40963	11,462
40964	11,428
40965	12,949
40966	12,688
40967	13,035
40968	13,255
40969	12,986
40970	12,937
40971	12,665
40972	13,01
40973	13,229
40974	12,949
40975	12,665
40976	13,01
40977	13,229
40978	12,688
40979	13,035
40980	13,255
40981	12,986
40982	12,405
40983	12,317
40984	12,48
40985	12,438
40986	12,394
40987	12,295
40988	12,458
40989	12,405
40990	12,295
40991	12,458
40992	12,317
40993	12,48
40994	12,438
40995	15,549
40996	15,179
40997	15,965
40998	15,593
40999	15,662
41000	15,619
41001	15,526
41002	15,136
41003	15,914
41004	15,546
41005	15,614
41006	15,549
41007	15,136
41008	15,914
41009	15,546
41010	15,614
41011	15,179
41012	15,965
41013	15,593
41014	15,662
41015	15,619
41016	14,766
41017	14,849
41018	14,901
41019	14,478
41020	14,823
41021	14,747
41022	14,81
41023	14,861
41024	14,443
41025	14,766
41026	14,81
41027	14,861
41028	14,443
41029	14,849
41030	14,901
41031	14,478
41032	14,823
41033	16,449
41034	16,415
41035	16,053
41036	16,549
41037	16,822
41038	16,536
41039	16,42
41040	16,358
41041	16,
41042	16,49
41043	16,761
41044	16,449
41045	16,358
41046	16,
41047	16,49
41048	16,761
41049	16,415
41050	16,053
41051	16,549
41052	16,822
41053	16,536
41054	16,33
41055	16,466
41056	16,415
41057	16,302
41058	16,409
41059	16,33
41060	16,409
41061	16,466
41062	16,415
41063	14,918
41064	15,283
41065	14,597
41066	14,997
41067	14,977
41068	14,898
41069	15,239
41070	14,56
41071	14,957
41072	14,918
41073	15,239
41074	14,56
41075	14,957
41076	15,283
41077	14,597
41078	14,997
41079	14,977
41080	15,605
41081	15,713
41082	15,676
41083	15,582
41084	15,665
41085	15,605
41086	15,665
41087	15,713
41088	15,676
41089	13,57
41090	13,919
41091	13,288
41092	13,654
41093	13,491
41094	13,612
41095	13,555
41096	13,888
41097	13,262
41098	13,625
41099	13,463
41100	13,57
41101	13,888
41102	13,262
41103	13,625
41104	13,463
41105	13,919
41106	13,288
41107	13,654
41108	13,491
41109	13,612
41110	14,241
41111	14,311
41112	14,291
41113	14,225
41114	14,277
41115	14,241
41116	14,277
41117	14,311
41118	14,291
41119	12,428
41120	12,716
41121	12,173
41122	12,492
41123	12,353
41124	12,461
41125	12,417
41126	12,693
41127	12,152
41128	12,47
41129	12,332
41130	12,428
41131	12,693
41132	12,152
41133	12,47
41134	12,332
41135	12,716
41136	12,173
41137	12,492
41138	12,353
41139	12,461
41140	12,984
41141	13,055
41142	13,021
41143	12,971
41144	13,03
41145	12,984
41146	13,03
41147	13,055
41148	13,021
41149	11,402
41150	11,658
41151	11,173
41152	11,463
41153	11,428
41154	11,393
41155	11,64
41156	11,156
41157	11,446
41158	11,402
41159	11,64
41160	11,156
41161	11,446
41162	11,658
41163	11,173
41164	11,463
41165	11,428
41166	11,9
41167	11,962
41168	11,93
41169	11,891
41170	11,942
41171	11,9
41172	11,942
41173	11,962
41174	11,93
41175	10,493
41176	10,718
41177	10,294
41178	10,56
41179	10,515
41180	10,486
41181	10,702
41182	10,28
41183	10,545
41184	10,493
41185	10,702
41186	10,28
41187	10,545
41188	10,718
41189	10,294
41190	10,56
41191	10,515
41192	10,932
41193	10,996
41194	10,956
41195	10,924
41196	10,98
41197	10,932
41198	10,98
41199	10,996
41200	10,956
41201	9,7123
41202	9,9024
41203	9,5466
41204	9,7896
41205	9,7309
41206	9,7061
41207	9,8895
41208	9,5346
41209	9,7768
41210	9,7123
41211	9,8895
41212	9,5346
41213	9,7768
41214	9,9024
41215	9,5466
41216	9,7896
41217	9,7309
41218	10,086
41219	10,158
41220	10,106
41221	10,079
41222	10,144
41223	10,086
41224	10,144
41225	10,158
41226	10,106
41227	9,079
41228	9,2291
41229	8,9532
41230	9,1669
41231	9,0955
41232	9,0736
41233	9,2178
41234	8,9426
41235	9,1555
41236	9,079
41237	9,2178
41238	8,9426
41239	9,1555
41240	9,2291
41241	8,9532
41242	9,1669
41243	9,0955
41244	9,3757
41245	9,4584
41246	9,3932
41247	9,3699
41248	9,4464
41249	9,3757
41250	9,4464
41251	9,4584
41252	9,3932
41253	8,6197
41254	8,7228
41255	8,5414
41256	8,7161
41257	8,6349
41258	8,6147
41259	8,7125
41260	8,5314
41261	8,7054
41262	8,6197
41263	8,7125
41264	8,5314
41265	8,7054
41266	8,7228
41267	8,5414
41268	8,7161
41269	8,6349
41270	8,8258
41271	8,9183
41272	8,8415
41273	8,8206
41274	8,9073
41275	8,8258
41276	8,9073
41277	8,9183
41278	8,8415
41279	8,3636
41280	8,4128
41281	8,34
41282	8,4645
41283	8,3784
41284	8,3587
41285	8,4029
41286	8,33
41287	8,4539
41288	8,3636
41289	8,4029
41290	8,33
41291	8,4539
41292	8,4128
41293	8,34
41294	8,4645
41295	8,3784
41296	8,4645
41297	8,5637
41298	8,4794
41299	8,4596
41300	8,5532
41301	8,4645
41302	8,5532
41303	8,5637
41304	8,4794
41305	8,3349
41306	8,3254
41307	8,3703
41308	8,4358
41309	8,3505
41310	8,3297
41311	8,3151
41312	8,3596
41313	8,4246
41314	8,3349
41315	8,3151
41316	8,3596
41317	8,4246
41318	8,3254
41319	8,3703
41320	8,4358
41321	8,3505
41322	8,3198
41323	8,4212
41324	8,3349
41325	8,3148
41326	8,4104
41327	8,3198
41328	8,4104
41329	8,4212
41330	8,3349
41331	8,4097
41332	8,5096
41333	8,3077
41334	8,475
41335	8,4262
41336	8,4042
41337	8,4978
41338	8,2976
41339	8,4636
41340	8,4097
41341	8,4978
41342	8,2976
41343	8,4636
41344	8,5096
41345	8,3077
41346	8,475
41347	8,4262
41348	8,9833
41349	8,8588
41350	9,0812
41351	9,1327
41352	9,0047
41353	8,9762
41354	8,8453
41355	9,066
41356	9,1177
41357	8,9833
41358	8,8453
41359	9,066
41360	9,1177
41361	8,8588
41362	9,0812
41363	9,1327
41364	9,0047
41365	8,736
41366	8,8337
41367	8,6385
41368	8,7553
41369	8,7296
41370	8,82
41371	8,6262
41372	8,736
41373	8,82
41374	8,6262
41375	8,8337
41376	8,6385
41377	8,7553
41378	9,6274
41379	9,8235
41380	9,7324
41381	9,4559
41382	9,5253
41383	9,6543
41384	9,6184
41385	9,8044
41386	9,7134
41387	9,439
41388	9,5086
41389	9,6274
41390	9,8044
41391	9,7134
41392	9,439
41393	9,5086
41394	9,8235
41395	9,7324
41396	9,4559
41397	9,5253
41398	9,6543
41399	10,437
41400	10,229
41401	10,574
41402	10,31
41403	10,472
41404	10,425
41405	10,208
41406	10,549
41407	10,288
41408	10,437
41409	10,208
41410	10,549
41411	10,288
41412	10,229
41413	10,574
41414	10,31
41415	10,472
41416	10,015
41417	10,131
41418	10,046
41419	10,005
41420	10,11
41421	10,015
41422	10,11
41423	10,131
41424	10,046
41425	12,474
41426	12,282
41427	12,54
41428	12,453
41429	12,241
41430	12,474
41431	12,241
41432	12,282
41433	12,54
41434	12,068
41435	12,269
41436	12,127
41437	12,048
41438	12,229
41439	12,068
41440	12,229
41441	12,269
41442	12,127
41443	12,452
41444	12,669
41445	12,261
41446	12,539
41447	12,475
41448	12,445
41449	12,654
41450	12,247
41451	12,524
41452	12,452
41453	12,654
41454	12,247
41455	12,524
41456	12,669
41457	12,261
41458	12,539
41459	12,475
41460	12,873
41461	12,964
41462	13,081
41463	12,896
41464	12,865
41465	12,949
41466	13,065
41467	12,873
41468	12,949
41469	13,065
41470	12,964
41471	13,081
41472	12,896
41473	12,057
41474	12,137
41475	11,867
41476	12,079
41477	12,05
41478	12,123
41479	11,853
41480	12,057
41481	12,123
41482	11,853
41483	12,137
41484	11,867
41485	12,079
41486	10,927
41487	11,115
41488	10,755
41489	11,002
41490	10,946
41491	10,921
41492	11,102
41493	10,743
41494	10,989
41495	10,927
41496	11,102
41497	10,743
41498	10,989
41499	11,115
41500	10,755
41501	11,002
41502	10,946
41503	11,292
41504	11,368
41505	11,483
41506	11,311
41507	11,285
41508	11,355
41509	11,47
41510	11,292
41511	11,355
41512	11,47
41513	11,368
41514	11,483
41515	11,311
41516	10,225
41517	10,404
41518	10,061
41519	10,3
41520	10,145
41521	10,242
41522	10,219
41523	10,392
41524	10,05
41525	10,289
41526	10,134
41527	10,225
41528	10,392
41529	10,05
41530	10,289
41531	10,134
41532	10,404
41533	10,061
41534	10,3
41535	10,145
41536	10,242
41537	10,574
41538	10,648
41539	10,592
41540	10,568
41541	10,636
41542	10,574
41543	10,636
41544	10,648
41545	10,592
41546	9,5728
41547	9,7346
41548	9,4268
41549	9,6541
41550	9,5882
41551	9,5677
41552	9,7241
41553	9,4168
41554	9,6435
41555	9,5728
41556	9,7241
41557	9,4168
41558	9,6435
41559	9,7346
41560	9,4268
41561	9,6541
41562	9,5882
41563	9,8903
41564	9,9684
41565	9,9064
41566	9,8849
41567	9,9573
41568	9,8903
41569	9,9573
41570	9,9684
41571	9,9064
41572	9,0033
41573	9,1414
41574	8,8822
41575	9,092
41576	9,0174
41577	8,9986
41578	9,1318
41579	8,873
41580	9,0822
41581	9,0033
41582	9,1318
41583	8,873
41584	9,0822
41585	9,1414
41586	8,8822
41587	9,092
41588	9,0174
41589	9,2759
41590	9,3609
41591	9,2906
41592	9,271
41593	9,3507
41594	9,2759
41595	9,3507
41596	9,3609
41597	9,2906
41598	8,5472
41599	8,6535
41600	8,4596
41601	8,6427
41602	8,5604
41603	8,5428
41604	8,6446
41605	8,4509
41606	8,6334
41607	8,5472
41608	8,6446
41609	8,4509
41610	8,6334
41611	8,6535
41612	8,4596
41613	8,6427
41614	8,5604
41615	8,7589
41616	8,8513
41617	8,7725
41618	8,7544
41619	8,8417
41620	8,7589
41621	8,8417
41622	8,8513
41623	8,7725
41624	8,239
41625	8,3049
41626	8,1937
41627	8,3388
41628	8,2519
41629	8,2347
41630	8,2963
41631	8,1851
41632	8,3296
41633	8,239
41634	8,2963
41635	8,1851
41636	8,3296
41637	8,3049
41638	8,1937
41639	8,3388
41640	8,2519
41641	8,3724
41642	8,4705
41643	8,3854
41644	8,3681
41645	8,4613
41646	8,3724
41647	8,4613
41648	8,4705
41649	8,3854
41650	8,112
41651	8,1298
41652	8,1163
41653	8,2122
41654	8,1252
41655	8,1075
41656	8,1211
41657	8,1073
41658	8,2026
41659	8,112
41660	8,1211
41661	8,1073
41662	8,2026
41663	8,1298
41664	8,1163
41665	8,2122
41666	8,1252
41667	8,151
41668	8,2515
41669	8,164
41670	8,1467
41671	8,2422
41672	8,151
41673	8,2422
41674	8,2515
41675	8,164
41676	8,1906
41677	8,1555
41678	8,2881
41679	8,2487
41680	8,2052
41681	8,1857
41682	8,1461
41683	8,2775
41684	8,2386
41685	8,1906
41686	8,1461
41687	8,2775
41688	8,2386
41689	8,1555
41690	8,2881
41691	8,2487
41692	8,2052
41693	8,1246
41694	8,2237
41695	8,1384
41696	8,12
41697	8,2138
41698	8,1246
41699	8,2138
41700	8,2237
41701	8,1384
41702	9,6713
41703	9,4907
41704	9,8782
41705	9,7732
41706	9,6986
41707	9,6622
41708	9,4736
41709	9,8587
41710	9,7539
41711	9,6713
41712	9,4736
41713	9,8587
41714	9,7539
41715	9,4907
41716	9,8782
41717	9,7732
41718	9,6986
41719	9,3071
41720	9,4036
41721	9,1467
41722	9,3312
41723	9,2991
41724	9,3865
41725	9,1316
41726	9,3071
41727	9,3865
41728	9,1316
41729	9,4036
41730	9,1467
41731	9,3312
41732	10,529
41733	10,308
41734	10,642
41735	10,565
41736	10,517
41737	10,286
41738	10,616
41739	10,529
41740	10,286
41741	10,616
41742	10,308
41743	10,642
41744	10,565
41745	10,08
41746	10,187
41747	10,111
41748	10,069
41749	10,165
41750	10,08
41751	10,165
41752	10,187
41753	10,111
41754	13,591
41755	13,667
41756	13,826
41757	13,439
41758	13,675
41759	13,567
41760	13,62
41761	13,778
41762	13,39
41763	13,591
41764	13,62
41765	13,778
41766	13,39
41767	13,667
41768	13,826
41769	13,439
41770	13,675
41771	11,579
41772	11,915
41773	11,661
41774	11,629
41775	11,562
41776	11,878
41777	11,626
41778	11,579
41779	11,878
41780	11,626
41781	11,915
41782	11,661
41783	11,629
41784	13,34
41785	13,29
41786	13,303
41787	13,733
41788	13,425
41789	13,314
41790	13,239
41791	13,252
41792	13,683
41793	13,34
41794	13,239
41795	13,252
41796	13,683
41797	13,29
41798	13,303
41799	13,733
41800	13,425
41801	12,02
41802	11,844
41803	12,281
41804	12,144
41805	12,077
41806	12,002
41807	11,808
41808	12,241
41809	12,106
41810	12,02
41811	11,808
41812	12,241
41813	12,106
41814	11,844
41815	12,281
41816	12,144
41817	12,077
41818	13,393
41819	13,394
41820	13,693
41821	13,479
41822	13,367
41823	13,343
41824	13,642
41825	13,393
41826	13,343
41827	13,642
41828	13,394
41829	13,693
41830	13,479
41831	12,577
41832	12,707
41833	12,362
41834	12,798
41835	12,646
41836	12,555
41837	12,662
41838	12,321
41839	12,753
41840	12,577
41841	12,662
41842	12,321
41843	12,753
41844	12,707
41845	12,362
41846	12,798
41847	12,646
41848	12,268
41849	12,013
41850	12,528
41851	12,331
41852	12,248
41853	11,975
41854	12,485
41855	12,268
41856	11,975
41857	12,485
41858	12,013
41859	12,528
41860	12,331
41861	11,183
41862	10,944
41863	11,321
41864	11,229
41865	11,168
41866	10,915
41867	11,289
41868	11,183
41869	10,915
41870	11,289
41871	10,944
41872	11,321
41873	11,229
41874	13,48
41875	13,269
41876	13,385
41877	13,719
41878	13,543
41879	13,505
41880	13,472
41881	13,252
41882	13,369
41883	13,703
41884	13,527
41885	13,48
41886	13,252
41887	13,369
41888	13,703
41889	13,527
41890	13,269
41891	13,385
41892	13,719
41893	13,543
41894	13,505
41895	13,891
41896	14,248
41897	13,956
41898	13,988
41899	13,864
41900	14,205
41901	13,904
41902	13,891
41903	14,205
41904	13,904
41905	14,248
41906	13,956
41907	13,988
41908	13,625
41909	13,741
41910	13,806
41911	13,527
41912	13,715
41913	13,599
41914	13,689
41915	13,755
41916	13,475
41917	13,625
41918	13,689
41919	13,755
41920	13,475
41921	13,741
41922	13,806
41923	13,527
41924	13,715
41925	13,814
41926	14,054
41927	13,886
41928	13,573
41929	13,909
41930	13,788
41931	14,004
41932	13,834
41933	13,521
41934	13,814
41935	14,004
41936	13,834
41937	13,521
41938	14,054
41939	13,886
41940	13,573
41941	13,909
41942	12,222
41943	12,277
41944	12,527
41945	12,182
41946	12,284
41947	12,202
41948	12,237
41949	12,484
41950	12,143
41951	12,222
41952	12,237
41953	12,484
41954	12,143
41955	12,277
41956	12,527
41957	12,182
41958	12,284
41959	13,466
41960	13,729
41961	13,5
41962	13,442
41963	13,553
41964	13,44
41965	13,678
41966	13,45
41967	13,391
41968	13,466
41969	13,678
41970	13,45
41971	13,391
41972	13,729
41973	13,5
41974	13,442
41975	13,553
41976	13,219
41977	13,636
41978	13,302
41979	13,194
41980	13,584
41981	13,219
41982	13,584
41983	13,636
41984	13,302
41985	14,496
41986	14,43
41987	14,537
41988	14,774
41989	14,589
41990	14,478
41991	14,392
41992	14,504
41993	14,76
41994	14,496
41995	14,392
41996	14,504
41997	14,76
41998	14,43
41999	14,537
42000	14,774
42001	14,589
42002	14,352
42003	14,635
42004	14,2
42005	14,443
42006	14,331
42007	14,606
42008	14,156
42009	14,352
42010	14,606
42011	14,156
42012	14,635
42013	14,2
42014	14,443
42015	11,015
42016	11,085
42017	11,178
42018	11,057
42019	11,
42020	11,056
42021	11,148
42022	11,015
42023	11,056
42024	11,148
42025	11,085
42026	11,178
42027	11,057
42028	11,656
42029	11,402
42030	11,919
42031	11,706
42032	11,639
42033	11,371
42034	11,882
42035	11,656
42036	11,371
42037	11,882
42038	11,402
42039	11,919
42040	11,706
42041	10,02
42042	9,8055
42043	10,126
42044	10,051
42045	10,01
42046	9,7864
42047	10,104
42048	10,02
42049	9,7864
42050	10,104
42051	9,8055
42052	10,126
42053	10,051
42054	9,2161
42055	9,4021
42056	9,0557
42057	9,3102
42058	9,1232
42059	9,2393
42060	9,2083
42061	9,3856
42062	9,0411
42063	9,2936
42064	9,1088
42065	9,2161
42066	9,3856
42067	9,0411
42068	9,2936
42069	9,1088
42070	9,4021
42071	9,0557
42072	9,3102
42073	9,1232
42074	9,2393
42075	9,586
42076	9,6876
42077	9,6125
42078	9,5771
42079	9,6688
42080	9,586
42081	9,6688
42082	9,6876
42083	9,6125
42084	8,8956
42085	8,9889
42086	8,7622
42087	8,9161
42088	8,8887
42089	8,9743
42090	8,7492
42091	8,8956
42092	8,9743
42093	8,7492
42094	8,9889
42095	8,7622
42096	8,9161
42097	8,2603
42098	8,3372
42099	8,2072
42100	8,3566
42101	8,2756
42102	8,2552
42103	8,3265
42104	8,1974
42105	8,3456
42106	8,2603
42107	8,3265
42108	8,1974
42109	8,3456
42110	8,3372
42111	8,2072
42112	8,3566
42113	8,2756
42114	8,418
42115	8,5125
42116	8,5227
42117	8,4347
42118	8,4124
42119	8,5005
42120	8,5111
42121	8,418
42122	8,5005
42123	8,5111
42124	8,5125
42125	8,5227
42126	8,4347
42127	8,1131
42128	8,1336
42129	8,1156
42130	8,2128
42131	8,1266
42132	8,1086
42133	8,1243
42134	8,1068
42135	8,203
42136	8,1131
42137	8,1243
42138	8,1068
42139	8,203
42140	8,1336
42141	8,1156
42142	8,2128
42143	8,1266
42144	8,1586
42145	8,2569
42146	8,1729
42147	8,1539
42148	8,2465
42149	8,1586
42150	8,2465
42151	8,2569
42152	8,1729
42153	8,1844
42154	8,1516
42155	8,2388
42156	8,2847
42157	8,1973
42158	8,1801
42159	8,143
42160	8,2302
42161	8,2754
42162	8,1844
42163	8,143
42164	8,2302
42165	8,2754
42166	8,1516
42167	8,2388
42168	8,2847
42169	8,1973
42170	8,1224
42171	8,2229
42172	8,1356
42173	8,1181
42174	8,2135
42175	8,1224
42176	8,2135
42177	8,2229
42178	8,1356
42179	8,4524
42180	8,3734
42181	8,5511
42182	8,5493
42183	8,4655
42184	8,448
42185	8,3647
42186	8,5423
42187	8,5401
42188	8,4524
42189	8,3647
42190	8,5423
42191	8,5401
42192	8,3734
42193	8,5511
42194	8,5493
42195	8,4655
42196	8,2958
42197	8,3948
42198	8,3087
42199	8,2915
42200	8,3856
42201	8,2958
42202	8,3856
42203	8,3948
42204	8,3087
42205	8,8835
42206	8,7673
42207	9,0174
42208	8,974
42209	8,8973
42210	8,8788
42211	8,7582
42212	9,008
42213	8,9643
42214	8,8835
42215	8,7582
42216	9,008
42217	8,9643
42218	8,7673
42219	9,0174
42220	8,974
42221	8,8973
42222	8,6499
42223	8,7439
42224	8,6633
42225	8,6454
42226	8,7344
42227	8,6499
42228	8,7344
42229	8,7439
42230	8,6633
42231	9,4409
42232	9,2968
42233	9,6012
42234	9,5237
42235	9,4559
42236	9,4358
42237	9,2869
42238	9,5909
42239	9,5133
42240	9,4409
42241	9,2869
42242	9,5909
42243	9,5133
42244	9,2968
42245	9,6012
42246	9,5237
42247	9,4559
42248	9,1486
42249	9,2353
42250	9,1631
42251	9,1438
42252	9,2253
42253	9,1486
42254	9,2253
42255	9,2353
42256	9,1631
42257	10,09
42258	9,9263
42259	10,27
42260	10,167
42261	10,106
42262	10,084
42263	9,9155
42264	10,258
42265	10,155
42266	10,09
42267	9,9155
42268	10,258
42269	10,155
42270	9,9263
42271	10,27
42272	10,167
42273	10,106
42274	9,7561
42275	9,8355
42276	9,7719
42277	9,7509
42278	9,8246
42279	9,7561
42280	9,8246
42281	9,8355
42282	9,7719
42283	10,807
42284	10,629
42285	10,998
42286	10,879
42287	10,825
42288	10,8
42289	10,617
42290	10,986
42291	10,867
42292	10,807
42293	10,617
42294	10,986
42295	10,867
42296	10,629
42297	10,998
42298	10,879
42299	10,825
42300	10,442
42301	10,516
42302	10,459
42303	10,436
42304	10,504
42305	10,442
42306	10,504
42307	10,516
42308	10,459
42309	11,18
42310	11,252
42311	11,107
42312	11,374
42313	11,199
42314	11,174
42315	11,239
42316	11,094
42317	11,361
42318	11,18
42319	11,239
42320	11,094
42321	11,361
42322	11,252
42323	11,107
42324	11,374
42325	11,199
42326	12,321
42327	12,137
42328	12,412
42329	12,513
42330	12,344
42331	12,314
42332	12,123
42333	12,397
42334	12,498
42335	12,321
42336	12,123
42337	12,397
42338	12,498
42339	12,137
42340	12,412
42341	12,513
42342	12,344
42343	11,941
42344	12,021
42345	11,755
42346	11,962
42347	11,933
42348	12,006
42349	11,741
42350	11,941
42351	12,006
42352	11,741
42353	12,021
42354	11,755
42355	11,962
42356	13,354
42357	13,313
42358	13,628
42359	13,438
42360	13,328
42361	13,263
42362	13,577
42363	13,354
42364	13,263
42365	13,577
42366	13,313
42367	13,628
42368	13,438
42369	13,233
42370	13,454
42371	13,128
42372	13,315
42373	13,208
42374	13,404
42375	13,079
42376	13,233
42377	13,404
42378	13,079
42379	13,454
42380	13,128
42381	13,315
42382	11,743
42383	11,922
42384	11,483
42385	11,796
42386	11,725
42387	11,885
42388	11,449
42389	11,743
42390	11,885
42391	11,449
42392	11,922
42393	11,483
42394	11,796
42395	10,237
42396	10,471
42397	10,036
42398	10,338
42399	10,271
42400	10,225
42401	10,446
42402	10,014
42403	10,314
42404	10,237
42405	10,446
42406	10,014
42407	10,314
42408	10,471
42409	10,036
42410	10,338
42411	10,271
42412	10,697
42413	10,81
42414	10,595
42415	10,958
42416	10,736
42417	10,683
42418	10,782
42419	10,57
42420	10,929
42421	10,697
42422	10,782
42423	10,57
42424	10,929
42425	10,81
42426	10,595
42427	10,958
42428	10,736
42429	9,4753
42430	9,6541
42431	9,5646
42432	9,3252
42433	9,5024
42434	9,4663
42435	9,6349
42436	9,5455
42437	9,3081
42438	9,4753
42439	9,6349
42440	9,5455
42441	9,3081
42442	9,6541
42443	9,5646
42444	9,3252
42445	9,5024
42446	9,8293
42447	9,9225
42448	9,8597
42449	9,8192
42450	9,9012
42451	9,8293
42452	9,9012
42453	9,9225
42454	9,8597
42455	8,926
42456	8,8307
42457	9,0133
42458	9,0499
42459	8,9482
42460	8,9186
42461	8,8165
42462	8,9976
42463	9,0344
42464	8,926
42465	8,8165
42466	8,9976
42467	9,0344
42468	8,8307
42469	9,0133
42470	9,0499
42471	8,9482
42472	8,6041
42473	8,6694
42474	8,5669
42475	8,6924
42476	8,6232
42477	8,5977
42478	8,6562
42479	8,5545
42480	8,6789
42481	8,6041
42482	8,6562
42483	8,5545
42484	8,6789
42485	8,6694
42486	8,5669
42487	8,6924
42488	8,6232
42489	8,7359
42490	8,8236
42491	8,6437
42492	8,7563
42493	8,7291
42494	8,8091
42495	8,631
42496	8,7359
42497	8,8091
42498	8,631
42499	8,8236
42500	8,6437
42501	8,7563
42502	8,5164
42503	8,5231
42504	8,5372
42505	8,6044
42506	8,5338
42507	8,5107
42508	8,5113
42509	8,5257
42510	8,5921
42511	8,5164
42512	8,5113
42513	8,5257
42514	8,5921
42515	8,5231
42516	8,5372
42517	8,6044
42518	8,5338
42519	8,5311
42520	8,6196
42521	8,5492
42522	8,5251
42523	8,6068
42524	8,5311
42525	8,6068
42526	8,6196
42527	8,5492
42528	8,6558
42529	8,6072
42530	8,7308
42531	8,7395
42532	8,6726
42533	8,6502
42534	8,596
42535	8,7196
42536	8,7277
42537	8,6558
42538	8,596
42539	8,7196
42540	8,7277
42541	8,6072
42542	8,7308
42543	8,7395
42544	8,6726
42545	8,5587
42546	8,6452
42547	8,5757
42548	8,5531
42549	8,6332
42550	8,5587
42551	8,6332
42552	8,6452
42553	8,5757
42554	9,0027
42555	8,9049
42556	9,1262
42557	9,0777
42558	9,02
42559	8,9969
42560	8,8935
42561	9,1145
42562	9,0657
42563	9,0027
42564	8,8935
42565	9,1145
42566	9,0657
42567	8,9049
42568	9,1262
42569	9,0777
42570	9,02
42571	8,8048
42572	8,8847
42573	8,8218
42574	8,7992
42575	8,8728
42576	8,8048
42577	8,8728
42578	8,8847
42579	8,8218
42580	9,5319
42581	9,3916
42582	9,6979
42583	9,5949
42584	9,5506
42585	9,5256
42586	9,3794
42587	9,6851
42588	9,5821
42589	9,5319
42590	9,3794
42591	9,6851
42592	9,5821
42593	9,3916
42594	9,6979
42595	9,5949
42596	9,5506
42597	9,2461
42598	9,3154
42599	9,264
42600	9,2401
42601	9,3031
42602	9,2461
42603	9,3031
42604	9,3154
42605	9,264
42606	10,219
42607	10,042
42608	10,423
42609	10,269
42610	10,241
42611	10,212
42612	10,029
42613	10,409
42614	10,255
42615	10,219
42616	10,029
42617	10,409
42618	10,255
42619	10,042
42620	10,423
42621	10,269
42622	10,241
42623	9,8571
42624	9,9136
42625	9,8769
42626	9,8505
42627	9,9001
42628	9,8571
42629	9,9001
42630	9,9136
42631	9,8769
42632	11,048
42633	10,838
42634	11,287
42635	11,087
42636	11,073
42637	11,04
42638	10,823
42639	11,27
42640	11,07
42641	11,048
42642	10,823
42643	11,27
42644	11,07
42645	10,838
42646	11,287
42647	11,087
42648	11,073
42649	10,617
42650	10,661
42651	10,64
42652	10,609
42653	10,645
42654	10,617
42655	10,645
42656	10,661
42657	10,64
42658	11,513
42659	11,77
42660	11,547
42661	11,54
42662	11,504
42663	11,75
42664	11,529
42665	11,513
42666	11,75
42667	11,529
42668	11,77
42669	11,547
42670	11,54
42671	13,105
42672	13,422
42673	13,141
42674	12,834
42675	13,143
42676	13,092
42677	13,395
42678	13,115
42679	12,81
42680	13,105
42681	13,395
42682	13,115
42683	12,81
42684	13,422
42685	13,141
42686	12,834
42687	13,143
42688	14,364
42689	14,054
42690	14,711
42691	14,411
42692	14,275
42693	14,416
42694	14,347
42695	14,021
42696	14,673
42697	14,376
42698	14,241
42699	14,364
42700	14,021
42701	14,673
42702	14,376
42703	14,241
42704	14,054
42705	14,711
42706	14,411
42707	14,275
42708	14,416
42709	13,715
42710	13,754
42711	13,635
42712	13,759
42713	13,7
42714	13,724
42715	13,606
42716	13,715
42717	13,724
42718	13,606
42719	13,754
42720	13,635
42721	13,759
42722	15,023
42723	15,095
42724	15,405
42725	15,084
42726	15,002
42727	15,053
42728	15,36
42729	15,023
42730	15,053
42731	15,36
42732	15,095
42733	15,405
42734	15,084
42735	16,55
42736	16,171
42737	16,666
42738	16,876
42739	16,64
42740	16,521
42741	16,117
42742	16,607
42743	16,815
42744	16,55
42745	16,117
42746	16,607
42747	16,815
42748	16,171
42749	16,666
42750	16,876
42751	16,64
42752	15,053
42753	15,443
42754	14,724
42755	15,112
42756	15,115
42757	15,032
42758	15,397
42759	14,686
42760	15,07
42761	15,053
42762	15,397
42763	14,686
42764	15,07
42765	15,443
42766	14,724
42767	15,112
42768	15,115
42769	15,789
42770	15,867
42771	16,222
42772	15,863
42773	15,764
42774	15,817
42775	16,167
42776	15,789
42777	15,817
42778	16,167
42779	15,867
42780	16,222
42781	15,863
42782	13,721
42783	14,055
42784	13,428
42785	13,758
42786	13,765
42787	13,706
42788	14,023
42789	13,401
42790	13,728
42791	13,721
42792	14,023
42793	13,401
42794	13,728
42795	14,055
42796	13,428
42797	13,758
42798	13,765
42799	14,36
42800	14,41
42801	14,412
42802	14,343
42803	14,375
42804	14,36
42805	14,375
42806	14,41
42807	14,412
42808	12,544
42809	12,838
42810	12,575
42811	12,287
42812	12,578
42813	12,532
42814	12,814
42815	12,552
42816	12,266
42817	12,544
42818	12,814
42819	12,552
42820	12,266
42821	12,838
42822	12,575
42823	12,287
42824	12,578
42825	13,111
42826	13,145
42827	13,149
42828	13,098
42829	13,119
42830	13,111
42831	13,119
42832	13,145
42833	13,149
42834	11,514
42835	11,289
42836	11,771
42837	11,549
42838	11,542
42839	11,505
42840	11,272
42841	11,752
42842	11,53
42843	11,514
42844	11,272
42845	11,752
42846	11,53
42847	11,289
42848	11,771
42849	11,549
42850	11,542
42851	10,619
42852	10,84
42853	10,425
42854	10,662
42855	10,641
42856	10,611
42857	10,824
42858	10,41
42859	10,647
42860	10,619
42861	10,824
42862	10,41
42863	10,647
42864	10,84
42865	10,425
42866	10,662
42867	10,641
42868	11,05
42869	11,088
42870	11,075
42871	11,042
42872	11,072
42873	11,05
42874	11,072
42875	11,088
42876	11,075
42877	9,8588
42878	10,044
42879	9,6995
42880	9,9152
42881	9,8786
42882	9,8522
42883	10,031
42884	9,6866
42885	9,9017
42886	9,8588
42887	10,031
42888	9,6866
42889	9,9017
42890	10,044
42891	9,6995
42892	9,9152
42893	9,8786
42894	10,221
42895	10,271
42896	10,242
42897	10,214
42898	10,257
42899	10,221
42900	10,257
42901	10,271
42902	10,242
42903	9,2475
42904	9,3931
42905	9,1275
42906	9,3168
42907	9,2654
42908	9,2415
42909	9,3808
42910	9,1158
42911	9,3044
42912	9,2475
42913	9,3808
42914	9,1158
42915	9,3044
42916	9,3931
42917	9,1275
42918	9,3168
42919	9,2654
42920	9,5334
42921	9,5964
42922	9,5521
42923	9,5272
42924	9,5836
42925	9,5334
42926	9,5836
42927	9,5964
42928	9,5521
42929	8,8058
42930	8,906
42931	8,7317
42932	8,8857
42933	8,8228
42934	8,8002
42935	8,8946
42936	8,7204
42937	8,8738
42938	8,8058
42939	8,8946
42940	8,7204
42941	8,8738
42942	8,906
42943	8,7317
42944	8,8857
42945	8,8228
42946	9,0039
42947	9,0789
42948	9,0212
42949	8,9981
42950	9,0668
42951	9,0039
42952	9,0668
42953	9,0789
42954	9,0212
42955	8,5592
42956	8,6078
42957	8,5374
42958	8,6456
42959	8,5761
42960	8,5535
42961	8,5966
42962	8,526
42963	8,6336
42964	8,5592
42965	8,5966
42966	8,526
42967	8,6336
42968	8,6078
42969	8,5374
42970	8,6456
42971	8,5761
42972	8,6565
42973	8,7402
42974	8,6734
42975	8,6509
42976	8,7284
42977	8,6565
42978	8,7284
42979	8,7402
42980	8,6734
42981	8,5308
42982	8,523
42983	8,5664
42984	8,6193
42985	8,5489
42986	8,5248
42987	8,5112
42988	8,554
42989	8,6065
42990	8,5308
42991	8,5112
42992	8,554
42993	8,6065
42994	8,523
42995	8,5664
42996	8,6193
42997	8,5489
42998	8,5165
42999	8,6045
43000	8,5339
43001	8,5107
43002	8,5922
43003	8,5165
43004	8,5922
43005	8,6045
43006	8,5339
43007	8,7348
43008	8,6685
43009	8,8293
43010	8,8225
43011	8,6426
43012	8,7552
43013	8,728
43014	8,6553
43015	8,8152
43016	8,808
43017	8,6299
43018	8,7348
43019	8,6553
43020	8,8152
43021	8,808
43022	8,6299
43023	8,6685
43024	8,8293
43025	8,8225
43026	8,6426
43027	8,7552
43028	8,6034
43029	8,6917
43030	8,6225
43031	8,597
43032	8,6782
43033	8,6034
43034	8,6782
43035	8,6917
43036	8,6225
43037	9,1712
43038	9,0481
43039	9,2588
43040	9,3229
43041	9,1956
43042	9,1631
43043	9,0326
43044	9,2416
43045	9,3058
43046	9,1712
43047	9,0326
43048	9,2416
43049	9,3058
43050	9,0481
43051	9,2588
43052	9,3229
43053	9,1956
43054	8,9245
43055	9,0117
43056	8,9466
43057	8,9171
43058	8,9961
43059	8,9245
43060	8,9961
43061	9,0117
43062	8,9466
43063	9,8262
43064	10,032
43065	9,9195
43066	9,6512
43067	9,8566
43068	9,8161
43069	10,011
43070	9,8982
43071	9,6321
43072	9,8262
43073	10,011
43074	9,8982
43075	9,6321
43076	10,032
43077	9,9195
43078	9,6512
43079	9,8566
43080	10,233
43081	10,467
43082	10,333
43083	10,268
43084	10,222
43085	10,442
43086	10,309
43087	10,233
43088	10,442
43089	10,309
43090	10,467
43091	10,333
43092	10,268
43093	10,693
43094	10,804
43095	10,733
43096	10,68
43097	10,776
43098	10,693
43099	10,776
43100	10,804
43101	10,733
43102	12,615
43103	12,836
43104	12,417
43105	12,682
43106	12,638
43107	12,607
43108	12,82
43109	12,402
43110	12,666
43111	12,615
43112	12,82
43113	12,402
43114	12,666
43115	12,836
43116	12,417
43117	12,682
43118	12,638
43119	13,044
43120	13,117
43121	13,068
43122	13,036
43123	13,101
43124	13,044
43125	13,101
43126	13,117
43127	13,068
43128	12,207
43129	12,276
43130	12,017
43131	12,229
43132	12,199
43133	12,26
43134	12,003
43135	12,207
43136	12,26
43137	12,003
43138	12,276
43139	12,017
43140	12,229
43141	11,068
43142	11,258
43143	10,896
43144	11,129
43145	11,088
43146	11,062
43147	11,244
43148	10,883
43149	11,116
43150	11,068
43151	11,244
43152	10,883
43153	11,116
43154	11,258
43155	10,896
43156	11,129
43157	11,088
43158	11,436
43159	11,498
43160	11,632
43161	11,457
43162	11,43
43163	11,484
43164	11,618
43165	11,436
43166	11,484
43167	11,618
43168	11,498
43169	11,632
43170	11,457
43171	10,368
43172	10,546
43173	10,208
43174	10,43
43175	10,386
43176	10,362
43177	10,533
43178	10,196
43179	10,418
43180	10,368
43181	10,533
43182	10,196
43183	10,418
43184	10,546
43185	10,208
43186	10,43
43187	10,386
43188	10,714
43189	10,773
43190	10,732
43191	10,707
43192	10,76
43193	10,714
43194	10,76
43195	10,773
43196	10,732
43197	9,7286
43198	9,8875
43199	9,587
43200	9,7963
43201	9,745
43202	9,7231
43203	9,8763
43204	9,5762
43205	9,785
43206	9,7286
43207	9,8763
43208	9,5762
43209	9,785
43210	9,8875
43211	9,587
43212	9,7963
43213	9,745
43214	10,039
43215	10,103
43216	10,056
43217	10,034
43218	10,092
43219	10,039
43220	10,092
43221	10,103
43222	10,056
43223	9,1745
43224	9,3094
43225	9,0581
43226	9,2504
43227	9,19
43228	9,1694
43229	9,299
43230	9,0479
43231	9,2397
43232	9,1745
43233	9,299
43234	9,0479
43235	9,2397
43236	9,3094
43237	9,0581
43238	9,2504
43239	9,19
43240	9,4393
43241	9,511
43242	9,4552
43243	9,434
43244	9,5001
43245	9,4393
43246	9,5001
43247	9,511
43248	9,4552
43249	8,7327
43250	8,8366
43251	8,6488
43252	8,8162
43253	8,7475
43254	8,7277
43255	8,8266
43256	8,6389
43257	8,8058
43258	8,7327
43259	8,8266
43260	8,6389
43261	8,8058
43262	8,8366
43263	8,6488
43264	8,8162
43265	8,7475
43266	8,9377
43267	9,0176
43268	8,9528
43269	8,9327
43270	9,0071
43271	8,9377
43272	9,0071
43273	9,0176
43274	8,9528
43275	8,4335
43276	8,4987
43277	8,3902
43278	8,5224
43279	8,4483
43280	8,4286
43281	8,4888
43282	8,3802
43283	8,5119
43284	8,4335
43285	8,4888
43286	8,3802
43287	8,5119
43288	8,4987
43289	8,3902
43290	8,5224
43291	8,4483
43292	8,5633
43293	8,6499
43294	8,578
43295	8,5584
43296	8,6395
43297	8,5633
43298	8,6395
43299	8,6499
43300	8,578
43301	8,3079
43302	8,327
43303	8,3123
43304	8,3986
43305	8,3234
43306	8,3027
43307	8,3168
43308	8,3018
43309	8,3876
43310	8,3079
43311	8,3168
43312	8,3018
43313	8,3876
43314	8,327
43315	8,3123
43316	8,3986
43317	8,3234
43318	8,3472
43319	8,4375
43320	8,3623
43321	8,3422
43322	8,4268
43323	8,3472
43324	8,4268
43325	8,4375
43326	8,3623
43327	8,381
43328	8,3488
43329	8,4382
43330	8,4703
43331	8,3981
43332	8,3753
43333	8,3377
43334	8,4264
43335	8,458
43336	8,381
43337	8,3377
43338	8,4264
43339	8,458
43340	8,3488
43341	8,4382
43342	8,4703
43343	8,3981
43344	8,3184
43345	8,4088
43346	8,3346
43347	8,313
43348	8,3972
43349	8,3184
43350	8,3972
43351	8,4088
43352	8,3346
43353	8,6669
43354	8,5815
43355	8,7785
43356	8,7533
43357	8,5782
43358	8,6869
43359	8,6602
43360	8,5687
43361	8,7646
43362	8,7391
43363	8,5659
43364	8,6669
43365	8,5687
43366	8,7646
43367	8,7391
43368	8,5659
43369	8,5815
43370	8,7785
43371	8,7533
43372	8,5782
43373	8,6869
43374	8,497
43375	8,5848
43376	8,4062
43377	8,5154
43378	8,4909
43379	8,5717
43380	8,3949
43381	8,497
43382	8,5717
43383	8,3949
43384	8,5848
43385	8,4062
43386	8,5154
43387	9,1656
43388	9,0285
43389	9,3298
43390	9,2515
43391	9,0791
43392	9,19
43393	9,1575
43394	9,0131
43395	9,3126
43396	9,2343
43397	9,0639
43398	9,1656
43399	9,0131
43400	9,3126
43401	9,2343
43402	9,0639
43403	9,0285
43404	9,3298
43405	9,2515
43406	9,0791
43407	9,19
43408	8,8902
43409	8,9758
43410	8,8031
43411	8,9122
43412	8,8829
43413	8,9602
43414	8,7895
43415	8,8902
43416	8,9602
43417	8,7895
43418	8,9758
43419	8,8031
43420	8,9122
43421	9,8644
43422	9,6801
43423	9,957
43424	10,076
43425	9,8952
43426	9,8541
43427	9,6608
43428	9,9353
43429	10,054
43430	9,8644
43431	9,6608
43432	9,9353
43433	10,054
43434	9,6801
43435	9,957
43436	10,076
43437	9,8952
43438	9,4913
43439	9,5792
43440	9,5186
43441	9,4822
43442	9,56
43443	9,4913
43444	9,56
43445	9,5792
43446	9,5186
43447	13,278
43448	13,446
43449	13,152
43450	13,302
43451	13,27
43452	13,43
43453	13,137
43454	13,278
43455	13,43
43456	13,137
43457	13,446
43458	13,152
43459	13,302
43460	13,948
43461	13,781
43462	14,223
43463	14,08
43464	13,974
43465	13,971
43466	13,94
43467	13,765
43468	14,208
43469	14,064
43470	13,958
43471	13,948
43472	13,765
43473	14,208
43474	14,064
43475	13,958
43476	13,781
43477	14,223
43478	14,08
43479	13,974
43480	13,971
43481	17,436
43482	17,84
43483	17,558
43484	17,047
43485	17,314
43486	17,543
43487	17,403
43488	17,777
43489	17,494
43490	16,985
43491	17,25
43492	17,436
43493	17,777
43494	17,494
43495	16,985
43496	17,25
43497	17,84
43498	17,558
43499	17,047
43500	17,314
43501	17,543
43502	14,569
43503	14,669
43504	14,595
43505	14,661
43506	14,552
43507	14,654
43508	14,565
43509	14,569
43510	14,654
43511	14,565
43512	14,669
43513	14,595
43514	14,661
43515	14,251
43516	14,331
43517	14,115
43518	14,47
43519	14,348
43520	14,228
43521	14,287
43522	14,066
43523	14,434
43524	14,251
43525	14,287
43526	14,066
43527	14,434
43528	14,331
43529	14,115
43530	14,47
43531	14,348
43532	13,919
43533	14,175
43534	13,949
43535	14,015
43536	13,894
43537	14,128
43538	13,898
43539	13,919
43540	14,128
43541	13,898
43542	14,175
43543	13,949
43544	14,015
43545	12,3
43546	12,32
43547	12,688
43548	12,023
43549	12,364
43550	12,279
43551	12,279
43552	12,643
43553	11,985
43554	12,3
43555	12,279
43556	12,643
43557	11,985
43558	12,32
43559	12,688
43560	12,023
43561	12,364
43562	12,507
43563	12,337
43564	12,776
43565	12,574
43566	12,485
43567	12,296
43568	12,731
43569	12,507
43570	12,296
43571	12,731
43572	12,337
43573	12,776
43574	12,574
43575	11,143
43576	11,472
43577	11,186
43578	11,128
43579	11,439
43580	11,143
43581	11,439
43582	11,472
43583	11,186
43584	18,187
43585	17,977
43586	18,384
43587	18,553
43588	18,305
43589	18,156
43590	17,915
43591	18,328
43592	18,501
43593	18,187
43594	17,915
43595	18,328
43596	18,501
43597	17,977
43598	18,384
43599	18,553
43600	18,305
43601	14,786
43602	14,91
43603	14,823
43604	14,565
43605	14,832
43606	14,789
43607	14,917
43608	14,829
43609	14,567
43610	14,786
43611	14,917
43612	14,829
43613	14,567
43614	14,91
43615	14,823
43616	14,565
43617	14,832
43618	14,741
43619	14,821
43620	14,885
43621	14,52
43622	14,779
43623	14,745
43624	14,829
43625	14,894
43626	14,523
43627	14,741
43628	14,829
43629	14,894
43630	14,523
43631	14,821
43632	14,885
43633	14,52
43634	14,779
43635	14,389
43636	14,408
43637	14,485
43638	14,368
43639	14,368
43640	14,389
43641	14,368
43642	14,408
43643	14,485
43644	12,307
43645	12,107
43646	12,511
43647	12,371
43648	12,286
43649	12,067
43650	12,468
43651	12,307
43652	12,067
43653	12,468
43654	12,107
43655	12,511
43656	12,371
43657	13,947
43658	14,069
43659	14,041
43660	13,921
43661	14,021
43662	13,947
43663	14,021
43664	14,069
43665	14,041
43666	13,508
43667	13,39
43668	13,856
43669	13,593
43670	13,482
43671	13,341
43672	13,807
43673	13,508
43674	13,341
43675	13,807
43676	13,39
43677	13,856
43678	13,593
43679	15,056
43680	14,933
43681	15,644
43682	15,219
43683	15,089
43684	15,061
43685	14,929
43686	15,665
43687	15,235
43688	15,056
43689	14,929
43690	15,665
43691	15,235
43692	14,933
43693	15,644
43694	15,219
43695	15,089
43696	13,244
43697	13,131
43698	13,596
43699	13,326
43700	13,218
43701	13,083
43702	13,547
43703	13,244
43704	13,083
43705	13,547
43706	13,131
43707	13,596
43708	13,326
43709	14,078
43710	14,432
43711	14,044
43712	14,
43713	14,172
43714	14,054
43715	14,395
43716	13,995
43717	13,953
43718	14,078
43719	14,395
43720	13,995
43721	13,953
43722	14,432
43723	14,044
43724	14,
43725	14,172
43726	12,796
43727	13,054
43728	12,937
43729	12,869
43730	12,773
43731	13,006
43732	12,89
43733	12,796
43734	13,006
43735	12,89
43736	13,054
43737	12,937
43738	12,869
43739	12,15
43740	11,97
43741	12,451
43742	12,211
43743	12,13
43744	11,932
43745	12,409
43746	12,15
43747	11,932
43748	12,409
43749	11,97
43750	12,451
43751	12,211
43752	11,771
43753	11,548
43754	11,97
43755	11,825
43756	11,753
43757	11,514
43758	11,932
43759	11,771
43760	11,514
43761	11,932
43762	11,548
43763	11,97
43764	11,825
43765	11,314
43766	11,035
43767	11,436
43768	11,363
43769	11,298
43770	11,005
43771	11,403
43772	11,314
43773	11,005
43774	11,403
43775	11,035
43776	11,436
43777	11,363
43778	10,747
43779	10,487
43780	10,851
43781	10,788
43782	10,733
43783	10,461
43784	10,823
43785	10,747
43786	10,461
43787	10,823
43788	10,487
43789	10,851
43790	10,788
43791	10,218
43792	10,001
43793	10,32
43794	10,252
43795	10,206
43796	9,9796
43797	10,296
43798	10,218
43799	9,9796
43800	10,296
43801	10,001
43802	10,32
43803	10,252
43804	9,7788
43805	9,5891
43806	9,8702
43807	9,8088
43808	9,7688
43809	9,5703
43810	9,8491
43811	9,7788
43812	9,5703
43813	9,8491
43814	9,5891
43815	9,8702
43816	9,8088
43817	9,396
43818	9,2366
43819	9,4815
43820	9,4225
43821	9,3872
43822	9,22
43823	9,4628
43824	9,396
43825	9,22
43826	9,4628
43827	9,2366
43828	9,4815
43829	9,4225
43830	9,0755
43831	9,1611
43832	8,9435
43833	9,0991
43834	9,0676
43835	9,1445
43836	8,9286
43837	9,0755
43838	9,1445
43839	8,9286
43840	9,1611
43841	8,9435
43842	9,0991
43843	8,6018
43844	8,5241
43845	8,6887
43846	8,7061
43847	8,6212
43848	8,5954
43849	8,5117
43850	8,6749
43851	8,6926
43852	8,6018
43853	8,5117
43854	8,6749
43855	8,6926
43856	8,5241
43857	8,6887
43858	8,7061
43859	8,6212
43860	8,4482
43861	8,3983
43862	8,5366
43863	8,4661
43864	8,4422
43865	8,3868
43866	8,5238
43867	8,4482
43868	8,3868
43869	8,5238
43870	8,3983
43871	8,5366
43872	8,4661
43873	8,3505
43874	8,3281
43875	8,4403
43876	8,3672
43877	8,3449
43878	8,3173
43879	8,4283
43880	8,3505
43881	8,3173
43882	8,4283
43883	8,3281
43884	8,4403
43885	8,3672
43886	8,3079
43887	8,3124
43888	8,3986
43889	8,3238
43890	8,3026
43891	8,302
43892	8,3872
43893	8,3079
43894	8,302
43895	8,3872
43896	8,3124
43897	8,3986
43898	8,3238
43899	8,3187
43900	8,3488
43901	8,4094
43902	8,334
43903	8,3136
43904	8,3387
43905	8,3985
43906	8,3187
43907	8,3387
43908	8,3985
43909	8,3488
43910	8,4094
43911	8,334
43912	8,3801
43913	8,4343
43914	8,4699
43915	8,395
43916	8,3751
43917	8,4244
43918	8,4593
43919	8,3801
43920	8,4244
43921	8,4593
43922	8,4343
43923	8,4699
43924	8,395
43925	8,4888
43926	8,5651
43927	8,5767
43928	8,5036
43929	8,4839
43930	8,5553
43931	8,5663
43932	8,4888
43933	8,5553
43934	8,5663
43935	8,5651
43936	8,5767
43937	8,5036
43938	8,6408
43939	8,7374
43940	8,7261
43941	8,6556
43942	8,6359
43943	8,7275
43944	8,7157
43945	8,6408
43946	8,7275
43947	8,7157
43948	8,7374
43949	8,7261
43950	8,6556
43951	8,8321
43952	8,9468
43953	8,9139
43954	8,8471
43955	8,8271
43956	8,9367
43957	8,9034
43958	8,8321
43959	8,9367
43960	8,9034
43961	8,9468
43962	8,9139
43963	8,8471
43964	9,0584
43965	9,1891
43966	9,1362
43967	9,0737
43968	9,0533
43969	9,1788
43970	9,1256
43971	9,0584
43972	9,1788
43973	9,1256
43974	9,1891
43975	9,1362
43976	9,0737
43977	9,3156
43978	9,4604
43979	9,3892
43980	9,3313
43981	9,3104
43982	9,4498
43983	9,3784
43984	9,3156
43985	9,4498
43986	9,3784
43987	9,4604
43988	9,3892
43989	9,3313
43990	9,5999
43991	9,7571
43992	9,6693
43993	9,6161
43994	9,5945
43995	9,7461
43996	9,6582
43997	9,5999
43998	9,7461
43999	9,6582
44000	9,7571
44001	9,6693
44002	9,6161
44003	9,9078
44004	10,076
44005	9,9733
44006	9,9246
44007	9,9022
44008	10,064
44009	9,9618
44010	9,9078
44011	10,064
44012	9,9618
44013	10,076
44014	9,9733
44015	9,9246
44016	10,236
44017	10,413
44018	10,298
44019	10,254
44020	10,23
44021	10,401
44022	10,286
44023	10,236
44024	10,401
44025	10,286
44026	10,413
44027	10,298
44028	10,254
44029	10,582
44030	10,767
44031	10,642
44032	10,6
44033	10,576
44034	10,755
44035	10,63
44036	10,582
44037	10,755
44038	10,63
44039	10,767
44040	10,642
44041	10,6
44042	10,943
44043	11,135
44044	11,002
44045	10,962
44046	10,937
44047	11,122
44048	10,989
44049	10,943
44050	11,122
44051	10,989
44052	11,135
44053	11,002
44054	10,962
44055	11,316
44056	11,514
44057	11,376
44058	11,336
44059	11,309
44060	11,5
44061	11,362
44062	11,316
44063	11,5
44064	11,362
44065	11,514
44066	11,376
44067	11,336
44068	11,701
44069	11,902
44070	11,762
44071	11,633
44072	11,722
44073	11,694
44074	11,888
44075	11,748
44076	11,62
44077	11,701
44078	11,888
44079	11,748
44080	11,62
44081	11,902
44082	11,762
44083	11,633
44084	11,722
44085	12,091
44086	12,298
44087	12,158
44088	12,113
44089	12,084
44090	12,283
44091	12,143
44092	12,091
44093	12,283
44094	12,143
44095	12,298
44096	12,158
44097	12,113
44098	12,492
44099	12,564
44100	12,698
44101	12,515
44102	12,484
44103	12,548
44104	12,682
44105	12,492
44106	12,548
44107	12,682
44108	12,564
44109	12,698
44110	12,515
44111	13,603
44112	13,727
44113	13,442
44114	13,627
44115	13,595
44116	13,711
44117	13,426
44118	13,603
44119	13,711
44120	13,426
44121	13,727
44122	13,442
44123	13,627
44124	14,484
44125	14,454
44126	14,542
44127	14,624
44128	14,505
44129	14,477
44130	14,439
44131	14,528
44132	14,61
44133	14,484
44134	14,439
44135	14,528
44136	14,61
44137	14,454
44138	14,542
44139	14,624
44140	14,505
44141	13,44
44142	13,245
44143	13,426
44144	13,683
44145	13,523
44146	13,416
44147	13,197
44148	13,378
44149	13,635
44150	13,44
44151	13,197
44152	13,378
44153	13,635
44154	13,245
44155	13,426
44156	13,683
44157	13,523
44158	13,943
44159	13,914
44160	14,196
44161	14,038
44162	13,917
44163	13,864
44164	14,15
44165	13,943
44166	13,864
44167	14,15
44168	13,914
44169	14,196
44170	14,038
44171	13,851
44172	13,754
44173	14,094
44174	13,943
44175	13,825
44176	13,704
44177	14,047
44178	13,851
44179	13,704
44180	14,047
44181	13,754
44182	14,094
44183	13,943
44184	13,626
44185	13,469
44186	13,861
44187	13,714
44188	13,601
44189	13,419
44190	13,812
44191	13,626
44192	13,419
44193	13,812
44194	13,469
44195	13,861
44196	13,714
44197	13,278
44198	13,474
44199	13,154
44200	13,36
44201	13,254
44202	13,424
44203	13,105
44204	13,278
44205	13,424
44206	13,105
44207	13,474
44208	13,154
44209	13,36
44210	14,75
44211	14,473
44212	14,998
44213	15,014
44214	14,676
44215	14,827
44216	14,738
44217	14,441
44218	14,994
44219	15,001
44220	14,65
44221	14,75
44222	14,441
44223	14,994
44224	15,001
44225	14,65
44226	14,473
44227	14,998
44228	15,014
44229	14,676
44230	14,827
44231	14,89
44232	14,605
44233	15,127
44234	14,955
44235	14,881
44236	14,578
44237	15,118
44238	14,89
44239	14,578
44240	15,118
44241	14,605
44242	15,127
44243	14,955
44244	13,001
44245	12,86
44246	13,077
44247	12,977
44248	12,813
44249	13,001
44250	12,813
44251	12,86
44252	13,077
44253	11,533
44254	11,24
44255	11,845
44256	11,612
44257	11,586
44258	11,516
44259	11,208
44260	11,807
44261	11,577
44262	11,533
44263	11,208
44264	11,807
44265	11,577
44266	11,24
44267	11,845
44268	11,612
44269	11,586
44270	10,935
44271	10,676
44272	11,014
44273	10,98
44274	10,92
44275	10,648
44276	10,983
44277	10,935
44278	10,648
44279	10,983
44280	10,676
44281	11,014
44282	10,98
44283	10,407
44284	10,181
44285	10,48
44286	10,445
44287	10,394
44288	10,157
44289	10,453
44290	10,407
44291	10,157
44292	10,453
44293	10,181
44294	10,48
44295	10,445
44296	9,9486
44297	9,7547
44298	10,022
44299	9,982
44300	9,9374
44301	9,7337
44302	9,9987
44303	9,9486
44304	9,7337
44305	9,9987
44306	9,7547
44307	10,022
44308	9,982
44309	9,5562
44310	9,3988
44311	9,6314
44312	9,5858
44313	9,5464
44314	9,3801
44315	9,6107
44316	9,5562
44317	9,3801
44318	9,6107
44319	9,3988
44320	9,6314
44321	9,5858
44322	9,2376
44323	9,3095
44324	9,1073
44325	9,2642
44326	9,2287
44327	9,2908
44328	9,0904
44329	9,2376
44330	9,2908
44331	9,0904
44332	9,3095
44333	9,1073
44334	9,2642
44335	11,426
44336	11,626
44337	11,467
44338	11,245
44339	11,447
44340	11,419
44341	11,612
44342	11,453
44343	11,231
44344	11,426
44345	11,612
44346	11,453
44347	11,231
44348	11,626
44349	11,467
44350	11,245
44351	11,447
44352	11,815
44353	12,021
44354	11,858
44355	11,836
44356	11,807
44357	12,006
44358	11,843
44359	11,815
44360	12,006
44361	11,843
44362	12,021
44363	11,858
44364	11,836
44365	12,215
44366	12,427
44367	12,263
44368	12,238
44369	12,207
44370	12,412
44371	12,247
44372	12,215
44373	12,412
44374	12,247
44375	12,427
44376	12,263
44377	12,238
44378	12,625
44379	12,841
44380	12,68
44381	12,649
44382	12,617
44383	12,825
44384	12,663
44385	12,625
44386	12,825
44387	12,663
44388	12,841
44389	12,68
44390	12,649
44391	13,043
44392	13,256
44393	13,106
44394	12,972
44395	13,068
44396	13,035
44397	13,24
44398	13,089
44399	12,956
44400	13,043
44401	13,24
44402	13,089
44403	12,956
44404	13,256
44405	13,106
44406	12,972
44407	13,068
44408	13,455
44409	13,656
44410	13,534
44411	13,368
44412	13,481
44413	13,447
44414	13,639
44415	13,516
44416	13,351
44417	13,455
44418	13,639
44419	13,516
44420	13,351
44421	13,656
44422	13,534
44423	13,368
44424	13,481
44425	13,842
44426	14,032
44427	13,947
44428	13,867
44429	13,834
44430	14,016
44431	13,929
44432	13,842
44433	14,016
44434	13,929
44435	14,032
44436	13,947
44437	13,867
44438	14,209
44439	14,332
44440	14,407
44441	14,232
44442	14,201
44443	14,315
44444	14,392
44445	14,209
44446	14,315
44447	14,392
44448	14,332
44449	14,407
44450	14,232
44451	14,961
44452	15,065
44453	15,089
44454	14,782
44455	14,861
44456	14,976
44457	14,955
44458	15,053
44459	15,076
44460	14,769
44461	14,848
44462	14,961
44463	15,053
44464	15,076
44465	14,769
44466	14,848
44467	15,065
44468	15,089
44469	14,782
44470	14,861
44471	14,976
44472	13,255
44473	13,657
44474	13,009
44475	13,335
44476	13,231
44477	13,609
44478	12,962
44479	13,255
44480	13,609
44481	12,962
44482	13,657
44483	13,009
44484	13,335
44485	12,071
44486	11,768
44487	12,209
44488	12,415
44489	12,131
44490	12,051
44491	11,732
44492	12,169
44493	12,373
44494	12,071
44495	11,732
44496	12,169
44497	12,373
44498	11,768
44499	12,209
44500	12,415
44501	12,131
44502	11,454
44503	11,184
44504	11,558
44505	11,344
44506	11,505
44507	11,437
44508	11,152
44509	11,523
44510	11,312
44511	11,454
44512	11,152
44513	11,523
44514	11,312
44515	11,184
44516	11,558
44517	11,344
44518	11,505
44519	10,903
44520	10,667
44521	10,996
44522	10,947
44523	10,888
44524	10,64
44525	10,965
44526	10,903
44527	10,64
44528	10,965
44529	10,667
44530	10,996
44531	10,947
44532	10,423
44533	10,216
44534	10,505
44535	10,461
44536	10,41
44537	10,192
44538	10,479
44539	10,423
44540	10,192
44541	10,479
44542	10,216
44543	10,505
44544	10,461
44545	10,002
44546	9,8252
44547	10,078
44548	10,036
44549	9,9912
44550	9,8039
44551	10,055
44552	10,002
44553	9,8039
44554	10,055
44555	9,8252
44556	10,078
44557	10,036
44558	9,6423
44559	9,7147
44560	9,4922
44561	9,6725
44562	9,6322
44563	9,6937
44564	9,473
44565	9,6423
44566	9,6937
44567	9,473
44568	9,7147
44569	9,4922
44570	9,6725
44571	9,0911
44572	8,9977
44573	9,1617
44574	9,216
44575	9,1161
44576	9,0828
44577	8,9817
44578	9,1442
44579	9,1985
44580	9,0911
44581	8,9817
44582	9,1442
44583	9,1985
44584	8,9977
44585	9,1617
44586	9,216
44587	9,1161
44588	8,9024
44589	8,9732
44590	8,838
44591	8,9255
44592	8,8947
44593	8,957
44594	8,8231
44595	8,9024
44596	8,957
44597	8,8231
44598	8,9732
44599	8,838
44600	8,9255
44601	12,591
44602	12,887
44603	12,584
44604	12,336
44605	12,573
44606	12,625
44607	12,579
44608	12,862
44609	12,561
44610	12,314
44611	12,551
44612	12,591
44613	12,862
44614	12,561
44615	12,314
44616	12,551
44617	12,887
44618	12,584
44619	12,336
44620	12,573
44621	12,625
44622	13,161
44623	13,481
44624	13,152
44625	13,2
44626	13,148
44627	13,453
44628	13,126
44629	13,161
44630	13,453
44631	13,126
44632	13,481
44633	13,152
44634	13,2
44635	13,775
44636	14,122
44637	13,767
44638	13,82
44639	13,76
44640	14,089
44641	13,737
44642	13,775
44643	14,089
44644	13,737
44645	14,122
44646	13,767
44647	13,82
44648	14,438
44649	14,435
44650	14,81
44651	14,491
44652	14,42
44653	14,399
44654	14,771
44655	14,438
44656	14,399
44657	14,771
44658	14,435
44659	14,81
44660	14,491
44661	17,744
44662	18,358
44663	17,799
44664	17,274
44665	17,467
44666	17,857
44667	17,712
44668	18,306
44669	17,738
44670	17,212
44671	17,403
44672	17,744
44673	18,306
44674	17,738
44675	17,212
44676	17,403
44677	18,358
44678	17,799
44679	17,274
44680	17,467
44681	17,857
44682	18,921
44683	19,544
44684	18,965
44685	18,905
44686	19,035
44687	18,901
44688	19,547
44689	18,933
44690	18,864
44691	18,921
44692	19,547
44693	18,933
44694	18,864
44695	19,544
44696	18,965
44697	18,905
44698	19,035
44699	20,185
44700	19,82
44701	20,634
44702	20,244
44703	20,251
44704	20,208
44705	19,838
44706	20,758
44707	20,311
44708	20,185
44709	19,838
44710	20,758
44711	20,311
44712	19,82
44713	20,634
44714	20,244
44715	20,251
44716	19,495
44717	19,036
44718	19,723
44719	19,186
44720	19,596
44721	19,49
44722	19,005
44723	19,741
44724	19,16
44725	19,495
44726	19,005
44727	19,741
44728	19,16
44729	19,036
44730	19,723
44731	19,186
44732	19,596
44733	18,554
44734	18,125
44735	18,682
44736	18,671
44737	18,528
44738	18,067
44739	18,64
44740	18,554
44741	18,067
44742	18,64
44743	18,125
44744	18,682
44745	18,671
44746	17,643
44747	17,721
44748	17,233
44749	17,754
44750	17,612
44751	17,66
44752	17,172
44753	17,643
44754	17,66
44755	17,172
44756	17,721
44757	17,234
44758	17,754
44759	15,912
44760	15,551
44761	15,939
44762	16,365
44763	15,99
44764	15,887
44765	15,504
44766	15,888
44767	16,309
44768	15,912
44769	15,504
44770	15,888
44771	16,309
44772	15,551
44773	15,939
44774	16,365
44775	15,99
44776	15,145
44777	14,811
44778	15,154
44779	15,208
44780	15,123
44781	14,772
44782	15,111
44783	15,145
44784	14,772
44785	15,111
44786	14,811
44787	15,154
44788	15,208
44789	14,44
44790	14,437
44791	14,124
44792	14,493
44793	14,422
44794	14,401
44795	14,091
44796	14,44
44797	14,401
44798	14,091
44799	14,437
44800	14,124
44801	14,493
44802	13,163
44803	12,889
44804	13,154
44805	13,483
44806	13,202
44807	13,15
44808	12,864
44809	13,128
44810	13,455
44811	13,163
44812	12,864
44813	13,128
44814	13,455
44815	12,889
44816	13,154
44817	13,483
44818	13,202
44819	12,593
44820	12,586
44821	12,337
44822	12,627
44823	12,581
44824	12,563
44825	12,316
44826	12,593
44827	12,563
44828	12,316
44829	12,586
44830	12,337
44831	12,627
44832	8,9013
44833	8,9964
44834	8,9721
44835	8,8371
44836	8,9244
44837	8,8936
44838	8,9804
44839	8,9559
44840	8,8222
44841	8,9013
44842	8,9804
44843	8,9559
44844	8,8222
44845	8,9964
44846	8,9721
44847	8,8371
44848	8,9244
44849	9,0895
44850	9,2142
44851	9,1602
44852	9,1145
44853	9,0812
44854	9,1968
44855	9,1427
44856	9,0895
44857	9,1968
44858	9,1427
44859	9,2142
44860	9,1602
44861	9,1145
44862	9,336
44863	9,4899
44864	9,407
44865	9,3633
44866	9,3269
44867	9,4708
44868	9,3879
44869	9,336
44870	9,4708
44871	9,3879
44872	9,4899
44873	9,407
44874	9,3633
44875	9,6398
44876	9,8225
44877	9,7122
44878	9,5621
44879	9,67
44880	9,6297
44881	9,8012
44882	9,6912
44883	9,543
44884	9,6398
44885	9,8012
44886	9,6912
44887	9,543
44888	9,8225
44889	9,7122
44890	9,5621
44891	9,67
44892	9,9995
44893	10,212
44894	10,075
44895	10,033
44896	9,9882
44897	10,188
44898	10,052
44899	9,9995
44900	10,188
44901	10,052
44902	10,212
44903	10,075
44904	10,033
44905	10,417
44906	10,498
44907	10,661
44908	10,456
44909	10,405
44910	10,472
44911	10,634
44912	10,417
44913	10,472
44914	10,634
44915	10,498
44916	10,661
44917	10,456
44918	11,436
44919	11,774
44920	11,172
44921	11,508
44922	11,487
44923	11,419
44924	11,737
44925	11,141
44926	11,474
44927	11,436
44928	11,737
44929	11,141
44930	11,474
44931	11,774
44932	11,172
44933	11,508
44934	11,487
44935	12,097
44936	12,496
44937	12,135
44938	12,272
44939	12,157
44940	12,077
44941	12,453
44942	12,095
44943	12,231
44944	12,097
44945	12,453
44946	12,095
44947	12,231
44948	12,496
44949	12,135
44950	12,272
44951	12,157
44952	12,856
44953	13,26
44954	12,831
44955	12,94
44956	12,928
44957	12,833
44958	13,215
44959	12,786
44960	12,894
44961	12,856
44962	13,215
44963	12,786
44964	12,894
44965	13,26
44966	12,831
44967	12,94
44968	12,928
44969	13,706
44970	13,681
44971	14,036
44972	13,366
44973	13,788
44974	13,683
44975	13,635
44976	13,994
44977	13,32
44978	13,706
44979	13,635
44980	13,994
44981	13,32
44982	13,681
44983	14,036
44984	13,366
44985	13,788
44986	14,032
44987	14,21
44988	14,12
44989	14,009
44990	14,168
44991	14,032
44992	14,168
44993	14,21
44994	14,12
44995	14,163
44996	14,412
44997	14,079
44998	14,255
44999	14,14
45000	14,374
45001	14,034
45002	14,163
45003	14,374
45004	14,034
45005	14,412
45006	14,079
45007	14,255
45008	14,866
45009	15,074
45010	14,669
45011	14,728
45012	14,907
45013	14,87
45014	15,086
45015	14,674
45016	14,717
45017	14,866
45018	15,086
45019	14,674
45020	14,717
45021	15,074
45022	14,669
45023	14,728
45024	14,907
45025	11,879
45026	11,657
45027	12,05
45028	11,811
45029	11,936
45030	11,86
45031	11,621
45032	12,01
45033	11,774
45034	11,879
45035	11,621
45036	12,01
45037	11,774
45038	11,657
45039	12,05
45040	11,811
45041	11,936
45042	11,411
45043	11,18
45044	11,545
45045	11,319
45046	11,462
45047	11,394
45048	11,149
45049	11,51
45050	11,287
45051	11,411
45052	11,149
45053	11,51
45054	11,287
45055	11,18
45056	11,545
45057	11,319
45058	11,462
45059	10,932
45060	10,706
45061	11,033
45062	10,844
45063	10,976
45064	10,917
45065	10,678
45066	11,003
45067	10,816
45068	10,932
45069	10,678
45070	11,003
45071	10,816
45072	10,706
45073	11,033
45074	10,844
45075	10,976
45076	10,466
45077	10,256
45078	10,553
45079	10,382
45080	10,505
45081	10,453
45082	10,231
45083	10,526
45084	10,357
45085	10,466
45086	10,231
45087	10,526
45088	10,357
45089	10,256
45090	10,553
45091	10,382
45092	10,505
45093	10,036
45094	9,8496
45095	10,114
45096	10,071
45097	10,025
45098	9,828
45099	10,09
45100	10,036
45101	9,828
45102	10,09
45103	9,8496
45104	10,114
45105	10,071
45106	9,6562
45107	9,4944
45108	9,7296
45109	9,6868
45110	9,646
45111	9,4751
45112	9,7082
45113	9,6562
45114	9,4751
45115	9,7082
45116	9,4944
45117	9,7296
45118	9,6868
45119	9,3278
45120	9,192
45121	9,3998
45122	9,3553
45123	9,3187
45124	9,1746
45125	9,3806
45126	9,3278
45127	9,1746
45128	9,3806
45129	9,192
45130	9,3998
45131	9,3553
45132	9,0528
45133	8,9435
45134	9,125
45135	9,0777
45136	9,0446
45137	8,9277
45138	9,1075
45139	9,0528
45140	8,9277
45141	9,1075
45142	8,9435
45143	9,125
45144	9,0777
45145	8,832
45146	8,7494
45147	8,9051
45148	8,8547
45149	8,8244
45150	8,7348
45151	8,8891
45152	8,832
45153	8,7348
45154	8,8891
45155	8,7494
45156	8,9051
45157	8,8547
45158	8,6654
45159	8,7398
45160	8,6095
45161	8,6864
45162	8,6584
45163	8,725
45164	8,5959
45165	8,6654
45166	8,725
45167	8,5959
45168	8,7398
45169	8,6095
45170	8,6864
45171	11,55
45172	11,749
45173	11,593
45174	11,371
45175	11,571
45176	11,543
45177	11,735
45178	11,579
45179	11,357
45180	11,55
45181	11,735
45182	11,579
45183	11,357
45184	11,749
45185	11,593
45186	11,371
45187	11,571
45188	11,936
45189	12,141
45190	11,981
45191	11,881
45192	11,958
45193	11,929
45194	12,126
45195	11,966
45196	11,866
45197	11,936
45198	12,126
45199	11,966
45200	11,866
45201	12,141
45202	11,981
45203	11,881
45204	11,958
45205	12,333
45206	12,383
45207	12,543
45208	12,357
45209	12,326
45210	12,367
45211	12,527
45212	12,333
45213	12,367
45214	12,527
45215	12,383
45216	12,543
45217	12,357
45218	13,179
45219	13,395
45220	13,235
45221	12,966
45222	13,204
45223	13,17
45224	13,378
45225	13,218
45226	12,949
45227	13,179
45228	13,378
45229	13,218
45230	12,949
45231	13,395
45232	13,235
45233	12,966
45234	13,204
45235	13,596
45236	13,804
45237	13,662
45238	13,622
45239	13,588
45240	13,787
45241	13,644
45242	13,596
45243	13,787
45244	13,644
45245	13,804
45246	13,662
45247	13,622
45248	13,997
45249	14,215
45250	14,077
45251	14,022
45252	13,989
45253	14,199
45254	14,06
45255	13,997
45256	14,199
45257	14,06
45258	14,215
45259	14,077
45260	14,022
45261	14,417
45262	14,636
45263	14,501
45264	14,44
45265	14,409
45266	14,622
45267	14,484
45268	14,417
45269	14,622
45270	14,484
45271	14,636
45272	14,501
45273	14,44
45274	14,842
45275	15,006
45276	14,921
45277	14,801
45278	14,861
45279	14,835
45280	14,994
45281	14,905
45282	14,788
45283	14,842
45284	14,994
45285	14,905
45286	14,788
45287	15,006
45288	14,921
45289	14,801
45290	14,861
45291	15,16
45292	15,245
45293	15,311
45294	15,17
45295	15,155
45296	15,233
45297	15,301
45298	15,16
45299	15,233
45300	15,301
45301	15,245
45302	15,311
45303	15,17
45304	13,039
45305	12,863
45306	13,34
45307	13,315
45308	13,115
45309	13,015
45310	12,817
45311	13,292
45312	13,268
45313	13,039
45314	12,817
45315	13,292
45316	13,268
45317	12,863
45318	13,34
45319	13,315
45320	13,115
45321	12,673
45322	12,436
45323	12,886
45324	12,743
45325	12,651
45326	12,394
45327	12,841
45328	12,673
45329	12,394
45330	12,841
45331	12,436
45332	12,886
45333	12,743
45334	14,406
45335	14,355
45336	14,573
45337	14,5
45338	14,386
45339	14,314
45340	14,543
45341	14,406
45342	14,314
45343	14,543
45344	14,355
45345	14,573
45346	14,5
45347	14,911
45348	14,807
45349	15,036
45350	14,851
45351	14,947
45352	14,916
45353	14,802
45354	15,045
45355	14,859
45356	14,911
45357	14,802
45358	15,045
45359	14,859
45360	14,807
45361	15,036
45362	14,851
45363	14,947
45364	12,186
45365	11,929
45366	12,407
45367	12,249
45368	12,165
45369	11,89
45370	12,365
45371	12,186
45372	11,89
45373	12,365
45374	11,929
45375	12,407
45376	12,249
45377	11,651
45378	11,391
45379	11,762
45380	11,706
45381	11,633
45382	11,356
45383	11,724
45384	11,651
45385	11,356
45386	11,724
45387	11,391
45388	11,762
45389	11,706
45390	11,113
45391	10,874
45392	11,188
45393	11,161
45394	11,097
45395	10,844
45396	11,155
45397	11,113
45398	10,844
45399	11,155
45400	10,874
45401	11,188
45402	11,161
45403	10,621
45404	10,679
45405	10,404
45406	10,664
45407	10,607
45408	10,65
45409	10,377
45410	10,621
45411	10,65
45412	10,377
45413	10,679
45414	10,404
45415	10,664
45416	9,1862
45417	9,0795
45418	9,2388
45419	9,3259
45420	9,2139
45421	9,177
45422	9,0618
45423	9,2196
45424	9,3066
45425	9,1862
45426	9,0618
45427	9,2196
45428	9,3066
45429	9,0795
45430	9,2388
45431	9,3259
45432	9,2139
45433	8,9681
45434	8,8884
45435	9,0221
45436	8,9935
45437	8,9597
45438	8,8721
45439	9,0044
45440	8,9681
45441	8,8721
45442	9,0044
45443	8,8884
45444	9,0221
45445	8,9935
45446	8,8047
45447	8,7513
45448	8,8601
45449	8,8282
45450	8,7969
45451	8,7362
45452	8,8437
45453	8,8047
45454	8,7362
45455	8,8437
45456	8,7513
45457	8,8601
45458	8,8282
45459	8,6946
45460	8,6668
45461	8,6282
45462	8,7511
45463	8,7165
45464	8,6873
45465	8,6526
45466	8,6144
45467	8,7357
45468	8,6946
45469	8,6526
45470	8,6144
45471	8,7357
45472	8,6668
45473	8,6282
45474	8,7511
45475	8,7165
45476	8,6358
45477	8,6326
45478	8,5686
45479	8,6929
45480	8,6566
45481	8,6289
45482	8,6192
45483	8,5555
45484	8,6784
45485	8,6358
45486	8,6192
45487	8,5555
45488	8,6784
45489	8,6326
45490	8,5686
45491	8,6929
45492	8,6566
45493	8,6261
45494	8,6462
45495	8,5588
45496	8,6829
45497	8,6459
45498	8,6196
45499	8,6333
45500	8,5463
45501	8,6691
45502	8,6261
45503	8,6333
45504	8,5463
45505	8,6691
45506	8,6462
45507	8,5588
45508	8,6829
45509	8,6459
45510	8,6627
45511	8,7046
45512	8,5962
45513	8,7183
45514	8,6817
45515	8,6564
45516	8,6922
45517	8,5842
45518	8,7051
45519	8,6627
45520	8,6922
45521	8,5842
45522	8,7051
45523	8,7046
45524	8,5962
45525	8,7183
45526	8,6817
45527	8,7425
45528	8,8047
45529	8,6778
45530	8,7961
45531	8,7609
45532	8,7363
45533	8,7925
45534	8,6661
45535	8,7833
45536	8,7425
45537	8,7925
45538	8,6661
45539	8,7833
45540	8,8047
45541	8,6778
45542	8,7961
45543	8,7609
45544	8,8621
45545	8,943
45546	8,8002
45547	8,9129
45548	8,8802
45549	8,8561
45550	8,9311
45551	8,7887
45552	8,9005
45553	8,8621
45554	8,9311
45555	8,7887
45556	8,9005
45557	8,943
45558	8,8002
45559	8,9129
45560	8,8802
45561	9,0184
45562	9,1163
45563	8,9599
45564	9,0657
45565	9,0363
45566	9,0125
45567	9,1045
45568	8,9485
45569	9,0535
45570	9,0184
45571	9,1045
45572	8,9485
45573	9,0535
45574	9,1163
45575	8,9599
45576	9,0657
45577	9,0363
45578	9,2081
45579	9,3216
45580	9,1535
45581	9,2514
45582	9,2259
45583	9,2022
45584	9,3097
45585	9,1421
45586	9,2392
45587	9,2081
45588	9,3097
45589	9,1421
45590	9,2392
45591	9,3216
45592	9,1535
45593	9,2514
45594	9,2259
45595	9,4281
45596	9,5557
45597	9,3778
45598	9,4671
45599	9,4459
45600	9,4222
45601	9,5438
45602	9,3664
45603	9,4549
45604	9,4281
45605	9,5438
45606	9,3664
45607	9,4549
45608	9,5557
45609	9,3778
45610	9,4671
45611	9,4459
45612	9,6757
45613	9,8162
45614	9,6298
45615	9,7103
45616	9,6937
45617	9,6697
45618	9,8042
45619	9,6182
45620	9,698
45621	9,6757
45622	9,8042
45623	9,6182
45624	9,698
45625	9,8162
45626	9,6298
45627	9,7103
45628	9,6937
45629	9,9483
45630	10,101
45631	9,9067
45632	9,9786
45633	9,9666
45634	9,9423
45635	10,088
45636	9,8948
45637	9,9662
45638	9,9483
45639	10,088
45640	9,8948
45641	9,9662
45642	10,101
45643	9,9067
45644	9,9786
45645	9,9666
45646	10,244
45647	10,407
45648	10,206
45649	10,27
45650	10,263
45651	10,238
45652	10,395
45653	10,194
45654	10,258
45655	10,244
45656	10,395
45657	10,194
45658	10,258
45659	10,407
45660	10,206
45661	10,27
45662	10,263
45663	10,561
45664	10,735
45665	10,526
45666	10,584
45667	10,58
45668	10,555
45669	10,722
45670	10,514
45671	10,571
45672	10,561
45673	10,722
45674	10,514
45675	10,571
45676	10,735
45677	10,526
45678	10,584
45679	10,58
45680	10,898
45681	11,081
45682	10,865
45683	10,919
45684	10,918
45685	10,891
45686	11,068
45687	10,852
45688	10,905
45689	10,898
45690	11,068
45691	10,852
45692	10,905
45693	11,081
45694	10,865
45695	10,919
45696	10,918
45697	11,253
45698	11,446
45699	11,222
45700	11,273
45701	11,274
45702	11,246
45703	11,432
45704	11,208
45705	11,259
45706	11,253
45707	11,432
45708	11,208
45709	11,259
45710	11,446
45711	11,222
45712	11,273
45713	11,274
45714	11,626
45715	11,828
45716	11,647
45717	11,648
45718	11,619
45719	11,813
45720	11,632
45721	11,626
45722	11,813
45723	11,632
45724	11,828
45725	11,647
45726	11,648
45727	12,016
45728	12,226
45729	12,039
45730	12,039
45731	12,008
45732	12,21
45733	12,024
45734	12,016
45735	12,21
45736	12,024
45737	12,226
45738	12,039
45739	12,039
45740	12,422
45741	12,641
45742	12,45
45743	12,446
45744	12,413
45745	12,624
45746	12,433
45747	12,422
45748	12,624
45749	12,433
45750	12,641
45751	12,45
45752	12,446
45753	12,845
45754	13,07
45755	12,879
45756	12,797
45757	12,87
45758	12,836
45759	13,053
45760	12,862
45761	12,78
45762	12,845
45763	13,053
45764	12,862
45765	12,78
45766	13,07
45767	12,879
45768	12,797
45769	12,87
45770	13,28
45771	13,507
45772	13,324
45773	13,307
45774	13,272
45775	13,489
45776	13,305
45777	13,28
45778	13,489
45779	13,305
45780	13,507
45781	13,324
45782	13,307
45783	13,717
45784	13,941
45785	13,775
45786	13,744
45787	13,708
45788	13,922
45789	13,756
45790	13,717
45791	13,922
45792	13,756
45793	13,941
45794	13,775
45795	13,744
45796	14,148
45797	14,37
45798	14,228
45799	14,176
45800	14,139
45801	14,352
45802	14,208
45803	14,148
45804	14,352
45805	14,208
45806	14,37
45807	14,228
45808	14,176
45809	14,575
45810	14,789
45811	14,677
45812	14,601
45813	14,566
45814	14,772
45815	14,657
45816	14,575
45817	14,772
45818	14,657
45819	14,789
45820	14,677
45821	14,601
45822	14,988
45823	15,162
45824	15,106
45825	15,011
45826	14,98
45827	15,146
45828	15,086
45829	14,988
45830	15,146
45831	15,086
45832	15,162
45833	15,106
45834	15,011
45835	15,323
45836	15,463
45837	15,44
45838	15,336
45839	15,316
45840	15,444
45841	15,428
45842	15,323
45843	15,444
45844	15,428
45845	15,463
45846	15,44
45847	15,336
45848	15,692
45849	15,855
45850	15,625
45851	15,704
45852	15,741
45853	15,677
45854	15,686
45855	15,837
45856	15,614
45857	15,693
45858	15,729
45859	15,692
45860	15,837
45861	15,614
45862	15,693
45863	15,729
45864	15,855
45865	15,625
45866	15,704
45867	15,741
45868	15,677
45869	14,243
45870	13,811
45871	14,412
45872	14,09
45873	14,326
45874	14,222
45875	13,767
45876	14,378
45877	14,046
45878	14,243
45879	13,767
45880	14,378
45881	14,046
45882	13,811
45883	14,412
45884	14,09
45885	14,326
45886	13,391
45887	13,479
45888	13,076
45889	13,471
45890	13,367
45891	13,434
45892	13,029
45893	13,391
45894	13,434
45895	13,029
45896	13,479
45897	13,076
45898	13,471
45899	13,622
45900	13,844
45901	13,855
45902	13,706
45903	13,597
45904	13,797
45905	13,809
45906	13,622
45907	13,797
45908	13,809
45909	13,844
45910	13,855
45911	13,706
45912	14,29
45913	14,179
45914	14,525
45915	14,382
45916	14,269
45917	14,135
45918	14,491
45919	14,29
45920	14,135
45921	14,491
45922	14,179
45923	14,525
45924	14,382
45925	14,047
45926	14,287
45927	14,137
45928	14,024
45929	14,247
45930	14,047
45931	14,247
45932	14,287
45933	14,137
45934	22,682
45935	21,808
45936	22,765
45937	22,541
45938	22,296
45939	22,907
45940	22,135
45941	23,32
45942	23,052
45943	22,682
45944	22,135
45945	23,32
45946	23,052
45947	21,808
45948	22,765
45949	22,541
45950	22,296
45951	21,26
45952	20,564
45953	21,18
45954	21,403
45955	21,196
45956	21,361
45957	20,687
45958	21,431
45959	21,654
45960	21,26
45961	20,687
45962	21,431
45963	21,654
45964	20,564
45965	21,18
45966	21,403
45967	21,196
45968	20,003
45969	19,396
45970	19,972
45971	20,064
45972	20,025
45973	19,401
45974	20,045
45975	20,003
45976	19,401
45977	20,045
45978	19,396
45979	19,972
45980	20,064
45981	18,801
45982	18,304
45983	18,803
45984	18,909
45985	18,785
45986	18,258
45987	18,783
45988	18,801
45989	18,258
45990	18,783
45991	18,304
45992	18,803
45993	18,909
45994	17,764
45995	17,316
45996	17,738
45997	17,873
45998	17,735
45999	17,258
46000	17,686
46001	17,764
46002	17,258
46003	17,686
46004	17,316
46005	17,738
46006	17,873
46007	16,813
46008	16,4
46009	16,807
46010	16,776
46011	16,908
46012	16,783
46013	16,344
46014	16,748
46015	16,719
46016	16,813
46017	16,344
46018	16,748
46019	16,719
46020	16,4
46021	16,807
46022	16,776
46023	16,908
46024	15,933
46025	15,558
46026	15,882
46027	16,011
46028	15,907
46029	15,511
46030	15,831
46031	15,933
46032	15,511
46033	15,831
46034	15,558
46035	15,882
46036	16,011
46037	15,137
46038	14,794
46039	15,077
46040	15,201
46041	15,116
46042	14,754
46043	15,035
46044	15,137
46045	14,754
46046	15,035
46047	14,794
46048	15,077
46049	15,201
46050	14,413
46051	14,349
46052	14,094
46053	14,466
46054	14,395
46055	14,314
46056	14,061
46057	14,413
46058	14,314
46059	14,061
46060	14,349
46061	14,094
46062	14,466
46063	13,13
46064	12,859
46065	13,075
46066	13,45
46067	13,169
46068	13,117
46069	12,834
46070	13,05
46071	13,422
46072	13,13
46073	12,834
46074	13,05
46075	13,422
46076	12,859
46077	13,075
46078	13,45
46079	13,169
46080	12,565
46081	12,315
46082	12,517
46083	12,599
46084	12,554
46085	12,293
46086	12,495
46087	12,565
46088	12,293
46089	12,495
46090	12,315
46091	12,517
46092	12,599
46093	12,044
46094	11,813
46095	12,06
46096	12,004
46097	12,075
46098	12,034
46099	11,794
46100	12,04
46101	11,984
46102	12,044
46103	11,794
46104	12,04
46105	11,984
46106	11,813
46107	12,06
46108	12,004
46109	12,075
46110	11,564
46111	11,351
46112	11,574
46113	11,532
46114	11,592
46115	11,555
46116	11,333
46117	11,555
46118	11,514
46119	11,564
46120	11,333
46121	11,555
46122	11,514
46123	11,351
46124	11,574
46125	11,532
46126	11,592
46127	11,122
46128	10,927
46129	11,125
46130	11,099
46131	11,148
46132	11,114
46133	10,91
46134	11,108
46135	11,082
46136	11,122
46137	10,91
46138	11,108
46139	11,082
46140	10,927
46141	11,125
46142	11,099
46143	11,148
46144	10,717
46145	10,539
46146	10,712
46147	10,703
46148	10,741
46149	10,709
46150	10,523
46151	10,697
46152	10,687
46153	10,717
46154	10,523
46155	10,697
46156	10,687
46157	10,539
46158	10,712
46159	10,703
46160	10,741
46161	10,348
46162	10,187
46163	10,335
46164	10,342
46165	10,37
46166	10,341
46167	10,172
46168	10,32
46169	10,327
46170	10,348
46171	10,172
46172	10,32
46173	10,327
46174	10,187
46175	10,335
46176	10,342
46177	10,37
46178	10,015
46179	9,8711
46180	9,9937
46181	10,018
46182	10,036
46183	10,008
46184	9,8571
46185	9,9797
46186	10,003
46187	10,015
46188	9,8571
46189	9,9797
46190	10,003
46191	9,8711
46192	9,9937
46193	10,018
46194	10,036
46195	9,718
46196	9,5929
46197	9,6893
46198	9,7296
46199	9,7387
46200	9,7111
46201	9,5793
46202	9,6759
46203	9,7156
46204	9,718
46205	9,5793
46206	9,6759
46207	9,7156
46208	9,5929
46209	9,6893
46210	9,7296
46211	9,7387
46212	9,4593
46213	9,3536
46214	9,4234
46215	9,4788
46216	9,4795
46217	9,4526
46218	9,3402
46219	9,4103
46220	9,4651
46221	9,4593
46222	9,3402
46223	9,4103
46224	9,4651
46225	9,3536
46226	9,4234
46227	9,4788
46228	9,4795
46229	9,2405
46230	9,1553
46231	9,1979
46232	9,2672
46233	9,2605
46234	9,2338
46235	9,142
46236	9,185
46237	9,2535
46238	9,2405
46239	9,142
46240	9,185
46241	9,2535
46242	9,1553
46243	9,1979
46244	9,2672
46245	9,2605
46246	9,0637
46247	9,0004
46248	9,0155
46249	9,0967
46250	9,0837
46251	9,057
46252	8,987
46253	9,0026
46254	9,083
46255	9,0637
46256	8,987
46257	9,0026
46258	9,083
46259	9,0004
46260	9,0155
46261	9,0967
46262	9,0837
46263	8,9316
46264	8,8916
46265	8,8786
46266	8,9697
46267	8,9518
46268	8,9248
46269	8,8779
46270	8,8657
46271	8,9558
46272	8,9316
46273	8,8779
46274	8,8657
46275	8,9558
46276	8,8916
46277	8,8786
46278	8,9697
46279	8,9518
46280	8,8468
46281	8,8315
46282	8,7903
46283	8,889
46284	8,8675
46285	8,8399
46286	8,8175
46287	8,7771
46288	8,8747
46289	8,8468
46290	8,8175
46291	8,7771
46292	8,8747
46293	8,8315
46294	8,7903
46295	8,889
46296	8,8675
46297	8,812
46298	8,8229
46299	8,7533
46300	8,8572
46301	8,8335
46302	8,8048
46303	8,8082
46304	8,7396
46305	8,8423
46306	8,812
46307	8,8082
46308	8,7396
46309	8,8423
46310	8,8229
46311	8,7533
46312	8,8572
46313	8,8335
46314	8,8298
46315	8,8681
46316	8,7699
46317	8,8768
46318	8,8523
46319	8,8223
46320	8,8526
46321	8,7556
46322	8,8612
46323	8,8298
46324	8,8526
46325	8,7556
46326	8,8612
46327	8,8681
46328	8,7699
46329	8,8768
46330	8,8523
46331	8,9024
46332	8,9691
46333	8,8423
46334	8,9503
46335	8,9263
46336	8,8945
46337	8,9527
46338	8,8272
46339	8,9338
46340	8,9024
46341	8,9527
46342	8,8272
46343	8,9338
46344	8,9691
46345	8,8423
46346	8,9503
46347	8,9263
46348	9,0317
46349	9,1276
46350	9,0798
46351	9,0572
46352	9,0232
46353	9,11
46354	9,0621
46355	9,0317
46356	9,11
46357	9,0621
46358	9,1276
46359	9,0798
46360	9,0572
46361	9,4652
46362	9,6212
46363	9,5133
46364	9,3448
46365	9,4953
46366	9,4552
46367	9,6002
46368	9,4925
46369	9,3256
46370	9,4652
46371	9,6002
46372	9,4925
46373	9,3256
46374	9,6212
46375	9,5133
46376	9,3448
46377	9,4953
46378	9,7707
46379	9,9571
46380	9,8198
46381	9,8039
46382	9,7597
46383	9,9338
46384	9,7969
46385	9,7707
46386	9,9338
46387	9,7969
46388	9,9571
46389	9,8198
46390	9,8039
46391	10,136
46392	10,353
46393	10,187
46394	10,172
46395	10,123
46396	10,327
46397	10,162
46398	10,136
46399	10,327
46400	10,162
46401	10,353
46402	10,187
46403	10,172
46404	10,561
46405	10,613
46406	10,808
46407	10,603
46408	10,548
46409	10,585
46410	10,778
46411	10,561
46412	10,585
46413	10,778
46414	10,613
46415	10,808
46416	10,603
46417	23,443
46418	23,319
46419	22,424
46420	23,583
46421	22,872
46422	23,768
46423	24,111
46424	22,902
46425	24,355
46426	23,443
46427	24,111
46428	22,902
46429	24,355
46430	23,319
46431	22,424
46432	23,583
46433	22,872
46434	20,41
46435	19,688
46436	20,301
46437	21,051
46438	20,439
46439	20,453
46440	19,719
46441	20,415
46442	21,245
46443	20,41
46444	19,719
46445	20,415
46446	21,245
46447	19,688
46448	20,301
46449	21,051
46450	20,439
46451	19,005
46452	18,437
46453	18,955
46454	19,11
46455	18,993
46456	18,396
46457	18,941
46458	19,005
46459	18,396
46460	18,941
46461	18,437
46462	18,955
46463	19,11
46464	17,831
46465	17,789
46466	17,364
46467	17,941
46468	17,801
46469	17,737
46470	17,305
46471	17,831
46472	17,737
46473	17,305
46474	17,789
46475	17,364
46476	17,941
46477	15,143
46478	14,796
46479	15,079
46480	15,156
46481	15,565
46482	15,207
46483	15,121
46484	14,756
46485	15,037
46486	15,113
46487	15,518
46488	15,143
46489	14,756
46490	15,037
46491	15,113
46492	15,518
46493	14,796
46494	15,079
46495	15,156
46496	15,565
46497	15,207
46498	14,411
46499	14,092
46500	14,348
46501	14,464
46502	14,393
46503	14,059
46504	14,312
46505	14,411
46506	14,059
46507	14,312
46508	14,092
46509	14,348
46510	14,464
46511	13,742
46512	13,448
46513	13,682
46514	13,787
46515	13,727
46516	13,42
46517	13,652
46518	13,742
46519	13,42
46520	13,652
46521	13,448
46522	13,682
46523	13,787
46524	13,128
46525	12,857
46526	13,073
46527	13,167
46528	13,115
46529	12,833
46530	13,048
46531	13,128
46532	12,833
46533	13,048
46534	12,857
46535	13,073
46536	13,167
46537	12,563
46538	12,313
46539	12,515
46540	12,597
46541	12,552
46542	12,291
46543	12,493
46544	12,563
46545	12,291
46546	12,493
46547	12,313
46548	12,515
46549	12,597
46550	12,042
46551	11,811
46552	12,058
46553	12,002
46554	12,073
46555	12,032
46556	11,792
46557	12,038
46558	11,982
46559	12,042
46560	11,792
46561	12,038
46562	11,982
46563	11,811
46564	12,058
46565	12,002
46566	12,073
46567	11,562
46568	11,349
46569	11,572
46570	11,53
46571	11,59
46572	11,553
46573	11,332
46574	11,554
46575	11,512
46576	11,562
46577	11,332
46578	11,554
46579	11,512
46580	11,349
46581	11,572
46582	11,53
46583	11,59
46584	11,121
46585	10,925
46586	11,123
46587	11,097
46588	11,146
46589	11,112
46590	10,909
46591	11,106
46592	11,08
46593	11,121
46594	10,909
46595	11,106
46596	11,08
46597	10,925
46598	11,123
46599	11,097
46600	11,146
46601	10,716
46602	10,537
46603	10,71
46604	10,701
46605	10,739
46606	10,708
46607	10,522
46608	10,695
46609	10,685
46610	10,716
46611	10,522
46612	10,695
46613	10,685
46614	10,537
46615	10,71
46616	10,701
46617	10,739
46618	10,346
46619	10,185
46620	10,333
46621	10,341
46622	10,369
46623	10,339
46624	10,171
46625	10,319
46626	10,326
46627	10,346
46628	10,171
46629	10,319
46630	10,326
46631	10,185
46632	10,333
46633	10,341
46634	10,369
46635	10,013
46636	9,8697
46637	9,9922
46638	10,016
46639	10,035
46640	10,006
46641	9,8557
46642	9,9782
46643	10,002
46644	10,013
46645	9,8557
46646	9,9782
46647	10,002
46648	9,8697
46649	9,9922
46650	10,016
46651	10,035
46652	9,7166
46653	9,5916
46654	9,6879
46655	9,7282
46656	9,7373
46657	9,7097
46658	9,578
46659	9,6744
46660	9,7143
46661	9,7166
46662	9,578
46663	9,6744
46664	9,7143
46665	9,5916
46666	9,6879
46667	9,7282
46668	9,7373
46669	9,4581
46670	9,3525
46671	9,4221
46672	9,4776
46673	9,4783
46674	9,4513
46675	9,3391
46676	9,409
46677	9,4639
46678	9,4581
46679	9,3391
46680	9,409
46681	9,4639
46682	9,3525
46683	9,4221
46684	9,4776
46685	9,4783
46686	9,2394
46687	9,1543
46688	9,1968
46689	9,2661
46690	9,2594
46691	9,2327
46692	9,141
46693	9,1839
46694	9,2525
46695	9,2394
46696	9,141
46697	9,1839
46698	9,2525
46699	9,1543
46700	9,1968
46701	9,2661
46702	9,2594
46703	9,0628
46704	8,9997
46705	9,0145
46706	9,0958
46707	9,0828
46708	9,0562
46709	8,9863
46710	9,0017
46711	9,0821
46712	9,0628
46713	8,9863
46714	9,0017
46715	9,0821
46716	8,9997
46717	9,0145
46718	9,0958
46719	9,0828
46720	8,9309
46721	8,8911
46722	8,878
46723	8,9691
46724	8,9512
46725	8,9242
46726	8,8774
46727	8,865
46728	8,9552
46729	8,9309
46730	8,8774
46731	8,865
46732	8,9552
46733	8,8911
46734	8,878
46735	8,9691
46736	8,9512
46737	8,8464
46738	8,8313
46739	8,79
46740	8,8887
46741	8,8671
46742	8,8395
46743	8,8173
46744	8,7767
46745	8,8744
46746	8,8464
46747	8,8173
46748	8,7767
46749	8,8744
46750	8,8313
46751	8,79
46752	8,8887
46753	8,8671
46754	8,8119
46755	8,823
46756	8,7532
46757	8,8571
46758	8,8334
46759	8,8048
46760	8,8083
46761	8,7395
46762	8,8423
46763	8,8119
46764	8,8083
46765	8,7395
46766	8,8423
46767	8,823
46768	8,7532
46769	8,8571
46770	8,8334
46771	8,8301
46772	8,8685
46773	8,7702
46774	8,8771
46775	8,8526
46776	8,8226
46777	8,8531
46778	8,7559
46779	8,8615
46780	8,8301
46781	8,8531
46782	8,7559
46783	8,8615
46784	8,8685
46785	8,7702
46786	8,8771
46787	8,8526
46788	8,9031
46789	8,97
46790	8,843
46791	8,951
46792	8,927
46793	8,8952
46794	8,9536
46795	8,8279
46796	8,9344
46797	8,9031
46798	8,9536
46799	8,8279
46800	8,9344
46801	8,97
46802	8,843
46803	8,951
46804	8,927
46805	9,0328
46806	9,129
46807	9,0809
46808	9,0583
46809	9,0243
46810	9,1113
46811	9,0632
46812	9,0328
46813	9,1113
46814	9,0632
46815	9,129
46816	9,0809
46817	9,0583
46818	9,2206
46819	9,2685
46820	9,3466
46821	9,2482
46822	9,2114
46823	9,2494
46824	9,3274
46825	9,2206
46826	9,2494
46827	9,3274
46828	9,2685
46829	9,3466
46830	9,2482
46831	9,7732
46832	9,8224
46833	9,6235
46834	9,9598
46835	9,8064
46836	9,7622
46837	9,7994
46838	9,6024
46839	9,9365
46840	9,7732
46841	9,7994
46842	9,6024
46843	9,9365
46844	9,8224
46845	9,6235
46846	9,9598
46847	9,8064
46848	10,57
46849	10,824
46850	10,623
46851	10,359
46852	10,612
46853	10,556
46854	10,794
46855	10,595
46856	10,333
46857	10,57
46858	10,794
46859	10,595
46860	10,333
46861	10,824
46862	10,623
46863	10,359
46864	10,612
46865	11,067
46866	11,358
46867	11,129
46868	11,114
46869	11,051
46870	11,324
46871	11,097
46872	11,067
46873	11,324
46874	11,097
46875	11,358
46876	11,129
46877	11,114
46878	11,637
46879	11,722
46880	11,981
46881	11,692
46882	11,619
46883	11,685
46884	11,942
46885	11,637
46886	11,685
46887	11,942
46888	11,722
46889	11,981
46890	11,692
46891	13,096
46892	13,536
46893	13,214
46894	12,707
46895	12,943
46896	13,171
46897	13,073
46898	13,49
46899	13,169
46900	12,663
46901	12,897
46902	13,096
46903	13,49
46904	13,169
46905	12,663
46906	12,897
46907	13,536
46908	13,214
46909	12,707
46910	12,943
46911	13,171
46912	15,309
46913	15,459
46914	15,731
46915	15,327
46916	15,318
46917	15,48
46918	15,755
46919	15,309
46920	15,48
46921	15,755
46922	15,459
46923	15,731
46924	15,327
46925	14,661
46926	14,844
46927	14,767
46928	14,743
46929	14,647
46930	14,835
46931	14,745
46932	14,661
46933	14,835
46934	14,745
46935	14,844
46936	14,767
46937	14,743
46938	13,054
46939	13,303
46940	13,291
46941	12,822
46942	13,128
46943	13,031
46944	13,258
46945	13,248
46946	12,779
46947	13,054
46948	13,258
46949	13,248
46950	12,779
46951	13,303
46952	13,291
46953	12,822
46954	13,128
46955	13,632
46956	14,066
46957	13,568
46958	13,71
46959	13,61
46960	14,027
46961	13,525
46962	13,632
46963	14,027
46964	13,525
46965	14,066
46966	13,568
46967	13,71
46968	14,352
46969	14,428
46970	14,433
46971	14,333
46972	14,394
46973	14,352
46974	14,394
46975	14,428
46976	14,433
46977	15,454
46978	15,334
46979	15,637
46980	15,503
46981	15,585
46982	15,454
46983	15,449
46984	15,323
46985	15,621
46986	15,493
46987	15,575
46988	15,454
46989	15,323
46990	15,621
46991	15,493
46992	15,575
46993	15,334
46994	15,637
46995	15,503
46996	15,585
46997	15,454
46998	15,206
46999	15,375
47000	15,036
47001	15,222
47002	15,2
47003	15,356
47004	15,02
47005	15,206
47006	15,356
47007	15,02
47008	15,375
47009	15,036
47010	15,222
47011	14,448
47012	14,253
47013	14,563
47014	14,658
47015	14,474
47016	14,439
47017	14,235
47018	14,543
47019	14,64
47020	14,448
47021	14,235
47022	14,543
47023	14,64
47024	14,253
47025	14,563
47026	14,658
47027	14,474
47028	14,043
47029	13,831
47030	14,123
47031	14,071
47032	14,034
47033	13,812
47034	14,103
47035	14,043
47036	13,812
47037	14,103
47038	13,831
47039	14,123
47040	14,071
47041	13,602
47042	13,388
47043	13,662
47044	13,629
47045	13,593
47046	13,371
47047	13,643
47048	13,602
47049	13,371
47050	13,643
47051	13,388
47052	13,662
47053	13,629
47054	13,159
47055	12,949
47056	13,204
47057	13,185
47058	13,15
47059	12,932
47060	13,186
47061	13,159
47062	12,932
47063	13,186
47064	12,949
47065	13,204
47066	13,185
47067	12,723
47068	12,757
47069	12,519
47070	12,748
47071	12,715
47072	12,74
47073	12,503
47074	12,723
47075	12,74
47076	12,503
47077	12,757
47078	12,519
47079	12,748
47080	11,499
47081	11,318
47082	11,701
47083	11,519
47084	11,52
47085	11,492
47086	11,304
47087	11,687
47088	11,505
47089	11,499
47090	11,304
47091	11,687
47092	11,505
47093	11,318
47094	11,701
47095	11,519
47096	11,52
47097	11,124
47098	10,952
47099	11,093
47100	11,145
47101	11,145
47102	11,118
47103	10,939
47104	11,079
47105	11,131
47106	11,124
47107	10,939
47108	11,079
47109	11,131
47110	10,952
47111	11,093
47112	11,145
47113	11,145
47114	10,769
47115	10,606
47116	10,736
47117	10,79
47118	10,788
47119	10,762
47120	10,593
47121	10,723
47122	10,777
47123	10,769
47124	10,593
47125	10,723
47126	10,777
47127	10,606
47128	10,736
47129	10,79
47130	10,788
47131	10,433
47132	10,281
47133	10,397
47134	10,457
47135	10,452
47136	10,427
47137	10,268
47138	10,385
47139	10,445
47140	10,433
47141	10,268
47142	10,385
47143	10,445
47144	10,281
47145	10,397
47146	10,457
47147	10,452
47148	10,118
47149	9,977
47150	10,079
47151	10,146
47152	10,137
47153	10,112
47154	9,9648
47155	10,067
47156	10,134
47157	10,118
47158	9,9648
47159	10,067
47160	10,134
47161	9,977
47162	10,079
47163	10,146
47164	10,137
47165	9,8267
47166	9,6972
47167	9,7833
47168	9,8588
47169	9,8448
47170	9,8207
47171	9,6852
47172	9,7715
47173	9,8465
47174	9,8267
47175	9,6852
47176	9,7715
47177	9,8465
47178	9,6972
47179	9,7833
47180	9,8588
47181	9,8448
47182	9,5598
47183	9,4435
47184	9,5119
47185	9,5963
47186	9,5777
47187	9,5538
47188	9,4316
47189	9,5003
47190	9,5842
47191	9,5598
47192	9,4316
47193	9,5003
47194	9,5842
47195	9,4435
47196	9,5119
47197	9,5963
47198	9,5777
47199	9,3201
47200	9,2183
47201	9,2677
47202	9,3611
47203	9,3378
47204	9,3142
47205	9,2065
47206	9,2563
47207	9,3489
47208	9,3201
47209	9,2065
47210	9,2563
47211	9,3489
47212	9,2183
47213	9,2677
47214	9,3611
47215	9,3378
47216	9,1103
47217	9,0248
47218	9,0537
47219	9,1557
47220	9,1281
47221	9,1044
47222	9,0129
47223	9,0424
47224	9,1434
47225	9,1103
47226	9,0129
47227	9,0424
47228	9,1434
47229	9,0248
47230	9,0537
47231	9,1557
47232	9,1281
47233	8,9337
47234	8,8659
47235	8,8733
47236	8,9828
47237	8,9516
47238	8,9277
47239	8,8539
47240	8,8619
47241	8,9705
47242	8,9337
47243	8,8539
47244	8,8619
47245	8,9705
47246	8,8659
47247	8,8733
47248	8,9828
47249	8,9516
47250	8,7934
47251	8,7453
47252	8,73
47253	8,8458
47254	8,8117
47255	8,7874
47256	8,733
47257	8,7184
47258	8,8332
47259	8,7934
47260	8,733
47261	8,7184
47262	8,8332
47263	8,7453
47264	8,73
47265	8,8458
47266	8,8117
47267	8,6931
47268	8,6664
47269	8,6274
47270	8,748
47271	8,7118
47272	8,6869
47273	8,6537
47274	8,6155
47275	8,735
47276	8,6931
47277	8,6537
47278	8,6155
47279	8,735
47280	8,6664
47281	8,6274
47282	8,748
47283	8,7118
47284	8,6362
47285	8,6327
47286	8,5692
47287	8,6926
47288	8,6556
47289	8,6298
47290	8,6195
47291	8,5569
47292	8,6791
47293	8,6362
47294	8,6195
47295	8,5569
47296	8,6791
47297	8,6327
47298	8,5692
47299	8,6926
47300	8,6556
47301	8,6261
47302	8,6474
47303	8,5587
47304	8,6832
47305	8,6464
47306	8,6194
47307	8,6335
47308	8,5459
47309	8,669
47310	8,6261
47311	8,6335
47312	8,5459
47313	8,669
47314	8,6474
47315	8,5587
47316	8,6832
47317	8,6464
47318	8,6659
47319	8,7135
47320	8,5991
47321	8,7227
47322	8,6874
47323	8,6587
47324	8,6987
47325	8,5856
47326	8,7077
47327	8,6659
47328	8,6987
47329	8,5856
47330	8,7077
47331	8,7135
47332	8,5991
47333	8,7227
47334	8,6874
47335	8,7582
47336	8,8334
47337	8,6927
47338	8,8141
47339	8,7811
47340	8,7506
47341	8,8175
47342	8,6783
47343	8,7981
47344	8,7582
47345	8,8175
47346	8,6783
47347	8,7981
47348	8,8334
47349	8,6927
47350	8,8141
47351	8,7811
47352	8,9053
47353	9,0089
47354	8,8416
47355	8,9598
47356	8,93
47357	8,8971
47358	8,9918
47359	8,8261
47360	8,9425
47361	8,9053
47362	8,9918
47363	8,8261
47364	8,9425
47365	9,0089
47366	8,8416
47367	8,9598
47368	8,93
47369	9,1088
47370	9,2417
47371	9,047
47372	9,1618
47373	9,1357
47374	9,0998
47375	9,2229
47376	9,03
47377	9,1431
47378	9,1088
47379	9,2229
47380	9,03
47381	9,1431
47382	9,2417
47383	9,047
47384	9,1618
47385	9,1357
47386	9,3698
47387	9,5344
47388	9,4218
47389	9,3993
47390	9,36
47391	9,5137
47392	9,4013
47393	9,3698
47394	9,5137
47395	9,4013
47396	9,5344
47397	9,4218
47398	9,3993
47399	9,6934
47400	9,8903
47401	9,7432
47402	9,7261
47403	9,6825
47404	9,8672
47405	9,7205
47406	9,6934
47407	9,8672
47408	9,7205
47409	9,8903
47410	9,7432
47411	9,7261
47412	10,08
47413	10,312
47414	10,131
47415	10,117
47416	10,068
47417	10,286
47418	10,106
47419	10,08
47420	10,286
47421	10,106
47422	10,312
47423	10,131
47424	10,117
47425	10,535
47426	10,808
47427	10,586
47428	10,576
47429	10,521
47430	10,778
47431	10,557
47432	10,535
47433	10,778
47434	10,557
47435	10,808
47436	10,586
47437	10,576
47438	11,07
47439	11,102
47440	11,378
47441	11,118
47442	11,054
47443	11,07
47444	11,343
47445	11,07
47446	11,07
47447	11,343
47448	11,102
47449	11,378
47450	11,118
47451	12,298
47452	12,61
47453	12,315
47454	12,231
47455	11,994
47456	12,363
47457	12,278
47458	12,566
47459	12,274
47460	12,19
47461	11,955
47462	12,298
47463	12,566
47464	12,274
47465	12,19
47466	11,955
47467	12,61
47468	12,315
47469	12,231
47470	11,994
47471	12,363
47472	14,011
47473	14,076
47474	14,445
47475	14,096
47476	13,988
47477	14,034
47478	14,412
47479	14,011
47480	14,034
47481	14,412
47482	14,076
47483	14,445
47484	14,096
47485	13,544
47486	13,778
47487	13,801
47488	13,624
47489	13,521
47490	13,735
47491	13,757
47492	13,544
47493	13,735
47494	13,757
47495	13,778
47496	13,801
47497	13,624
47498	12,066
47499	12,122
47500	11,855
47501	12,31
47502	12,127
47503	12,046
47504	12,082
47505	11,817
47506	12,269
47507	12,066
47508	12,082
47509	11,817
47510	12,269
47511	12,122
47512	11,855
47513	12,31
47514	12,127
47515	14,718
47516	14,716
47517	14,795
47518	14,709
47519	14,695
47520	14,718
47521	14,695
47522	14,716
47523	14,795
47524	15,747
47525	15,775
47526	15,848
47527	15,732
47528	15,768
47529	15,703
47530	15,743
47531	15,767
47532	15,833
47533	15,722
47534	15,758
47535	15,747
47536	15,767
47537	15,833
47538	15,722
47539	15,758
47540	15,775
47541	15,848
47542	15,732
47543	15,768
47544	15,703
47545	15,795
47546	15,894
47547	15,676
47548	15,977
47549	15,737
47550	15,791
47551	15,878
47552	15,683
47553	15,961
47554	15,795
47555	15,878
47556	15,683
47557	15,961
47558	15,894
47559	15,676
47560	15,977
47561	15,737
47562	15,978
47563	16,001
47564	16,224
47565	15,887
47566	15,963
47567	15,967
47568	15,977
47569	16,191
47570	15,87
47571	15,978
47572	15,977
47573	16,191
47574	15,87
47575	16,001
47576	16,224
47577	15,887
47578	15,963
47579	16,355
47580	15,952
47581	16,255
47582	16,177
47583	17,631
47584	16,345
47585	16,353
47586	15,962
47587	16,241
47588	16,251
47589	17,587
47590	16,355
47591	15,962
47592	16,241
47593	16,251
47594	17,587
47595	15,952
47596	16,255
47597	16,177
47598	17,631
47599	16,345
47600	15,564
47601	15,749
47602	15,508
47603	15,436
47604	15,575
47605	15,749
47606	15,581
47607	15,564
47608	15,749
47609	15,581
47610	15,749
47611	15,508
47612	15,436
47613	16,143
47614	16,307
47615	16,121
47616	16,131
47617	16,272
47618	16,143
47619	16,272
47620	16,307
47621	16,121
47622	25,321
47623	25,672
47624	25,012
47625	24,736
47626	23,986
47627	25,341
47628	25,624
47629	25,057
47630	25,12
47631	25,321
47632	25,624
47633	25,057
47634	25,12
47635	25,672
47636	25,012
47637	24,736
47638	23,986
47639	11,779
47640	11,479
47641	11,818
47642	12,134
47643	11,836
47644	11,76
47645	11,444
47646	11,78
47647	12,093
47648	11,779
47649	11,444
47650	11,78
47651	12,093
47652	11,479
47653	11,818
47654	12,134
47655	11,836
47656	11,168
47657	10,919
47658	11,199
47659	11,218
47660	11,152
47661	10,887
47662	11,165
47663	11,168
47664	10,887
47665	11,165
47666	10,919
47667	11,199
47668	11,218
47669	10,657
47670	10,682
47671	10,446
47672	10,701
47673	10,642
47674	10,652
47675	10,418
47676	10,657
47677	10,652
47678	10,418
47679	10,682
47680	10,446
47681	10,701
47682	9,8553
47683	9,8747
47684	9,7064
47685	10,045
47686	9,8911
47687	9,8434
47688	9,8502
47689	9,6836
47690	10,02
47691	9,8553
47692	9,8502
47693	9,6836
47694	10,02
47695	9,8747
47696	9,7064
47697	10,045
47698	9,8911
47699	13,605
47700	13,95
47701	13,491
47702	13,317
47703	13,648
47704	13,59
47705	13,918
47706	13,463
47707	13,29
47708	13,605
47709	13,918
47710	13,463
47711	13,29
47712	13,95
47713	13,491
47714	13,317
47715	13,648
47716	14,264
47717	14,646
47718	14,139
47719	14,315
47720	14,247
47721	14,608
47722	14,106
47723	14,264
47724	14,608
47725	14,106
47726	14,646
47727	14,139
47728	14,315
47729	14,991
47730	15,417
47731	14,855
47732	15,054
47733	14,971
47734	15,372
47735	14,815
47736	14,991
47737	15,372
47738	14,815
47739	15,417
47740	14,855
47741	15,054
47742	15,799
47743	16,278
47744	15,651
47745	15,885
47746	15,875
47747	15,774
47748	16,225
47749	15,604
47750	15,834
47751	15,799
47752	16,225
47753	15,604
47754	15,834
47755	16,278
47756	15,651
47757	15,885
47758	15,875
47759	16,706
47760	17,243
47761	16,788
47762	16,545
47763	16,798
47764	16,678
47765	17,191
47766	16,731
47767	16,493
47768	16,706
47769	17,191
47770	16,731
47771	16,493
47772	17,243
47773	16,788
47774	16,545
47775	16,798
47776	17,729
47777	18,339
47778	17,553
47779	17,831
47780	17,706
47781	18,314
47782	17,513
47783	17,729
47784	18,314
47785	17,513
47786	18,339
47787	17,553
47788	17,831
47789	18,927
47790	19,607
47791	18,715
47792	19,01
47793	18,925
47794	19,676
47795	18,726
47796	18,927
47797	19,676
47798	18,726
47799	19,607
47800	18,715
47801	19,01
47802	20,36
47803	20,058
47804	21,088
47805	20,347
47806	20,43
47807	20,224
47808	21,354
47809	20,36
47810	20,224
47811	21,354
47812	20,058
47813	21,088
47814	20,347
47815	26,122
47816	24,864
47817	24,388
47818	25,104
47819	25,898
47820	24,23
47821	26,06
47822	25,271
47823	23,152
47824	25,484
47825	25,498
47826	26,122
47827	25,271
47828	23,152
47829	25,484
47830	25,498
47831	24,864
47832	24,388
47833	25,104
47834	25,898
47835	24,23
47836	24,063
47837	23,393
47838	22,737
47839	23,269
47840	24,529
47841	24,329
47842	23,402
47843	24,063
47844	24,329
47845	23,402
47846	23,393
47847	22,737
47848	23,269
47849	11,122
47850	10,891
47851	11,38
47852	11,093
47853	11,156
47854	11,171
47855	11,105
47856	10,86
47857	11,346
47858	11,061
47859	11,123
47860	11,122
47861	10,86
47862	11,346
47863	11,061
47864	11,123
47865	10,891
47866	11,38
47867	11,093
47868	11,156
47869	11,171
47870	10,646
47871	10,44
47872	10,67
47873	10,69
47874	10,631
47875	10,412
47876	10,64
47877	10,646
47878	10,412
47879	10,64
47880	10,44
47881	10,67
47882	10,69
47883	10,221
47884	10,042
47885	10,242
47886	10,261
47887	10,208
47888	10,017
47889	10,215
47890	10,221
47891	10,017
47892	10,215
47893	10,042
47894	10,242
47895	10,261
47896	9,8528
47897	9,7042
47898	9,8723
47899	9,8886
47900	9,8409
47901	9,6814
47902	9,8478
47903	9,8528
47904	9,6814
47905	9,8478
47906	9,7042
47907	9,8723
47908	9,8886
47909	9,5466
47910	9,5658
47911	9,4278
47912	9,5792
47913	9,5357
47914	9,5434
47915	9,4069
47916	9,5466
47917	9,5434
47918	9,4069
47919	9,5658
47920	9,4278
47921	9,5792
47922	13,005
47923	13,319
47924	12,903
47925	12,741
47926	13,043
47927	12,992
47928	13,292
47929	12,878
47930	12,718
47931	13,005
47932	13,292
47933	12,878
47934	12,718
47935	13,319
47936	12,903
47937	12,741
47938	13,043
47939	13,606
47940	13,952
47941	13,493
47942	13,684
47943	13,65
47944	13,592
47945	13,92
47946	13,464
47947	13,654
47948	13,606
47949	13,92
47950	13,464
47951	13,654
47952	13,952
47953	13,493
47954	13,684
47955	13,65
47956	14,266
47957	14,648
47958	14,141
47959	14,317
47960	14,248
47961	14,61
47962	14,107
47963	14,266
47964	14,61
47965	14,107
47966	14,648
47967	14,141
47968	14,317
47969	14,993
47970	14,857
47971	15,419
47972	15,055
47973	14,972
47974	14,816
47975	15,373
47976	14,993
47977	14,816
47978	15,373
47979	14,857
47980	15,419
47981	15,055
47982	17,69
47983	18,268
47984	17,524
47985	17,224
47986	17,792
47987	17,666
47988	18,241
47989	17,484
47990	17,172
47991	17,69
47992	18,241
47993	17,484
47994	17,172
47995	18,268
47996	17,524
47997	17,224
47998	17,792
47999	18,821
48000	19,417
48001	18,629
48002	18,907
48003	18,818
48004	19,465
48005	18,637
48006	18,821
48007	19,465
48008	18,637
48009	19,417
48010	18,629
48011	18,907
48012	20,064
48013	20,644
48014	19,832
48015	20,074
48016	20,114
48017	20,844
48018	19,963
48019	20,064
48020	20,844
48021	19,963
48022	20,644
48023	19,832
48024	20,074
48025	21,427
48026	21,962
48027	21,169
48028	21,258
48029	21,576
48030	22,399
48031	21,52
48032	21,427
48033	22,399
48034	21,52
48035	21,962
48036	21,169
48037	21,258
48038	22,941
48039	22,603
48040	23,345
48041	22,403
48042	23,225
48043	23,225
48044	24,076
48045	22,941
48046	23,225
48047	24,076
48048	22,603
48049	23,345
48050	22,403
48051	14,728
48052	14,603
48053	14,961
48054	14,805
48055	14,716
48056	14,574
48057	14,954
48058	14,728
48059	14,574
48060	14,954
48061	14,603
48062	14,961
48063	14,805
48064	14,487
48065	14,834
48066	14,265
48067	14,567
48068	14,47
48069	14,812
48070	14,226
48071	14,487
48072	14,812
48073	14,226
48074	14,834
48075	14,265
48076	14,567
48077	14,31
48078	14,224
48079	14,428
48080	13,841
48081	14,73
48082	14,371
48083	14,296
48084	14,191
48085	14,407
48086	13,807
48087	14,712
48088	14,31
48089	14,191
48090	14,407
48091	13,807
48092	14,712
48093	14,224
48094	14,428
48095	13,841
48096	14,73
48097	14,371
48098	14,13
48099	14,587
48100	13,711
48101	14,206
48102	14,111
48103	14,562
48104	13,669
48105	14,13
48106	14,562
48107	13,669
48108	14,587
48109	13,711
48110	14,206
48111	12,892
48112	13,231
48113	12,811
48114	12,991
48115	12,965
48116	12,87
48117	13,187
48118	12,766
48119	12,948
48120	12,892
48121	13,187
48122	12,766
48123	12,948
48124	13,231
48125	12,811
48126	12,991
48127	12,965
48128	12,312
48129	11,997
48130	12,285
48131	12,7
48132	12,376
48133	12,292
48134	11,958
48135	12,245
48136	12,659
48137	12,312
48138	11,958
48139	12,245
48140	12,659
48141	11,997
48142	12,285
48143	12,7
48144	12,376
48145	11,657
48146	11,396
48147	11,676
48148	11,673
48149	11,713
48150	11,638
48151	11,361
48152	11,639
48153	11,636
48154	11,657
48155	11,361
48156	11,639
48157	11,636
48158	11,396
48159	11,676
48160	11,673
48161	11,713
48162	11,114
48163	10,874
48164	11,128
48165	11,164
48166	11,098
48167	10,843
48168	11,095
48169	11,114
48170	10,843
48171	11,095
48172	10,874
48173	11,128
48174	11,164
48175	10,618
48176	10,397
48177	10,633
48178	10,663
48179	10,603
48180	10,369
48181	10,603
48182	10,618
48183	10,369
48184	10,603
48185	10,397
48186	10,633
48187	10,663
48188	10,165
48189	9,9762
48190	10,187
48191	10,205
48192	10,152
48193	9,9513
48194	10,16
48195	10,165
48196	9,9513
48197	10,16
48198	9,9762
48199	10,187
48200	10,205
48201	9,778
48202	9,803
48203	9,6232
48204	9,8135
48205	9,7662
48206	9,7787
48207	9,6007
48208	9,778
48209	9,7787
48210	9,6007
48211	9,803
48212	9,6232
48213	9,8135
48214	11,925
48215	12,141
48216	11,922
48217	11,913
48218	11,734
48219	11,948
48220	11,917
48221	12,125
48222	11,907
48223	11,898
48224	11,719
48225	11,925
48226	12,125
48227	11,907
48228	11,898
48229	11,719
48230	12,141
48231	11,922
48232	11,913
48233	11,734
48234	11,948
48235	12,342
48236	12,569
48237	12,344
48238	12,326
48239	12,367
48240	12,334
48241	12,552
48242	12,327
48243	12,31
48244	12,342
48245	12,552
48246	12,327
48247	12,31
48248	12,569
48249	12,344
48250	12,326
48251	12,367
48252	12,78
48253	13,017
48254	12,789
48255	12,806
48256	12,771
48257	12,999
48258	12,772
48259	12,78
48260	12,999
48261	12,772
48262	13,017
48263	12,789
48264	12,806
48265	13,237
48266	13,483
48267	13,259
48268	13,266
48269	13,228
48270	13,464
48271	13,239
48272	13,237
48273	13,464
48274	13,239
48275	13,483
48276	13,259
48277	13,266
48278	13,711
48279	13,96
48280	13,75
48281	13,741
48282	13,701
48283	13,939
48284	13,729
48285	13,711
48286	13,939
48287	13,729
48288	13,96
48289	13,75
48290	13,741
48291	14,19
48292	14,438
48293	14,256
48294	14,222
48295	14,18
48296	14,416
48297	14,233
48298	14,19
48299	14,416
48300	14,233
48301	14,438
48302	14,256
48303	14,222
48304	14,667
48305	14,907
48306	14,769
48307	14,7
48308	14,656
48309	14,884
48310	14,744
48311	14,667
48312	14,884
48313	14,744
48314	14,907
48315	14,769
48316	14,7
48317	15,127
48318	15,338
48319	15,276
48320	14,996
48321	15,159
48322	15,116
48323	15,315
48324	15,248
48325	14,976
48326	15,127
48327	15,315
48328	15,248
48329	14,976
48330	15,338
48331	15,276
48332	14,996
48333	15,159
48334	15,53
48335	15,739
48336	15,679
48337	15,557
48338	15,519
48339	15,708
48340	15,656
48341	15,53
48342	15,708
48343	15,656
48344	15,739
48345	15,679
48346	15,557
48347	15,933
48348	15,97
48349	16,27
48350	15,903
48351	15,923
48352	15,948
48353	16,232
48354	15,933
48355	15,948
48356	16,232
48357	15,97
48358	16,27
48359	15,903
48360	15,988
48361	16,351
48362	15,908
48363	15,855
48364	15,989
48365	15,976
48366	16,31
48367	15,885
48368	15,838
48369	15,988
48370	16,31
48371	15,885
48372	15,838
48373	16,351
48374	15,908
48375	15,855
48376	15,989
48377	14,492
48378	14,908
48379	14,464
48380	14,563
48381	14,477
48382	14,891
48383	14,435
48384	14,492
48385	14,891
48386	14,435
48387	14,908
48388	14,464
48389	14,563
48390	12,154
48391	11,869
48392	12,487
48393	12,216
48394	12,134
48395	11,83
48396	12,444
48397	12,154
48398	11,83
48399	12,444
48400	11,869
48401	12,487
48402	12,216
48403	11,618
48404	11,599
48405	11,692
48406	11,674
48407	11,6
48408	11,563
48409	11,655
48410	11,618
48411	11,563
48412	11,655
48413	11,599
48414	11,692
48415	11,674
48416	16,002
48417	15,938
48418	16,308
48419	16,012
48420	15,989
48421	15,913
48422	16,268
48423	16,002
48424	15,913
48425	16,268
48426	15,938
48427	16,308
48428	16,012
48429	15,852
48430	15,731
48431	16,124
48432	15,706
48433	15,872
48434	15,839
48435	15,707
48436	16,088
48437	15,688
48438	15,852
48439	15,707
48440	16,088
48441	15,688
48442	15,731
48443	16,124
48444	15,706
48445	15,872
48446	15,589
48447	15,409
48448	15,795
48449	15,616
48450	15,577
48451	15,386
48452	15,763
48453	15,589
48454	15,386
48455	15,763
48456	15,409
48457	15,795
48458	15,616
48459	15,209
48460	14,998
48461	15,364
48462	15,241
48463	15,197
48464	14,975
48465	15,335
48466	15,209
48467	14,975
48468	15,335
48469	14,998
48470	15,364
48471	15,241
48472	14,767
48473	14,542
48474	14,874
48475	14,8
48476	14,756
48477	14,52
48478	14,848
48479	14,767
48480	14,52
48481	14,848
48482	14,542
48483	14,874
48484	14,8
48485	14,297
48486	14,069
48487	14,368
48488	14,329
48489	14,286
48490	14,048
48491	14,344
48492	14,297
48493	14,048
48494	14,344
48495	14,069
48496	14,368
48497	14,329
48498	13,823
48499	13,598
48500	13,867
48501	13,853
48502	13,812
48503	13,578
48504	13,845
48505	13,823
48506	13,578
48507	13,845
48508	13,598
48509	13,867
48510	13,853
48511	13,356
48512	13,138
48513	13,381
48514	13,384
48515	13,346
48516	13,119
48517	13,361
48518	13,356
48519	13,119
48520	13,361
48521	13,138
48522	13,381
48523	13,384
48524	12,903
48525	12,693
48526	12,915
48527	12,929
48528	12,894
48529	12,676
48530	12,896
48531	12,903
48532	12,676
48533	12,896
48534	12,693
48535	12,915
48536	12,929
48537	12,468
48538	12,267
48539	12,471
48540	12,493
48541	12,459
48542	12,251
48543	12,454
48544	12,468
48545	12,251
48546	12,454
48547	12,267
48548	12,471
48549	12,493
48550	12,052
48551	12,051
48552	11,862
48553	12,076
48554	12,044
48555	12,035
48556	11,846
48557	12,052
48558	12,035
48559	11,846
48560	12,051
48561	11,862
48562	12,076
48563	9,2784
48564	9,418
48565	9,3055
48566	9,1746
48567	9,3086
48568	9,2683
48569	9,3969
48570	9,2847
48571	9,1553
48572	9,2784
48573	9,3969
48574	9,2847
48575	9,1553
48576	9,418
48577	9,3055
48578	9,1746
48579	9,3086
48580	9,5495
48581	9,7188
48582	9,5751
48583	9,5118
48584	9,5826
48585	9,5385
48586	9,6956
48587	9,5523
48588	9,4907
48589	9,5495
48590	9,6956
48591	9,5523
48592	9,4907
48593	9,7188
48594	9,5751
48595	9,5118
48596	9,5826
48597	9,8787
48598	10,079
48599	9,9037
48600	9,8419
48601	9,9152
48602	9,8666
48603	10,053
48604	9,8786
48605	9,8186
48606	9,8787
48607	10,053
48608	9,8786
48609	9,8186
48610	10,079
48611	9,9037
48612	9,8419
48613	9,9152
48614	10,268
48615	10,499
48616	10,294
48617	10,23
48618	10,308
48619	10,254
48620	10,47
48621	10,266
48622	10,204
48623	10,268
48624	10,47
48625	10,266
48626	10,204
48627	10,499
48628	10,294
48629	10,23
48630	10,308
48631	10,717
48632	10,985
48633	10,747
48634	10,763
48635	10,702
48636	10,953
48637	10,716
48638	10,717
48639	10,953
48640	10,716
48641	10,985
48642	10,747
48643	10,763
48644	11,239
48645	11,278
48646	11,549
48647	11,29
48648	11,222
48649	11,243
48650	11,512
48651	11,239
48652	11,243
48653	11,512
48654	11,278
48655	11,549
48656	11,29
48657	13,485
48658	13,471
48659	13,737
48660	13,559
48661	13,464
48662	13,43
48663	13,696
48664	13,485
48665	13,43
48666	13,696
48667	13,471
48668	13,737
48669	13,559
48670	12,59
48671	13,022
48672	12,622
48673	12,222
48674	12,657
48675	12,569
48676	12,98
48677	12,581
48678	12,181
48679	12,59
48680	12,98
48681	12,581
48682	12,181
48683	13,022
48684	12,622
48685	12,222
48686	12,657
48687	15,527
48688	16,03
48689	15,722
48690	16,343
48691	15,278
48692	16,024
48693	15,589
48694	16,065
48695	15,863
48696	16,441
48697	16,258
48698	15,527
48699	16,065
48700	15,863
48701	16,441
48702	16,258
48703	16,03
48704	15,722
48705	16,343
48706	15,278
48707	16,024
48708	24,796
48709	24,191
48710	24,75
48711	23,478
48712	24,832
48713	24,52
48714	24,582
48715	24,796
48716	24,52
48717	24,582
48718	24,191
48719	24,75
48720	23,478
48721	15,057
48722	14,981
48723	15,357
48724	15,088
48725	15,062
48726	14,993
48727	15,373
48728	15,057
48729	14,993
48730	15,373
48731	14,981
48732	15,357
48733	15,088
48734	13,428
48735	13,469
48736	13,882
48737	13,498
48738	13,408
48739	13,431
48740	13,848
48741	13,428
48742	13,431
48743	13,848
48744	13,469
48745	13,882
48746	13,498
48747	13,487
48748	13,968
48749	13,419
48750	13,151
48751	13,56
48752	13,466
48753	13,933
48754	13,379
48755	13,108
48756	13,487
48757	13,933
48758	13,379
48759	13,108
48760	13,968
48761	13,419
48762	13,151
48763	13,56
48764	16,437
48765	16,528
48766	16,468
48767	16,415
48768	16,479
48769	16,437
48770	16,479
48771	16,528
48772	16,468
48773	15,378
48774	15,768
48775	15,451
48776	15,419
48777	15,377
48778	15,784
48779	15,453
48780	15,378
48781	15,784
48782	15,453
48783	15,768
48784	15,451
48785	15,419
48786	13,97
48787	14,168
48788	14,261
48789	14,045
48790	13,951
48791	14,135
48792	14,227
48793	13,97
48794	14,135
48795	14,227
48796	14,168
48797	14,261
48798	14,045
48799	13,537
48800	14,039
48801	13,686
48802	13,614
48803	13,516
48804	14,003
48805	13,646
48806	13,537
48807	14,003
48808	13,646
48809	14,039
48810	13,686
48811	13,614
48812	14,565
48813	14,906
48814	14,631
48815	14,633
48816	14,551
48817	14,891
48818	14,607
48819	14,565
48820	14,891
48821	14,607
48822	14,906
48823	14,631
48824	14,633
48825	15,296
48826	15,421
48827	15,706
48828	15,338
48829	15,295
48830	15,423
48831	15,721
48832	15,296
48833	15,423
48834	15,721
48835	15,421
48836	15,706
48837	15,338
48838	12,853
48839	12,747
48840	12,555
48841	12,968
48842	12,916
48843	12,835
48844	12,711
48845	12,517
48846	12,928
48847	12,853
48848	12,711
48849	12,517
48850	12,928
48851	12,747
48852	12,555
48853	12,968
48854	12,916
48855	16,675
48856	16,544
48857	16,643
48858	17,221
48859	16,742
48860	16,646
48861	16,492
48862	16,587
48863	17,14
48864	16,675
48865	16,492
48866	16,587
48867	17,14
48868	16,544
48869	16,643
48870	17,221
48871	16,742
48872	16,37
48873	16,167
48874	16,732
48875	16,104
48876	16,429
48877	16,347
48878	16,124
48879	16,669
48880	16,069
48881	16,37
48882	16,124
48883	16,669
48884	16,069
48885	16,167
48886	16,732
48887	16,104
48888	16,429
48889	15,926
48890	15,682
48891	16,153
48892	15,979
48893	15,907
48894	15,646
48895	16,105
48896	15,926
48897	15,646
48898	16,105
48899	15,682
48900	16,153
48901	15,979
48902	15,407
48903	15,146
48904	15,545
48905	15,454
48906	15,39
48907	15,115
48908	15,506
48909	15,407
48910	15,115
48911	15,506
48912	15,146
48913	15,545
48914	15,454
48915	14,857
48916	14,595
48917	14,935
48918	14,899
48919	14,842
48920	14,568
48921	14,903
48922	14,857
48923	14,568
48924	14,903
48925	14,595
48926	14,935
48927	14,899
48928	14,308
48929	14,053
48930	14,345
48931	14,346
48932	14,296
48933	14,029
48934	14,318
48935	14,308
48936	14,029
48937	14,318
48938	14,053
48939	14,345
48940	14,346
48941	13,776
48942	13,532
48943	13,786
48944	13,81
48945	13,765
48946	13,511
48947	13,762
48948	13,776
48949	13,511
48950	13,762
48951	13,532
48952	13,786
48953	13,81
48954	13,268
48955	13,037
48956	13,259
48957	13,298
48958	13,258
48959	13,018
48960	13,239
48961	13,268
48962	13,018
48963	13,239
48964	13,037
48965	13,259
48966	13,298
48967	12,788
48968	12,569
48969	12,767
48970	12,815
48971	12,778
48972	12,552
48973	12,749
48974	12,788
48975	12,552
48976	12,749
48977	12,569
48978	12,767
48979	12,815
48980	12,335
48981	12,13
48982	12,308
48983	12,36
48984	12,326
48985	12,113
48986	12,291
48987	12,335
48988	12,113
48989	12,291
48990	12,13
48991	12,308
48992	12,36
48993	11,909
48994	11,717
48995	11,879
48996	11,933
48997	11,902
48998	11,702
48999	11,863
49000	11,909
49001	11,702
49002	11,863
49003	11,717
49004	11,879
49005	11,933
49006	11,51
49007	11,33
49008	11,479
49009	11,525
49010	11,532
49011	11,503
49012	11,316
49013	11,464
49014	11,51
49015	11,51
49016	11,316
49017	11,464
49018	11,51
49019	11,33
49020	11,479
49021	11,525
49022	11,532
49023	11,137
49024	10,969
49025	11,107
49026	11,151
49027	11,158
49028	11,13
49029	10,955
49030	11,093
49031	11,137
49032	11,137
49033	10,955
49034	11,093
49035	11,137
49036	10,969
49037	11,107
49038	11,151
49039	11,158
49040	10,788
49041	10,632
49042	10,76
49043	10,8
49044	10,808
49045	10,781
49046	10,618
49047	10,746
49048	10,787
49049	10,788
49050	10,618
49051	10,746
49052	10,787
49053	10,632
49054	10,76
49055	10,8
49056	10,808
49057	10,464
49058	10,319
49059	10,439
49060	10,473
49061	10,483
49062	10,457
49063	10,306
49064	10,425
49065	10,46
49066	10,464
49067	10,306
49068	10,425
49069	10,46
49070	10,319
49071	10,439
49072	10,473
49073	10,483
49074	10,163
49075	10,031
49076	10,142
49077	10,169
49078	10,183
49079	10,157
49080	10,018
49081	10,129
49082	10,156
49083	10,163
49084	10,018
49085	10,129
49086	10,156
49087	10,031
49088	10,142
49089	10,169
49090	10,183
49091	9,888
49092	9,7682
49093	9,8708
49094	9,8898
49095	9,9074
49096	9,8815
49097	9,7553
49098	9,8577
49099	9,8771
49100	9,888
49101	9,7553
49102	9,8577
49103	9,8771
49104	9,7682
49105	9,8708
49106	9,8898
49107	9,9074
49108	9,6384
49109	9,532
49110	9,6253
49111	9,6361
49112	9,6578
49113	9,6319
49114	9,519
49115	9,6122
49116	9,6233
49117	9,6384
49118	9,519
49119	9,6122
49120	9,6233
49121	9,532
49122	9,6253
49123	9,6361
49124	9,6578
49125	9,416
49126	9,3239
49127	9,4069
49128	9,4096
49129	9,4356
49130	9,4095
49131	9,3108
49132	9,3937
49133	9,3968
49134	9,416
49135	9,3108
49136	9,3937
49137	9,3968
49138	9,3239
49139	9,4069
49140	9,4096
49141	9,4356
49142	9,2227
49143	9,1461
49144	9,2174
49145	9,2124
49146	9,2426
49147	9,2161
49148	9,1327
49149	9,2039
49150	9,1995
49151	9,2227
49152	9,1327
49153	9,2039
49154	9,1995
49155	9,1461
49156	9,2174
49157	9,2124
49158	9,2426
49159	9,0608
49160	9,001
49161	9,0588
49162	9,047
49163	9,0811
49164	9,054
49165	8,9872
49166	9,045
49167	9,0338
49168	9,0608
49169	8,9872
49170	9,045
49171	9,0338
49172	9,001
49173	9,0588
49174	9,047
49175	9,0811
49176	8,9328
49177	8,8913
49178	8,9336
49179	8,9162
49180	8,9538
49181	8,9258
49182	8,8771
49183	8,9193
49184	8,9027
49185	8,9328
49186	8,8771
49187	8,9193
49188	8,9027
49189	8,8913
49190	8,9336
49191	8,9162
49192	8,9538
49193	8,8417
49194	8,82
49195	8,8444
49196	8,823
49197	8,8635
49198	8,8344
49199	8,8051
49200	8,8295
49201	8,809
49202	8,8417
49203	8,8051
49204	8,8295
49205	8,809
49206	8,82
49207	8,8444
49208	8,823
49209	8,8635
49210	8,7904
49211	8,7902
49212	8,7943
49213	8,7705
49214	8,8132
49215	8,7828
49216	8,7746
49217	8,7787
49218	8,7559
49219	8,7904
49220	8,7746
49221	8,7787
49222	8,7559
49223	8,7902
49224	8,7943
49225	8,7705
49226	8,8132
49227	8,7822
49228	8,8051
49229	8,7863
49230	8,7621
49231	8,8062
49232	8,7742
49233	8,7886
49234	8,7698
49235	8,7467
49236	8,7822
49237	8,7886
49238	8,7698
49239	8,7467
49240	8,8051
49241	8,7863
49242	8,7621
49243	8,8062
49244	8,8203
49245	8,8679
49246	8,8237
49247	8,8008
49248	8,8457
49249	8,8118
49250	8,8504
49251	8,8062
49252	8,7845
49253	8,8203
49254	8,8504
49255	8,8062
49256	8,7845
49257	8,8679
49258	8,8237
49259	8,8008
49260	8,8457
49261	8,9077
49262	8,9817
49263	8,9095
49264	8,8898
49265	8,9349
49266	8,8986
49267	8,9629
49268	8,8908
49269	8,8723
49270	8,9077
49271	8,9629
49272	8,8908
49273	8,8723
49274	8,9817
49275	8,9095
49276	8,8898
49277	8,9349
49278	9,0475
49279	9,1496
49280	9,0471
49281	9,0319
49282	9,0768
49283	9,0378
49284	9,1293
49285	9,027
49286	9,0131
49287	9,0475
49288	9,1293
49289	9,027
49290	9,0131
49291	9,1496
49292	9,0471
49293	9,0319
49294	9,0768
49295	9,2427
49296	9,3743
49297	9,2396
49298	9,2298
49299	9,2744
49300	9,2322
49301	9,3523
49302	9,218
49303	9,2095
49304	9,2427
49305	9,3523
49306	9,218
49307	9,2095
49308	9,3743
49309	9,2396
49310	9,2298
49311	9,2744
49312	9,4962
49313	9,6589
49314	9,4903
49315	9,4861
49316	9,5308
49317	9,4848
49318	9,6348
49319	9,4668
49320	9,4639
49321	9,4962
49322	9,6348
49323	9,4668
49324	9,4639
49325	9,6589
49326	9,4903
49327	9,4861
49328	9,5308
49329	9,8108
49330	10,006
49331	9,8026
49332	9,8487
49333	9,7983
49334	9,9798
49335	9,7768
49336	9,8108
49337	9,9798
49338	9,7768
49339	10,006
49340	9,8026
49341	9,8487
49342	10,19
49343	10,416
49344	10,18
49345	10,231
49346	10,176
49347	10,386
49348	10,152
49349	10,19
49350	10,386
49351	10,152
49352	10,416
49353	10,18
49354	10,231
49355	10,628
49356	10,883
49357	10,617
49358	10,674
49359	10,612
49360	10,85
49361	10,586
49362	10,628
49363	10,85
49364	10,586
49365	10,883
49366	10,617
49367	10,674
49368	11,121
49369	11,406
49370	11,118
49371	11,172
49372	11,104
49373	11,37
49374	11,084
49375	11,121
49376	11,37
49377	11,084
49378	11,406
49379	11,118
49380	11,172
49381	11,67
49382	11,664
49383	11,962
49384	11,727
49385	11,651
49386	11,628
49387	11,924
49388	11,67
49389	11,628
49390	11,924
49391	11,664
49392	11,962
49393	11,727
49394	15,072
49395	15,967
49396	14,974
49397	15,104
49398	15,122
49399	15,066
49400	15,984
49401	14,959
49402	15,095
49403	15,072
49404	15,984
49405	14,959
49406	15,095
49407	15,967
49408	14,974
49409	15,104
49410	15,122
49411	15,205
49412	15,143
49413	15,814
49414	15,235
49415	15,211
49416	15,144
49417	15,842
49418	15,205
49419	15,144
49420	15,842
49421	15,143
49422	15,814
49423	15,235
49424	15,162
49425	15,643
49426	14,833
49427	15,214
49428	15,158
49429	15,653
49430	14,814
49431	15,162
49432	15,653
49433	14,814
49434	15,643
49435	14,833
49436	15,214
49437	16,294
49438	17,01
49439	16,676
49440	16,273
49441	16,312
49442	17,057
49443	16,721
49444	16,294
49445	17,057
49446	16,721
49447	17,01
49448	16,676
49449	16,273
49450	16,568
49451	17,293
49452	16,612
49453	16,541
49454	17,214
49455	16,568
49456	17,214
49457	17,293
49458	16,612
49459	22,946
49460	21,862
49461	22,331
49462	23,384
49463	22,243
49464	23,281
49465	22,402
49466	23,018
49467	24,09
49468	22,946
49469	22,402
49470	23,018
49471	24,09
49472	21,862
49473	22,331
49474	23,384
49475	22,243
49476	21,325
49477	20,413
49478	20,781
49479	21,014
49480	21,526
49481	20,696
49482	21,229
49483	21,325
49484	20,696
49485	21,229
49486	20,413
49487	20,781
49488	21,014
49489	19,787
49490	19,091
49491	19,343
49492	19,731
49493	19,867
49494	19,183
49495	19,527
49496	19,787
49497	19,183
49498	19,527
49499	19,091
49500	19,343
49501	19,731
49502	18,489
49503	17,922
49504	18,115
49505	18,545
49506	18,5
49507	17,916
49508	18,15
49509	18,489
49510	17,916
49511	18,15
49512	17,922
49513	18,115
49514	18,545
49515	17,351
49516	17,046
49517	16,877
49518	17,438
49519	17,334
49520	17,02
49521	16,835
49522	17,351
49523	17,02
49524	16,835
49525	17,046
49526	16,877
49527	17,438
49528	14,698
49529	14,365
49530	14,49
49531	15,109
49532	14,756
49533	14,678
49534	14,329
49535	14,454
49536	15,067
49537	14,698
49538	14,329
49539	14,454
49540	15,067
49541	14,365
49542	14,49
49543	15,109
49544	14,756
49545	13,996
49546	13,694
49547	13,811
49548	14,045
49549	13,98
49550	13,664
49551	13,78
49552	13,996
49553	13,664
49554	13,78
49555	13,694
49556	13,811
49557	14,045
49558	13,362
49559	13,086
49560	13,196
49561	13,403
49562	13,348
49563	13,061
49564	13,169
49565	13,362
49566	13,061
49567	13,169
49568	13,086
49569	13,196
49570	13,403
49571	12,785
49572	12,533
49573	12,636
49574	12,821
49575	12,773
49576	12,51
49577	12,613
49578	12,785
49579	12,51
49580	12,613
49581	12,533
49582	12,636
49583	12,821
49584	12,259
49585	12,028
49586	12,125
49587	12,364
49588	12,29
49589	12,248
49590	12,008
49591	12,104
49592	12,342
49593	12,259
49594	12,008
49595	12,104
49596	12,342
49597	12,028
49598	12,125
49599	12,364
49600	12,29
49601	11,777
49602	11,566
49603	11,657
49604	11,87
49605	11,806
49606	11,768
49607	11,547
49608	11,639
49609	11,851
49610	11,777
49611	11,547
49612	11,639
49613	11,851
49614	11,566
49615	11,657
49616	11,87
49617	11,806
49618	11,337
49619	11,144
49620	11,23
49621	11,418
49622	11,363
49623	11,328
49624	11,127
49625	11,213
49626	11,401
49627	11,337
49628	11,127
49629	11,213
49630	11,401
49631	11,144
49632	11,23
49633	11,418
49634	11,363
49635	10,935
49636	10,759
49637	10,841
49638	11,005
49639	10,959
49640	10,926
49641	10,743
49642	10,825
49643	10,989
49644	10,935
49645	10,743
49646	10,825
49647	10,989
49648	10,759
49649	10,841
49650	11,005
49651	10,959
49652	10,569
49653	10,41
49654	10,486
49655	10,628
49656	10,592
49657	10,561
49658	10,395
49659	10,471
49660	10,613
49661	10,569
49662	10,395
49663	10,471
49664	10,613
49665	10,41
49666	10,486
49667	10,628
49668	10,592
49669	10,238
49670	10,096
49671	10,167
49672	10,287
49673	10,26
49674	10,23
49675	10,081
49676	10,152
49677	10,273
49678	10,238
49679	10,081
49680	10,152
49681	10,273
49682	10,096
49683	10,167
49684	10,287
49685	10,26
49686	9,9414
49687	9,8164
49688	9,8805
49689	9,9815
49690	9,9631
49691	9,9342
49692	9,802
49693	9,8662
49694	9,967
49695	9,9414
49696	9,802
49697	9,8662
49698	9,967
49699	9,8164
49700	9,8805
49701	9,9815
49702	9,9631
49703	9,6798
49704	9,5721
49705	9,6283
49706	9,7108
49707	9,7012
49708	9,6726
49709	9,5578
49710	9,6141
49711	9,6967
49712	9,6798
49713	9,5578
49714	9,6141
49715	9,6967
49716	9,5721
49717	9,6283
49718	9,7108
49719	9,7012
49720	9,4535
49721	9,3638
49722	9,4106
49723	9,4763
49724	9,4748
49725	9,4464
49726	9,3495
49727	9,3964
49728	9,4623
49729	9,4535
49730	9,3495
49731	9,3964
49732	9,4623
49733	9,3638
49734	9,4106
49735	9,4763
49736	9,4748
49737	9,2638
49738	9,193
49739	9,2285
49740	9,2793
49741	9,2853
49742	9,2566
49743	9,1785
49744	9,2141
49745	9,2652
49746	9,2638
49747	9,1785
49748	9,2141
49749	9,2652
49750	9,193
49751	9,2285
49752	9,2793
49753	9,2853
49754	9,1124
49755	9,0615
49756	9,0837
49757	9,1216
49758	9,1343
49759	9,1051
49760	9,0467
49761	9,0689
49762	9,1072
49763	9,1124
49764	9,0467
49765	9,0689
49766	9,1072
49767	9,0615
49768	9,0837
49769	9,1216
49770	9,1343
49771	9,0013
49772	8,9716
49773	8,978
49774	9,0052
49775	9,0238
49776	8,9938
49777	8,9563
49778	8,9628
49779	8,9905
49780	9,0013
49781	8,9563
49782	8,9628
49783	8,9905
49784	8,9716
49785	8,978
49786	9,0052
49787	9,0238
49788	8,9329
49789	8,9257
49790	8,9139
49791	8,9328
49792	8,9563
49793	8,9251
49794	8,9097
49795	8,898
49796	8,9176
49797	8,9329
49798	8,9097
49799	8,898
49800	8,9176
49801	8,9257
49802	8,9139
49803	8,9328
49804	8,9563
49805	8,9098
49806	8,9265
49807	8,8938
49808	8,9068
49809	8,9343
49810	8,9016
49811	8,9097
49812	8,8771
49813	8,8909
49814	8,9098
49815	8,9097
49816	8,8771
49817	8,8909
49818	8,9265
49819	8,8938
49820	8,9068
49821	8,9343
49822	8,9346
49823	8,9768
49824	8,9205
49825	8,93
49826	8,9605
49827	8,926
49828	8,959
49829	8,9029
49830	8,9133
49831	8,9346
49832	8,959
49833	8,9029
49834	8,9133
49835	8,9768
49836	8,9205
49837	8,93
49838	8,9605
49839	9,0101
49840	9,0792
49841	8,9968
49842	9,005
49843	9,0377
49844	9,001
49845	9,0602
49846	8,978
49847	8,9872
49848	9,0101
49849	9,0602
49850	8,978
49851	8,9872
49852	9,0792
49853	8,9968
49854	9,005
49855	9,0377
49856	9,1391
49857	9,2365
49858	9,1256
49859	9,1344
49860	9,1687
49861	9,1293
49862	9,216
49863	9,1055
49864	9,1153
49865	9,1391
49866	9,216
49867	9,1055
49868	9,1153
49869	9,2365
49870	9,1256
49871	9,1344
49872	9,1687
49873	9,3243
49874	9,4514
49875	9,31
49876	9,3205
49877	9,3562
49878	9,3136
49879	9,4292
49880	9,2882
49881	9,3
49882	9,3243
49883	9,4292
49884	9,2882
49885	9,3
49886	9,4514
49887	9,31
49888	9,3205
49889	9,3562
49890	9,5682
49891	9,7266
49892	9,5528
49893	9,6029
49894	9,5567
49895	9,7024
49896	9,5292
49897	9,5682
49898	9,7024
49899	9,5292
49900	9,7266
49901	9,5528
49902	9,6029
49903	9,8737
49904	9,8574
49905	10,065
49906	9,9116
49907	9,8611
49908	9,8317
49909	10,038
49910	9,8737
49911	9,8317
49912	10,038
49913	9,8574
49914	10,065
49915	9,9116
49916	12,515
49917	12,938
49918	12,462
49919	12,127
49920	12,649
49921	12,579
49922	12,494
49923	12,898
49924	12,423
49925	12,087
49926	12,607
49927	12,515
49928	12,898
49929	12,423
49930	12,087
49931	12,607
49932	12,938
49933	12,462
49934	12,127
49935	12,649
49936	12,579
49937	16,366
49938	16,191
49939	16,739
49940	16,493
49941	16,426
49942	16,342
49943	16,148
49944	16,675
49945	16,442
49946	16,366
49947	16,148
49948	16,675
49949	16,442
49950	16,191
49951	16,739
49952	16,493
49953	16,426
49954	15,978
49955	15,755
49956	16,22
49957	16,031
49958	15,958
49959	15,718
49960	16,17
49961	15,978
49962	15,718
49963	16,17
49964	15,755
49965	16,22
49966	16,031
49967	15,5
49968	15,246
49969	15,651
49970	15,548
49971	15,483
49972	15,214
49973	15,611
49974	15,5
49975	15,214
49976	15,611
49977	15,246
49978	15,651
49979	15,548
49980	14,964
49981	14,707
49982	15,052
49983	15,007
49984	14,949
49985	14,679
49986	15,019
49987	14,964
49988	14,679
49989	15,019
49990	14,707
49991	15,052
49992	15,007
49993	14,424
49994	14,172
49995	14,469
49996	14,463
49997	14,411
49998	14,148
49999	14,441
50000	14,424
50001	14,148
50002	14,441
50003	14,172
50004	14,469
50005	14,463
50006	13,898
50007	13,656
50008	13,913
50009	13,932
50010	13,887
50011	13,634
50012	13,889
50013	13,898
50014	13,634
50015	13,889
50016	13,656
50017	13,913
50018	13,932
50019	13,394
50020	13,389
50021	13,164
50022	13,425
50023	13,384
50024	13,368
50025	13,144
50026	13,394
50027	13,368
50028	13,144
50029	13,389
50030	13,164
50031	13,425
50032	12,464
50033	12,259
50034	12,438
50035	12,698
50036	12,489
50037	12,455
50038	12,242
50039	12,421
50040	12,68
50041	12,464
50042	12,242
50043	12,421
50044	12,68
50045	12,259
50046	12,438
50047	12,698
50048	12,489
50049	12,039
50050	11,846
50051	12,009
50052	12,062
50053	12,031
50054	11,831
50055	11,993
50056	12,039
50057	11,831
50058	11,993
50059	11,846
50060	12,009
50061	12,062
50062	11,639
50063	11,459
50064	11,608
50065	11,653
50066	11,662
50067	11,632
50068	11,444
50069	11,593
50070	11,638
50071	11,639
50072	11,444
50073	11,593
50074	11,638
50075	11,459
50076	11,608
50077	11,653
50078	11,662
50079	11,265
50080	11,095
50081	11,234
50082	11,279
50083	11,286
50084	11,257
50085	11,082
50086	11,22
50087	11,265
50088	11,265
50089	11,082
50090	11,22
50091	11,265
50092	11,095
50093	11,234
50094	11,279
50095	11,286
50096	10,914
50097	10,756
50098	10,885
50099	10,927
50100	10,934
50101	10,907
50102	10,743
50103	10,871
50104	10,913
50105	10,914
50106	10,743
50107	10,871
50108	10,913
50109	10,756
50110	10,885
50111	10,927
50112	10,934
50113	10,587
50114	10,44
50115	10,56
50116	10,597
50117	10,607
50118	10,58
50119	10,427
50120	10,547
50121	10,584
50122	10,587
50123	10,427
50124	10,547
50125	10,584
50126	10,44
50127	10,56
50128	10,597
50129	10,607
50130	10,283
50131	10,148
50132	10,26
50133	10,29
50134	10,302
50135	10,276
50136	10,135
50137	10,247
50138	10,277
50139	10,283
50140	10,135
50141	10,247
50142	10,277
50143	10,148
50144	10,26
50145	10,29
50146	10,302
50147	10,002
50148	9,8797
50149	9,9835
50150	10,006
50151	10,022
50152	9,996
50153	9,8667
50154	9,9705
50155	9,9932
50156	10,002
50157	9,8667
50158	9,9705
50159	9,9932
50160	9,8797
50161	9,9835
50162	10,006
50163	10,022
50164	9,7465
50165	9,6362
50166	9,7316
50167	9,7461
50168	9,7659
50169	9,74
50170	9,6233
50171	9,7185
50172	9,7333
50173	9,7465
50174	9,6233
50175	9,7185
50176	9,7333
50177	9,6362
50178	9,7316
50179	9,7461
50180	9,7659
50181	9,516
50182	9,4191
50183	9,5052
50184	9,5115
50185	9,5355
50186	9,5095
50187	9,4061
50188	9,492
50189	9,4988
50190	9,516
50191	9,4061
50192	9,492
50193	9,4988
50194	9,4191
50195	9,5052
50196	9,5115
50197	9,5355
50198	9,3127
50199	9,2301
50200	9,3056
50201	9,3042
50202	9,3324
50203	9,3061
50204	9,2168
50205	9,2923
50206	9,2914
50207	9,3127
50208	9,2168
50209	9,2923
50210	9,2914
50211	9,2301
50212	9,3056
50213	9,3042
50214	9,3324
50215	9,1384
50216	9,0713
50217	9,1348
50218	9,1263
50219	9,1585
50220	9,1317
50221	9,0577
50222	9,1212
50223	9,1133
50224	9,1384
50225	9,0577
50226	9,1212
50227	9,1133
50228	9,0713
50229	9,1348
50230	9,1263
50231	9,1585
50232	8,9954
50233	8,9452
50234	8,9949
50235	8,9802
50236	9,0161
50237	8,9886
50238	8,9312
50239	8,9808
50240	8,9669
50241	8,9954
50242	8,9312
50243	8,9808
50244	8,9669
50245	8,9452
50246	8,9949
50247	8,9802
50248	9,0161
50249	8,8864
50250	8,8544
50251	8,8882
50252	8,8688
50253	8,9078
50254	8,8793
50255	8,8399
50256	8,8736
50257	8,855
50258	8,8864
50259	8,8399
50260	8,8736
50261	8,855
50262	8,8544
50263	8,8882
50264	8,8688
50265	8,9078
50266	8,8142
50267	8,8019
50268	8,8175
50269	8,7948
50270	8,8364
50271	8,8068
50272	8,7868
50273	8,8023
50274	8,7806
50275	8,8142
50276	8,7868
50277	8,8023
50278	8,7806
50279	8,8019
50280	8,8175
50281	8,7948
50282	8,8364
50283	8,7816
50284	8,7906
50285	8,7857
50286	8,7615
50287	8,8048
50288	8,7738
50289	8,7747
50290	8,7697
50291	8,7465
50292	8,7816
50293	8,7747
50294	8,7697
50295	8,7465
50296	8,7906
50297	8,7857
50298	8,7615
50299	8,8048
50300	8,7917
50301	8,8236
50302	8,7956
50303	8,7717
50304	8,8162
50305	8,7835
50306	8,8067
50307	8,7787
50308	8,7559
50309	8,7917
50310	8,8067
50311	8,7787
50312	8,7559
50313	8,8236
50314	8,7956
50315	8,7717
50316	8,8162
50317	8,8474
50318	8,9038
50319	8,8503
50320	8,8284
50321	8,8735
50322	8,8387
50323	8,8858
50324	8,8324
50325	8,8117
50326	8,8474
50327	8,8858
50328	8,8324
50329	8,8117
50330	8,9038
50331	8,8503
50332	8,8284
50333	8,8735
50334	8,9518
50335	9,0341
50336	8,9529
50337	8,9346
50338	8,9797
50339	8,9425
50340	9,0148
50341	8,9337
50342	8,9167
50343	8,9518
50344	9,0148
50345	8,9337
50346	8,9167
50347	9,0341
50348	8,9529
50349	8,9346
50350	8,9797
50351	9,1076
50352	9,2174
50353	9,1063
50354	9,0928
50355	9,1376
50356	9,0976
50357	9,1965
50358	9,0857
50359	9,0736
50360	9,1076
50361	9,1965
50362	9,0857
50363	9,0736
50364	9,2174
50365	9,1063
50366	9,0928
50367	9,1376
50368	9,3176
50369	9,4562
50370	9,3136
50371	9,3501
50372	9,3067
50373	9,4336
50374	9,2913
50375	9,3176
50376	9,4336
50377	9,2913
50378	9,4562
50379	9,3136
50380	9,3501
50381	9,5844
50382	9,7535
50383	9,5778
50384	9,6199
50385	9,5727
50386	9,7288
50387	9,5536
50388	9,5844
50389	9,7288
50390	9,5536
50391	9,7535
50392	9,5778
50393	9,6199
50394	9,911
50395	10,112
50396	9,9022
50397	9,9498
50398	9,898
50399	10,085
50400	9,8758
50401	9,911
50402	10,085
50403	9,8758
50404	10,112
50405	9,9022
50406	9,9498
50407	10,3
50408	10,535
50409	10,291
50410	10,343
50411	10,286
50412	10,505
50413	10,262
50414	10,3
50415	10,505
50416	10,262
50417	10,535
50418	10,291
50419	10,343
50420	10,755
50421	11,031
50422	10,747
50423	10,803
50424	10,739
50425	10,998
50426	10,716
50427	10,755
50428	10,998
50429	10,716
50430	11,031
50431	10,747
50432	10,803
50433	11,292
50434	11,611
50435	11,287
50436	11,345
50437	11,274
50438	11,574
50439	11,252
50440	11,292
50441	11,574
50442	11,252
50443	11,611
50444	11,287
50445	11,345
50446	11,915
50447	12,281
50448	11,913
50449	11,893
50450	11,974
50451	11,896
50452	12,242
50453	11,875
50454	11,854
50455	11,915
50456	12,242
50457	11,875
50458	11,854
50459	12,281
50460	11,913
50461	11,893
50462	11,974
50463	12,63
50464	13,063
50465	12,644
50466	12,695
50467	12,61
50468	13,025
50469	12,606
50470	12,63
50471	13,025
50472	12,606
50473	13,063
50474	12,644
50475	12,695
50476	14,441
50477	14,992
50478	14,356
50479	14,504
50480	14,428
50481	14,981
50482	14,331
50483	14,441
50484	14,981
50485	14,331
50486	14,992
50487	14,356
50488	14,504
50489	15,586
50490	15,517
50491	16,353
50492	15,616
50493	15,589
50494	15,525
50495	16,384
50496	15,586
50497	15,525
50498	16,384
50499	15,517
50500	16,353
50501	15,616
50502	13,482
50503	14,028
50504	13,545
50505	13,546
50506	13,465
50507	14,003
50508	13,514
50509	13,482
50510	14,003
50511	13,514
50512	14,028
50513	13,545
50514	13,546
50515	13,341
50516	13,818
50517	13,268
50518	13,407
50519	13,322
50520	13,788
50521	13,233
50522	13,341
50523	13,788
50524	13,233
50525	13,818
50526	13,268
50527	13,407
50528	12,617
50529	12,421
50530	12,807
50531	12,677
50532	12,599
50533	12,385
50534	12,774
50535	12,617
50536	12,385
50537	12,774
50538	12,421
50539	12,807
50540	12,677
50541	23,951
50542	23,746
50543	22,878
50544	23,886
50545	22,713
50546	24,248
50547	23,999
50548	23,526
50549	24,547
50550	23,951
50551	23,999
50552	23,526
50553	24,547
50554	23,746
50555	22,878
50556	23,886
50557	22,713
50558	14,338
50559	14,471
50560	14,759
50561	14,401
50562	14,325
50563	14,449
50564	14,742
50565	14,338
50566	14,449
50567	14,742
50568	14,471
50569	14,759
50570	14,401
50571	24,535
50572	24,263
50573	23,428
50574	24,333
50575	24,013
50576	24,535
50577	24,013
50578	24,263
50579	23,428
50580	23,747
50581	22,386
50582	22,686
50583	24,534
50584	22,849
50585	24,22
50586	23,089
50587	23,484
50588	24,68
50589	23,747
50590	23,089
50591	23,484
50592	24,68
50593	22,386
50594	22,686
50595	24,534
50596	22,849
50597	21,734
50598	20,694
50599	20,965
50600	21,664
50601	21,301
50602	21,958
50603	21,016
50604	21,446
50605	22,085
50606	21,734
50607	21,016
50608	21,446
50609	22,085
50610	20,694
50611	20,965
50612	21,664
50613	21,301
50614	19,978
50615	19,444
50616	19,214
50617	19,908
50618	20,074
50619	19,644
50620	19,322
50621	19,978
50622	19,644
50623	19,322
50624	19,444
50625	19,214
50626	19,908
50627	15,478
50628	15,108
50629	15,245
50630	15,942
50631	15,548
50632	15,455
50633	15,065
50634	15,202
50635	15,895
50636	15,478
50637	15,065
50638	15,202
50639	15,895
50640	15,108
50641	15,245
50642	15,942
50643	15,548
50644	14,696
50645	14,363
50646	14,489
50647	14,754
50648	14,676
50649	14,327
50650	14,452
50651	14,696
50652	14,327
50653	14,452
50654	14,363
50655	14,489
50656	14,754
50657	13,995
50658	13,692
50659	13,809
50660	14,043
50661	13,978
50662	13,662
50663	13,778
50664	13,995
50665	13,662
50666	13,778
50667	13,692
50668	13,809
50669	14,043
50670	13,36
50671	13,085
50672	13,194
50673	13,401
50674	13,347
50675	13,059
50676	13,168
50677	13,36
50678	13,059
50679	13,168
50680	13,085
50681	13,194
50682	13,401
50683	12,784
50684	12,531
50685	12,634
50686	12,901
50687	12,819
50688	12,772
50689	12,509
50690	12,611
50691	12,876
50692	12,784
50693	12,509
50694	12,611
50695	12,876
50696	12,531
50697	12,634
50698	12,901
50699	12,819
50700	12,257
50701	12,026
50702	12,123
50703	12,362
50704	12,289
50705	12,247
50706	12,006
50707	12,103
50708	12,34
50709	12,257
50710	12,006
50711	12,103
50712	12,34
50713	12,026
50714	12,123
50715	12,362
50716	12,289
50717	11,776
50718	11,564
50719	11,656
50720	11,869
50721	11,804
50722	11,766
50723	11,546
50724	11,637
50725	11,849
50726	11,776
50727	11,546
50728	11,637
50729	11,849
50730	11,564
50731	11,656
50732	11,869
50733	11,804
50734	11,335
50735	11,142
50736	11,229
50737	11,417
50738	11,361
50739	11,326
50740	11,125
50741	11,212
50742	11,399
50743	11,335
50744	11,125
50745	11,212
50746	11,399
50747	11,142
50748	11,229
50749	11,417
50750	11,361
50751	10,933
50752	10,757
50753	10,839
50754	11,003
50755	10,958
50756	10,925
50757	10,741
50758	10,823
50759	10,987
50760	10,933
50761	10,741
50762	10,823
50763	10,987
50764	10,757
50765	10,839
50766	11,003
50767	10,958
50768	10,567
50769	10,408
50770	10,485
50771	10,627
50772	10,59
50773	10,559
50774	10,393
50775	10,47
50776	10,611
50777	10,567
50778	10,393
50779	10,47
50780	10,611
50781	10,408
50782	10,485
50783	10,627
50784	10,59
50785	10,236
50786	10,094
50787	10,165
50788	10,286
50789	10,259
50790	10,229
50791	10,08
50792	10,151
50793	10,271
50794	10,236
50795	10,08
50796	10,151
50797	10,271
50798	10,094
50799	10,165
50800	10,286
50801	10,259
50802	9,9401
50803	9,8151
50804	9,8793
50805	9,9801
50806	9,9618
50807	9,9329
50808	9,8008
50809	9,8649
50810	9,9656
50811	9,9401
50812	9,8008
50813	9,8649
50814	9,9656
50815	9,8151
50816	9,8793
50817	9,9801
50818	9,9618
50819	9,6786
50820	9,5709
50821	9,6272
50822	9,7096
50823	9,6999
50824	9,6714
50825	9,5567
50826	9,613
50827	9,6954
50828	9,6786
50829	9,5567
50830	9,613
50831	9,6954
50832	9,5709
50833	9,6272
50834	9,7096
50835	9,6999
50836	9,4524
50837	9,3628
50838	9,4096
50839	9,4752
50840	9,4737
50841	9,4453
50842	9,3485
50843	9,3953
50844	9,4611
50845	9,4524
50846	9,3485
50847	9,3953
50848	9,4611
50849	9,3628
50850	9,4096
50851	9,4752
50852	9,4737
50853	9,2629
50854	9,1921
50855	9,2277
50856	9,2783
50857	9,2844
50858	9,2557
50859	9,1777
50860	9,2132
50861	9,2642
50862	9,2629
50863	9,1777
50864	9,2132
50865	9,2642
50866	9,1921
50867	9,2277
50868	9,2783
50869	9,2844
50870	9,1116
50871	9,0609
50872	9,083
50873	9,1208
50874	9,1336
50875	9,1043
50876	9,046
50877	9,0682
50878	9,1064
50879	9,1116
50880	9,046
50881	9,0682
50882	9,1064
50883	9,0609
50884	9,083
50885	9,1208
50886	9,1336
50887	9,0008
50888	8,9712
50889	8,9775
50890	9,0047
50891	9,0233
50892	8,9933
50893	8,9559
50894	8,9623
50895	8,99
50896	9,0008
50897	8,9559
50898	8,9623
50899	8,99
50900	8,9712
50901	8,9775
50902	9,0047
50903	9,0233
50904	8,9326
50905	8,9256
50906	8,9136
50907	8,9325
50908	8,956
50909	8,9248
50910	8,9096
50911	8,8978
50912	8,9173
50913	8,9326
50914	8,9096
50915	8,8978
50916	8,9173
50917	8,9256
50918	8,9136
50919	8,9325
50920	8,956
50921	8,9098
50922	8,9267
50923	8,8938
50924	8,9068
50925	8,9343
50926	8,9016
50927	8,9099
50928	8,8772
50929	8,8909
50930	8,9098
50931	8,9099
50932	8,8772
50933	8,8909
50934	8,9267
50935	8,8938
50936	8,9068
50937	8,9343
50938	8,9349
50939	8,9773
50940	8,9208
50941	8,9303
50942	8,9608
50943	8,9263
50944	8,9595
50945	8,9032
50946	8,9136
50947	8,9349
50948	8,9595
50949	8,9032
50950	8,9136
50951	8,9773
50952	8,9208
50953	8,9303
50954	8,9608
50955	9,0108
50956	9,0801
50957	8,9975
50958	9,0057
50959	9,0384
50960	9,0016
50961	9,061
50962	8,9787
50963	8,9879
50964	9,0108
50965	9,061
50966	8,9787
50967	8,9879
50968	9,0801
50969	8,9975
50970	9,0057
50971	9,0384
50972	9,1402
50973	9,2378
50974	9,1267
50975	9,1355
50976	9,1698
50977	9,1304
50978	9,2173
50979	9,1065
50980	9,1164
50981	9,1402
50982	9,2173
50983	9,1065
50984	9,1164
50985	9,2378
50986	9,1267
50987	9,1355
50988	9,1698
50989	9,3258
50990	9,4531
50991	9,3114
50992	9,3221
50993	9,3577
50994	9,3151
50995	9,431
50996	9,2897
50997	9,3015
50998	9,3258
50999	9,431
51000	9,2897
51001	9,3015
51002	9,4531
51003	9,3114
51004	9,3221
51005	9,3577
51006	9,5702
51007	9,7288
51008	9,5547
51009	9,5678
51010	9,6049
51011	9,5586
51012	9,7046
51013	9,5312
51014	9,5454
51015	9,5702
51016	9,7046
51017	9,5312
51018	9,5454
51019	9,7288
51020	9,5547
51021	9,5678
51022	9,6049
51023	9,8761
51024	10,068
51025	9,8599
51026	9,9141
51027	9,8635
51028	10,041
51029	9,8341
51030	9,8761
51031	10,041
51032	9,8341
51033	10,068
51034	9,8599
51035	9,9141
51036	10,247
51037	10,473
51038	10,23
51039	10,245
51040	10,288
51041	10,233
51042	10,443
51043	10,202
51044	10,218
51045	10,247
51046	10,443
51047	10,202
51048	10,218
51049	10,473
51050	10,23
51051	10,245
51052	10,288
51053	10,685
51054	10,671
51055	10,952
51056	10,731
51057	10,669
51058	10,64
51059	10,919
51060	10,685
51061	10,64
51062	10,919
51063	10,671
51064	10,952
51065	10,731
51066	11,829
51067	12,195
51068	11,821
51069	11,524
51070	11,887
51071	11,81
51072	12,155
51073	11,783
51074	11,487
51075	11,829
51076	12,155
51077	11,783
51078	11,487
51079	12,195
51080	11,821
51081	11,524
51082	11,887
51083	12,549
51084	12,551
51085	12,528
51086	12,968
51087	12,614
51088	12,529
51089	12,511
51090	12,486
51091	12,927
51092	12,549
51093	12,511
51094	12,486
51095	12,927
51096	12,551
51097	12,528
51098	12,968
51099	12,614
51100	13,298
51101	12,888
51102	13,351
51103	13,372
51104	13,275
51105	12,844
51106	13,309
51107	13,298
51108	12,844
51109	13,309
51110	12,888
51111	13,351
51112	13,372
51113	16,565
51114	16,161
51115	17,975
51116	15,635
51117	16,496
51118	17,407
51119	16,589
51120	16,198
51121	18,039
51122	15,661
51123	17,442
51124	16,565
51125	16,198
51126	18,039
51127	15,661
51128	17,442
51129	16,161
51130	17,975
51131	15,635
51132	16,496
51133	17,407
51134	23,801
51135	24,293
51136	22,78
51137	22,607
51138	23,761
51139	23,259
51140	22,981
51141	23,801
51142	23,259
51143	22,981
51144	24,293
51145	22,78
51146	22,607
51147	23,829
51148	23,961
51149	23,305
51150	23,143
51151	22,807
51152	22,369
51153	21,188
51154	23,829
51155	22,369
51156	21,188
51157	23,961
51158	23,305
51159	23,143
51160	16,755
51161	16,49
51162	18,18
51163	16,132
51164	16,419
51165	16,724
51166	16,778
51167	16,528
51168	18,253
51169	16,159
51170	16,459
51171	16,755
51172	16,528
51173	18,253
51174	16,159
51175	16,459
51176	16,49
51177	18,18
51178	16,132
51179	16,419
51180	16,724
51181	16,333
51182	17,046
51183	15,729
51184	15,936
51185	16,328
51186	16,348
51187	17,1
51188	15,745
51189	15,955
51190	16,333
51191	17,1
51192	15,745
51193	15,955
51194	17,046
51195	15,729
51196	15,936
51197	16,328
51198	22,475
51199	21,31
51200	21,938
51201	21,563
51202	22,827
51203	21,912
51204	22,536
51205	22,475
51206	21,912
51207	22,536
51208	21,31
51209	21,938
51210	21,563
51211	20,751
51212	19,767
51213	19,902
51214	20,298
51215	20,997
51216	20,118
51217	20,416
51218	20,751
51219	20,118
51220	20,416
51221	19,767
51222	19,902
51223	20,298
51224	19,134
51225	18,441
51226	18,412
51227	19,015
51228	19,236
51229	18,654
51230	18,539
51231	19,134
51232	18,654
51233	18,539
51234	18,441
51235	18,412
51236	19,015
51237	16,747
51238	16,293
51239	16,314
51240	17,275
51241	16,813
51242	16,737
51243	16,263
51244	16,301
51245	17,289
51246	16,747
51247	16,263
51248	16,301
51249	17,289
51250	16,293
51251	16,314
51252	17,275
51253	16,813
51254	15,809
51255	15,419
51256	15,45
51257	16,094
51258	15,879
51259	15,789
51260	15,38
51261	15,416
51262	16,051
51263	15,809
51264	15,38
51265	15,416
51266	16,051
51267	15,419
51268	15,45
51269	16,094
51270	15,879
51271	14,991
51272	14,645
51273	14,682
51274	15,246
51275	15,052
51276	14,971
51277	14,608
51278	14,646
51279	15,204
51280	14,991
51281	14,608
51282	14,646
51283	15,204
51284	14,645
51285	14,682
51286	15,246
51287	15,052
51288	14,263
51289	13,951
51290	13,992
51291	14,314
51292	14,245
51293	13,919
51294	13,96
51295	14,263
51296	13,919
51297	13,96
51298	13,951
51299	13,992
51300	14,314
51301	13,607
51302	13,324
51303	13,367
51304	13,651
51305	13,593
51306	13,297
51307	13,339
51308	13,607
51309	13,297
51310	13,339
51311	13,324
51312	13,367
51313	13,651
51314	13,013
51315	12,754
51316	12,798
51317	13,051
51318	13,001
51319	12,731
51320	12,774
51321	13,013
51322	12,731
51323	12,774
51324	12,754
51325	12,798
51326	13,051
51327	12,472
51328	12,235
51329	12,278
51330	12,505
51331	12,461
51332	12,214
51333	12,257
51334	12,472
51335	12,214
51336	12,257
51337	12,235
51338	12,278
51339	12,505
51340	11,977
51341	11,76
51342	11,802
51343	12,007
51344	11,968
51345	11,742
51346	11,784
51347	11,977
51348	11,742
51349	11,784
51350	11,76
51351	11,802
51352	12,007
51353	11,525
51354	11,327
51355	11,367
51356	11,552
51357	11,516
51358	11,31
51359	11,35
51360	11,525
51361	11,31
51362	11,35
51363	11,327
51364	11,367
51365	11,552
51366	11,112
51367	10,931
51368	10,969
51369	11,136
51370	11,103
51371	10,915
51372	10,953
51373	11,112
51374	10,915
51375	10,953
51376	10,931
51377	10,969
51378	11,136
51379	10,735
51380	10,571
51381	10,605
51382	10,758
51383	10,727
51384	10,555
51385	10,59
51386	10,735
51387	10,555
51388	10,59
51389	10,571
51390	10,605
51391	10,758
51392	10,392
51393	10,244
51394	10,275
51395	10,415
51396	10,385
51397	10,23
51398	10,261
51399	10,392
51400	10,23
51401	10,261
51402	10,244
51403	10,275
51404	10,415
51405	10,083
51406	9,9516
51407	9,978
51408	10,105
51409	10,076
51410	9,9373
51411	9,964
51412	10,083
51413	9,9373
51414	9,964
51415	9,9516
51416	9,978
51417	10,105
51418	9,8073
51419	9,6918
51420	9,7125
51421	9,8286
51422	9,8002
51423	9,6777
51424	9,6986
51425	9,8073
51426	9,6777
51427	9,6986
51428	9,6918
51429	9,7125
51430	9,8286
51431	9,5643
51432	9,4654
51433	9,479
51434	9,5855
51435	9,5572
51436	9,4512
51437	9,465
51438	9,5643
51439	9,4512
51440	9,465
51441	9,4654
51442	9,479
51443	9,5855
51444	9,3548
51445	9,2731
51446	9,278
51447	9,3762
51448	9,3477
51449	9,2587
51450	9,2639
51451	9,3548
51452	9,2587
51453	9,2639
51454	9,2731
51455	9,278
51456	9,3762
51457	9,18
51458	9,1162
51459	9,1105
51460	9,2018
51461	9,1728
51462	9,1015
51463	9,0961
51464	9,18
51465	9,1015
51466	9,0961
51467	9,1162
51468	9,1105
51469	9,2018
51470	9,0414
51471	8,9965
51472	8,9781
51473	9,0638
51474	9,034
51475	8,9813
51476	8,9632
51477	9,0414
51478	8,9813
51479	8,9632
51480	8,9965
51481	8,9781
51482	9,0638
51483	8,9408
51484	8,916
51485	8,8826
51486	8,964
51487	8,9331
51488	8,9002
51489	8,867
51490	8,9408
51491	8,9002
51492	8,867
51493	8,916
51494	8,8826
51495	8,964
51496	8,8805
51497	8,8771
51498	8,8261
51499	8,9047
51500	8,8724
51501	8,8605
51502	8,8098
51503	8,8805
51504	8,8605
51505	8,8098
51506	8,8771
51507	8,8261
51508	8,9047
51509	8,863
51510	8,8824
51511	8,8111
51512	8,8885
51513	8,8545
51514	8,8649
51515	8,7939
51516	8,863
51517	8,8649
51518	8,7939
51519	8,8824
51520	8,8111
51521	8,8885
51522	8,8911
51523	8,9348
51524	8,8405
51525	8,9181
51526	8,8821
51527	8,9162
51528	8,8223
51529	8,8911
51530	8,9162
51531	8,8223
51532	8,9348
51533	8,8405
51534	8,9181
51535	8,9676
51536	9,0373
51537	8,9172
51538	8,9965
51539	8,958
51540	9,0173
51541	8,8977
51542	8,9676
51543	9,0173
51544	8,8977
51545	9,0373
51546	8,9172
51547	8,9965
51548	9,0956
51549	9,1929
51550	9,0444
51551	9,1266
51552	9,0853
51553	9,1714
51554	9,0234
51555	9,0956
51556	9,1714
51557	9,0234
51558	9,1929
51559	9,0444
51560	9,1266
51561	9,2783
51562	9,405
51563	9,2254
51564	9,3118
51565	9,2672
51566	9,3818
51567	9,2028
51568	9,2783
51569	9,3818
51570	9,2028
51571	9,405
51572	9,2254
51573	9,3118
51574	9,5191
51575	9,6771
51576	9,464
51577	9,5553
51578	9,507
51579	9,6518
51580	9,4395
51581	9,5191
51582	9,6518
51583	9,4395
51584	9,6771
51585	9,464
51586	9,5553
51587	9,8216
51588	10,013
51589	9,7643
51590	9,8611
51591	9,8085
51592	9,9856
51593	9,7377
51594	9,8216
51595	9,9856
51596	9,7377
51597	10,013
51598	9,7643
51599	9,8611
51600	10,19
51601	10,415
51602	10,131
51603	10,227
51604	10,233
51605	10,176
51606	10,385
51607	10,102
51608	10,199
51609	10,19
51610	10,385
51611	10,102
51612	10,199
51613	10,415
51614	10,131
51615	10,227
51616	10,233
51617	10,624
51618	10,889
51619	10,568
51620	10,66
51621	10,671
51622	10,608
51623	10,857
51624	10,537
51625	10,628
51626	10,624
51627	10,857
51628	10,537
51629	10,628
51630	10,889
51631	10,568
51632	10,66
51633	10,671
51634	11,139
51635	11,455
51636	11,165
51637	11,084
51638	11,19
51639	11,122
51640	11,419
51641	11,131
51642	11,05
51643	11,139
51644	11,419
51645	11,131
51646	11,05
51647	11,455
51648	11,165
51649	11,084
51650	11,19
51651	12,39
51652	12,083
51653	12,796
51654	12,332
51655	12,45
51656	12,371
51657	12,045
51658	12,761
51659	12,297
51660	12,39
51661	12,045
51662	12,761
51663	12,297
51664	12,083
51665	12,796
51666	12,332
51667	12,45
51668	11,757
51669	11,761
51670	11,685
51671	11,814
51672	11,739
51673	11,724
51674	11,65
51675	11,757
51676	11,724
51677	11,65
51678	11,761
51679	11,685
51680	11,814
51681	16,938
51682	16,436
51683	17,892
51684	18,008
51685	16,242
51686	16,91
51687	16,961
51688	16,474
51689	17,963
51690	18,073
51691	16,275
51692	16,938
51693	16,474
51694	17,963
51695	18,073
51696	16,275
51697	16,436
51698	17,892
51699	18,008
51700	16,242
51701	16,91
51702	12,198
51703	12,297
51704	11,927
51705	12,227
51706	12,256
51707	12,179
51708	12,263
51709	11,89
51710	12,189
51711	12,198
51712	12,263
51713	11,89
51714	12,189
51715	12,297
51716	11,927
51717	12,227
51718	12,256
51719	10,585
51720	10,375
51721	10,534
51722	10,846
51723	10,632
51724	10,569
51725	10,345
51726	10,503
51727	10,813
51728	10,585
51729	10,345
51730	10,503
51731	10,813
51732	10,375
51733	10,534
51734	10,846
51735	10,632
51736	10,15
51737	9,9698
51738	10,1
51739	10,194
51740	10,136
51741	9,9421
51742	10,071
51743	10,15
51744	9,9421
51745	10,071
51746	9,9698
51747	10,1
51748	10,194
51749	9,7754
51750	9,6276
51751	9,7282
51752	9,8151
51753	9,7622
51754	9,6022
51755	9,7014
51756	9,7754
51757	9,6022
51758	9,7014
51759	9,6276
51760	9,7282
51761	9,8151
51762	9,4668
51763	9,3494
51764	9,4235
51765	9,5032
51766	9,4547
51767	9,3261
51768	9,3988
51769	9,4668
51770	9,3261
51771	9,3988
51772	9,3494
51773	9,4235
51774	9,5032
51775	9,2199
51776	9,131
51777	9,1806
51778	9,2535
51779	9,2087
51780	9,1095
51781	9,1578
51782	9,2199
51783	9,1095
51784	9,1578
51785	9,131
51786	9,1806
51787	9,2535
51788	9,0309
51789	8,9689
51790	8,9953
51791	9,062
51792	9,0205
51793	8,9489
51794	8,9742
51795	9,0309
51796	8,9489
51797	8,9742
51798	8,9689
51799	8,9953
51800	9,062
51801	8,8962
51802	8,8594
51803	8,8637
51804	8,9251
51805	8,8865
51806	8,8408
51807	8,844
51808	8,8962
51809	8,8408
51810	8,844
51811	8,8594
51812	8,8637
51813	8,9251
51814	8,8124
51815	8,7993
51816	8,7822
51817	8,8394
51818	8,8034
51819	8,7818
51820	8,7638
51821	8,8124
51822	8,7818
51823	8,7638
51824	8,7993
51825	8,7822
51826	8,8394
51827	8,7762
51828	8,7852
51829	8,7474
51830	8,8017
51831	8,7677
51832	8,7687
51833	8,7301
51834	8,7762
51835	8,7687
51836	8,7301
51837	8,7852
51838	8,7474
51839	8,8017
51840	8,7844
51841	8,814
51842	8,7561
51843	8,8085
51844	8,7764
51845	8,7983
51846	8,7397
51847	8,7844
51848	8,7983
51849	8,7397
51850	8,814
51851	8,7561
51852	8,8085
51853	8,8338
51854	8,8825
51855	8,805
51856	8,8568
51857	8,8262
51858	8,8675
51859	8,7894
51860	8,8338
51861	8,8675
51862	8,7894
51863	8,8825
51864	8,805
51865	8,8568
51866	8,9214
51867	8,9878
51868	8,8913
51869	8,9434
51870	8,9141
51871	8,9734
51872	8,8764
51873	8,9214
51874	8,9734
51875	8,8764
51876	8,9878
51877	8,8913
51878	8,9434
51879	9,0443
51880	9,1272
51881	9,0121
51882	9,0655
51883	9,0372
51884	9,1133
51885	8,9978
51886	9,0443
51887	9,1133
51888	8,9978
51889	9,1272
51890	9,0121
51891	9,0655
51892	9,2
51893	9,2982
51894	9,1651
51895	9,2206
51896	9,1931
51897	9,2846
51898	9,1512
51899	9,2
51900	9,2846
51901	9,1512
51902	9,2982
51903	9,1651
51904	9,2206
51905	9,3861
51906	9,4987
51907	9,3481
51908	9,4063
51909	9,3794
51910	9,4854
51911	9,3345
51912	9,3861
51913	9,4854
51914	9,3345
51915	9,4987
51916	9,3481
51917	9,4063
51918	9,6007
51919	9,727
51920	9,5592
51921	9,6206
51922	9,5941
51923	9,7138
51924	9,5459
51925	9,6007
51926	9,7138
51927	9,5459
51928	9,727
51929	9,5592
51930	9,6206
51931	9,8424
51932	9,9819
51933	9,7972
51934	9,8622
51935	9,8359
51936	9,9687
51937	9,784
51938	9,8424
51939	9,9687
51940	9,784
51941	9,9819
51942	9,7972
51943	9,8622
51944	10,11
51945	10,262
51946	10,061
51947	10,13
51948	10,104
51949	10,249
51950	10,048
51951	10,11
51952	10,249
51953	10,048
51954	10,262
51955	10,061
51956	10,13
51957	10,403
51958	10,568
51959	10,351
51960	10,423
51961	10,397
51962	10,555
51963	10,337
51964	10,403
51965	10,555
51966	10,337
51967	10,568
51968	10,351
51969	10,423
51970	10,722
51971	10,9
51972	10,666
51973	10,742
51974	10,715
51975	10,886
51976	10,652
51977	10,722
51978	10,886
51979	10,652
51980	10,9
51981	10,666
51982	10,742
51983	11,066
51984	11,259
51985	11,007
51986	11,087
51987	11,059
51988	11,244
51989	10,993
51990	11,066
51991	11,244
51992	10,993
51993	11,259
51994	11,007
51995	11,087
51996	11,438
51997	11,645
51998	11,377
51999	11,46
52000	11,43
52001	11,63
52002	11,363
52003	11,438
52004	11,63
52005	11,363
52006	11,645
52007	11,377
52008	11,46
52009	11,838
52010	12,062
52011	11,777
52012	11,861
52013	11,83
52014	12,045
52015	11,762
52016	11,838
52017	12,045
52018	11,762
52019	12,062
52020	11,777
52021	11,861
52022	12,27
52023	12,511
52024	12,21
52025	12,295
52026	12,261
52027	12,493
52028	12,194
52029	12,27
52030	12,493
52031	12,194
52032	12,511
52033	12,21
52034	12,295
52035	12,736
52036	12,997
52037	12,681
52038	12,764
52039	12,726
52040	12,977
52041	12,662
52042	12,736
52043	12,977
52044	12,662
52045	12,997
52046	12,681
52047	12,764
52048	13,238
52049	13,521
52050	13,192
52051	13,27
52052	13,228
52053	13,498
52054	13,171
52055	13,238
52056	13,498
52057	13,171
52058	13,521
52059	13,192
52060	13,27
52061	13,781
52062	14,086
52063	13,751
52064	13,818
52065	13,769
52066	14,06
52067	13,726
52068	13,781
52069	14,06
52070	13,726
52071	14,086
52072	13,751
52073	13,818
52074	14,366
52075	14,695
52076	14,36
52077	14,41
52078	14,352
52079	14,663
52080	14,33
52081	14,366
52082	14,663
52083	14,33
52084	14,695
52085	14,36
52086	14,41
52087	14,993
52088	15,344
52089	15,026
52090	15,046
52091	14,976
52092	15,304
52093	14,988
52094	14,993
52095	15,304
52096	14,988
52097	15,344
52098	15,026
52099	15,046
52100	15,658
52101	16,026
52102	15,751
52103	15,723
52104	15,636
52105	15,975
52106	15,702
52107	15,658
52108	15,975
52109	15,702
52110	16,026
52111	15,751
52112	15,723
52113	16,347
52114	16,726
52115	16,539
52116	16,432
52117	16,318
52118	16,658
52119	16,473
52120	16,347
52121	16,658
52122	16,473
52123	16,726
52124	16,539
52125	16,432
52126	17,045
52127	17,41
52128	17,387
52129	17,16
52130	17,006
52131	17,319
52132	17,297
52133	17,045
52134	17,319
52135	17,297
52136	17,41
52137	17,387
52138	17,16
52139	17,697
52140	17,855
52141	18,275
52142	17,857
52143	17,645
52144	17,752
52145	18,154
52146	17,697
52147	17,752
52148	18,154
52149	17,855
52150	18,275
52151	17,857
52152	17,941
52153	17,602
52154	18,948
52155	18,146
52156	17,89
52157	17,584
52158	18,822
52159	17,941
52160	17,584
52161	18,822
52162	17,602
52163	18,948
52164	18,146
52165	14,288
52166	14,894
52167	14,148
52168	14,341
52169	14,277
52170	14,888
52171	14,13
52172	14,288
52173	14,888
52174	14,13
52175	14,894
52176	14,148
52177	14,341
52178	12,633
52179	12,266
52180	12,598
52181	13,111
52182	12,692
52183	12,614
52184	12,229
52185	12,565
52186	13,079
52187	12,633
52188	12,229
52189	12,565
52190	13,079
52191	12,266
52192	12,598
52193	13,111
52194	12,692
52195	11,885
52196	11,579
52197	11,838
52198	11,943
52199	11,867
52200	11,543
52201	11,802
52202	11,885
52203	11,543
52204	11,802
52205	11,579
52206	11,838
52207	11,943
52208	11,257
52209	10,995
52210	11,205
52211	11,31
52212	11,24
52213	10,961
52214	11,17
52215	11,257
52216	10,961
52217	11,17
52218	10,995
52219	11,205
52220	11,31
52221	10,717
52222	10,496
52223	10,665
52224	10,766
52225	10,701
52226	10,466
52227	10,633
52228	10,717
52229	10,466
52230	10,633
52231	10,496
52232	10,665
52233	10,766
52234	10,26
52235	10,075
52236	10,209
52237	10,305
52238	10,245
52239	10,046
52240	10,179
52241	10,26
52242	10,046
52243	10,179
52244	10,075
52245	10,209
52246	10,305
52247	9,8742
52248	9,7205
52249	9,8259
52250	9,9148
52251	9,8606
52252	9,6945
52253	9,7984
52254	9,8742
52255	9,6945
52256	9,7984
52257	9,7205
52258	9,8259
52259	9,9148
52260	9,5531
52261	9,4292
52262	9,5086
52263	9,5904
52264	9,5407
52265	9,4053
52266	9,4833
52267	9,5531
52268	9,4053
52269	9,4833
52270	9,4292
52271	9,5086
52272	9,5904
52273	9,2926
52274	9,1967
52275	9,2521
52276	9,327
52277	9,2811
52278	9,1746
52279	9,2287
52280	9,2926
52281	9,1746
52282	9,2287
52283	9,1967
52284	9,2521
52285	9,327
52286	9,0889
52287	9,0194
52288	9,0522
52289	9,1208
52290	9,0783
52291	8,9988
52292	9,0305
52293	9,0889
52294	8,9988
52295	9,0305
52296	9,0194
52297	9,0522
52298	9,1208
52299	8,9386
52300	8,8938
52301	8,9051
52302	8,9682
52303	8,9287
52304	8,8747
52305	8,8849
52306	8,9386
52307	8,8747
52308	8,8849
52309	8,8938
52310	8,9051
52311	8,9682
52312	8,8384
52313	8,8169
52314	8,8074
52315	8,8661
52316	8,8291
52317	8,799
52318	8,7886
52319	8,8384
52320	8,799
52321	8,7886
52322	8,8169
52323	8,8074
52324	8,8661
52325	8,7851
52326	8,7855
52327	8,7559
52328	8,8112
52329	8,7765
52330	8,7686
52331	8,7382
52332	8,7851
52333	8,7686
52334	8,7382
52335	8,7855
52336	8,7559
52337	8,8112
52338	8,7758
52339	8,7966
52340	8,7474
52341	8,8004
52342	8,7676
52343	8,7806
52344	8,7307
52345	8,7758
52346	8,7806
52347	8,7307
52348	8,7966
52349	8,7474
52350	8,8004
52351	8,8073
52352	8,8471
52353	8,7789
52354	8,8308
52355	8,7995
52356	8,8318
52357	8,763
52358	8,8073
52359	8,8318
52360	8,763
52361	8,8471
52362	8,7789
52363	8,8308
52364	8,8768
52365	8,9342
52366	8,8474
52367	8,8993
52368	8,8694
52369	8,9196
52370	8,8322
52371	8,8768
52372	8,9196
52373	8,8322
52374	8,9342
52375	8,8474
52376	8,8993
52377	8,9815
52378	9,0553
52379	8,9504
52380	9,0031
52381	8,9744
52382	9,0412
52383	8,9359
52384	8,9815
52385	9,0412
52386	8,9359
52387	9,0553
52388	8,9504
52389	9,0031
52390	9,1189
52391	9,2079
52392	9,0854
52393	9,1398
52394	9,1119
52395	9,1942
52396	9,0713
52397	9,1189
52398	9,1942
52399	9,0713
52400	9,2079
52401	9,0854
52402	9,1398
52403	9,2866
52404	9,3899
52405	9,2503
52406	9,307
52407	9,2798
52408	9,3764
52409	9,2365
52410	9,2866
52411	9,3764
52412	9,2365
52413	9,3899
52414	9,2503
52415	9,307
52416	9,4826
52417	9,5994
52418	9,443
52419	9,5026
52420	9,4759
52421	9,5861
52422	9,4296
52423	9,4826
52424	9,5861
52425	9,4296
52426	9,5994
52427	9,443
52428	9,5026
52429	9,7053
52430	9,835
52431	9,6622
52432	9,7251
52433	9,6988
52434	9,8219
52435	9,649
52436	9,7053
52437	9,8219
52438	9,649
52439	9,835
52440	9,6622
52441	9,7251
52442	9,9536
52443	10,096
52444	9,9067
52445	9,9733
52446	9,947
52447	10,083
52448	9,8936
52449	9,9536
52450	10,083
52451	9,8936
52452	10,096
52453	9,9067
52454	9,9733
52455	10,226
52456	10,381
52457	10,176
52458	10,246
52459	10,22
52460	10,368
52461	10,163
52462	10,226
52463	10,368
52464	10,163
52465	10,381
52466	10,176
52467	10,246
52468	10,524
52469	10,691
52470	10,47
52471	10,544
52472	10,517
52473	10,677
52474	10,456
52475	10,524
52476	10,677
52477	10,456
52478	10,691
52479	10,47
52480	10,544
52481	10,846
52482	11,026
52483	10,789
52484	10,866
52485	10,839
52486	11,012
52487	10,775
52488	10,846
52489	11,012
52490	10,775
52491	11,026
52492	10,789
52493	10,866
52494	11,193
52495	11,386
52496	11,133
52497	11,214
52498	11,186
52499	11,372
52500	11,119
52501	11,193
52502	11,372
52503	11,119
52504	11,386
52505	11,133
52506	11,214
52507	11,566
52508	11,775
52509	11,506
52510	11,589
52511	11,559
52512	11,759
52513	11,491
52514	11,566
52515	11,759
52516	11,491
52517	11,775
52518	11,506
52519	11,589
52520	11,969
52521	12,193
52522	11,908
52523	11,993
52524	11,961
52525	12,177
52526	11,892
52527	11,969
52528	12,177
52529	11,892
52530	12,193
52531	11,908
52532	11,993
52533	12,402
52534	12,644
52535	12,343
52536	12,428
52537	12,393
52538	12,626
52539	12,326
52540	12,402
52541	12,626
52542	12,326
52543	12,644
52544	12,343
52545	12,428
52546	12,868
52547	13,13
52548	12,815
52549	12,898
52550	12,897
52551	12,859
52552	13,109
52553	12,796
52554	12,879
52555	12,868
52556	13,109
52557	12,796
52558	12,879
52559	13,13
52560	12,815
52561	12,898
52562	12,897
52563	13,372
52564	13,654
52565	13,329
52566	13,404
52567	13,361
52568	13,63
52569	13,307
52570	13,372
52571	13,63
52572	13,307
52573	13,654
52574	13,329
52575	13,404
52576	13,914
52577	14,218
52578	13,888
52579	13,952
52580	13,901
52581	14,191
52582	13,862
52583	13,914
52584	14,191
52585	13,862
52586	14,218
52587	13,888
52588	13,952
52589	14,497
52590	14,498
52591	14,824
52592	14,542
52593	14,482
52594	14,466
52595	14,79
52596	14,497
52597	14,466
52598	14,79
52599	14,498
52600	14,824
52601	14,542
52602	16,427
52603	16,637
52604	16,126
52605	16,775
52606	16,515
52607	16,397
52608	16,568
52609	16,073
52610	16,705
52611	16,427
52612	16,568
52613	16,073
52614	16,705
52615	16,637
52616	16,126
52617	16,775
52618	16,515
52619	14,592
52620	14,699
52621	15,218
52622	14,64
52623	14,584
52624	14,691
52625	15,221
52626	14,592
52627	14,691
52628	15,221
52629	14,699
52630	15,218
52631	14,64
52632	15,531
52633	16,339
52634	15,3
52635	15,549
52636	15,536
52637	16,372
52638	15,313
52639	15,531
52640	16,372
52641	15,313
52642	16,339
52643	15,3
52644	15,549
52645	12,964
52646	12,667
52647	13,324
52648	13,017
52649	12,95
52650	12,636
52651	13,3
52652	12,964
52653	12,636
52654	13,3
52655	12,667
52656	13,324
52657	13,017
52658	22,664
52659	22,498
52660	23,127
52661	21,807
52662	21,731
52663	22,098
52664	22,186
52665	21,744
52666	21,04
52667	22,664
52668	22,186
52669	21,744
52670	21,04
52671	22,498
52672	23,127
52673	21,807
52674	21,731
52675	22,522
52676	21,263
52677	21,344
52678	22,748
52679	21,52
52680	22,847
52681	21,936
52682	21,928
52683	23,238
52684	22,522
52685	21,936
52686	21,928
52687	23,238
52688	21,263
52689	21,344
52690	22,748
52691	21,52
52692	19,165
52693	18,441
52694	18,44
52695	19,776
52696	19,037
52697	19,268
52698	18,569
52699	18,655
52700	20,138
52701	19,165
52702	18,569
52703	18,655
52704	20,138
52705	18,441
52706	18,44
52707	19,776
52708	19,037
52709	17,845
52710	17,288
52711	17,299
52712	18,163
52713	17,868
52714	17,87
52715	17,303
52716	17,354
52717	18,2
52718	17,845
52719	17,303
52720	17,354
52721	18,2
52722	17,288
52723	17,299
52724	18,163
52725	17,868
52726	16,745
52727	16,291
52728	16,313
52729	17,055
52730	16,812
52731	16,735
52732	16,261
52733	16,299
52734	17,028
52735	16,745
52736	16,261
52737	16,299
52738	17,028
52739	16,291
52740	16,313
52741	17,055
52742	16,812
52743	15,807
52744	15,418
52745	15,448
52746	16,093
52747	15,878
52748	15,788
52749	15,378
52750	15,414
52751	16,049
52752	15,807
52753	15,378
52754	15,414
52755	16,049
52756	15,418
52757	15,448
52758	16,093
52759	15,878
52760	14,989
52761	14,643
52762	14,68
52763	15,051
52764	14,969
52765	14,606
52766	14,644
52767	14,989
52768	14,606
52769	14,644
52770	14,643
52771	14,68
52772	15,051
52773	14,261
52774	13,949
52775	13,99
52776	14,313
52777	14,244
52778	13,917
52779	13,958
52780	14,261
52781	13,917
52782	13,958
52783	13,949
52784	13,99
52785	14,313
52786	13,606
52787	13,322
52788	13,365
52789	13,649
52790	13,591
52791	13,295
52792	13,338
52793	13,606
52794	13,295
52795	13,338
52796	13,322
52797	13,365
52798	13,649
52799	13,012
52800	12,753
52801	12,796
52802	13,049
52803	12,999
52804	12,729
52805	12,773
52806	13,012
52807	12,729
52808	12,773
52809	12,753
52810	12,796
52811	13,049
52812	12,47
52813	12,233
52814	12,276
52815	12,503
52816	12,459
52817	12,213
52818	12,256
52819	12,47
52820	12,213
52821	12,256
52822	12,233
52823	12,276
52824	12,503
52825	11,976
52826	11,759
52827	11,801
52828	12,005
52829	11,966
52830	11,74
52831	11,782
52832	11,976
52833	11,74
52834	11,782
52835	11,759
52836	11,801
52837	12,005
52838	11,524
52839	11,325
52840	11,365
52841	11,55
52842	11,515
52843	11,308
52844	11,348
52845	11,524
52846	11,308
52847	11,348
52848	11,325
52849	11,365
52850	11,55
52851	11,11
52852	10,929
52853	10,967
52854	11,135
52855	11,102
52856	10,913
52857	10,951
52858	11,11
52859	10,913
52860	10,951
52861	10,929
52862	10,967
52863	11,135
52864	10,733
52865	10,569
52866	10,604
52867	10,757
52868	10,725
52869	10,554
52870	10,589
52871	10,733
52872	10,554
52873	10,589
52874	10,569
52875	10,604
52876	10,757
52877	10,391
52878	10,243
52879	10,274
52880	10,413
52881	10,383
52882	10,228
52883	10,26
52884	10,391
52885	10,228
52886	10,26
52887	10,243
52888	10,274
52889	10,413
52890	10,082
52891	9,9503
52892	9,9768
52893	10,104
52894	10,075
52895	9,936
52896	9,9627
52897	10,082
52898	9,936
52899	9,9627
52900	9,9503
52901	9,9768
52902	10,104
52903	9,806
52904	9,6906
52905	9,7113
52906	9,8273
52907	9,7989
52908	9,6765
52909	9,6974
52910	9,806
52911	9,6765
52912	9,6974
52913	9,6906
52914	9,7113
52915	9,8273
52916	9,5631
52917	9,4643
52918	9,4779
52919	9,5844
52920	9,5561
52921	9,4501
52922	9,464
52923	9,5631
52924	9,4501
52925	9,464
52926	9,4643
52927	9,4779
52928	9,5844
52929	9,3538
52930	9,2721
52931	9,277
52932	9,3752
52933	9,3467
52934	9,2578
52935	9,2629
52936	9,3538
52937	9,2578
52938	9,2629
52939	9,2721
52940	9,277
52941	9,3752
52942	9,1792
52943	9,1154
52944	9,1097
52945	9,2009
52946	9,1719
52947	9,1007
52948	9,0953
52949	9,1792
52950	9,1007
52951	9,0953
52952	9,1154
52953	9,1097
52954	9,2009
52955	9,0407
52956	8,9959
52957	8,9775
52958	9,0631
52959	9,0333
52960	8,9807
52961	8,9625
52962	9,0407
52963	8,9807
52964	8,9625
52965	8,9959
52966	8,9775
52967	9,0631
52968	8,9403
52969	8,9156
52970	8,8821
52971	8,9635
52972	8,9326
52973	8,8998
52974	8,8666
52975	8,9403
52976	8,8998
52977	8,8666
52978	8,9156
52979	8,8821
52980	8,9635
52981	8,8803
52982	8,877
52983	8,8258
52984	8,9045
52985	8,8722
52986	8,8604
52987	8,8095
52988	8,8803
52989	8,8604
52990	8,8095
52991	8,877
52992	8,8258
52993	8,9045
52994	8,863
52995	8,8826
52996	8,8112
52997	8,8886
52998	8,8545
52999	8,8651
53000	8,794
53001	8,863
53002	8,8651
53003	8,794
53004	8,8826
53005	8,8112
53006	8,8886
53007	8,8914
53008	8,9353
53009	8,8409
53010	8,9185
53011	8,8824
53012	8,9167
53013	8,8226
53014	8,8914
53015	8,9167
53016	8,8226
53017	8,9353
53018	8,8409
53019	8,9185
53020	8,9683
53021	9,0381
53022	8,9179
53023	8,9972
53024	8,9586
53025	9,0182
53026	8,8984
53027	8,9683
53028	9,0182
53029	8,8984
53030	9,0381
53031	8,9179
53032	8,9972
53033	9,0967
53034	9,1942
53035	9,0454
53036	9,1277
53037	9,0863
53038	9,1727
53039	9,0245
53040	9,0967
53041	9,1727
53042	9,0245
53043	9,1942
53044	9,0454
53045	9,1277
53046	9,2798
53047	9,4067
53048	9,2269
53049	9,3133
53050	9,2686
53051	9,3835
53052	9,2042
53053	9,2798
53054	9,3835
53055	9,2042
53056	9,4067
53057	9,2269
53058	9,3133
53059	9,521
53060	9,6793
53061	9,4659
53062	9,5573
53063	9,5089
53064	9,654
53065	9,4414
53066	9,521
53067	9,654
53068	9,4414
53069	9,6793
53070	9,4659
53071	9,5573
53072	9,8241
53073	10,016
53074	9,7667
53075	9,8636
53076	9,8109
53077	9,9883
53078	9,7401
53079	9,8241
53080	9,9883
53081	9,7401
53082	10,016
53083	9,7667
53084	9,8636
53085	10,193
53086	10,421
53087	10,134
53088	10,236
53089	10,179
53090	10,391
53091	10,105
53092	10,193
53093	10,391
53094	10,105
53095	10,421
53096	10,134
53097	10,236
53098	10,634
53099	10,906
53100	10,575
53101	10,681
53102	10,618
53103	10,873
53104	10,544
53105	10,634
53106	10,873
53107	10,544
53108	10,906
53109	10,575
53110	10,681
53111	11,163
53112	11,482
53113	11,197
53114	11,102
53115	11,215
53116	11,146
53117	11,446
53118	11,163
53119	11,068
53120	11,163
53121	11,446
53122	11,163
53123	11,068
53124	11,482
53125	11,197
53126	11,102
53127	11,215
53128	11,786
53129	12,162
53130	11,727
53131	11,843
53132	11,768
53133	12,124
53134	11,691
53135	11,786
53136	12,124
53137	11,691
53138	12,162
53139	11,727
53140	11,843
53141	12,527
53142	12,97
53143	12,478
53144	12,587
53145	12,508
53146	12,934
53147	12,443
53148	12,527
53149	12,934
53150	12,443
53151	12,97
53152	12,478
53153	12,587
53154	13,412
53155	13,969
53156	13,406
53157	13,389
53158	13,471
53159	13,395
53160	13,946
53161	13,37
53162	13,361
53163	13,412
53164	13,946
53165	13,37
53166	13,361
53167	13,969
53168	13,406
53169	13,389
53170	13,471
53171	14,547
53172	15,326
53173	14,578
53174	14,591
53175	14,54
53176	15,334
53177	14,572
53178	14,547
53179	15,334
53180	14,572
53181	15,326
53182	14,578
53183	14,591
53184	16,213
53185	15,681
53186	16,47
53187	16,209
53188	16,227
53189	15,691
53190	16,515
53191	16,213
53192	15,691
53193	16,515
53194	15,681
53195	16,47
53196	16,209
53197	16,142
53198	16,754
53199	15,602
53200	16,142
53201	16,157
53202	16,798
53203	15,614
53204	16,142
53205	16,798
53206	15,614
53207	16,754
53208	15,602
53209	16,142
53210	10,489
53211	10,278
53212	10,379
53213	10,755
53214	10,536
53215	10,473
53216	10,247
53217	10,348
53218	10,722
53219	10,489
53220	10,247
53221	10,348
53222	10,722
53223	10,278
53224	10,379
53225	10,755
53226	10,536
53227	10,05
53228	9,8763
53229	9,9433
53230	10,094
53231	10,036
53232	9,8482
53233	9,9141
53234	10,05
53235	9,8482
53236	9,9141
53237	9,8763
53238	9,9433
53239	10,094
53240	9,6863
53241	9,5455
53242	9,5832
53243	9,7268
53244	9,6728
53245	9,5196
53246	9,5561
53247	9,6863
53248	9,5196
53249	9,5561
53250	9,5455
53251	9,5832
53252	9,7268
53253	9,3894
53254	9,279
53255	9,2902
53256	9,4268
53257	9,3769
53258	9,255
53259	9,2652
53260	9,3894
53261	9,255
53262	9,2652
53263	9,279
53264	9,2902
53265	9,4268
53266	9,154
53267	9,0717
53268	9,0584
53269	9,1886
53270	9,1425
53271	9,0495
53272	9,0352
53273	9,154
53274	9,0495
53275	9,0352
53276	9,0717
53277	9,0584
53278	9,1886
53279	8,9755
53280	8,9193
53281	8,8828
53282	9,0075
53283	8,9648
53284	8,8987
53285	8,8613
53286	8,9755
53287	8,8987
53288	8,8613
53289	8,9193
53290	8,8828
53291	9,0075
53292	8,8499
53293	8,8182
53294	8,7591
53295	8,8797
53296	8,84
53297	8,799
53298	8,7391
53299	8,8499
53300	8,799
53301	8,7391
53302	8,8182
53303	8,7591
53304	8,8797
53305	8,7737
53306	8,7648
53307	8,6837
53308	8,8015
53309	8,7644
53310	8,7468
53311	8,6651
53312	8,7737
53313	8,7468
53314	8,6651
53315	8,7648
53316	8,6837
53317	8,8015
53318	8,7435
53319	8,7561
53320	8,6531
53321	8,7697
53322	8,7348
53323	8,7392
53324	8,6357
53325	8,7435
53326	8,7392
53327	8,6357
53328	8,7561
53329	8,6531
53330	8,7697
53331	8,7565
53332	8,7891
53333	8,6644
53334	8,7811
53335	8,7483
53336	8,773
53337	8,6479
53338	8,7565
53339	8,773
53340	8,6479
53341	8,7891
53342	8,6644
53343	8,7811
53344	8,8097
53345	8,8612
53346	8,7146
53347	8,8331
53348	8,8019
53349	8,8459
53350	8,6991
53351	8,8097
53352	8,8459
53353	8,6991
53354	8,8612
53355	8,7146
53356	8,8331
53357	8,9007
53358	8,97
53359	8,8014
53360	8,9232
53361	8,8933
53362	8,9553
53363	8,7866
53364	8,9007
53365	8,9553
53366	8,7866
53367	8,97
53368	8,8014
53369	8,9232
53370	9,0275
53371	9,1137
53372	8,9227
53373	9,0491
53374	9,0203
53375	9,0995
53376	8,9084
53377	9,0275
53378	9,0995
53379	8,9084
53380	9,1137
53381	8,9227
53382	9,0491
53383	9,188
53384	9,2906
53385	9,0765
53386	9,2091
53387	9,181
53388	9,2767
53389	9,0628
53390	9,188
53391	9,2767
53392	9,0628
53393	9,2906
53394	9,0765
53395	9,2091
53396	9,381
53397	9,4994
53398	9,2617
53399	9,4017
53400	9,3742
53401	9,4857
53402	9,2482
53403	9,381
53404	9,4857
53405	9,2482
53406	9,4994
53407	9,2617
53408	9,4017
53409	9,6055
53410	9,7394
53411	9,477
53412	9,626
53413	9,5987
53414	9,7257
53415	9,4637
53416	9,6055
53417	9,7257
53418	9,4637
53419	9,7394
53420	9,477
53421	9,626
53422	9,8608
53423	10,01
53424	9,722
53425	9,8814
53426	9,854
53427	9,9965
53428	9,7088
53429	9,8608
53430	9,9965
53431	9,7088
53432	10,01
53433	9,722
53434	9,8814
53435	10,147
53436	10,312
53437	9,9966
53438	10,168
53439	10,14
53440	10,298
53441	9,9832
53442	10,147
53443	10,298
53444	9,9832
53445	10,312
53446	9,9966
53447	10,168
53448	10,464
53449	10,646
53450	10,301
53451	10,486
53452	10,457
53453	10,631
53454	10,287
53455	10,464
53456	10,631
53457	10,287
53458	10,646
53459	10,301
53460	10,486
53461	10,814
53462	11,013
53463	10,636
53464	10,836
53465	10,806
53466	10,997
53467	10,621
53468	10,814
53469	10,997
53470	10,621
53471	11,013
53472	10,636
53473	10,836
53474	11,197
53475	11,414
53476	11,002
53477	11,221
53478	11,188
53479	11,397
53480	10,987
53481	11,197
53482	11,397
53483	10,987
53484	11,414
53485	11,002
53486	11,221
53487	11,615
53488	11,852
53489	11,402
53490	11,641
53491	11,606
53492	11,833
53493	11,386
53494	11,615
53495	11,833
53496	11,386
53497	11,852
53498	11,402
53499	11,641
53500	12,071
53501	12,33
53502	11,837
53503	12,1
53504	12,061
53505	12,309
53506	11,819
53507	12,071
53508	12,309
53509	11,819
53510	12,33
53511	11,837
53512	12,1
53513	12,568
53514	12,851
53515	12,309
53516	12,601
53517	12,557
53518	12,827
53519	12,289
53520	12,568
53521	12,827
53522	12,289
53523	12,851
53524	12,309
53525	12,601
53526	13,11
53527	13,42
53528	12,822
53529	13,147
53530	13,097
53531	13,393
53532	12,799
53533	13,11
53534	13,393
53535	12,799
53536	13,42
53537	12,822
53538	13,147
53539	13,703
53540	14,044
53541	13,379
53542	13,746
53543	13,688
53544	14,013
53545	13,352
53546	13,703
53547	14,013
53548	13,352
53549	14,044
53550	13,379
53551	13,746
53552	14,354
53553	14,731
53554	13,985
53555	14,405
53556	14,338
53557	14,701
53558	13,957
53559	14,354
53560	14,701
53561	13,957
53562	14,731
53563	13,985
53564	14,405
53565	15,078
53566	15,495
53567	14,648
53568	15,132
53569	15,063
53570	15,477
53571	14,624
53572	15,078
53573	15,477
53574	14,624
53575	15,495
53576	14,648
53577	15,132
53578	15,895
53579	16,355
53580	15,378
53581	15,94
53582	15,891
53583	16,382
53584	15,376
53585	15,895
53586	16,382
53587	15,376
53588	16,355
53589	15,378
53590	15,94
53591	16,842
53592	17,353
53593	16,192
53594	17,286
53595	16,835
53596	16,872
53597	17,494
53598	16,255
53599	17,34
53600	16,842
53601	17,494
53602	16,255
53603	17,34
53604	17,353
53605	16,192
53606	17,286
53607	16,835
53608	18,005
53609	18,623
53610	17,178
53611	17,844
53612	18,114
53613	19,003
53614	17,393
53615	18,005
53616	19,003
53617	17,393
53618	18,623
53619	17,178
53620	17,844
53621	19,62
53622	20,573
53623	18,475
53624	19,081
53625	19,888
53626	21,093
53627	18,964
53628	19,62
53629	21,093
53630	18,964
53631	20,573
53632	18,475
53633	19,081
53634	22,05
53635	20,333
53636	20,953
53637	22,3
53638	20,845
53639	22,05
53640	20,845
53641	20,333
53642	20,953
53643	12,367
53644	11,973
53645	12,256
53646	12,894
53647	12,419
53648	12,351
53649	11,94
53650	12,228
53651	12,871
53652	12,367
53653	11,94
53654	12,228
53655	12,871
53656	11,973
53657	12,256
53658	12,894
53659	12,419
53660	11,571
53661	11,275
53662	11,481
53663	11,615
53664	11,624
53665	11,554
53666	11,241
53667	11,448
53668	11,58
53669	11,571
53670	11,241
53671	11,448
53672	11,58
53673	11,275
53674	11,481
53675	11,615
53676	11,624
53677	10,963
53678	10,721
53679	10,868
53680	11,039
53681	11,014
53682	10,946
53683	10,688
53684	10,835
53685	11,005
53686	10,963
53687	10,688
53688	10,835
53689	11,005
53690	10,721
53691	10,868
53692	11,039
53693	11,014
53694	10,46
53695	10,252
53696	10,364
53697	10,508
53698	10,444
53699	10,222
53700	10,332
53701	10,46
53702	10,222
53703	10,332
53704	10,252
53705	10,364
53706	10,508
53707	10,028
53708	9,852
53709	9,9307
53710	10,072
53711	10,013
53712	9,8236
53713	9,9011
53714	10,028
53715	9,8236
53716	9,9011
53717	9,852
53718	9,9307
53719	10,072
53720	9,6606
53721	9,5183
53722	9,5691
53723	9,7016
53724	9,647
53725	9,4921
53726	9,5416
53727	9,6606
53728	9,4921
53729	9,5416
53730	9,5183
53731	9,5691
53732	9,7016
53733	9,361
53734	9,2492
53735	9,2753
53736	9,3989
53737	9,3484
53738	9,2249
53739	9,2498
53740	9,361
53741	9,2249
53742	9,2498
53743	9,2492
53744	9,2753
53745	9,3989
53746	9,1232
53747	9,0396
53748	9,043
53749	9,1583
53750	9,1115
53751	9,0171
53752	9,0193
53753	9,1232
53754	9,0171
53755	9,0193
53756	9,0396
53757	9,043
53758	9,1583
53759	8,9424
53760	8,885
53761	8,8672
53762	8,975
53763	8,9316
53764	8,8641
53765	8,8453
53766	8,9424
53767	8,8641
53768	8,8453
53769	8,885
53770	8,8672
53771	8,975
53772	8,8146
53773	8,7815
53774	8,7437
53775	8,8449
53776	8,8045
53777	8,762
53778	8,7232
53779	8,8146
53780	8,762
53781	8,7232
53782	8,7815
53783	8,7437
53784	8,8449
53785	8,7361
53786	8,7256
53787	8,6684
53788	8,7644
53789	8,7266
53790	8,7074
53791	8,6493
53792	8,7361
53793	8,7074
53794	8,6493
53795	8,7256
53796	8,6684
53797	8,7644
53798	8,7032
53799	8,7139
53800	8,638
53801	8,7298
53802	8,6944
53803	8,6967
53804	8,62
53805	8,7032
53806	8,6967
53807	8,62
53808	8,7139
53809	8,638
53810	8,7298
53811	8,7129
53812	8,7431
53813	8,6491
53814	8,738
53815	8,7045
53816	8,7268
53817	8,6321
53818	8,7129
53819	8,7268
53820	8,6321
53821	8,7431
53822	8,6491
53823	8,738
53824	8,7619
53825	8,8103
53826	8,6985
53827	8,7857
53828	8,7539
53829	8,7948
53830	8,6825
53831	8,7619
53832	8,7948
53833	8,6825
53834	8,8103
53835	8,6985
53836	8,7857
53837	8,8473
53838	8,9126
53839	8,7837
53840	8,87
53841	8,8397
53842	8,8978
53843	8,7684
53844	8,8473
53845	8,8978
53846	8,7684
53847	8,9126
53848	8,7837
53849	8,87
53850	8,9666
53851	9,0477
53852	8,9019
53853	8,9885
53854	8,9594
53855	9,0334
53856	8,8872
53857	8,9666
53858	9,0334
53859	8,8872
53860	9,0477
53861	8,9019
53862	8,9885
53863	9,1174
53864	9,2132
53865	9,0509
53866	9,1385
53867	9,1104
53868	9,1994
53869	9,0368
53870	9,1174
53871	9,1994
53872	9,0368
53873	9,2132
53874	9,0509
53875	9,1385
53876	9,2977
53877	9,4075
53878	9,2289
53879	9,3182
53880	9,2909
53881	9,394
53882	9,2152
53883	9,2977
53884	9,394
53885	9,2152
53886	9,4075
53887	9,2289
53888	9,3182
53889	9,5058
53890	9,629
53891	9,4343
53892	9,5259
53893	9,4991
53894	9,6157
53895	9,4209
53896	9,5058
53897	9,6157
53898	9,4209
53899	9,629
53900	9,4343
53901	9,5259
53902	9,7405
53903	9,8767
53904	9,6659
53905	9,7603
53906	9,7339
53907	9,8635
53908	9,6528
53909	9,7405
53910	9,8635
53911	9,6528
53912	9,8767
53913	9,6659
53914	9,7603
53915	10,001
53916	10,15
53917	9,9231
53918	10,021
53919	9,9945
53920	10,137
53921	9,9101
53922	10,001
53923	10,137
53924	9,9101
53925	10,15
53926	9,9231
53927	10,021
53928	10,287
53929	10,449
53930	10,206
53931	10,307
53932	10,281
53933	10,436
53934	10,193
53935	10,287
53936	10,436
53937	10,193
53938	10,449
53939	10,206
53940	10,307
53941	10,599
53942	10,775
53943	10,514
53944	10,619
53945	10,593
53946	10,762
53947	10,501
53948	10,599
53949	10,762
53950	10,501
53951	10,775
53952	10,514
53953	10,619
53954	10,939
53955	11,129
53956	10,85
53957	10,959
53958	10,932
53959	11,115
53960	10,837
53961	10,939
53962	11,115
53963	10,837
53964	11,129
53965	10,85
53966	10,959
53967	11,307
53968	11,513
53969	11,215
53970	11,328
53971	11,299
53972	11,499
53973	11,201
53974	11,307
53975	11,499
53976	11,201
53977	11,513
53978	11,215
53979	11,328
53980	11,706
53981	11,931
53982	11,613
53983	11,729
53984	11,698
53985	11,915
53986	11,598
53987	11,706
53988	11,915
53989	11,598
53990	11,931
53991	11,613
53992	11,729
53993	12,141
53994	12,386
53995	12,046
53996	12,166
53997	12,132
53998	12,369
53999	12,03
54000	12,141
54001	12,369
54002	12,03
54003	12,386
54004	12,046
54005	12,166
54006	12,615
54007	12,884
54008	12,521
54009	12,643
54010	12,605
54011	12,864
54012	12,503
54013	12,615
54014	12,864
54015	12,503
54016	12,884
54017	12,521
54018	12,643
54019	13,134
54020	13,432
54021	13,045
54022	13,167
54023	13,124
54024	13,408
54025	13,024
54026	13,134
54027	13,408
54028	13,024
54029	13,432
54030	13,045
54031	13,167
54032	13,706
54033	14,036
54034	13,626
54035	13,745
54036	13,693
54037	14,007
54038	13,6
54039	13,706
54040	14,007
54041	13,6
54042	14,036
54043	13,626
54044	13,745
54045	14,338
54046	14,705
54047	14,274
54048	14,385
54049	14,322
54050	14,669
54051	14,241
54052	14,338
54053	14,669
54054	14,241
54055	14,705
54056	14,274
54057	14,385
54058	15,038
54059	15,001
54060	15,449
54061	15,099
54062	15,017
54063	14,959
54064	15,402
54065	15,038
54066	14,959
54067	15,402
54068	15,001
54069	15,449
54070	15,099
54071	16,689
54072	16,772
54073	16,283
54074	17,219
54075	16,803
54076	16,652
54077	16,693
54078	16,218
54079	17,13
54080	16,689
54081	16,693
54082	16,218
54083	17,13
54084	16,772
54085	16,283
54086	17,219
54087	16,803
54088	17,228
54089	18,199
54090	17,026
54091	17,128
54092	17,189
54093	17,256
54094	18,278
54095	17,088
54096	17,183
54097	17,228
54098	18,278
54099	17,088
54100	17,183
54101	18,199
54102	17,026
54103	17,128
54104	17,189
54105	19,29
54106	19,917
54107	19,6
54108	19,182
54109	19,34
54110	20,021
54111	19,713
54112	19,29
54113	20,021
54114	19,713
54115	19,917
54116	19,6
54117	19,182
54118	13,185
54119	13,617
54120	13,01
54121	13,241
54122	13,169
54123	13,594
54124	12,979
54125	13,185
54126	13,594
54127	12,979
54128	13,617
54129	13,01
54130	13,241
54131	12,254
54132	12,185
54133	11,93
54134	12,548
54135	12,307
54136	12,237
54137	12,155
54138	11,896
54139	12,516
54140	12,254
54141	12,155
54142	11,896
54143	12,516
54144	12,185
54145	11,93
54146	12,548
54147	12,307
54148	14,037
54149	14,587
54150	13,57
54151	14,076
54152	14,03
54153	14,588
54154	13,556
54155	14,037
54156	14,588
54157	13,556
54158	14,587
54159	13,57
54160	14,076
54161	14,813
54162	15,659
54163	14,186
54164	14,856
54165	14,84
54166	14,814
54167	15,683
54168	14,173
54169	14,865
54170	14,813
54171	15,683
54172	14,173
54173	14,865
54174	15,659
54175	14,186
54176	14,856
54177	14,84
54178	13,53
54179	13,034
54180	13,422
54181	13,561
54182	14,208
54183	13,568
54184	13,522
54185	13,01
54186	13,41
54187	13,54
54188	14,208
54189	13,53
54190	13,01
54191	13,41
54192	13,54
54193	14,208
54194	13,034
54195	13,422
54196	13,561
54197	14,208
54198	13,568
54199	12,543
54200	12,159
54201	12,442
54202	12,595
54203	12,528
54204	12,127
54205	12,414
54206	12,543
54207	12,127
54208	12,414
54209	12,159
54210	12,442
54211	12,595
54212	11,766
54213	11,455
54214	11,663
54215	11,82
54216	11,749
54217	11,42
54218	11,63
54219	11,766
54220	11,42
54221	11,63
54222	11,455
54223	11,663
54224	11,82
54225	11,128
54226	10,867
54227	11,024
54228	11,18
54229	11,111
54230	10,834
54231	10,991
54232	11,128
54233	10,834
54234	10,991
54235	10,867
54236	11,024
54237	11,18
54238	10,589
54239	10,371
54240	10,487
54241	10,638
54242	10,573
54243	10,34
54244	10,455
54245	10,589
54246	10,34
54247	10,455
54248	10,371
54249	10,487
54250	10,638
54251	10,136
54252	9,9547
54253	10,038
54254	10,181
54255	10,121
54256	9,9257
54257	10,008
54258	10,136
54259	9,9257
54260	10,008
54261	9,9547
54262	10,038
54263	10,181
54264	9,7569
54265	9,6086
54266	9,6639
54267	9,7988
54268	9,743
54269	9,5817
54270	9,6358
54271	9,7569
54272	9,5817
54273	9,6358
54274	9,6086
54275	9,6639
54276	9,7988
54277	9,4445
54278	9,3263
54279	9,3571
54280	9,4833
54281	9,4316
54282	9,3014
54283	9,331
54284	9,4445
54285	9,3014
54286	9,331
54287	9,3263
54288	9,3571
54289	9,4833
54290	9,193
54291	9,1025
54292	9,1112
54293	9,229
54294	9,1811
54295	9,0794
54296	9,0869
54297	9,193
54298	9,0794
54299	9,0869
54300	9,1025
54301	9,1112
54302	9,229
54303	8,9978
54304	8,933
54305	8,921
54306	9,0312
54307	8,9867
54308	8,9115
54309	8,8985
54310	8,9978
54311	8,9115
54312	8,8985
54313	8,933
54314	8,921
54315	9,0312
54316	8,8547
54317	8,8139
54318	8,7824
54319	8,8858
54320	8,8444
54321	8,7939
54322	8,7614
54323	8,8547
54324	8,7939
54325	8,7614
54326	8,8139
54327	8,7824
54328	8,8858
54329	8,7603
54330	8,7419
54331	8,6915
54332	8,7893
54333	8,7506
54334	8,7231
54335	8,6719
54336	8,7603
54337	8,7231
54338	8,6719
54339	8,7419
54340	8,6915
54341	8,7893
54342	8,7111
54343	8,7135
54344	8,645
54345	8,7383
54346	8,702
54347	8,6959
54348	8,6266
54349	8,7111
54350	8,6959
54351	8,6266
54352	8,7135
54353	8,645
54354	8,7383
54355	8,7039
54356	8,7257
54357	8,6396
54358	8,7296
54359	8,6953
54360	8,7091
54361	8,6223
54362	8,7039
54363	8,7091
54364	8,6223
54365	8,7257
54366	8,6396
54367	8,7296
54368	8,7358
54369	8,7757
54370	8,6724
54371	8,7601
54372	8,7277
54373	8,7598
54374	8,656
54375	8,7358
54376	8,7598
54377	8,656
54378	8,7757
54379	8,6724
54380	8,7601
54381	8,8039
54382	8,8606
54383	8,7406
54384	8,8272
54385	8,7962
54386	8,8454
54387	8,7249
54388	8,8039
54389	8,8454
54390	8,7249
54391	8,8606
54392	8,7406
54393	8,8272
54394	8,9058
54395	8,978
54396	8,8416
54397	8,928
54398	8,8984
54399	8,9635
54400	8,8267
54401	8,9058
54402	8,9635
54403	8,8267
54404	8,978
54405	8,8416
54406	8,928
54407	9,0389
54408	9,1258
54409	8,9734
54410	9,0604
54411	9,0318
54412	9,1118
54413	8,959
54414	9,0389
54415	9,1118
54416	8,959
54417	9,1258
54418	8,9734
54419	9,0604
54420	9,2013
54421	9,302
54422	9,1338
54423	9,2221
54424	9,1944
54425	9,2883
54426	9,1199
54427	9,2013
54428	9,2883
54429	9,1199
54430	9,302
54431	9,1338
54432	9,2221
54433	9,3913
54434	9,5051
54435	9,3212
54436	9,4116
54437	9,3845
54438	9,4917
54439	9,3077
54440	9,3913
54441	9,4917
54442	9,3077
54443	9,5051
54444	9,3212
54445	9,4116
54446	9,6074
54447	9,7338
54448	9,5345
54449	9,6273
54450	9,6007
54451	9,7206
54452	9,5212
54453	9,6074
54454	9,7206
54455	9,5212
54456	9,7338
54457	9,5345
54458	9,6273
54459	9,8486
54460	9,9876
54461	9,7726
54462	9,8684
54463	9,8421
54464	9,9744
54465	9,7595
54466	9,8486
54467	9,9744
54468	9,7595
54469	9,9876
54470	9,7726
54471	9,8684
54472	10,115
54473	10,266
54474	10,035
54475	10,134
54476	10,108
54477	10,253
54478	10,022
54479	10,115
54480	10,253
54481	10,022
54482	10,266
54483	10,035
54484	10,134
54485	10,405
54486	10,569
54487	10,323
54488	10,425
54489	10,399
54490	10,556
54491	10,309
54492	10,405
54493	10,556
54494	10,309
54495	10,569
54496	10,323
54497	10,425
54498	10,721
54499	10,899
54500	10,635
54501	10,741
54502	10,715
54503	10,885
54504	10,622
54505	10,721
54506	10,885
54507	10,622
54508	10,899
54509	10,635
54510	10,741
54511	11,064
54512	11,256
54513	10,974
54514	11,085
54515	11,057
54516	11,242
54517	10,961
54518	11,064
54519	11,242
54520	10,961
54521	11,256
54522	10,974
54523	11,085
54524	11,435
54525	11,643
54526	11,343
54527	11,457
54528	11,427
54529	11,628
54530	11,329
54531	11,435
54532	11,628
54533	11,329
54534	11,643
54535	11,343
54536	11,457
54537	11,837
54538	12,064
54539	11,743
54540	11,861
54541	11,829
54542	12,047
54543	11,728
54544	11,837
54545	12,047
54546	11,728
54547	12,064
54548	11,743
54549	11,861
54550	12,274
54551	12,522
54552	12,18
54553	12,3
54554	12,266
54555	12,503
54556	12,163
54557	12,274
54558	12,503
54559	12,163
54560	12,522
54561	12,18
54562	12,3
54563	12,751
54564	13,023
54565	12,659
54566	12,78
54567	12,742
54568	13,002
54569	12,64
54570	12,751
54571	13,002
54572	12,64
54573	13,023
54574	12,659
54575	12,78
54576	13,274
54577	13,573
54578	13,186
54579	13,307
54580	13,262
54581	13,548
54582	13,164
54583	13,274
54584	13,548
54585	13,164
54586	13,573
54587	13,186
54588	13,307
54589	13,848
54590	14,179
54591	13,77
54592	13,888
54593	13,834
54594	14,149
54595	13,743
54596	13,848
54597	14,149
54598	13,743
54599	14,179
54600	13,77
54601	13,888
54602	14,481
54603	14,422
54604	14,85
54605	14,531
54606	14,464
54607	14,388
54608	14,812
54609	14,481
54610	14,388
54611	14,812
54612	14,422
54613	14,85
54614	14,531
54615	16,803
54616	17,313
54617	16,908
54618	16,414
54619	16,922
54620	16,764
54621	17,221
54622	16,826
54623	16,346
54624	16,803
54625	17,221
54626	16,826
54627	16,346
54628	17,313
54629	16,908
54630	16,414
54631	16,922
54632	17,738
54633	18,239
54634	17,431
54635	17,969
54636	17,907
54637	17,684
54638	18,119
54639	17,339
54640	17,857
54641	17,738
54642	18,119
54643	17,339
54644	17,857
54645	18,239
54646	17,431
54647	17,969
54648	17,907
54649	18,635
54650	18,907
54651	18,114
54652	19,119
54653	18,872
54654	18,568
54655	18,769
54656	17,999
54657	18,977
54658	18,635
54659	18,769
54660	17,999
54661	18,977
54662	18,907
54663	18,114
54664	19,119
54665	18,872
54666	19,074
54667	19,985
54668	19,012
54669	19,372
54670	19,003
54671	19,836
54672	18,898
54673	19,074
54674	19,836
54675	18,898
54676	19,985
54677	19,012
54678	19,372
54679	14,678
54680	15,303
54681	14,164
54682	14,696
54683	14,478
54684	14,702
54685	14,679
54686	15,32
54687	14,154
54688	14,705
54689	14,469
54690	14,678
54691	15,32
54692	14,154
54693	14,705
54694	14,469
54695	15,303
54696	14,164
54697	14,696
54698	14,478
54699	14,702
54700	15,998
54701	16,831
54702	16,193
54703	15,591
54704	15,986
54705	16,015
54706	16,886
54707	16,242
54708	15,608
54709	15,998
54710	16,886
54711	16,242
54712	15,608
54713	16,831
54714	16,193
54715	15,591
54716	15,986
54717	17,83
54718	18,507
54719	18,586
54720	17,759
54721	17,869
54722	18,604
54723	18,674
54724	17,83
54725	18,604
54726	18,674
54727	18,507
54728	18,586
54729	17,759
54730	13,673
54731	13,547
54732	13,658
54733	13,716
54734	13,664
54735	13,53
54736	13,634
54737	13,673
54738	13,53
54739	13,634
54740	13,547
54741	13,658
54742	13,716
54743	22,835
54744	21,706
54745	21,903
54746	23,058
54747	23,14
54748	21,439
54749	22,643
54750	21,864
54751	21,5
54752	21,964
54753	23,115
54754	22,835
54755	21,864
54756	21,5
54757	21,964
54758	23,115
54759	21,706
54760	21,903
54761	23,058
54762	23,14
54763	21,439
54764	20,757
54765	19,749
54766	19,415
54767	19,911
54768	21,108
54769	20,326
54770	20,064
54771	20,757
54772	20,326
54773	20,064
54774	19,749
54775	19,415
54776	19,911
54777	19,314
54778	18,476
54779	18,204
54780	19,762
54781	18,827
54782	19,537
54783	18,812
54784	18,625
54785	20,243
54786	19,314
54787	18,812
54788	18,625
54789	20,243
54790	18,476
54791	18,204
54792	19,762
54793	18,827
54794	17,974
54795	17,337
54796	17,117
54797	17,822
54798	18,085
54799	17,478
54800	17,328
54801	17,974
54802	17,478
54803	17,328
54804	17,337
54805	17,117
54806	17,822
54807	16,841
54808	16,354
54809	16,193
54810	16,834
54811	16,871
54812	16,38
54813	16,254
54814	16,841
54815	16,38
54816	16,254
54817	16,354
54818	16,193
54819	16,834
54820	15,894
54821	15,494
54822	15,377
54823	15,939
54824	15,89
54825	15,476
54826	15,375
54827	15,894
54828	15,476
54829	15,375
54830	15,494
54831	15,377
54832	15,939
54833	15,076
54834	14,73
54835	14,646
54836	15,131
54837	15,062
54838	14,699
54839	14,622
54840	15,076
54841	14,699
54842	14,622
54843	14,73
54844	14,646
54845	15,131
54846	14,353
54847	14,042
54848	13,983
54849	14,403
54850	14,337
54851	14,012
54852	13,955
54853	14,353
54854	14,012
54855	13,955
54856	14,042
54857	13,983
54858	14,403
54859	13,701
54860	13,418
54861	13,377
54862	13,745
54863	13,686
54864	13,391
54865	13,351
54866	13,701
54867	13,391
54868	13,351
54869	13,418
54870	13,377
54871	13,745
54872	13,108
54873	12,849
54874	12,82
54875	13,146
54876	13,096
54877	12,825
54878	12,797
54879	13,108
54880	12,825
54881	12,797
54882	12,849
54883	12,82
54884	13,146
54885	12,566
54886	12,328
54887	12,308
54888	12,599
54889	12,555
54890	12,307
54891	12,287
54892	12,566
54893	12,307
54894	12,287
54895	12,328
54896	12,308
54897	12,599
54898	12,069
54899	11,85
54900	11,835
54901	12,098
54902	12,06
54903	11,832
54904	11,817
54905	12,069
54906	11,832
54907	11,817
54908	11,85
54909	11,835
54910	12,098
54911	11,613
54912	11,413
54913	11,401
54914	11,64
54915	11,604
54916	11,396
54917	11,384
54918	11,613
54919	11,396
54920	11,384
54921	11,413
54922	11,401
54923	11,64
54924	11,195
54925	11,011
54926	11,001
54927	11,219
54928	11,187
54929	10,996
54930	10,986
54931	11,195
54932	10,996
54933	10,986
54934	11,011
54935	11,001
54936	11,219
54937	10,812
54938	10,645
54939	10,634
54940	10,835
54941	10,805
54942	10,63
54943	10,62
54944	10,812
54945	10,63
54946	10,62
54947	10,645
54948	10,634
54949	10,835
54950	10,463
54951	10,311
54952	10,3
54953	10,485
54954	10,456
54955	10,297
54956	10,286
54957	10,463
54958	10,297
54959	10,286
54960	10,311
54961	10,3
54962	10,485
54963	10,146
54964	10,009
54965	9,9953
54966	10,167
54967	10,139
54968	9,9953
54969	9,9819
54970	10,146
54971	9,9953
54972	9,9819
54973	10,009
54974	9,9953
54975	10,167
54976	9,8596
54977	9,7383
54978	9,7208
54979	9,8802
54980	9,8527
54981	9,7246
54982	9,7076
54983	9,8596
54984	9,7246
54985	9,7076
54986	9,7383
54987	9,7208
54988	9,8802
54989	9,6043
54990	9,4983
54991	9,4759
54992	9,6249
54993	9,5975
54994	9,4846
54995	9,4626
54996	9,6043
54997	9,4846
54998	9,4626
54999	9,4983
55000	9,4759
55001	9,6249
55002	9,38
55003	9,2896
55004	9,2606
55005	9,4007
55006	9,3731
55007	9,2757
55008	9,2472
55009	9,38
55010	9,2757
55011	9,2472
55012	9,2896
55013	9,2606
55014	9,4007
55015	9,1871
55016	9,1128
55017	9,0757
55018	9,2081
55019	9,1801
55020	9,0986
55021	9,0619
55022	9,1871
55023	9,0986
55024	9,0619
55025	9,1128
55026	9,0757
55027	9,2081
55028	9,0267
55029	8,9693
55030	8,9219
55031	9,0483
55032	9,0195
55033	8,9546
55034	8,9077
55035	9,0267
55036	8,9546
55037	8,9077
55038	8,9693
55039	8,9219
55040	9,0483
55041	8,9001
55042	8,8606
55043	8,8008
55044	8,9226
55045	8,8927
55046	8,8453
55047	8,786
55048	8,9001
55049	8,8453
55050	8,786
55051	8,8606
55052	8,8008
55053	8,9226
55054	8,8093
55055	8,7887
55056	8,7142
55057	8,8327
55058	8,8015
55059	8,7727
55060	8,6986
55061	8,8093
55062	8,7727
55063	8,6986
55064	8,7887
55065	8,7142
55066	8,8327
55067	8,7563
55068	8,756
55069	8,6642
55070	8,7809
55071	8,748
55072	8,7391
55073	8,6477
55074	8,7563
55075	8,7391
55076	8,6477
55077	8,756
55078	8,6642
55079	8,7809
55080	8,7436
55081	8,765
55082	8,6532
55083	8,7697
55084	8,7349
55085	8,747
55086	8,6357
55087	8,7436
55088	8,747
55089	8,6357
55090	8,765
55091	8,6532
55092	8,7697
55093	8,774
55094	8,8187
55095	8,684
55096	8,8019
55097	8,7647
55098	8,7995
55099	8,6654
55100	8,774
55101	8,7995
55102	8,6654
55103	8,8187
55104	8,684
55105	8,8019
55106	8,8506
55107	8,9202
55108	8,7598
55109	8,8804
55110	8,8406
55111	8,8996
55112	8,7398
55113	8,8506
55114	8,8996
55115	8,7398
55116	8,9202
55117	8,7598
55118	8,8804
55119	8,9765
55120	9,0729
55121	8,8838
55122	9,0086
55123	8,9658
55124	9,0507
55125	8,8623
55126	8,9765
55127	9,0507
55128	8,8623
55129	9,0729
55130	8,8838
55131	9,0086
55132	9,1554
55133	9,2807
55134	9,0598
55135	9,19
55136	9,1439
55137	9,2567
55138	9,0366
55139	9,1554
55140	9,2567
55141	9,0366
55142	9,2807
55143	9,0598
55144	9,19
55145	9,3913
55146	9,5477
55147	9,2921
55148	9,4287
55149	9,3788
55150	9,5217
55151	9,267
55152	9,3913
55153	9,5217
55154	9,267
55155	9,5477
55156	9,2921
55157	9,4287
55158	9,6887
55159	9,8791
55160	9,5856
55161	9,7292
55162	9,6752
55163	9,8509
55164	9,5585
55165	9,6887
55166	9,8509
55167	9,5585
55168	9,8791
55169	9,5856
55170	9,7292
55171	10,053
55172	10,281
55173	9,9463
55174	10,097
55175	10,039
55176	10,251
55177	9,9171
55178	10,053
55179	10,251
55180	9,9171
55181	10,281
55182	9,9463
55183	10,097
55184	10,492
55185	10,382
55186	10,763
55187	10,54
55188	10,477
55189	10,351
55190	10,73
55191	10,492
55192	10,351
55193	10,73
55194	10,382
55195	10,763
55196	10,54
55197	12,409
55198	12,303
55199	12,03
55200	12,881
55201	12,463
55202	12,392
55203	12,273
55204	11,996
55205	12,853
55206	12,409
55207	12,273
55208	11,996
55209	12,853
55210	12,303
55211	12,03
55212	12,881
55213	12,463
55214	14,624
55215	14,544
55216	13,974
55217	15,678
55218	14,646
55219	14,625
55220	14,552
55221	13,962
55222	15,71
55223	14,624
55224	14,552
55225	13,962
55226	15,71
55227	14,544
55228	13,974
55229	15,678
55230	14,646
55231	15,159
55232	16,031
55233	14,954
55234	15,164
55235	15,167
55236	16,073
55237	14,974
55238	15,159
55239	16,073
55240	14,974
55241	16,031
55242	14,954
55243	15,164
55244	16,988
55245	16,715
55246	18,464
55247	16,925
55248	17,022
55249	16,788
55250	18,562
55251	16,988
55252	16,788
55253	18,562
55254	16,715
55255	18,464
55256	16,925
55257	17,856
55258	17,063
55259	18,292
55260	16,613
55261	17,363
55262	18,075
55263	17,388
55264	18,78
55265	17,
55266	17,856
55267	17,388
55268	18,78
55269	17,
55270	17,063
55271	18,292
55272	16,613
55273	17,363
55274	16,596
55275	16,044
55276	15,69
55277	16,424
55278	16,7
55279	16,18
55280	15,882
55281	16,596
55282	16,18
55283	15,882
55284	16,044
55285	15,69
55286	16,424
55287	15,63
55288	15,238
55289	14,942
55290	15,602
55291	15,662
55292	15,271
55293	15,004
55294	15,63
55295	15,271
55296	15,004
55297	15,238
55298	14,942
55299	15,602
55300	14,879
55301	14,549
55302	14,316
55303	14,903
55304	14,881
55305	14,54
55306	14,323
55307	14,879
55308	14,54
55309	14,323
55310	14,549
55311	14,316
55312	14,903
55313	14,21
55314	13,917
55315	13,736
55316	14,248
55317	14,2
55318	13,895
55319	13,721
55320	14,21
55321	13,895
55322	13,721
55323	13,917
55324	13,736
55325	14,248
55326	13,601
55327	13,333
55328	13,19
55329	13,64
55330	13,589
55331	13,309
55332	13,17
55333	13,601
55334	13,309
55335	13,17
55336	13,333
55337	13,19
55338	13,64
55339	13,04
55340	12,791
55341	12,677
55342	13,075
55343	13,028
55344	12,769
55345	12,657
55346	13,04
55347	12,769
55348	12,657
55349	12,791
55350	12,677
55351	13,075
55352	12,52
55353	12,289
55354	12,195
55355	12,551
55356	12,51
55357	12,269
55358	12,177
55359	12,52
55360	12,269
55361	12,177
55362	12,289
55363	12,195
55364	12,551
55365	12,038
55366	11,824
55367	11,744
55368	12,066
55369	12,029
55370	11,806
55371	11,728
55372	12,038
55373	11,806
55374	11,728
55375	11,824
55376	11,744
55377	12,066
55378	11,591
55379	11,393
55380	11,324
55381	11,616
55382	11,583
55383	11,377
55384	11,308
55385	11,591
55386	11,377
55387	11,308
55388	11,393
55389	11,324
55390	11,616
55391	11,178
55392	10,995
55393	10,933
55394	11,201
55395	11,171
55396	10,98
55397	10,919
55398	11,178
55399	10,98
55400	10,919
55401	10,995
55402	10,933
55403	11,201
55404	10,797
55405	10,629
55406	10,571
55407	10,819
55408	10,79
55409	10,615
55410	10,558
55411	10,797
55412	10,615
55413	10,558
55414	10,629
55415	10,571
55416	10,819
55417	10,447
55418	10,294
55419	10,238
55420	10,468
55421	10,44
55422	10,28
55423	10,225
55424	10,447
55425	10,28
55426	10,225
55427	10,294
55428	10,238
55429	10,468
55430	10,127
55431	9,9872
55432	9,9318
55433	10,146
55434	10,12
55435	9,9742
55436	9,9196
55437	10,127
55438	9,9742
55439	9,9196
55440	9,9872
55441	9,9318
55442	10,146
55443	9,8351
55444	9,7096
55445	9,653
55446	9,8543
55447	9,8287
55448	9,6968
55449	9,6409
55450	9,8351
55451	9,6968
55452	9,6409
55453	9,7096
55454	9,653
55455	9,8543
55456	9,5718
55457	9,4602
55458	9,4009
55459	9,5909
55460	9,5654
55461	9,4474
55462	9,3887
55463	9,5718
55464	9,4474
55465	9,3887
55466	9,4602
55467	9,4009
55468	9,5909
55469	9,3366
55470	9,2392
55471	9,1755
55472	9,3559
55473	9,3302
55474	9,2262
55475	9,1631
55476	9,3366
55477	9,2262
55478	9,1631
55479	9,2392
55480	9,1755
55481	9,3559
55482	9,1298
55483	9,047
55484	8,977
55485	9,1495
55486	9,1233
55487	9,0336
55488	8,9643
55489	9,1298
55490	9,0336
55491	8,9643
55492	9,047
55493	8,977
55494	9,1495
55495	8,9521
55496	8,8842
55497	8,8062
55498	8,9724
55499	8,9453
55500	8,8704
55501	8,793
55502	8,9521
55503	8,8704
55504	8,793
55505	8,8842
55506	8,8062
55507	8,9724
55508	8,8043
55509	8,7523
55510	8,664
55511	8,8254
55512	8,7973
55513	8,7379
55514	8,6503
55515	8,8043
55516	8,7379
55517	8,6503
55518	8,7523
55519	8,664
55520	8,8254
55521	8,6879
55522	8,6526
55523	8,552
55524	8,71
55525	8,6805
55526	8,6374
55527	8,5375
55528	8,6879
55529	8,6374
55530	8,5375
55531	8,6526
55532	8,552
55533	8,71
55534	8,6047
55535	8,5871
55536	8,4718
55537	8,628
55538	8,5969
55539	8,5711
55540	8,4565
55541	8,6047
55542	8,5711
55543	8,4565
55544	8,5871
55545	8,4718
55546	8,628
55547	8,5567
55548	8,5582
55549	8,4255
55550	8,5814
55551	8,5485
55552	8,5412
55553	8,4092
55554	8,5567
55555	8,5412
55556	8,4092
55557	8,5582
55558	8,4255
55559	8,5814
55560	8,5465
55561	8,5685
55562	8,4157
55563	8,5728
55564	8,5377
55565	8,5503
55566	8,3982
55567	8,5465
55568	8,5503
55569	8,3982
55570	8,5685
55571	8,4157
55572	8,5728
55573	8,5767
55574	8,6208
55575	8,445
55576	8,6049
55577	8,5673
55578	8,6013
55579	8,4263
55580	8,5767
55581	8,6013
55582	8,4263
55583	8,6208
55584	8,445
55585	8,6049
55586	8,6506
55587	8,7185
55588	8,5167
55589	8,6809
55590	8,6405
55591	8,6976
55592	8,4966
55593	8,6506
55594	8,6976
55595	8,4966
55596	8,7185
55597	8,5167
55598	8,6809
55599	8,7715
55600	8,8653
55601	8,6343
55602	8,8042
55603	8,7607
55604	8,8427
55605	8,6125
55606	8,7715
55607	8,8427
55608	8,6125
55609	8,8653
55610	8,6343
55611	8,8042
55612	8,9434
55613	9,0652
55614	8,8017
55615	8,9786
55616	8,9317
55617	9,0408
55618	8,7782
55619	8,9434
55620	9,0408
55621	8,7782
55622	9,0652
55623	8,8017
55624	8,9786
55625	9,1707
55626	9,3232
55627	9,0237
55628	9,2087
55629	9,158
55630	9,2969
55631	8,9984
55632	9,1707
55633	9,2969
55634	8,9984
55635	9,3232
55636	9,0237
55637	9,2087
55638	9,4586
55639	9,6451
55640	9,3058
55641	9,4996
55642	9,445
55643	9,6168
55644	9,2785
55645	9,4586
55646	9,6168
55647	9,2785
55648	9,6451
55649	9,3058
55650	9,4996
55651	9,814
55652	10,038
55653	9,6548
55654	9,8579
55655	9,7993
55656	10,008
55657	9,6257
55658	9,814
55659	10,008
55660	9,6257
55661	10,038
55662	9,6548
55663	9,8579
55664	10,245
55665	10,509
55666	10,08
55667	10,292
55668	10,23
55669	10,477
55670	10,05
55671	10,245
55672	10,477
55673	10,05
55674	10,509
55675	10,08
55676	10,292
55677	10,755
55678	11,066
55679	10,891
55680	10,59
55681	10,804
55682	10,739
55683	11,034
55684	10,858
55685	10,559
55686	10,755
55687	11,034
55688	10,858
55689	10,559
55690	11,066
55691	10,891
55692	10,59
55693	10,804
55694	11,362
55695	11,735
55696	11,197
55697	11,488
55698	11,411
55699	11,346
55700	11,705
55701	11,167
55702	11,455
55703	11,362
55704	11,705
55705	11,167
55706	11,455
55707	11,735
55708	11,197
55709	11,488
55710	11,411
55711	12,097
55712	12,624
55713	11,958
55714	12,143
55715	12,083
55716	12,602
55717	11,933
55718	12,097
55719	12,602
55720	11,933
55721	12,624
55722	11,958
55723	12,143
55724	13,164
55725	13,957
55726	12,999
55727	13,003
55728	13,197
55729	13,157
55730	13,962
55731	12,989
55732	12,981
55733	13,164
55734	13,962
55735	12,989
55736	12,981
55737	13,957
55738	12,999
55739	13,003
55740	13,197
55741	17,439
55742	18,152
55743	18,339
55744	16,591
55745	17,39
55746	17,469
55747	18,23
55748	18,411
55749	16,632
55750	17,439
55751	18,23
55752	18,411
55753	16,632
55754	18,152
55755	18,339
55756	16,591
55757	17,39
55758	16,608
55759	17,714
55760	16,691
55761	16,236
55762	16,577
55763	16,632
55764	17,787
55765	16,751
55766	16,271
55767	16,608
55768	17,787
55769	16,751
55770	16,271
55771	17,714
55772	16,691
55773	16,236
55774	16,577
55775	19,077
55776	20,745
55777	17,814
55778	19,38
55779	18,971
55780	19,127
55781	20,858
55782	17,895
55783	19,498
55784	19,077
55785	20,858
55786	17,895
55787	19,498
55788	20,745
55789	17,814
55790	19,38
55791	18,971
55792	19,02
55793	19,382
55794	20,634
55795	18,913
55796	19,07
55797	19,498
55798	20,746
55799	19,02
55800	19,498
55801	20,746
55802	19,382
55803	20,634
55804	18,913
55805	21,19
55806	21,241
55807	22,452
55808	20,375
55809	20,559
55810	21,594
55811	21,107
55812	21,094
55813	22,356
55814	20,218
55815	20,405
55816	21,19
55817	21,094
55818	22,356
55819	20,218
55820	20,405
55821	21,241
55822	22,452
55823	20,375
55824	20,559
55825	21,594
55826	16,809
55827	16,341
55828	16,73
55829	17,451
55830	16,94
55831	16,767
55832	16,269
55833	16,647
55834	17,351
55835	16,809
55836	16,269
55837	16,647
55838	17,351
55839	16,341
55840	16,73
55841	17,451
55842	16,94
55843	15,802
55844	15,398
55845	15,698
55846	15,824
55847	15,893
55848	15,772
55849	15,346
55850	15,639
55851	15,767
55852	15,802
55853	15,346
55854	15,639
55855	15,767
55856	15,398
55857	15,698
55858	15,824
55859	15,893
55860	14,943
55861	14,587
55862	14,821
55863	15,009
55864	14,921
55865	14,549
55866	14,778
55867	14,943
55868	14,549
55869	14,778
55870	14,587
55871	14,821
55872	15,009
55873	14,193
55874	13,877
55875	14,062
55876	14,243
55877	14,177
55878	13,848
55879	14,029
55880	14,193
55881	13,848
55882	14,029
55883	13,877
55884	14,062
55885	14,243
55886	13,532
55887	13,25
55888	13,397
55889	13,571
55890	13,519
55891	13,227
55892	13,372
55893	13,532
55894	13,227
55895	13,372
55896	13,25
55897	13,397
55898	13,571
55899	12,945
55900	12,691
55901	12,81
55902	12,977
55903	12,934
55904	12,672
55905	12,789
55906	12,945
55907	12,672
55908	12,789
55909	12,691
55910	12,81
55911	12,977
55912	12,418
55913	12,189
55914	12,285
55915	12,445
55916	12,409
55917	12,172
55918	12,268
55919	12,418
55920	12,172
55921	12,268
55922	12,189
55923	12,285
55924	12,445
55925	11,943
55926	11,734
55927	11,813
55928	11,966
55929	11,935
55930	11,719
55931	11,798
55932	11,943
55933	11,719
55934	11,798
55935	11,734
55936	11,813
55937	11,966
55938	11,51
55939	11,319
55940	11,384
55941	11,532
55942	11,503
55943	11,305
55944	11,37
55945	11,51
55946	11,305
55947	11,37
55948	11,319
55949	11,384
55950	11,532
55951	11,115
55952	10,94
55953	10,993
55954	11,135
55955	11,108
55956	10,927
55957	10,98
55958	11,115
55959	10,927
55960	10,98
55961	10,94
55962	10,993
55963	11,135
55964	10,753
55965	10,592
55966	10,635
55967	10,772
55968	10,746
55969	10,579
55970	10,622
55971	10,753
55972	10,579
55973	10,622
55974	10,592
55975	10,635
55976	10,772
55977	10,42
55978	10,273
55979	10,306
55980	10,439
55981	10,413
55982	10,26
55983	10,293
55984	10,42
55985	10,26
55986	10,293
55987	10,273
55988	10,306
55989	10,439
55990	10,114
55991	9,9801
55992	10,003
55993	10,133
55994	10,108
55995	9,9672
55996	9,9909
55997	10,114
55998	9,9672
55999	9,9909
56000	9,9801
56001	10,003
56002	10,133
56003	9,8342
56004	9,7129
56005	9,7268
56006	9,8535
56007	9,8277
56008	9,7
56009	9,7141
56010	9,8342
56011	9,7
56012	9,7141
56013	9,7129
56014	9,7268
56015	9,8535
56016	9,5797
56017	9,4711
56018	9,475
56019	9,5993
56020	9,5732
56021	9,458
56022	9,4621
56023	9,5797
56024	9,458
56025	9,4621
56026	9,4711
56027	9,475
56028	9,5993
56029	9,3506
56030	9,255
56031	9,2481
56032	9,3706
56033	9,344
56034	9,2415
56035	9,2349
56036	9,3506
56037	9,2415
56038	9,2349
56039	9,255
56040	9,2481
56041	9,3706
56042	9,1474
56043	9,0653
56044	9,0466
56045	9,168
56046	9,1406
56047	9,0514
56048	9,033
56049	9,1474
56050	9,0514
56051	9,033
56052	9,0653
56053	9,0466
56054	9,168
56055	8,9712
56056	8,9033
56057	8,8715
56058	8,9924
56059	8,9641
56060	8,8888
56061	8,8574
56062	8,9712
56063	8,8888
56064	8,8574
56065	8,9033
56066	8,8715
56067	8,9924
56068	8,8232
56069	8,7706
56070	8,7242
56071	8,8454
56072	8,8159
56073	8,7555
56074	8,7094
56075	8,8232
56076	8,7555
56077	8,7094
56078	8,7706
56079	8,7242
56080	8,8454
56081	8,7055
56082	8,6691
56083	8,6063
56084	8,7287
56085	8,6978
56086	8,6533
56087	8,5908
56088	8,7055
56089	8,6533
56090	8,5908
56091	8,6691
56092	8,6063
56093	8,7287
56094	8,6201
56095	8,6012
56096	8,5199
56097	8,6445
56098	8,612
56099	8,5846
56100	8,5036
56101	8,6201
56102	8,5846
56103	8,5036
56104	8,6012
56105	8,5199
56106	8,6445
56107	8,5695
56108	8,5695
56109	8,4675
56110	8,5952
56111	8,5609
56112	8,5519
56113	8,4502
56114	8,5695
56115	8,5519
56116	8,4502
56117	8,5695
56118	8,4675
56119	8,5952
56120	8,5563
56121	8,5769
56122	8,4516
56123	8,5837
56124	8,5472
56125	8,5581
56126	8,4333
56127	8,5563
56128	8,5581
56129	8,4333
56130	8,5769
56131	8,4516
56132	8,5837
56133	8,5837
56134	8,6264
56135	8,4752
56136	8,6129
56137	8,574
56138	8,6063
56139	8,4557
56140	8,5837
56141	8,6063
56142	8,4557
56143	8,6264
56144	8,4752
56145	8,6129
56146	8,6549
56147	8,7216
56148	8,5417
56149	8,6862
56150	8,6445
56151	8,7
56152	8,5207
56153	8,6549
56154	8,7
56155	8,5207
56156	8,7216
56157	8,5417
56158	8,6862
56159	8,7734
56160	8,8662
56161	8,6546
56162	8,807
56163	8,7623
56164	8,843
56165	8,6321
56166	8,7734
56167	8,843
56168	8,6321
56169	8,8662
56170	8,6546
56171	8,807
56172	8,9434
56173	9,0645
56174	8,818
56175	8,9795
56176	8,9314
56177	9,0395
56178	8,7938
56179	8,9434
56180	9,0395
56181	8,7938
56182	9,0645
56183	8,818
56184	8,9795
56185	9,1692
56186	9,3212
56187	9,0366
56188	9,2081
56189	9,1563
56190	9,2944
56191	9,0106
56192	9,1692
56193	9,2944
56194	9,0106
56195	9,3212
56196	9,0366
56197	9,2081
56198	9,4563
56199	9,6425
56200	9,316
56201	9,4981
56202	9,4424
56203	9,6137
56204	9,2881
56205	9,4563
56206	9,6137
56207	9,2881
56208	9,6425
56209	9,316
56210	9,4981
56211	9,8114
56212	10,036
56213	9,6632
56214	9,8561
56215	9,7965
56216	10,005
56217	9,6335
56218	9,8114
56219	10,005
56220	9,6335
56221	10,036
56222	9,6632
56223	9,8561
56224	10,243
56225	10,504
56226	10,088
56227	10,291
56228	10,227
56229	10,472
56230	10,056
56231	10,243
56232	10,472
56233	10,056
56234	10,504
56235	10,088
56236	10,291
56237	10,748
56238	11,065
56239	10,594
56240	10,797
56241	10,732
56242	11,033
56243	10,562
56244	10,748
56245	11,033
56246	10,562
56247	11,065
56248	10,594
56249	10,797
56250	11,367
56251	11,753
56252	11,204
56253	11,416
56254	11,351
56255	11,724
56256	11,174
56257	11,367
56258	11,724
56259	11,174
56260	11,753
56261	11,204
56262	11,416
56263	12,13
56264	11,95
56265	12,599
56266	12,174
56267	12,117
56268	11,926
56269	12,582
56270	12,13
56271	11,926
56272	12,582
56273	11,95
56274	12,599
56275	12,174
56276	13,423
56277	14,064
56278	13,245
56279	13,456
56280	13,417
56281	14,066
56282	13,234
56283	13,423
56284	14,066
56285	13,234
56286	14,064
56287	13,245
56288	13,456
56289	14,744
56290	15,554
56291	14,584
56292	14,741
56293	14,754
56294	15,595
56295	14,607
56296	14,744
56297	15,595
56298	14,607
56299	15,554
56300	14,584
56301	14,741
56302	16,464
56303	17,805
56304	16,391
56305	16,404
56306	16,496
56307	17,896
56308	16,465
56309	16,464
56310	17,896
56311	16,465
56312	17,805
56313	16,391
56314	16,404
56315	19,342
56316	19,286
56317	21,22
56318	19,2
56319	19,401
56320	19,42
56321	21,35
56322	19,342
56323	19,42
56324	21,35
56325	19,286
56326	21,22
56327	19,2
56328	20,658
56329	19,333
56330	21,803
56331	19,662
56332	19,578
56333	20,448
56334	19,07
56335	20,865
56336	19,75
56337	20,658
56338	19,07
56339	20,865
56340	19,75
56341	19,333
56342	21,803
56343	19,662
56344	19,578
56345	15,63
56346	15,237
56347	14,938
56348	16,
56349	15,602
56350	15,662
56351	15,27
56352	15,
56353	16,131
56354	15,63
56355	15,27
56356	15,
56357	16,131
56358	15,237
56359	14,938
56360	16,
56361	15,602
56362	14,878
56363	14,547
56364	14,315
56365	14,901
56366	14,879
56367	14,539
56368	14,321
56369	14,878
56370	14,539
56371	14,321
56372	14,547
56373	14,315
56374	14,901
56375	14,209
56376	13,915
56377	13,735
56378	14,247
56379	14,199
56380	13,893
56381	13,72
56382	14,209
56383	13,893
56384	13,72
56385	13,915
56386	13,735
56387	14,247
56388	13,6
56389	13,331
56390	13,189
56391	13,638
56392	13,588
56393	13,307
56394	13,169
56395	13,6
56396	13,307
56397	13,169
56398	13,331
56399	13,189
56400	13,638
56401	13,039
56402	12,79
56403	12,676
56404	13,074
56405	13,027
56406	12,768
56407	12,656
56408	13,039
56409	12,768
56410	12,656
56411	12,79
56412	12,676
56413	13,074
56414	12,519
56415	12,288
56416	12,194
56417	12,55
56418	12,508
56419	12,268
56420	12,175
56421	12,519
56422	12,268
56423	12,175
56424	12,288
56425	12,194
56426	12,55
56427	12,037
56428	11,822
56429	11,743
56430	12,064
56431	12,027
56432	11,805
56433	11,726
56434	12,037
56435	11,805
56436	11,726
56437	11,822
56438	11,743
56439	12,064
56440	11,59
56441	11,391
56442	11,322
56443	11,615
56444	11,582
56445	11,375
56446	11,307
56447	11,59
56448	11,375
56449	11,307
56450	11,391
56451	11,322
56452	11,615
56453	11,177
56454	10,994
56455	10,932
56456	11,2
56457	11,169
56458	10,979
56459	10,917
56460	11,177
56461	10,979
56462	10,917
56463	10,994
56464	10,932
56465	11,2
56466	10,796
56467	10,628
56468	10,57
56469	10,817
56470	10,789
56471	10,614
56472	10,557
56473	10,796
56474	10,614
56475	10,557
56476	10,628
56477	10,57
56478	10,817
56479	10,446
56480	10,292
56481	10,236
56482	10,466
56483	10,439
56484	10,279
56485	10,224
56486	10,446
56487	10,279
56488	10,224
56489	10,292
56490	10,236
56491	10,466
56492	10,125
56493	9,986
56494	9,9306
56495	10,145
56496	10,119
56497	9,973
56498	9,9184
56499	10,125
56500	9,973
56501	9,9184
56502	9,986
56503	9,9306
56504	10,145
56505	9,8339
56506	9,7084
56507	9,6519
56508	9,8531
56509	9,8275
56510	9,6956
56511	9,6397
56512	9,8339
56513	9,6956
56514	9,6397
56515	9,7084
56516	9,6519
56517	9,8531
56518	9,5706
56519	9,4591
56520	9,3998
56521	9,5898
56522	9,5642
56523	9,4463
56524	9,3876
56525	9,5706
56526	9,4463
56527	9,3876
56528	9,4591
56529	9,3998
56530	9,5898
56531	9,3355
56532	9,2382
56533	9,1744
56534	9,3549
56535	9,3291
56536	9,2252
56537	9,1621
56538	9,3355
56539	9,2252
56540	9,1621
56541	9,2382
56542	9,1744
56543	9,3549
56544	9,1289
56545	9,0461
56546	8,9761
56547	9,1486
56548	9,1223
56549	9,0327
56550	8,9634
56551	9,1289
56552	9,0327
56553	8,9634
56554	9,0461
56555	8,9761
56556	9,1486
56557	8,9512
56558	8,8835
56559	8,8053
56560	8,9715
56561	8,9444
56562	8,8697
56563	8,7922
56564	8,9512
56565	8,8697
56566	8,7922
56567	8,8835
56568	8,8053
56569	8,9715
56570	8,8036
56571	8,7516
56572	8,6633
56573	8,8247
56574	8,7965
56575	8,7372
56576	8,6496
56577	8,8036
56578	8,7372
56579	8,6496
56580	8,7516
56581	8,6633
56582	8,8247
56583	8,6873
56584	8,6521
56585	8,5514
56586	8,7094
56587	8,68
56588	8,637
56589	8,537
56590	8,6873
56591	8,637
56592	8,537
56593	8,6521
56594	8,5514
56595	8,7094
56596	8,6043
56597	8,5869
56598	8,4714
56599	8,6276
56600	8,5965
56601	8,5709
56602	8,4561
56603	8,6043
56604	8,5709
56605	8,4561
56606	8,5869
56607	8,4714
56608	8,6276
56609	8,5565
56610	8,5582
56611	8,4254
56612	8,5812
56613	8,5483
56614	8,5412
56615	8,409
56616	8,5565
56617	8,5412
56618	8,409
56619	8,5582
56620	8,4254
56621	8,5812
56622	8,5465
56623	8,5687
56624	8,4157
56625	8,5729
56626	8,5378
56627	8,5505
56628	8,3983
56629	8,5465
56630	8,5505
56631	8,3983
56632	8,5687
56633	8,4157
56634	8,5729
56635	8,577
56636	8,6213
56637	8,4453
56638	8,6053
56639	8,5677
56640	8,6018
56641	8,4266
56642	8,577
56643	8,6018
56644	8,4266
56645	8,6213
56646	8,4453
56647	8,6053
56648	8,6512
56649	8,7194
56650	8,5173
56651	8,6815
56652	8,6411
56653	8,6984
56654	8,4972
56655	8,6512
56656	8,6984
56657	8,4972
56658	8,7194
56659	8,5173
56660	8,6815
56661	8,7725
56662	8,8665
56663	8,6352
56664	8,8052
56665	8,7616
56666	8,8439
56667	8,6135
56668	8,7725
56669	8,8439
56670	8,6135
56671	8,8665
56672	8,6352
56673	8,8052
56674	8,9448
56675	9,0669
56676	8,8031
56677	8,9801
56678	8,9331
56679	9,0425
56680	8,7796
56681	8,9448
56682	9,0425
56683	8,7796
56684	9,0669
56685	8,8031
56686	8,9801
56687	9,1725
56688	9,3253
56689	9,0255
56690	9,2106
56691	9,1599
56692	9,299
56693	9,0002
56694	9,1725
56695	9,299
56696	9,0002
56697	9,3253
56698	9,0255
56699	9,2106
56700	9,461
56701	9,6478
56702	9,3081
56703	9,502
56704	9,4474
56705	9,6194
56706	9,2808
56707	9,461
56708	9,6194
56709	9,2808
56710	9,6478
56711	9,3081
56712	9,502
56713	9,8169
56714	10,042
56715	9,6578
56716	9,8609
56717	9,8023
56718	10,012
56719	9,6286
56720	9,8169
56721	10,012
56722	9,6286
56723	10,042
56724	9,6578
56725	9,8609
56726	10,249
56727	10,519
56728	10,084
56729	10,296
56730	10,234
56731	10,487
56732	10,053
56733	10,249
56734	10,487
56735	10,053
56736	10,519
56737	10,084
56738	10,296
56739	12,181
56740	12,67
56741	12,002
56742	11,796
56743	12,226
56744	12,167
56745	12,649
56746	11,978
56747	11,766
56748	12,181
56749	12,649
56750	11,978
56751	11,766
56752	12,67
56753	12,002
56754	11,796
56755	12,226
56756	13,166
56757	13,813
56758	12,985
56759	13,262
56760	13,198
56761	13,159
56762	13,814
56763	12,975
56764	13,243
56765	13,166
56766	13,814
56767	12,975
56768	13,243
56769	13,813
56770	12,985
56771	13,262
56772	13,198
56773	14,498
56774	15,45
56775	14,299
56776	14,497
56777	14,507
56778	15,496
56779	14,321
56780	14,498
56781	15,496
56782	14,321
56783	15,45
56784	14,299
56785	14,497
56786	16,501
56787	16,242
56788	16,612
56789	18,148
56790	16,425
56791	16,538
56792	16,321
56793	16,68
56794	18,256
56795	16,501
56796	16,321
56797	16,68
56798	18,256
56799	16,242
56800	16,612
56801	18,148
56802	16,425
56803	13,32
56804	13,986
56805	13,123
56806	12,819
56807	13,344
56808	13,316
56809	13,997
56810	13,119
56811	12,802
56812	13,32
56813	13,997
56814	13,119
56815	12,802
56816	13,986
56817	13,123
56818	12,819
56819	13,344
56820	11,538
56821	11,224
56822	11,372
56823	11,935
56824	11,587
56825	11,522
56826	11,192
56827	11,343
56828	11,907
56829	11,538
56830	11,192
56831	11,343
56832	11,907
56833	11,224
56834	11,372
56835	11,935
56836	11,587
56837	10,897
56838	10,637
56839	10,733
56840	10,946
56841	10,88
56842	10,605
56843	10,701
56844	10,897
56845	10,605
56846	10,701
56847	10,637
56848	10,733
56849	10,946
56850	10,361
56851	10,148
56852	10,204
56853	10,409
56854	10,346
56855	10,117
56856	10,172
56857	10,361
56858	10,117
56859	10,172
56860	10,148
56861	10,204
56862	10,409
56863	9,9168
56864	9,742
56865	9,7667
56866	9,9623
56867	9,9017
56868	9,7127
56869	9,7365
56870	9,9168
56871	9,7127
56872	9,7365
56873	9,742
56874	9,7667
56875	9,9623
56876	9,5492
56877	9,4079
56878	9,4067
56879	9,5918
56880	9,535
56881	9,3804
56882	9,3783
56883	9,5492
56884	9,3804
56885	9,3783
56886	9,4079
56887	9,4067
56888	9,5918
56889	9,249
56890	9,1377
56891	9,1142
56892	9,2888
56893	9,2358
56894	9,1121
56895	9,0876
56896	9,249
56897	9,1121
56898	9,0876
56899	9,1377
56900	9,1142
56901	9,2888
56902	9,0095
56903	8,9255
56904	8,8819
56905	9,0465
56906	8,9972
56907	8,9017
56908	8,8571
56909	9,0095
56910	8,9017
56911	8,8571
56912	8,9255
56913	8,8819
56914	9,0465
56915	8,8253
56916	8,7663
56917	8,7044
56918	8,8597
56919	8,8138
56920	8,7441
56921	8,6813
56922	8,8253
56923	8,7441
56924	8,6813
56925	8,7663
56926	8,7044
56927	8,8597
56928	8,6919
56929	8,656
56930	8,5768
56931	8,724
56932	8,6812
56933	8,6353
56934	8,5553
56935	8,6919
56936	8,6353
56937	8,5553
56938	8,656
56939	8,5768
56940	8,724
56941	8,6054
56942	8,5909
56943	8,4952
56944	8,6353
56945	8,5954
56946	8,5716
56947	8,4752
56948	8,6054
56949	8,5716
56950	8,4752
56951	8,5909
56952	8,4952
56953	8,6353
56954	8,5622
56955	8,5676
56956	8,4561
56957	8,5903
56958	8,5529
56959	8,5494
56960	8,4373
56961	8,5622
56962	8,5494
56963	8,4373
56964	8,5676
56965	8,4561
56966	8,5903
56967	8,5593
56968	8,583
56969	8,4563
56970	8,5857
56971	8,5505
56972	8,5659
56973	8,4386
56974	8,5593
56975	8,5659
56976	8,4386
56977	8,583
56978	8,4563
56979	8,5857
56980	8,5936
56981	8,6344
56982	8,4927
56983	8,6185
56984	8,5853
56985	8,6182
56986	8,476
56987	8,5936
56988	8,6182
56989	8,476
56990	8,6344
56991	8,4927
56992	8,6185
56993	8,6624
56994	8,7191
56995	8,5628
56996	8,6861
56997	8,6545
56998	8,7037
56999	8,547
57000	8,6624
57001	8,7037
57002	8,547
57003	8,7191
57004	8,5628
57005	8,6861
57006	8,7633
57007	8,835
57008	8,6643
57009	8,7859
57010	8,7558
57011	8,8202
57012	8,6492
57013	8,7633
57014	8,8202
57015	8,6492
57016	8,835
57017	8,6643
57018	8,7859
57019	8,8942
57020	8,9798
57021	8,795
57022	8,9159
57023	8,887
57024	8,9656
57025	8,7805
57026	8,8942
57027	8,9656
57028	8,7805
57029	8,9798
57030	8,795
57031	8,9159
57032	9,0532
57033	9,1521
57034	8,9531
57035	9,0741
57036	9,0463
57037	9,1383
57038	8,9392
57039	9,0532
57040	9,1383
57041	8,9392
57042	9,1521
57043	8,9531
57044	9,0741
57045	9,2388
57046	9,3503
57047	9,1373
57048	9,2591
57049	9,232
57050	9,3369
57051	9,1238
57052	9,2388
57053	9,3369
57054	9,1238
57055	9,3503
57056	9,1373
57057	9,2591
57058	9,4497
57059	9,5735
57060	9,3463
57061	9,4695
57062	9,4432
57063	9,5604
57064	9,3332
57065	9,4497
57066	9,5604
57067	9,3332
57068	9,5735
57069	9,3463
57070	9,4695
57071	9,6853
57072	9,8212
57073	9,5795
57074	9,7047
57075	9,6788
57076	9,8083
57077	9,5667
57078	9,6853
57079	9,8083
57080	9,5667
57081	9,8212
57082	9,5795
57083	9,7047
57084	9,9451
57085	10,093
57086	9,8365
57087	9,9644
57088	9,9387
57089	10,081
57090	9,8239
57091	9,9451
57092	10,081
57093	9,8239
57094	10,093
57095	9,8365
57096	9,9644
57097	10,229
57098	10,39
57099	10,118
57100	10,249
57101	10,223
57102	10,378
57103	10,105
57104	10,229
57105	10,378
57106	10,105
57107	10,39
57108	10,118
57109	10,249
57110	10,539
57111	10,714
57112	10,424
57113	10,559
57114	10,533
57115	10,701
57116	10,411
57117	10,539
57118	10,701
57119	10,411
57120	10,714
57121	10,424
57122	10,559
57123	10,876
57124	11,065
57125	10,757
57126	10,896
57127	10,869
57128	11,052
57129	10,744
57130	10,876
57131	11,052
57132	10,744
57133	11,065
57134	10,757
57135	10,896
57136	11,242
57137	11,448
57138	11,119
57139	11,262
57140	11,235
57141	11,434
57142	11,105
57143	11,242
57144	11,434
57145	11,105
57146	11,448
57147	11,119
57148	11,262
57149	11,64
57150	11,866
57151	11,513
57152	11,663
57153	11,633
57154	11,85
57155	11,499
57156	11,64
57157	11,85
57158	11,499
57159	11,866
57160	11,513
57161	11,663
57162	12,076
57163	12,325
57164	11,946
57165	12,101
57166	12,068
57167	12,307
57168	11,93
57169	12,076
57170	12,307
57171	11,93
57172	12,325
57173	11,946
57174	12,101
57175	12,556
57176	12,832
57177	12,422
57178	12,584
57179	12,547
57180	12,811
57181	12,404
57182	12,556
57183	12,811
57184	12,404
57185	12,832
57186	12,422
57187	12,584
57188	13,087
57189	13,395
57190	12,952
57191	13,12
57192	13,076
57193	13,371
57194	12,93
57195	13,087
57196	13,371
57197	12,93
57198	13,395
57199	12,952
57200	13,12
57201	13,679
57202	14,028
57203	13,545
57204	13,72
57205	13,666
57206	13,997
57207	13,518
57208	13,679
57209	13,997
57210	13,518
57211	14,028
57212	13,545
57213	13,72
57214	14,345
57215	14,743
57216	14,215
57217	14,398
57218	14,328
57219	14,702
57220	14,181
57221	14,345
57222	14,702
57223	14,181
57224	14,743
57225	14,215
57226	14,398
57227	15,101
57228	15,56
57229	14,982
57230	15,154
57231	15,171
57232	15,078
57233	15,505
57234	14,936
57235	15,109
57236	15,101
57237	15,505
57238	14,936
57239	15,109
57240	15,56
57241	14,982
57242	15,154
57243	15,171
57244	15,966
57245	16,503
57246	15,866
57247	15,98
57248	16,063
57249	15,934
57250	16,427
57251	15,804
57252	15,92
57253	15,966
57254	16,427
57255	15,804
57256	15,92
57257	16,503
57258	15,866
57259	15,98
57260	16,063
57261	16,966
57262	16,899
57263	17,601
57264	17,103
57265	16,922
57266	16,812
57267	17,497
57268	16,966
57269	16,812
57270	17,497
57271	16,899
57272	17,601
57273	17,103
57274	20,841
57275	21,35
57276	21,14
57277	20,253
57278	21,233
57279	20,759
57280	21,207
57281	20,996
57282	20,094
57283	20,841
57284	21,207
57285	20,996
57286	20,094
57287	21,35
57288	21,14
57289	20,253
57290	21,233
57291	21,758
57292	21,705
57293	20,32
57294	22,622
57295	22,24
57296	21,696
57297	21,656
57298	20,221
57299	22,531
57300	21,758
57301	21,656
57302	20,221
57303	22,531
57304	21,705
57305	20,32
57306	22,622
57307	22,24
57308	14,809
57309	14,423
57310	15,658
57311	14,797
57312	14,822
57313	14,449
57314	15,71
57315	14,809
57316	14,449
57317	15,71
57318	14,423
57319	15,658
57320	14,797
57321	14,694
57322	14,449
57323	14,785
57324	15,667
57325	14,672
57326	14,709
57327	14,483
57328	14,808
57329	15,73
57330	14,694
57331	14,483
57332	14,808
57333	15,73
57334	14,449
57335	14,785
57336	15,667
57337	14,672
57338	19,996
57339	20,037
57340	22,588
57341	18,347
57342	19,821
57343	20,065
57344	20,189
57345	22,73
57346	18,452
57347	19,996
57348	20,189
57349	22,73
57350	18,452
57351	20,037
57352	22,588
57353	18,347
57354	19,821
57355	14,108
57356	13,457
57357	14,944
57358	13,747
57359	14,082
57360	14,123
57361	13,469
57362	15,002
57363	13,777
57364	14,108
57365	13,469
57366	15,002
57367	13,777
57368	13,457
57369	14,944
57370	13,747
57371	14,082
57372	12,841
57373	12,316
57374	12,54
57375	12,858
57376	12,839
57377	12,302
57378	12,536
57379	12,841
57380	12,302
57381	12,536
57382	12,316
57383	12,54
57384	12,858
57385	11,804
57386	11,41
57387	11,546
57388	11,841
57389	11,792
57390	11,385
57391	11,526
57392	11,804
57393	11,385
57394	11,526
57395	11,41
57396	11,546
57397	11,841
57398	11,012
57399	10,777
57400	10,715
57401	11,057
57402	10,998
57403	10,749
57404	10,685
57405	11,012
57406	10,749
57407	10,685
57408	10,777
57409	10,715
57410	11,057
57411	13,774
57412	14,035
57413	13,203
57414	13,516
57415	13,779
57416	13,779
57417	14,07
57418	13,215
57419	13,516
57420	13,774
57421	14,07
57422	13,215
57423	13,516
57424	14,035
57425	13,203
57426	13,516
57427	13,779
57428	14,332
57429	13,65
57430	14,604
57431	14,289
57432	14,363
57433	13,707
57434	14,721
57435	14,332
57436	13,707
57437	14,721
57438	13,65
57439	14,604
57440	14,289
57441	19,212
57442	17,656
57443	19,704
57444	18,373
57445	19,479
57446	18,149
57447	19,782
57448	19,212
57449	18,149
57450	19,782
57451	17,656
57452	19,704
57453	18,373
57454	16,622
57455	15,307
57456	16,006
57457	17,144
57458	16,002
57459	16,848
57460	15,707
57461	16,398
57462	17,353
57463	16,622
57464	15,707
57465	16,398
57466	17,353
57467	15,307
57468	16,006
57469	17,144
57470	16,002
57471	16,325
57472	15,245
57473	15,766
57474	16,458
57475	16,181
57476	16,378
57477	15,318
57478	15,868
57479	16,558
57480	16,325
57481	15,318
57482	15,868
57483	16,558
57484	15,245
57485	15,766
57486	16,458
57487	16,181
57488	12,941
57489	12,443
57490	13,58
57491	12,664
57492	12,951
57493	12,942
57494	12,434
57495	13,601
57496	12,666
57497	12,941
57498	12,434
57499	13,601
57500	12,666
57501	12,443
57502	13,58
57503	12,664
57504	12,951
57505	11,957
57506	11,575
57507	11,71
57508	12,145
57509	11,99
57510	11,947
57511	11,551
57512	11,692
57513	12,123
57514	11,957
57515	11,551
57516	11,692
57517	12,123
57518	11,575
57519	11,71
57520	12,145
57521	11,99
57522	11,188
57523	10,949
57524	10,874
57525	11,232
57526	11,174
57527	10,922
57528	10,844
57529	11,188
57530	10,922
57531	10,844
57532	10,949
57533	10,874
57534	11,232
57535	15,735
57536	16,299
57537	15,507
57538	15,314
57539	15,831
57540	15,703
57541	16,224
57542	15,447
57543	15,26
57544	15,735
57545	16,224
57546	15,447
57547	15,26
57548	16,299
57549	15,507
57550	15,314
57551	15,831
57552	16,788
57553	17,466
57554	16,542
57555	16,925
57556	16,744
57557	17,365
57558	16,462
57559	16,788
57560	17,365
57561	16,462
57562	17,466
57563	16,542
57564	16,925
57565	18,045
57566	17,77
57567	18,118
57568	18,867
57569	18,24
57570	17,987
57571	17,665
57572	18,002
57573	18,74
57574	18,045
57575	17,665
57576	18,002
57577	18,74
57578	17,77
57579	18,118
57580	18,867
57581	18,24
57582	21,461
57583	21,024
57584	20,58
57585	22,589
57586	21,802
57587	21,394
57588	20,915
57589	20,442
57590	22,483
57591	21,461
57592	20,915
57593	20,442
57594	22,483
57595	21,024
57596	20,58
57597	22,589
57598	21,802
57599	14,265
57600	13,932
57601	14,225
57602	14,285
57603	13,973
57604	14,265
57605	13,973
57606	13,932
57607	14,225
57608	20,631
57609	19,378
57610	18,501
57611	21,967
57612	21,693
57613	21,226
57614	25,465
57615	20,127
57616	18,844
57617	17,893
57618	20,707
57619	20,866
57620	24,91
57621	20,631
57622	18,844
57623	17,893
57624	20,707
57625	20,866
57626	24,91
57627	19,378
57628	18,501
57629	21,967
57630	21,693
57631	21,226
57632	25,465
57633	17,801
57634	17,08
57635	16,389
57636	17,
57637	17,753
57638	17,264
57639	16,442
57640	17,801
57641	17,264
57642	16,442
57643	17,08
57644	16,389
57645	17,
57646	16,543
57647	15,894
57648	15,209
57649	17,378
57650	15,941
57651	16,777
57652	16,285
57653	15,604
57654	17,914
57655	16,543
57656	16,285
57657	15,604
57658	17,914
57659	15,894
57660	15,209
57661	17,378
57662	15,941
57663	15,634
57664	15,161
57665	14,579
57666	16,408
57667	15,263
57668	15,79
57669	15,401
57670	14,854
57671	16,761
57672	15,634
57673	15,401
57674	14,854
57675	16,761
57676	15,161
57677	14,579
57678	16,408
57679	15,263
57680	14,929
57681	14,569
57682	14,087
57683	15,615
57684	14,778
57685	15,012
57686	14,682
57687	14,234
57688	15,798
57689	14,929
57690	14,682
57691	14,234
57692	15,798
57693	14,569
57694	14,087
57695	15,615
57696	14,778
57697	14,323
57698	13,641
57699	14,03
57700	14,28
57701	14,353
57702	13,698
57703	14,065
57704	14,323
57705	13,698
57706	14,065
57707	13,641
57708	14,03
57709	14,28
57710	11,034
57711	11,426
57712	10,79
57713	10,727
57714	11,228
57715	11,079
57716	11,019
57717	11,4
57718	10,762
57719	10,697
57720	11,198
57721	11,034
57722	11,4
57723	10,762
57724	10,697
57725	11,198
57726	11,426
57727	10,79
57728	10,727
57729	11,228
57730	11,079
57731	11,812
57732	12,307
57733	11,555
57734	11,849
57735	11,801
57736	12,293
57737	11,534
57738	11,812
57739	12,293
57740	11,534
57741	12,307
57742	11,555
57743	11,849
57744	12,812
57745	13,461
57746	12,529
57747	12,83
57748	12,81
57749	13,472
57750	12,525
57751	12,812
57752	13,472
57753	12,525
57754	13,461
57755	12,529
57756	12,83
57757	14,151
57758	15,088
57759	13,818
57760	14,125
57761	14,165
57762	15,146
57763	13,849
57764	14,151
57765	15,146
57766	13,849
57767	15,088
57768	13,818
57769	14,125
57770	16,117
57771	17,574
57772	15,647
57773	16,01
57774	16,16
57775	17,705
57776	15,736
57777	16,117
57778	17,705
57779	15,736
57780	17,574
57781	15,647
57782	16,01
57783	19,212
57784	18,339
57785	22,232
57786	19,465
57787	18,957
57788	19,299
57789	18,505
57790	22,407
57791	19,621
57792	19,212
57793	18,505
57794	22,407
57795	19,621
57796	18,339
57797	22,232
57798	19,465
57799	18,957
57800	23,495
57801	22,441
57802	22,765
57803	23,433
57804	25,243
57805	23,823
57806	23,462
57807	22,341
57808	22,725
57809	23,393
57810	25,279
57811	23,495
57812	22,341
57813	22,725
57814	23,393
57815	25,279
57816	22,441
57817	22,765
57818	23,433
57819	25,243
57820	23,823
57821	21,289
57822	20,419
57823	20,788
57824	21,631
57825	21,221
57826	20,281
57827	20,676
57828	21,289
57829	20,281
57830	20,676
57831	20,419
57832	20,788
57833	21,631
57834	19,413
57835	18,706
57836	19,07
57837	19,444
57838	19,675
57839	19,344
57840	18,581
57841	18,948
57842	19,302
57843	19,413
57844	18,581
57845	18,948
57846	19,302
57847	18,706
57848	19,07
57849	19,444
57850	19,675
57851	17,874
57852	17,29
57853	17,596
57854	17,963
57855	18,062
57856	17,819
57857	17,192
57858	17,494
57859	17,85
57860	17,874
57861	17,192
57862	17,494
57863	17,85
57864	17,29
57865	17,596
57866	17,963
57867	18,062
57868	16,608
57869	16,122
57870	16,366
57871	16,738
57872	16,567
57873	16,051
57874	16,289
57875	16,608
57876	16,051
57877	16,289
57878	16,122
57879	16,366
57880	16,738
57881	15,564
57882	15,339
57883	15,147
57884	15,655
57885	15,535
57886	15,283
57887	15,095
57888	15,564
57889	15,283
57890	15,095
57891	15,339
57892	15,147
57893	15,655
57894	11,76
57895	12,24
57896	11,522
57897	11,394
57898	11,795
57899	11,749
57900	12,228
57901	11,502
57902	11,369
57903	11,76
57904	12,228
57905	11,502
57906	11,369
57907	12,24
57908	11,522
57909	11,394
57910	11,795
57911	24,221
57912	23,175
57913	22,598
57914	25,388
57915	24,176
57916	24,279
57917	23,223
57918	22,731
57919	25,513
57920	24,221
57921	23,223
57922	22,731
57923	25,513
57924	23,175
57925	22,598
57926	25,388
57927	24,176
57928	16,585
57929	16,157
57930	17,918
57931	16,499
57932	16,625
57933	16,238
57934	18,032
57935	16,585
57936	16,238
57937	18,032
57938	16,157
57939	17,918
57940	16,499
57941	15,864
57942	17,016
57943	15,378
57944	15,756
57945	15,907
57946	17,135
57947	15,463
57948	15,864
57949	17,135
57950	15,463
57951	17,016
57952	15,378
57953	15,756
57954	12,731
57955	13,355
57956	12,451
57957	12,898
57958	12,745
57959	12,73
57960	13,37
57961	12,45
57962	12,892
57963	12,731
57964	13,37
57965	12,45
57966	12,892
57967	13,355
57968	12,451
57969	12,898
57970	12,745
57971	14,47
57972	14,216
57973	15,404
57974	13,75
57975	14,449
57976	14,484
57977	14,247
57978	15,461
57979	13,759
57980	14,47
57981	14,247
57982	15,461
57983	13,759
57984	14,216
57985	15,404
57986	13,75
57987	14,449
57988	14,017
57989	13,674
57990	14,956
57991	13,981
57992	14,034
57993	13,709
57994	15,023
57995	14,017
57996	13,709
57997	15,023
57998	13,674
57999	14,956
58000	13,981
58001	16,438
58002	17,851
58003	16,152
58004	16,341
58005	16,48
58006	17,97
58007	16,242
58008	16,438
58009	17,97
58010	16,242
58011	17,851
58012	16,152
58013	16,341
58014	19,458
58015	18,856
58016	22,123
58017	19,243
58018	19,534
58019	19,011
58020	22,288
58021	19,458
58022	19,011
58023	22,288
58024	18,856
58025	22,123
58026	19,243
58027	18,538
58028	19,846
58029	17,19
58030	17,822
58031	18,29
58032	18,619
58033	20,026
58034	17,32
58035	17,983
58036	18,538
58037	20,026
58038	17,32
58039	17,983
58040	19,846
58041	17,19
58042	17,822
58043	18,29
58044	19,414
58045	18,726
58046	22,005
58047	19,636
58048	19,211
58049	19,488
58050	18,874
58051	22,167
58052	19,772
58053	19,414
58054	18,874
58055	22,167
58056	19,772
58057	18,726
58058	22,005
58059	19,636
58060	19,211
58061	21,351
58062	23,002
58063	21,272
58064	20,981
58065	21,45
58066	23,187
58067	21,476
58068	21,351
58069	23,187
58070	21,476
58071	23,002
58072	21,272
58073	20,981
58074	18,307
58075	17,647
58076	19,617
58077	18,08
58078	18,383
58079	17,8
58080	19,791
58081	18,307
58082	17,8
58083	19,791
58084	17,647
58085	19,617
58086	18,08
58087	16,799
58088	16,495
58089	15,397
58090	19,712
58091	18,22
58092	16,941
58093	16,585
58094	16,165
58095	15,098
58096	19,162
58097	17,888
58098	16,799
58099	16,165
58100	15,098
58101	19,162
58102	17,888
58103	16,495
58104	15,397
58105	19,712
58106	18,22
58107	16,941
58108	15,95
58109	15,493
58110	14,579
58111	15,629
58112	15,834
58113	15,477
58114	14,48
58115	15,95
58116	15,477
58117	14,48
58118	15,493
58119	14,579
58120	15,629
58121	15,046
58122	14,528
58123	13,796
58124	14,547
58125	15,151
58126	14,791
58127	13,998
58128	15,046
58129	14,791
58130	13,998
58131	14,528
58132	13,796
58133	14,547
58134	14,275
58135	13,902
58136	13,232
58137	13,8
58138	14,435
58139	14,18
58140	13,504
58141	14,275
58142	14,18
58143	13,504
58144	13,902
58145	13,232
58146	13,8
58147	13,806
58148	13,511
58149	12,914
58150	13,527
58151	13,924
58152	13,694
58153	13,116
58154	13,806
58155	13,694
58156	13,116
58157	13,511
58158	12,914
58159	13,527
58160	13,4
58161	13,166
58162	12,656
58163	13,265
58164	13,464
58165	13,257
58166	12,768
58167	13,4
58168	13,257
58169	12,768
58170	13,166
58171	12,656
58172	13,265
58173	13,024
58174	12,82
58175	12,391
58176	12,975
58177	13,05
58178	12,854
58179	12,44
58180	13,024
58181	12,854
58182	12,44
58183	12,82
58184	12,391
58185	12,975
58186	12,651
58187	12,46
58188	13,202
58189	12,101
58190	12,644
58191	12,658
58192	12,465
58193	13,213
58194	12,115
58195	12,651
58196	12,465
58197	13,213
58198	12,115
58199	12,46
58200	13,202
58201	12,101
58202	12,644
58203	12,275
58204	12,089
58205	12,766
58206	11,788
58207	12,285
58208	12,273
58209	12,082
58210	12,758
58211	11,786
58212	12,275
58213	12,082
58214	12,758
58215	11,786
58216	12,089
58217	12,766
58218	11,788
58219	12,285
58220	11,896
58221	11,713
58222	12,335
58223	11,457
58224	11,913
58225	11,891
58226	11,702
58227	12,322
58228	11,449
58229	11,896
58230	11,702
58231	12,322
58232	11,449
58233	11,713
58234	12,335
58235	11,457
58236	11,913
58237	11,519
58238	11,34
58239	11,914
58240	11,12
58241	11,537
58242	11,513
58243	11,328
58244	11,9
58245	11,11
58246	11,519
58247	11,328
58248	11,9
58249	11,11
58250	11,34
58251	11,914
58252	11,12
58253	11,537
58254	11,149
58255	10,976
58256	11,508
58257	10,783
58258	11,167
58259	11,143
58260	10,965
58261	11,494
58262	10,773
58263	11,149
58264	10,965
58265	11,494
58266	10,773
58267	10,976
58268	11,508
58269	10,783
58270	11,167
58271	10,792
58272	10,626
58273	11,119
58274	10,454
58275	10,808
58276	10,786
58277	10,615
58278	11,106
58279	10,444
58280	10,792
58281	10,615
58282	11,106
58283	10,444
58284	10,626
58285	11,119
58286	10,454
58287	10,808
58288	10,449
58289	10,293
58290	10,751
58291	10,136
58292	10,465
58293	10,444
58294	10,282
58295	10,739
58296	10,127
58297	10,449
58298	10,282
58299	10,739
58300	10,127
58301	10,293
58302	10,751
58303	10,136
58304	10,465
58305	10,125
58306	9,978
58307	10,405
58308	9,8328
58309	10,14
58310	10,12
58311	9,9681
58312	10,393
58313	9,8242
58314	10,125
58315	9,9681
58316	10,393
58317	9,8242
58318	9,978
58319	10,405
58320	9,8328
58321	10,14
58322	9,8207
58323	9,6833
58324	10,081
58325	9,5462
58326	9,8353
58327	9,8158
58328	9,6737
58329	10,07
58330	9,5377
58331	9,8207
58332	9,6737
58333	10,07
58334	9,5377
58335	9,6833
58336	10,081
58337	9,5462
58338	9,8353
58339	9,5363
58340	9,4093
58341	9,7808
58342	9,2772
58343	9,5508
58344	9,5315
58345	9,3996
58346	9,7702
58347	9,2687
58348	9,5363
58349	9,3996
58350	9,7702
58351	9,2687
58352	9,4093
58353	9,7808
58354	9,2772
58355	9,5508
58356	9,2726
58357	9,1561
58358	9,5035
58359	9,0265
58360	9,2871
58361	9,2678
58362	9,1463
58363	9,4929
58364	9,0179
58365	9,2726
58366	9,1463
58367	9,4929
58368	9,0179
58369	9,1561
58370	9,5035
58371	9,0265
58372	9,2871
58373	9,0299
58374	8,924
58375	9,2492
58376	8,7946
58377	9,0446
58378	9,0249
58379	8,914
58380	9,2386
58381	8,7857
58382	9,0299
58383	8,914
58384	9,2386
58385	8,7857
58386	8,924
58387	9,2492
58388	8,7946
58389	9,0446
58390	8,8083
58391	8,7135
58392	9,0181
58393	8,582
58394	8,8236
58395	8,8033
58396	8,7032
58397	9,0072
58398	8,5726
58399	8,8083
58400	8,7032
58401	9,0072
58402	8,5726
58403	8,7135
58404	9,0181
58405	8,582
58406	8,8236
58407	8,6085
58408	8,5251
58409	8,8104
58410	8,3892
58411	8,6245
58412	8,6032
58413	8,5142
58414	8,7992
58415	8,3793
58416	8,6085
58417	8,5142
58418	8,7992
58419	8,3793
58420	8,5251
58421	8,8104
58422	8,3892
58423	8,6245
58424	8,4311
58425	8,3596
58426	8,6267
58427	8,2171
58428	8,4479
58429	8,4255
58430	8,348
58431	8,615
58432	8,2066
58433	8,4311
58434	8,348
58435	8,615
58436	8,2066
58437	8,3596
58438	8,6267
58439	8,2171
58440	8,4479
58441	8,277
58442	8,2179
58443	8,4678
58444	8,0667
58445	8,2947
58446	8,271
58447	8,2057
58448	8,4555
58449	8,0555
58450	8,277
58451	8,2057
58452	8,4555
58453	8,0555
58454	8,2179
58455	8,4678
58456	8,0667
58457	8,2947
58458	8,1473
58459	8,1015
58460	8,3349
58461	7,9392
58462	8,1662
58463	8,141
58464	8,0884
58465	8,3218
58466	7,9272
58467	8,1473
58468	8,0884
58469	8,3218
58470	7,9272
58471	8,1015
58472	8,3349
58473	7,9392
58474	8,1662
58475	8,0435
58476	8,0119
58477	8,2293
58478	7,8362
58479	8,0638
58480	8,0368
58481	7,9979
58482	8,2154
58483	7,8232
58484	8,0435
58485	7,9979
58486	8,2154
58487	7,8232
58488	8,0119
58489	8,2293
58490	7,8362
58491	8,0638
58492	7,9675
58493	7,9513
58494	8,1529
58495	7,7595
58496	7,9893
58497	7,9603
58498	7,9362
58499	8,138
58500	7,7455
58501	7,9675
58502	7,9362
58503	8,138
58504	7,7455
58505	7,9513
58506	8,1529
58507	7,7595
58508	7,9893
58509	7,9214
58510	7,9218
58511	8,1077
58512	7,7113
58513	7,9449
58514	7,9136
58515	7,9055
58516	8,0918
58517	7,696
58518	7,9214
58519	7,9055
58520	8,0918
58521	7,696
58522	7,9218
58523	8,1077
58524	7,7113
58525	7,9449
58526	7,9077
58527	7,926
58528	8,0963
58529	7,6939
58530	7,9331
58531	7,8992
58532	7,9084
58533	8,0791
58534	7,6774
58535	7,9077
58536	7,9084
58537	8,0791
58538	7,6774
58539	7,926
58540	8,0963
58541	7,6939
58542	7,9331
58543	7,9291
58544	7,9672
58545	8,1214
58546	7,7104
58547	7,9567
58548	7,92
58549	7,948
58550	8,1029
58551	7,6924
58552	7,9291
58553	7,948
58554	8,1029
58555	7,6924
58556	7,9672
58557	8,1214
58558	7,7104
58559	7,9567
58560	7,989
58561	8,0487
58562	8,1863
58563	7,7639
58564	8,0189
58565	7,9791
58566	8,0279
58567	8,1663
58568	7,7443
58569	7,989
58570	8,0279
58571	8,1663
58572	7,7443
58573	8,0487
58574	8,1863
58575	7,7639
58576	8,0189
58577	8,0911
58578	8,1746
58579	8,2947
58580	7,8583
58581	8,1236
58582	8,0803
58583	8,152
58584	8,273
58585	7,837
58586	8,0911
58587	8,152
58588	8,273
58589	7,837
58590	8,1746
58591	8,2947
58592	7,8583
58593	8,1236
58594	8,2398
58595	8,3496
58596	8,4508
58597	7,9981
58598	8,2751
58599	8,2281
58600	8,3252
58601	8,4273
58602	7,9749
58603	8,2398
58604	8,3252
58605	8,4273
58606	7,9749
58607	8,3496
58608	8,4508
58609	7,9981
58610	8,2751
58611	8,4403
58612	8,5796
58613	8,6596
58614	8,1887
58615	8,4785
58616	8,4276
58617	8,5532
58618	8,6342
58619	8,1635
58620	8,4403
58621	8,5532
58622	8,6342
58623	8,1635
58624	8,5796
58625	8,6596
58626	8,1887
58627	8,4785
58628	8,6989
58629	8,8715
58630	8,9272
58631	8,4366
58632	8,74
58633	8,6853
58634	8,8433
58635	8,8999
58636	8,4094
58637	8,6989
58638	8,8433
58639	8,8999
58640	8,4094
58641	8,8715
58642	8,9272
58643	8,4366
58644	8,74
58645	9,0238
58646	9,2347
58647	9,2613
58648	8,7502
58649	9,0674
58650	9,0093
58651	9,2051
58652	9,2323
58653	8,7211
58654	9,0238
58655	9,2051
58656	9,2323
58657	8,7211
58658	9,2347
58659	9,2613
58660	8,7502
58661	9,0674
58662	9,4257
58663	9,682
58664	9,6722
58665	9,1402
58666	9,471
58667	9,4106
58668	9,6518
58669	9,6419
58670	9,11
58671	9,4257
58672	9,6518
58673	9,6419
58674	9,11
58675	9,682
58676	9,6722
58677	9,1402
58678	9,471
58679	9,9199
58680	10,232
58681	10,174
58682	9,6219
58683	9,9652
58684	9,9049
58685	10,203
58686	10,144
58687	9,5917
58688	9,9199
58689	10,203
58690	10,144
58691	9,5917
58692	10,232
58693	10,174
58694	9,6219
58695	9,9652
58696	10,529
58697	10,913
58698	10,217
58699	10,571
58700	10,516
58701	10,889
58702	10,189
58703	10,529
58704	10,889
58705	10,189
58706	10,913
58707	10,217
58708	10,571
58709	11,29
58710	11,77
58711	10,957
58712	11,321
58713	11,28
58714	11,76
58715	10,937
58716	11,29
58717	11,76
58718	10,937
58719	11,77
58720	10,957
58721	11,321
58722	15,309
58723	16,457
58724	14,699
58725	14,382
58726	15,182
58727	15,355
58728	16,586
58729	14,783
58730	14,446
58731	15,309
58732	16,586
58733	14,783
58734	14,446
58735	16,457
58736	14,699
58737	14,382
58738	15,182
58739	17,75
58740	18,876
58741	16,839
58742	17,485
58743	17,832
58744	19,061
58745	16,987
58746	17,75
58747	19,061
58748	16,987
58749	18,876
58750	16,839
58751	17,485
58752	20,198
58753	19,431
58754	22,685
58755	19,8
58756	20,302
58757	19,632
58758	22,875
58759	20,198
58760	19,632
58761	22,875
58762	19,431
58763	22,685
58764	19,8
58765	20,303
58766	19,547
58767	21,268
58768	19,466
58769	20,534
58770	20,256
58771	19,445
58772	21,212
58773	19,394
58774	20,303
58775	19,445
58776	21,212
58777	19,394
58778	19,547
58779	21,268
58780	19,466
58781	20,534
58782	18,689
58783	18,032
58784	18,072
58785	18,898
58786	18,634
58787	17,93
58788	17,98
58789	18,689
58790	17,93
58791	17,98
58792	18,032
58793	18,072
58794	18,898
58795	17,273
58796	16,722
58797	16,798
58798	17,433
58799	17,226
58800	16,638
58801	16,715
58802	17,273
58803	16,638
58804	16,715
58805	16,722
58806	16,798
58807	17,433
58808	16,087
58809	15,619
58810	15,695
58811	16,202
58812	16,051
58813	15,556
58814	15,631
58815	16,087
58816	15,556
58817	15,631
58818	15,619
58819	15,695
58820	16,202
58821	15,087
58822	14,683
58823	14,751
58824	15,168
58825	15,061
58826	14,638
58827	14,704
58828	15,087
58829	14,638
58830	14,704
58831	14,683
58832	14,751
58833	15,168
58834	14,234
58835	13,883
58836	14,465
58837	13,939
58838	14,291
58839	14,215
58840	13,85
58841	14,425
58842	13,905
58843	14,234
58844	13,85
58845	14,425
58846	13,905
58847	13,883
58848	14,465
58849	13,939
58850	14,291
58851	13,5
58852	13,192
58853	13,713
58854	13,236
58855	13,541
58856	13,486
58857	13,168
58858	13,684
58859	13,211
58860	13,5
58861	13,168
58862	13,684
58863	13,211
58864	13,192
58865	13,713
58866	13,236
58867	13,541
58868	12,86
58869	12,588
58870	13,06
58871	12,621
58872	12,892
58873	12,85
58874	12,569
58875	13,037
58876	12,602
58877	12,86
58878	12,569
58879	13,037
58880	12,602
58881	12,588
58882	13,06
58883	12,621
58884	12,892
58885	12,297
58886	12,053
58887	12,484
58888	12,077
58889	12,322
58890	12,288
58891	12,038
58892	12,466
58893	12,062
58894	12,297
58895	12,038
58896	12,466
58897	12,062
58898	12,053
58899	12,484
58900	12,077
58901	12,322
58902	11,795
58903	11,575
58904	11,972
58905	11,59
58906	11,816
58907	11,788
58908	11,562
58909	11,957
58910	11,578
58911	11,795
58912	11,562
58913	11,957
58914	11,578
58915	11,575
58916	11,972
58917	11,59
58918	11,816
58919	11,342
58920	11,143
58921	11,512
58922	11,15
58923	11,361
58924	11,336
58925	11,131
58926	11,498
58927	11,139
58928	11,342
58929	11,131
58930	11,498
58931	11,139
58932	11,143
58933	11,512
58934	11,15
58935	11,361
58936	10,932
58937	10,749
58938	11,094
58939	10,749
58940	10,949
58941	10,926
58942	10,738
58943	11,082
58944	10,738
58945	10,932
58946	10,738
58947	11,082
58948	10,738
58949	10,749
58950	11,094
58951	10,749
58952	10,949
58953	10,556
58954	10,388
58955	10,713
58956	10,38
58957	10,573
58958	10,55
58959	10,377
58960	10,701
58961	10,369
58962	10,556
58963	10,377
58964	10,701
58965	10,369
58966	10,388
58967	10,713
58968	10,38
58969	10,573
58970	10,21
58971	10,056
58972	10,363
58973	10,039
58974	10,227
58975	10,204
58976	10,045
58977	10,351
58978	10,028
58979	10,21
58980	10,045
58981	10,351
58982	10,028
58983	10,056
58984	10,363
58985	10,039
58986	10,227
58987	9,8908
58988	9,7494
58989	10,041
58990	9,7237
58991	9,9078
58992	9,8851
58993	9,738
58994	10,029
58995	9,7129
58996	9,8908
58997	9,738
58998	10,029
58999	9,7129
59000	9,7494
59001	10,041
59002	9,7237
59003	9,9078
59004	9,5968
59005	9,4673
59006	9,7445
59007	9,432
59008	9,6141
59009	9,591
59010	9,4556
59011	9,7326
59012	9,4209
59013	9,5968
59014	9,4556
59015	9,7326
59016	9,4209
59017	9,4673
59018	9,7445
59019	9,432
59020	9,6141
59021	9,3264
59022	9,2086
59023	9,4726
59024	9,1628
59025	9,3441
59026	9,3205
59027	9,1965
59028	9,4604
59029	9,1514
59030	9,3264
59031	9,1965
59032	9,4604
59033	9,1514
59034	9,2086
59035	9,4726
59036	9,1628
59037	9,3441
59038	9,0791
59039	8,973
59040	9,2244
59041	8,9158
59042	9,0974
59043	9,073
59044	8,9606
59045	9,212
59046	8,904
59047	9,0791
59048	8,9606
59049	9,212
59050	8,904
59051	8,973
59052	9,2244
59053	8,9158
59054	9,0974
59055	8,855
59056	8,7608
59057	9,0001
59058	8,6911
59059	8,8739
59060	8,8486
59061	8,7479
59062	8,9872
59063	8,6788
59064	8,855
59065	8,7479
59066	8,9872
59067	8,6788
59068	8,7608
59069	9,0001
59070	8,6911
59071	8,8739
59072	8,6544
59073	8,5727
59074	8,8
59075	8,4893
59076	8,6742
59077	8,6478
59078	8,5592
59079	8,7866
59080	8,4764
59081	8,6544
59082	8,5592
59083	8,7866
59084	8,4764
59085	8,5727
59086	8,8
59087	8,4893
59088	8,6742
59089	8,4783
59090	8,4097
59091	8,625
59092	8,3112
59093	8,499
59094	8,4715
59095	8,3956
59096	8,6111
59097	8,2977
59098	8,4783
59099	8,3956
59100	8,6111
59101	8,2977
59102	8,4097
59103	8,625
59104	8,3112
59105	8,499
59106	8,328
59107	8,2732
59108	8,4765
59109	8,158
59110	8,3497
59111	8,3208
59112	8,2583
59113	8,4619
59114	8,1438
59115	8,328
59116	8,2583
59117	8,4619
59118	8,1438
59119	8,2732
59120	8,4765
59121	8,158
59122	8,3497
59123	8,2049
59124	8,1649
59125	8,356
59126	8,0312
59127	8,2278
59128	8,1972
59129	8,1491
59130	8,3406
59131	8,0162
59132	8,2049
59133	8,1491
59134	8,3406
59135	8,0162
59136	8,1649
59137	8,356
59138	8,0312
59139	8,2278
59140	8,1108
59141	8,0867
59142	8,2654
59143	7,9326
59144	8,1351
59145	8,1027
59146	8,0701
59147	8,2491
59148	7,9167
59149	8,1108
59150	8,0701
59151	8,2491
59152	7,9167
59153	8,0867
59154	8,2654
59155	7,9326
59156	8,1351
59157	8,048
59158	8,0411
59159	8,2069
59160	7,8643
59161	8,0739
59162	8,0394
59163	8,0233
59164	8,1896
59165	7,8473
59166	8,048
59167	8,0233
59168	8,1896
59169	7,8473
59170	8,0411
59171	8,2069
59172	7,8643
59173	8,0739
59174	8,0189
59175	8,0307
59176	8,1831
59177	7,8287
59178	8,0465
59179	8,0097
59180	8,0116
59181	8,1647
59182	7,8106
59183	8,0189
59184	8,0116
59185	8,1647
59186	7,8106
59187	8,0307
59188	8,1831
59189	7,8287
59190	8,0465
59191	8,0263
59192	8,0584
59193	8,1968
59194	7,8286
59195	8,0559
59196	8,0164
59197	8,0379
59198	8,1771
59199	7,8091
59200	8,0263
59201	8,0379
59202	8,1771
59203	7,8091
59204	8,0584
59205	8,1968
59206	7,8286
59207	8,0559
59208	8,0735
59209	8,1277
59210	8,2513
59211	7,8672
59212	8,1054
59213	8,0629
59214	8,1057
59215	8,2301
59216	7,8461
59217	8,0735
59218	8,1057
59219	8,2301
59220	7,8461
59221	8,1277
59222	8,2513
59223	7,8672
59224	8,1054
59225	8,1641
59226	8,2427
59227	8,3503
59228	7,9482
59229	8,1984
59230	8,1526
59231	8,2189
59232	8,3275
59233	7,9254
59234	8,1641
59235	8,2189
59236	8,3275
59237	7,9254
59238	8,2427
59239	8,3503
59240	7,9482
59241	8,1984
59242	8,3024
59243	8,4079
59244	8,4979
59245	8,0759
59246	8,3395
59247	8,2901
59248	8,3824
59249	8,4734
59250	8,0514
59251	8,3024
59252	8,3824
59253	8,4734
59254	8,0514
59255	8,4079
59256	8,4979
59257	8,0759
59258	8,3395
59259	8,4937
59260	8,6292
59261	8,6993
59262	8,2558
59263	8,5336
59264	8,4805
59265	8,6017
59266	8,6729
59267	8,2293
59268	8,4937
59269	8,6017
59270	8,6729
59271	8,2293
59272	8,6292
59273	8,6993
59274	8,2558
59275	8,5336
59276	8,7442
59277	8,9135
59278	8,9603
59279	8,4941
59280	8,7868
59281	8,7301
59282	8,8843
59283	8,9322
59284	8,4658
59285	8,7442
59286	8,8843
59287	8,9322
59288	8,4658
59289	8,9135
59290	8,9603
59291	8,4941
59292	8,7868
59293	9,0621
59294	9,27
59295	9,2887
59296	8,7993
59297	9,1069
59298	9,0471
59299	9,2396
59300	9,259
59301	8,7693
59302	9,0621
59303	9,2396
59304	9,259
59305	8,7693
59306	9,27
59307	9,2887
59308	8,7993
59309	9,1069
59310	9,4578
59311	9,7117
59312	9,6949
59313	9,1821
59314	9,5042
59315	9,4424
59316	9,681
59317	9,664
59318	9,1511
59319	9,4578
59320	9,681
59321	9,664
59322	9,1511
59323	9,7117
59324	9,6949
59325	9,1821
59326	9,5042
59327	9,9472
59328	10,257
59329	10,193
59330	9,6578
59331	9,9932
59332	9,932
59333	10,228
59334	10,162
59335	9,6271
59336	9,9472
59337	10,228
59338	10,162
59339	9,6271
59340	10,257
59341	10,193
59342	9,6578
59343	9,9932
59344	10,553
59345	10,918
59346	10,796
59347	10,248
59348	10,595
59349	10,539
59350	10,895
59351	10,768
59352	10,22
59353	10,553
59354	10,895
59355	10,768
59356	10,22
59357	10,918
59358	10,796
59359	10,248
59360	10,595
59361	11,276
59362	11,727
59363	10,958
59364	11,307
59365	11,267
59366	11,718
59367	10,938
59368	11,276
59369	11,718
59370	10,938
59371	11,727
59372	10,958
59373	11,307
59374	12,186
59375	12,769
59376	11,844
59377	12,193
59378	12,186
59379	12,786
59380	11,842
59381	12,186
59382	12,786
59383	11,842
59384	12,769
59385	11,844
59386	12,193
59387	13,388
59388	13,011
59389	14,19
59390	13,346
59391	13,405
59392	13,041
59393	14,254
59394	13,388
59395	13,041
59396	14,254
59397	13,011
59398	14,19
59399	13,346
59400	13,666
59401	13,015
59402	14,46
59403	13,238
59404	13,614
59405	13,687
59406	13,039
59407	14,532
59408	13,275
59409	13,666
59410	13,039
59411	14,532
59412	13,275
59413	13,015
59414	14,46
59415	13,238
59416	13,614
59417	12,407
59418	11,926
59419	12,061
59420	12,408
59421	12,409
59422	11,92
59423	12,063
59424	12,407
59425	11,92
59426	12,063
59427	11,926
59428	12,061
59429	12,408
59430	11,458
59431	11,078
59432	11,135
59433	11,486
59434	11,451
59435	11,057
59436	11,118
59437	11,458
59438	11,057
59439	11,118
59440	11,078
59441	11,135
59442	11,486
59443	10,695
59444	10,39
59445	10,386
59446	10,735
59447	10,682
59448	10,362
59449	10,359
59450	10,695
59451	10,362
59452	10,359
59453	10,39
59454	10,386
59455	10,735
59456	10,072
59457	9,8288
59458	10,32
59459	9,7792
59460	10,117
59461	10,057
59462	9,7982
59463	10,289
59464	9,7488
59465	10,072
59466	9,7982
59467	10,289
59468	9,7488
59469	9,8288
59470	10,32
59471	9,7792
59472	10,117
59473	9,5677
59474	9,373
59475	9,807
59476	9,2888
59477	9,6142
59478	9,5523
59479	9,3424
59480	9,776
59481	9,2577
59482	9,5677
59483	9,3424
59484	9,776
59485	9,2577
59486	9,373
59487	9,807
59488	9,2888
59489	9,6142
59490	9,158
59491	9,0028
59492	9,3875
59493	8,8919
59494	9,2034
59495	9,1429
59496	8,9733
59497	9,3573
59498	8,8616
59499	9,158
59500	8,9733
59501	9,3573
59502	8,8616
59503	9,0028
59504	9,3875
59505	8,8919
59506	9,2034
59507	8,8267
59508	8,7051
59509	9,0458
59510	8,5731
59511	8,87
59512	8,8124
59513	8,6772
59514	9,0172
59515	8,5443
59516	8,8267
59517	8,6772
59518	9,0172
59519	8,5443
59520	8,7051
59521	9,0458
59522	8,5731
59523	8,87
59524	8,5628
59525	8,4704
59526	8,7714
59527	8,3212
59528	8,6034
59529	8,5493
59530	8,4442
59531	8,7445
59532	8,2942
59533	8,5628
59534	8,4442
59535	8,7445
59536	8,2942
59537	8,4704
59538	8,7714
59539	8,3212
59540	8,6034
59541	8,3579
59542	8,2914
59543	8,5565
59544	8,1278
59545	8,3958
59546	8,3453
59547	8,267
59548	8,5314
59549	8,1026
59550	8,3579
59551	8,267
59552	8,5314
59553	8,1026
59554	8,2914
59555	8,5565
59556	8,1278
59557	8,3958
59558	8,2056
59559	8,1625
59560	8,3949
59561	7,9862
59562	8,2409
59563	8,1939
59564	8,1398
59565	8,3715
59566	7,9629
59567	8,2056
59568	8,1398
59569	8,3715
59570	7,9629
59571	8,1625
59572	8,3949
59573	7,9862
59574	8,2409
59575	8,1009
59576	8,0789
59577	8,2816
59578	7,8913
59579	8,1337
59580	8,09
59581	8,0578
59582	8,2599
59583	7,8697
59584	8,1009
59585	8,0578
59586	8,2599
59587	7,8697
59588	8,0789
59589	8,2816
59590	7,8913
59591	8,1337
59592	8,0394
59593	8,0367
59594	8,2125
59595	7,8386
59596	8,0698
59597	8,0292
59598	8,0171
59599	8,1923
59600	7,8185
59601	8,0394
59602	8,0171
59603	8,1923
59604	7,8185
59605	8,0367
59606	8,2125
59607	7,8386
59608	8,0698
59609	8,0174
59610	8,0324
59611	8,1839
59612	7,8243
59613	8,0458
59614	8,0079
59615	8,0141
59616	8,165
59617	7,8056
59618	8,0174
59619	8,0141
59620	8,165
59621	7,8056
59622	8,0324
59623	8,1839
59624	7,8243
59625	8,0458
59626	8,0316
59627	8,063
59628	8,1926
59629	7,8454
59630	8,0582
59631	8,0228
59632	8,0459
59633	8,1749
59634	7,8279
59635	8,0316
59636	8,0459
59637	8,1749
59638	7,8279
59639	8,063
59640	8,1926
59641	7,8454
59642	8,0582
59643	8,0794
59644	8,126
59645	8,2357
59646	7,8989
59647	8,1044
59648	8,0711
59649	8,1099
59650	8,2191
59651	7,8826
59652	8,0794
59653	8,1099
59654	8,2191
59655	7,8826
59656	8,126
59657	8,2357
59658	7,8989
59659	8,1044
59660	8,1582
59661	8,219
59662	8,3108
59663	7,9826
59664	8,1817
59665	8,1504
59666	8,2037
59667	8,295
59668	7,9672
59669	8,1582
59670	8,2037
59671	8,295
59672	7,9672
59673	8,219
59674	8,3108
59675	7,9826
59676	8,1817
59677	8,2659
59678	8,3399
59679	8,4155
59680	8,0943
59681	8,2882
59682	8,2585
59683	8,3254
59684	8,4006
59685	8,0797
59686	8,2659
59687	8,3254
59688	8,4006
59689	8,0797
59690	8,3399
59691	8,4155
59692	8,0943
59693	8,2882
59694	8,4006
59695	8,487
59696	8,5481
59697	8,2321
59698	8,4217
59699	8,3935
59700	8,4732
59701	8,5338
59702	8,2183
59703	8,4006
59704	8,4732
59705	8,5338
59706	8,2183
59707	8,487
59708	8,5481
59709	8,2321
59710	8,4217
59711	8,5607
59712	8,659
59713	8,7067
59714	8,3946
59715	8,5809
59716	8,5539
59717	8,6458
59718	8,6931
59719	8,3814
59720	8,5607
59721	8,6458
59722	8,6931
59723	8,3814
59724	8,659
59725	8,7067
59726	8,3946
59727	8,5809
59728	8,7448
59729	8,8545
59730	8,8901
59731	8,5804
59732	8,7642
59733	8,7384
59734	8,8419
59735	8,877
59736	8,5678
59737	8,7448
59738	8,8419
59739	8,877
59740	8,5678
59741	8,8545
59742	8,8901
59743	8,5804
59744	8,7642
59745	8,9521
59746	9,0729
59747	9,0973
59748	8,7886
59749	8,9708
59750	8,9459
59751	9,0607
59752	9,0846
59753	8,7765
59754	8,9521
59755	9,0607
59756	9,0846
59757	8,7765
59758	9,0729
59759	9,0973
59760	8,7886
59761	8,9708
59762	9,1819
59763	9,3136
59764	9,3275
59765	9,0186
59766	9,1999
59767	9,1759
59768	9,3017
59769	9,3152
59770	9,0069
59771	9,1819
59772	9,3017
59773	9,3152
59774	9,0069
59775	9,3136
59776	9,3275
59777	9,0186
59778	9,1999
59779	9,4338
59780	9,5766
59781	9,5805
59782	9,2698
59783	9,4513
59784	9,428
59785	9,565
59786	9,5685
59787	9,2585
59788	9,4338
59789	9,565
59790	9,5685
59791	9,2585
59792	9,5766
59793	9,5805
59794	9,2698
59795	9,4513
59796	9,7081
59797	9,8623
59798	9,8566
59799	9,5425
59800	9,7252
59801	9,7023
59802	9,851
59803	9,8448
59804	9,5316
59805	9,7081
59806	9,851
59807	9,8448
59808	9,5316
59809	9,8623
59810	9,8566
59811	9,5425
59812	9,7252
59813	10,005
59814	10,172
59815	10,157
59816	9,8372
59817	10,022
59818	9,9998
59819	10,161
59820	10,145
59821	9,8265
59822	10,005
59823	10,161
59824	10,145
59825	9,8265
59826	10,172
59827	10,157
59828	9,8372
59829	10,022
59830	10,327
59831	10,507
59832	10,482
59833	10,155
59834	10,344
59835	10,322
59836	10,496
59837	10,47
59838	10,145
59839	10,327
59840	10,496
59841	10,47
59842	10,145
59843	10,507
59844	10,482
59845	10,155
59846	10,344
59847	10,676
59848	10,872
59849	10,835
59850	10,498
59851	10,693
59852	10,67
59853	10,86
59854	10,823
59855	10,488
59856	10,676
59857	10,86
59858	10,823
59859	10,488
59860	10,872
59861	10,835
59862	10,498
59863	10,693
59864	11,055
59865	11,269
59866	11,22
59867	10,87
59868	11,073
59869	11,049
59870	11,256
59871	11,207
59872	10,859
59873	11,055
59874	11,256
59875	11,207
59876	10,859
59877	11,269
59878	11,22
59879	10,87
59880	11,073
59881	11,47
59882	11,705
59883	11,641
59884	11,274
59885	11,489
59886	11,463
59887	11,691
59888	11,627
59889	11,263
59890	11,47
59891	11,691
59892	11,627
59893	11,263
59894	11,705
59895	11,641
59896	11,274
59897	11,489
59898	11,926
59899	12,187
59900	12,106
59901	11,718
59902	11,948
59903	11,918
59904	12,171
59905	12,09
59906	11,705
59907	11,926
59908	12,171
59909	12,09
59910	11,705
59911	12,187
59912	12,106
59913	11,718
59914	11,948
59915	12,433
59916	12,727
59917	12,623
59918	12,208
59919	12,459
59920	12,424
59921	12,707
59922	12,604
59923	12,193
59924	12,433
59925	12,707
59926	12,604
59927	12,193
59928	12,727
59929	12,623
59930	12,208
59931	12,459
59932	13,002
59933	13,338
59934	13,205
59935	12,757
59936	13,035
59937	12,991
59938	13,312
59939	13,181
59940	12,738
59941	13,002
59942	13,312
59943	13,181
59944	12,738
59945	13,338
59946	13,205
59947	12,757
59948	13,035
59949	13,648
59950	14,037
59951	13,865
59952	13,378
59953	13,693
59954	13,633
59955	14,002
59956	13,834
59957	13,352
59958	13,648
59959	14,002
59960	13,834
59961	13,352
59962	14,037
59963	13,865
59964	13,378
59965	13,693
59966	14,39
59967	14,844
59968	14,625
59969	14,088
59970	14,451
59971	14,37
59972	14,796
59973	14,582
59974	14,052
59975	14,39
59976	14,796
59977	14,582
59978	14,052
59979	14,844
59980	14,625
59981	14,088
59982	14,451
59983	15,251
59984	15,788
59985	14,906
59986	15,337
59987	15,223
59988	15,722
59989	14,856
59990	15,251
59991	15,722
59992	14,856
59993	15,788
59994	14,906
59995	15,337
59996	16,259
59997	16,898
59998	15,856
59999	16,38
60000	16,221
60001	16,811
60002	15,789
60003	16,259
60004	16,811
60005	15,789
60006	16,898
60007	15,856
60008	16,38
60009	17,449
60010	16,961
60011	18,215
60012	17,616
60013	17,401
60014	16,877
60015	18,111
60016	17,449
60017	16,877
60018	18,111
60019	16,961
60020	18,215
60021	17,616
60022	20,608
60023	21,778
60024	19,773
60025	19,792
60026	20,847
60027	20,563
60028	21,731
60029	19,706
60030	19,691
60031	20,608
60032	21,731
60033	19,706
60034	19,691
60035	21,778
60036	19,773
60037	19,792
60038	20,847
60039	22,904
60040	21,683
60041	25,136
60042	23,172
60043	23,081
60044	22,903
60045	21,705
60046	25,233
60047	23,138
60048	22,904
60049	21,705
60050	25,233
60051	23,138
60052	21,683
60053	25,136
60054	23,172
60055	23,081
60056	15,019
60057	14,192
60058	16,038
60059	14,522
60060	14,901
60061	15,062
60062	14,252
60063	16,16
60064	14,601
60065	15,019
60066	14,252
60067	16,16
60068	14,601
60069	14,192
60070	16,038
60071	14,522
60072	14,901
60073	13,442
60074	12,831
60075	13,025
60076	13,405
60077	13,458
60078	12,847
60079	13,053
60080	13,442
60081	12,847
60082	13,053
60083	12,831
60084	13,025
60085	13,405
60086	12,255
60087	11,763
60088	11,886
60089	12,263
60090	12,254
60091	11,753
60092	11,883
60093	12,255
60094	11,753
60095	11,883
60096	11,763
60097	11,886
60098	12,263
60099	11,282
60100	10,906
60101	10,95
60102	11,314
60103	11,273
60104	10,882
60105	10,93
60106	11,282
60107	10,882
60108	10,93
60109	10,906
60110	10,95
60111	11,314
60112	10,523
60113	10,227
60114	10,211
60115	10,565
60116	10,509
60117	10,198
60118	10,183
60119	10,523
60120	10,198
60121	10,183
60122	10,227
60123	10,211
60124	10,565
60125	9,9158
60126	9,6782
60127	10,17
60128	9,6177
60129	9,9612
60130	9,9009
60131	9,648
60132	10,139
60133	9,5875
60134	9,9158
60135	9,648
60136	10,139
60137	9,5875
60138	9,6782
60139	10,17
60140	9,6177
60141	9,9612
60142	9,422
60143	9,2316
60144	9,6686
60145	9,1368
60146	9,4674
60147	9,407
60148	9,2019
60149	9,6383
60150	9,1065
60151	9,422
60152	9,2019
60153	9,6383
60154	9,1065
60155	9,2316
60156	9,6686
60157	9,1368
60158	9,4674
60159	9,021
60160	8,8691
60161	9,2584
60162	8,7475
60163	9,0646
60164	9,0065
60165	8,8409
60166	9,2294
60167	8,7185
60168	9,021
60169	8,8409
60170	9,2294
60171	8,7185
60172	8,8691
60173	9,2584
60174	8,7475
60175	9,0646
60176	8,6967
60177	8,5777
60178	8,925
60179	8,4345
60180	8,7378
60181	8,6831
60182	8,5513
60183	8,8977
60184	8,4073
60185	8,6967
60186	8,5513
60187	8,8977
60188	8,4073
60189	8,5777
60190	8,925
60191	8,4345
60192	8,7378
60193	8,4386
60194	8,3482
60195	8,6579
60196	8,1871
60197	8,4768
60198	8,4259
60199	8,3237
60200	8,6325
60201	8,1619
60202	8,4386
60203	8,3237
60204	8,6325
60205	8,1619
60206	8,3482
60207	8,6579
60208	8,1871
60209	8,4768
60210	8,2386
60211	8,1735
60212	8,4495
60213	7,997
60214	8,2739
60215	8,2269
60216	8,151
60217	8,426
60218	7,9737
60219	8,2386
60220	8,151
60221	8,426
60222	7,9737
60223	8,1735
60224	8,4495
60225	7,997
60226	8,2739
60227	8,0903
60228	8,048
60229	8,2938
60230	7,8575
60231	8,1228
60232	8,0795
60233	8,0272
60234	8,2721
60235	7,8362
60236	8,0903
60237	8,0272
60238	8,2721
60239	7,8362
60240	8,048
60241	8,2938
60242	7,8575
60243	8,1228
60244	7,9885
60245	7,9668
60246	8,1858
60247	7,7634
60248	8,0184
60249	7,9785
60250	7,9477
60251	8,1657
60252	7,7438
60253	7,9885
60254	7,9477
60255	8,1657
60256	7,7438
60257	7,9668
60258	8,1858
60259	7,7634
60260	8,0184
60261	7,9289
60262	7,9259
60263	8,1211
60264	7,7101
60265	7,9564
60266	7,9197
60267	7,9083
60268	8,1026
60269	7,6922
60270	7,9289
60271	7,9083
60272	8,1026
60273	7,6922
60274	7,9259
60275	8,1211
60276	7,7101
60277	7,9564
60278	7,9077
60279	7,9218
60280	8,0963
60281	7,6939
60282	7,9331
60283	7,8992
60284	7,9056
60285	8,0791
60286	7,6774
60287	7,9077
60288	7,9056
60289	8,0791
60290	7,6774
60291	7,9218
60292	8,0963
60293	7,6939
60294	7,9331
60295	7,9216
60296	7,9516
60297	8,1079
60298	7,7115
60299	7,9451
60300	7,9138
60301	7,9365
60302	8,092
60303	7,6963
60304	7,9216
60305	7,9365
60306	8,092
60307	7,6963
60308	7,9516
60309	8,1079
60310	7,7115
60311	7,9451
60312	7,9679
60313	8,0124
60314	8,1532
60315	7,7599
60316	7,9897
60317	7,9607
60318	7,9984
60319	8,1384
60320	7,7459
60321	7,9679
60322	7,9984
60323	8,1384
60324	7,7459
60325	8,0124
60326	8,1532
60327	7,7599
60328	7,9897
60329	8,044
60330	8,1021
60331	8,2298
60332	7,8368
60333	8,0643
60334	8,0373
60335	8,089
60336	8,2159
60337	7,8238
60338	8,044
60339	8,089
60340	8,2159
60341	7,8238
60342	8,1021
60343	8,2298
60344	7,8368
60345	8,0643
60346	8,1479
60347	8,2186
60348	8,3355
60349	7,9399
60350	8,1668
60351	8,1416
60352	8,2064
60353	8,3225
60354	7,9278
60355	8,1479
60356	8,2064
60357	8,3225
60358	7,9278
60359	8,2186
60360	8,3355
60361	7,9399
60362	8,1668
60363	8,2777
60364	8,3604
60365	8,4686
60366	8,0675
60367	8,2955
60368	8,2718
60369	8,3488
60370	8,4563
60371	8,0562
60372	8,2777
60373	8,3488
60374	8,4563
60375	8,0562
60376	8,3604
60377	8,4686
60378	8,0675
60379	8,2955
60380	8,432
60381	8,526
60382	8,6276
60383	8,218
60384	8,4487
60385	8,4264
60386	8,5151
60387	8,6159
60388	8,2075
60389	8,432
60390	8,5151
60391	8,6159
60392	8,2075
60393	8,526
60394	8,6276
60395	8,218
60396	8,4487
60397	8,6095
60398	8,7145
60399	8,8114
60400	8,3901
60401	8,6254
60402	8,6042
60403	8,7041
60404	8,8001
60405	8,3802
60406	8,6095
60407	8,7041
60408	8,8001
60409	8,3802
60410	8,7145
60411	8,8114
60412	8,3901
60413	8,6254
60414	8,8093
60415	8,925
60416	9,0191
60417	8,5829
60418	8,8246
60419	8,8042
60420	8,915
60421	9,0082
60422	8,5736
60423	8,8093
60424	8,915
60425	9,0082
60426	8,5736
60427	8,925
60428	9,0191
60429	8,5829
60430	8,8246
60431	9,0309
60432	9,1571
60433	9,2503
60434	8,7956
60435	9,0456
60436	9,026
60437	9,1474
60438	9,2396
60439	8,7867
60440	9,0309
60441	9,1474
60442	9,2396
60443	8,7867
60444	9,1571
60445	9,2503
60446	8,7956
60447	9,0456
60448	9,2737
60449	9,4104
60450	9,5046
60451	9,0276
60452	9,2882
60453	9,2689
60454	9,4007
60455	9,494
60456	9,0189
60457	9,2737
60458	9,4007
60459	9,494
60460	9,0189
60461	9,4104
60462	9,5046
60463	9,0276
60464	9,2882
60465	9,5374
60466	9,6845
60467	9,782
60468	9,2783
60469	9,5518
60470	9,5326
60471	9,6748
60472	9,7713
60473	9,2698
60474	9,5374
60475	9,6748
60476	9,7713
60477	9,2698
60478	9,6845
60479	9,782
60480	9,2783
60481	9,5518
60482	9,8218
60483	9,9791
60484	10,082
60485	9,5473
60486	9,8364
60487	9,817
60488	9,9692
60489	10,072
60490	9,5388
60491	9,8218
60492	9,9692
60493	10,072
60494	9,5388
60495	9,9791
60496	10,082
60497	9,5473
60498	9,8364
60499	10,126
60500	10,294
60501	10,406
60502	9,8339
60503	10,142
60504	10,121
60505	10,283
60506	10,395
60507	9,8252
60508	10,126
60509	10,283
60510	10,395
60511	9,8252
60512	10,294
60513	10,406
60514	9,8339
60515	10,142
60516	10,451
60517	10,627
60518	10,752
60519	10,137
60520	10,466
60521	10,445
60522	10,616
60523	10,74
60524	10,128
60525	10,451
60526	10,616
60527	10,74
60528	10,128
60529	10,627
60530	10,752
60531	10,137
60532	10,466
60533	10,793
60534	10,977
60535	11,12
60536	10,455
60537	10,809
60538	10,787
60539	10,966
60540	11,107
60541	10,445
60542	10,793
60543	10,966
60544	11,107
60545	10,445
60546	10,977
60547	11,12
60548	10,455
60549	10,809
60550	11,15
60551	11,341
60552	11,509
60553	10,784
60554	11,168
60555	11,144
60556	11,329
60557	11,495
60558	10,774
60559	11,15
60560	11,329
60561	11,495
60562	10,774
60563	11,341
60564	11,509
60565	10,784
60566	11,168
60567	11,52
60568	11,714
60569	11,915
60570	11,121
60571	11,538
60572	11,514
60573	11,703
60574	11,901
60575	11,111
60576	11,52
60577	11,703
60578	11,901
60579	11,111
60580	11,714
60581	11,915
60582	11,121
60583	11,538
60584	11,897
60585	12,09
60586	12,336
60587	11,458
60588	11,914
60589	11,892
60590	12,083
60591	12,323
60592	11,45
60593	11,897
60594	12,083
60595	12,323
60596	11,45
60597	12,09
60598	12,336
60599	11,458
60600	11,914
60601	12,276
60602	12,462
60603	12,767
60604	11,789
60605	12,286
60606	12,274
60607	12,466
60608	12,76
60609	11,787
60610	12,276
60611	12,466
60612	12,76
60613	11,787
60614	12,462
60615	12,767
60616	11,789
60617	12,286
60618	12,652
60619	12,826
60620	12,103
60621	12,645
60622	12,659
60623	12,859
60624	12,117
60625	12,652
60626	12,859
60627	12,117
60628	12,826
60629	12,103
60630	12,645
60631	13,034
60632	13,187
60633	12,397
60634	12,983
60635	13,06
60636	13,281
60637	12,445
60638	13,034
60639	13,281
60640	12,445
60641	13,187
60642	12,397
60643	12,983
60644	13,435
60645	13,551
60646	14,134
60647	12,672
60648	13,298
60649	13,502
60650	13,737
60651	14,287
60652	12,786
60653	13,435
60654	13,737
60655	14,287
60656	12,786
60657	13,551
60658	14,134
60659	12,672
60660	13,298
60661	13,854
60662	13,98
60663	12,942
60664	14,67
60665	13,554
60666	13,972
60667	14,272
60668	13,146
60669	14,956
60670	13,854
60671	14,272
60672	13,146
60673	14,956
60674	13,98
60675	12,942
60676	14,67
60677	13,554
60678	14,398
60679	14,668
60680	13,275
60681	13,955
60682	14,571
60683	14,875
60684	13,563
60685	14,398
60686	14,875
60687	13,563
60688	14,668
60689	13,275
60690	13,955
60691	15,147
60692	16,685
60693	13,992
60694	16,498
60695	14,528
60696	15,181
60697	16,405
60698	14,121
60699	16,516
60700	15,147
60701	16,405
60702	14,121
60703	16,516
60704	16,685
60705	13,992
60706	16,498
60707	14,528
60708	17,418
60709	19,003
60710	18,48
60711	15,925
60712	17,717
60713	17,255
60714	18,722
60715	18,026
60716	15,669
60717	17,418
60718	18,722
60719	18,026
60720	15,669
60721	19,003
60722	18,48
60723	15,925
60724	17,717
60725	20,372
60726	23,599
60727	18,465
60728	20,106
60729	20,458
60730	23,765
60731	18,6
60732	20,372
60733	23,765
60734	18,6
60735	23,599
60736	18,465
60737	20,106
60738	15,346
60739	16,575
60740	14,775
60741	15,205
60742	15,395
60743	16,717
60744	14,866
60745	15,346
60746	16,717
60747	14,866
60748	16,575
60749	14,775
60750	15,205
60751	17,195
60752	16,579
60753	19,115
60754	16,949
60755	17,273
60756	16,724
60757	19,3
60758	17,195
60759	16,724
60760	19,3
60761	16,579
60762	19,115
60763	16,949
60764	22,178
60765	21,009
60766	22,359
60767	22,168
60768	21,011
60769	22,178
60770	21,011
60771	21,009
60772	22,359
60773	21,117
60774	22,79
60775	21,046
60776	20,763
60777	21,216
60778	22,974
60779	21,249
60780	21,117
60781	22,974
60782	21,249
60783	22,79
60784	21,046
60785	20,763
60786	17,964
60787	16,902
60788	18,711
60789	17,653
60790	18,055
60791	17,059
60792	18,901
60793	17,964
60794	17,059
60795	18,901
60796	16,902
60797	18,711
60798	17,653
60799	13,982
60800	13,8
60801	12,788
60802	16,694
60803	14,088
60804	13,995
60805	13,899
60806	13,694
60807	12,691
60808	16,348
60809	13,919
60810	13,982
60811	13,694
60812	12,691
60813	16,348
60814	13,919
60815	13,8
60816	12,788
60817	16,694
60818	14,088
60819	13,995
60820	13,579
60821	12,483
60822	15,96
60823	13,223
60824	13,299
60825	13,557
60826	12,504
60827	15,624
60828	13,294
60829	13,579
60830	12,504
60831	15,624
60832	13,294
60833	12,483
60834	15,96
60835	13,223
60836	13,299
60837	12,236
60838	11,523
60839	12,065
60840	12,239
60841	12,026
60842	12,32
60843	11,662
60844	12,196
60845	12,437
60846	12,236
60847	11,662
60848	12,196
60849	12,437
60850	11,523
60851	12,065
60852	12,239
60853	12,026
60854	12,658
60855	12,182
60856	12,081
60857	13,362
60858	12,626
60859	12,671
60860	12,199
60861	12,093
60862	13,412
60863	12,658
60864	12,199
60865	12,093
60866	13,412
60867	12,182
60868	12,081
60869	13,362
60870	12,626
60871	16,033
60872	15,123
60873	15,257
60874	16,618
60875	15,811
60876	16,099
60877	15,231
60878	15,363
60879	16,764
60880	16,033
60881	15,231
60882	15,363
60883	16,764
60884	15,123
60885	15,257
60886	16,618
60887	15,811
60888	14,329
60889	13,564
60890	13,715
60891	14,207
60892	14,371
60893	13,622
60894	13,778
60895	14,329
60896	13,622
60897	13,778
60898	13,564
60899	13,715
60900	14,207
60901	12,869
60902	12,285
60903	12,386
60904	12,825
60905	12,885
60906	12,302
60907	12,409
60908	12,869
60909	12,302
60910	12,409
60911	12,285
60912	12,386
60913	12,825
60914	11,734
60915	11,304
60916	11,266
60917	11,736
60918	11,735
60919	11,299
60920	11,258
60921	11,734
60922	11,299
60923	11,258
60924	11,304
60925	11,266
60926	11,736
60927	16,439
60928	17,056
60929	15,805
60930	15,964
60931	16,565
60932	16,402
60933	16,981
60934	15,744
60935	15,897
60936	16,439
60937	16,981
60938	15,744
60939	15,897
60940	17,056
60941	15,805
60942	15,964
60943	16,565
60944	17,598
60945	18,312
60946	16,799
60947	18,249
60948	17,747
60949	17,56
60950	18,25
60951	16,738
60952	18,157
60953	17,598
60954	18,25
60955	16,738
60956	18,157
60957	18,312
60958	16,799
60959	18,249
60960	17,747
60961	18,964
60962	19,802
60963	17,896
60964	19,099
60965	18,941
60966	19,799
60967	17,865
60968	18,964
60969	19,799
60970	17,865
60971	19,802
60972	17,896
60973	19,099
60974	20,639
60975	21,468
60976	19,104
60977	20,676
60978	20,66
60979	21,59
60980	19,154
60981	20,639
60982	21,59
60983	19,154
60984	21,468
60985	19,104
60986	20,676
60987	22,423
60988	22,568
60989	24,651
60990	20,251
60991	22,162
60992	22,524
60993	22,841
60994	24,847
60995	20,438
60996	22,423
60997	22,841
60998	24,847
60999	20,438
61000	22,568
61001	24,651
61002	20,251
61003	22,162
61004	23,015
61005	26,468
61006	20,581
61007	22,51
61008	22,371
61009	23,187
61010	26,803
61011	20,903
61012	22,891
61013	23,015
61014	26,803
61015	20,903
61016	22,891
61017	26,468
61018	20,581
61019	22,51
61020	22,371
61021	23,001
61022	22,008
61023	20,911
61024	25,862
61025	22,473
61026	23,158
61027	22,24
61028	21,218
61029	26,205
61030	23,001
61031	22,24
61032	21,218
61033	26,205
61034	22,008
61035	20,911
61036	25,862
61037	22,473
61038	21,247
61039	20,559
61040	19,587
61041	21,089
61042	21,322
61043	20,644
61044	19,741
61045	21,247
61046	20,644
61047	19,741
61048	20,559
61049	19,587
61050	21,089
61051	19,96
61052	19,31
61053	18,656
61054	20,011
61055	19,971
61056	19,294
61057	18,69
61058	19,96
61059	19,294
61060	18,69
61061	19,31
61062	18,656
61063	20,011
61064	18,647
61065	18,07
61066	17,66
61067	18,786
61068	18,62
61069	18,005
61070	17,622
61071	18,647
61072	18,005
61073	17,622
61074	18,07
61075	17,66
61076	18,786
61077	17,429
61078	16,656
61079	16,896
61080	17,576
61081	17,391
61082	16,594
61083	16,821
61084	17,429
61085	16,594
61086	16,821
61087	16,656
61088	16,896
61089	17,576
61090	11,515
61091	12,083
61092	11,115
61093	11,072
61094	11,524
61095	11,513
61096	12,096
61097	11,106
61098	11,06
61099	11,515
61100	12,096
61101	11,106
61102	11,06
61103	12,083
61104	11,115
61105	11,072
61106	11,524
61107	12,682
61108	13,382
61109	12,216
61110	12,646
61111	12,696
61112	13,435
61113	12,234
61114	12,682
61115	13,435
61116	12,234
61117	13,382
61118	12,216
61119	12,646
61120	14,15
61121	15,12
61122	13,598
61123	14,559
61124	14,04
61125	14,188
61126	15,227
61127	13,657
61128	14,643
61129	14,15
61130	15,227
61131	13,657
61132	14,643
61133	15,12
61134	13,598
61135	14,559
61136	14,04
61137	16,208
61138	17,566
61139	15,443
61140	16,672
61141	15,978
61142	16,277
61143	17,738
61144	15,556
61145	16,821
61146	16,208
61147	17,738
61148	15,556
61149	16,821
61150	17,566
61151	15,443
61152	16,672
61153	15,978
61154	19,109
61155	21,739
61156	17,918
61157	20,139
61158	18,696
61159	19,212
61160	21,919
61161	18,086
61162	20,344
61163	19,109
61164	21,919
61165	18,086
61166	20,344
61167	21,739
61168	17,918
61169	20,139
61170	18,696
61171	16,148
61172	15,387
61173	15,081
61174	17,451
61175	15,923
61176	16,216
61177	15,498
61178	15,186
61179	17,622
61180	16,148
61181	15,498
61182	15,186
61183	17,622
61184	15,387
61185	15,081
61186	17,451
61187	15,923
61188	14,353
61189	14,042
61190	13,119
61191	17,091
61192	15,369
61193	14,508
61194	14,245
61195	13,857
61196	12,966
61197	16,854
61198	15,195
61199	14,353
61200	13,857
61201	12,966
61202	16,854
61203	15,195
61204	14,042
61205	13,119
61206	17,091
61207	15,369
61208	14,508
61209	13,708
61210	13,409
61211	12,623
61212	13,66
61213	13,627
61214	13,351
61215	12,541
61216	13,708
61217	13,351
61218	12,541
61219	13,409
61220	12,623
61221	13,66
61222	13,114
61223	12,86
61224	12,184
61225	12,847
61226	13,136
61227	12,981
61228	12,25
61229	13,114
61230	12,981
61231	12,25
61232	12,86
61233	12,184
61234	12,847
61235	12,745
61236	12,497
61237	11,872
61238	12,362
61239	12,845
61240	12,708
61241	12,045
61242	12,745
61243	12,708
61244	12,045
61245	12,497
61246	11,872
61247	12,362
61248	12,461
61249	12,245
61250	11,662
61251	12,14
61252	12,573
61253	12,44
61254	11,85
61255	12,461
61256	12,44
61257	11,85
61258	12,245
61259	11,662
61260	12,14
61261	12,225
61262	11,52
61263	12,06
61264	12,015
61265	12,308
61266	11,659
61267	12,191
61268	12,225
61269	11,659
61270	12,191
61271	11,52
61272	12,06
61273	12,015
61274	11,54
61275	12,114
61276	11,105
61277	11,893
61278	11,077
61279	11,55
61280	11,539
61281	12,126
61282	11,095
61283	11,89
61284	11,065
61285	11,54
61286	12,126
61287	11,095
61288	11,89
61289	11,065
61290	12,114
61291	11,105
61292	11,893
61293	11,077
61294	11,55
61295	12,718
61296	13,432
61297	12,227
61298	13,104
61299	12,683
61300	12,732
61301	13,485
61302	12,244
61303	13,134
61304	12,718
61305	13,485
61306	12,244
61307	13,134
61308	13,432
61309	12,227
61310	13,104
61311	12,683
61312	14,213
61313	15,111
61314	13,63
61315	14,103
61316	14,252
61317	15,219
61318	13,689
61319	14,213
61320	15,219
61321	13,689
61322	15,111
61323	13,63
61324	14,103
61325	16,127
61326	17,428
61327	15,367
61328	15,903
61329	16,196
61330	17,597
61331	15,478
61332	16,127
61333	17,597
61334	15,478
61335	17,428
61336	15,367
61337	15,903
61338	18,911
61339	17,713
61340	21,234
61341	18,511
61342	19,012
61343	17,877
61344	21,43
61345	18,911
61346	17,877
61347	21,43
61348	17,713
61349	21,234
61350	18,511
61351	19,709
61352	19,166
61353	22,485
61354	18,44
61355	19,273
61356	19,811
61357	19,338
61358	22,67
61359	18,622
61360	19,709
61361	19,338
61362	22,67
61363	18,622
61364	19,166
61365	22,485
61366	18,44
61367	19,273
61368	19,985
61369	19,248
61370	20,164
61371	18,842
61372	22,657
61373	19,714
61374	20,03
61375	19,362
61376	20,2
61377	18,895
61378	22,724
61379	19,985
61380	19,362
61381	20,2
61382	18,895
61383	22,724
61384	19,248
61385	20,164
61386	18,842
61387	22,657
61388	19,714
61389	18,728
61390	17,642
61391	17,551
61392	21,148
61393	18,4
61394	18,8
61395	17,778
61396	17,646
61397	21,307
61398	18,728
61399	17,778
61400	17,646
61401	21,307
61402	17,642
61403	17,551
61404	21,148
61405	18,4
61406	16,725
61407	15,679
61408	15,827
61409	16,482
61410	16,791
61411	15,788
61412	15,915
61413	16,725
61414	15,788
61415	15,915
61416	15,679
61417	15,827
61418	16,482
61419	14,749
61420	13,903
61421	14,064
61422	14,605
61423	14,793
61424	13,97
61425	14,12
61426	14,749
61427	13,97
61428	14,12
61429	13,903
61430	14,064
61431	14,605
61432	13,131
61433	12,433
61434	12,531
61435	13,067
61436	13,153
61437	12,46
61438	12,552
61439	13,131
61440	12,46
61441	12,552
61442	12,433
61443	12,531
61444	13,067
61445	11,774
61446	11,219
61447	11,234
61448	11,765
61449	11,778
61450	11,217
61451	11,227
61452	11,774
61453	11,217
61454	11,227
61455	11,219
61456	11,234
61457	11,765
61458	10,676
61459	10,242
61460	10,172
61461	10,7
61462	10,669
61463	10,221
61464	10,149
61465	10,676
61466	10,221
61467	10,149
61468	10,242
61469	10,172
61470	10,7
61471	9,8008
61472	9,4602
61473	9,3209
61474	10,214
61475	9,8412
61476	9,7875
61477	9,4312
61478	9,2885
61479	10,191
61480	9,8008
61481	9,4312
61482	9,2885
61483	10,191
61484	9,4602
61485	9,3209
61486	10,214
61487	9,8412
61488	9,1028
61489	8,8362
61490	8,6428
61491	9,5046
61492	9,1502
61493	9,087
61494	8,804
61495	8,6076
61496	9,4748
61497	9,1028
61498	8,804
61499	8,6076
61500	9,4748
61501	8,8362
61502	8,6428
61503	9,5046
61504	9,1502
61505	8,5473
61506	8,3388
61507	8,1061
61508	8,9363
61509	8,596
61510	8,5309
61511	8,3066
61512	8,0714
61513	8,9048
61514	8,5473
61515	8,3066
61516	8,0714
61517	8,9048
61518	8,3388
61519	8,1061
61520	8,9363
61521	8,596
61522	8,106
61523	7,9441
61524	7,6839
61525	8,4809
61526	8,1532
61527	8,0902
61528	7,9134
61529	7,6512
61530	8,4499
61531	8,106
61532	7,9134
61533	7,6512
61534	8,4499
61535	7,9441
61536	7,6839
61537	8,4809
61538	8,1532
61539	7,7576
61540	7,6337
61541	7,3548
61542	8,1174
61543	7,8019
61544	7,7428
61545	7,6052
61546	7,3248
61547	8,0881
61548	7,7576
61549	7,6052
61550	7,3248
61551	8,0881
61552	7,6337
61553	7,3548
61554	8,1174
61555	7,8019
61556	7,486
61557	7,3936
61558	7,1022
61559	7,8303
61560	7,5267
61561	7,4724
61562	7,3676
61563	7,0751
61564	7,8032
61565	7,486
61566	7,3676
61567	7,0751
61568	7,8032
61569	7,3936
61570	7,1022
61571	7,8303
61572	7,5267
61573	7,2788
61574	7,2132
61575	6,9135
61576	7,6081
61577	7,316
61578	7,2665
61579	7,1896
61580	6,8891
61581	7,5831
61582	7,2788
61583	7,1896
61584	6,8891
61585	7,5831
61586	7,2132
61587	6,9134
61588	7,6081
61589	7,316
61590	7,1267
61591	7,084
61592	6,7786
61593	7,4415
61594	7,1603
61595	7,1155
61596	7,0627
61597	6,7567
61598	7,4188
61599	7,1267
61600	7,0627
61601	6,7567
61602	7,4188
61603	7,084
61604	6,7786
61605	7,4415
61606	7,1603
61607	7,0221
61608	6,9995
61609	6,69
61610	7,3237
61611	7,0526
61612	7,012
61613	6,9802
61614	6,6704
61615	7,303
61616	7,0221
61617	6,9802
61618	6,6704
61619	7,303
61620	6,9995
61621	6,69
61622	7,3237
61623	7,0526
61624	6,9592
61625	6,9542
61626	6,6414
61627	7,2487
61628	6,9867
61629	6,95
61630	6,9367
61631	6,6238
61632	7,23
61633	6,9592
61634	6,9367
61635	6,6238
61636	7,23
61637	6,9542
61638	6,6414
61639	7,2487
61640	6,9867
61641	6,933
61642	6,9437
61643	6,628
61644	7,212
61645	6,9579
61646	6,9247
61647	6,9279
61648	6,6122
61649	7,1949
61650	6,933
61651	6,9279
61652	6,6122
61653	7,1949
61654	6,9437
61655	6,628
61656	7,212
61657	6,9579
61658	6,9395
61659	6,9643
61660	6,6458
61661	7,2095
61662	6,9621
61663	6,9321
61664	6,95
61665	6,6315
61666	7,1939
61667	6,9395
61668	6,95
61669	6,6315
61670	7,1939
61671	6,9643
61672	6,6458
61673	7,2095
61674	6,9621
61675	6,9754
61676	7,0128
61677	6,6911
61678	7,2378
61679	6,9959
61680	6,9686
61681	6,9998
61682	6,6783
61683	7,2236
61684	6,9754
61685	6,9998
61686	6,6783
61687	7,2236
61688	7,0128
61689	6,6911
61690	7,2378
61691	6,9959
61692	7,0377
61693	7,0865
61694	6,7613
61695	7,2941
61696	7,0563
61697	7,0316
61698	7,0748
61699	6,7497
61700	7,2811
61701	7,0377
61702	7,0748
61703	6,7497
61704	7,2811
61705	7,0865
61706	6,7613
61707	7,2941
61708	7,0563
61709	7,1239
61710	7,1831
61711	6,8537
61712	7,3759
61713	7,1408
61714	7,1183
61715	7,1724
61716	6,8433
61717	7,364
61718	7,1239
61719	7,1724
61720	6,8433
61721	7,364
61722	7,1831
61723	6,8537
61724	7,3759
61725	7,1408
61726	7,2319
61727	7,3005
61728	6,9662
61729	7,4809
61730	7,2472
61731	7,2268
61732	7,2908
61733	6,9568
61734	7,4701
61735	7,2319
61736	7,2908
61737	6,9568
61738	7,4701
61739	7,3005
61740	6,9662
61741	7,4809
61742	7,2472
61743	7,3596
61744	7,4368
61745	7,0968
61746	7,6073
61747	7,3734
61748	7,3549
61749	7,428
61750	7,0884
61751	7,5974
61752	7,3596
61753	7,428
61754	7,0884
61755	7,5974
61756	7,4368
61757	7,0968
61758	7,6073
61759	7,3734
61760	7,5053
61761	7,5904
61762	7,2438
61763	7,7535
61764	7,5178
61765	7,5012
61766	7,5825
61767	7,2363
61768	7,7444
61769	7,5053
61770	7,5825
61771	7,2363
61772	7,7444
61773	7,5904
61774	7,2438
61775	7,7535
61776	7,5178
61777	7,6676
61778	7,76
61779	7,4055
61780	7,918
61781	7,6789
61782	7,6639
61783	7,7528
61784	7,3988
61785	7,9096
61786	7,6676
61787	7,7528
61788	7,3988
61789	7,9096
61790	7,76
61791	7,4055
61792	7,918
61793	7,6789
61794	7,8452
61795	7,9442
61796	7,5804
61797	8,0995
61798	7,8553
61799	7,8418
61800	7,9377
61801	7,5746
61802	8,0919
61803	7,8452
61804	7,9377
61805	7,5746
61806	8,0919
61807	7,9442
61808	7,5804
61809	8,0995
61810	7,8553
61811	8,0367
61812	8,1418
61813	7,7673
61814	8,2971
61815	8,0458
61816	8,0337
61817	8,136
61818	7,7622
61819	8,29
61820	8,0367
61821	8,136
61822	7,7622
61823	8,29
61824	8,1418
61825	7,7673
61826	8,2971
61827	8,0458
61828	8,2411
61829	8,3519
61830	7,9648
61831	8,5098
61832	8,2494
61833	8,2384
61834	8,3466
61835	7,9604
61836	8,5032
61837	8,2411
61838	8,3466
61839	7,9604
61840	8,5032
61841	8,3519
61842	7,9648
61843	8,5098
61844	8,2494
61845	8,4574
61846	8,5733
61847	8,1716
61848	8,7367
61849	8,4649
61850	8,4549
61851	8,5684
61852	8,1678
61853	8,7305
61854	8,4574
61855	8,5684
61856	8,1678
61857	8,7305
61858	8,5732
61859	8,1716
61860	8,7367
61861	8,4649
61862	8,6843
61863	8,8047
61864	8,3866
61865	8,9769
61866	8,6913
61867	8,682
61868	8,8002
61869	8,3832
61870	8,971
61871	8,6843
61872	8,8002
61873	8,3832
61874	8,971
61875	8,8047
61876	8,3866
61877	8,9769
61878	8,6913
61879	8,9206
61880	9,0448
61881	8,6082
61882	9,2293
61883	8,9273
61884	8,9184
61885	9,0403
61886	8,6051
61887	9,2234
61888	8,9206
61889	9,0403
61890	8,6051
61891	9,2234
61892	9,0448
61893	8,6082
61894	9,2293
61895	8,9273
61896	9,1646
61897	9,2913
61898	8,8347
61899	9,4923
61900	9,1712
61901	9,1624
61902	9,2868
61903	8,8317
61904	9,4864
61905	9,1646
61906	9,2868
61907	8,8317
61908	9,4864
61909	9,2913
61910	8,8347
61911	9,4923
61912	9,1712
61913	9,4137
61914	9,5413
61915	9,0638
61916	9,7635
61917	9,4203
61918	9,4114
61919	9,5368
61920	9,0607
61921	9,7574
61922	9,4137
61923	9,5368
61924	9,0607
61925	9,7574
61926	9,5413
61927	9,0638
61928	9,7635
61929	9,4203
61930	9,6645
61931	9,7904
61932	9,2923
61933	10,039
61934	9,6711
61935	9,6622
61936	9,786
61937	9,2891
61938	10,033
61939	9,6645
61940	9,786
61941	9,2891
61942	10,033
61943	9,7904
61944	9,2923
61945	10,039
61946	9,6711
61947	9,9121
61948	10,032
61949	9,5158
61950	10,315
61951	9,9181
61952	9,91
61953	10,029
61954	9,5128
61955	10,309
61956	9,9121
61957	10,029
61958	9,5128
61959	10,309
61960	10,032
61961	9,5158
61962	10,315
61963	9,9181
61964	10,15
61965	10,26
61966	9,7284
61967	10,583
61968	10,154
61969	10,148
61970	10,259
61971	9,7265
61972	10,579
61973	10,15
61974	10,259
61975	9,7265
61976	10,579
61977	10,26
61978	9,7284
61979	10,583
61980	10,154
61981	10,369
61982	10,462
61983	9,9228
61984	10,834
61985	10,367
61986	10,37
61987	10,47
61988	9,9245
61989	10,835
61990	10,369
61991	10,47
61992	9,9245
61993	10,835
61994	10,462
61995	9,9228
61996	10,834
61997	10,367
61998	10,563
61999	10,632
62000	10,091
62001	11,059
62002	10,548
62003	10,569
62004	10,654
62005	10,101
62006	11,072
62007	10,563
62008	10,654
62009	10,101
62010	11,072
62011	10,632
62012	10,091
62013	11,059
62014	10,548
62015	10,723
62016	10,761
62017	10,226
62018	11,247
62019	10,683
62020	10,74
62021	10,811
62022	10,253
62023	11,285
62024	10,723
62025	10,811
62026	10,253
62027	11,285
62028	10,761
62029	10,226
62030	11,247
62031	10,683
62032	10,85
62033	10,857
62034	10,328
62035	11,397
62036	10,766
62037	10,883
62038	10,946
62039	10,382
62040	11,478
62041	10,85
62042	10,946
62043	10,382
62044	11,478
62045	10,857
62046	10,328
62047	11,397
62048	10,766
62049	10,954
62050	10,937
62051	10,406
62052	10,807
62053	11,009
62054	11,068
62055	10,496
62056	10,954
62057	11,068
62058	10,496
62059	10,937
62060	10,406
62061	10,807
62062	11,051
62063	11,035
62064	10,48
62065	10,835
62066	11,126
62067	11,184
62068	10,602
62069	11,051
62070	11,184
62071	10,602
62072	11,035
62073	10,48
62074	10,835
62075	11,169
62076	11,181
62077	10,58
62078	10,917
62079	11,244
62080	11,299
62081	10,705
62082	11,169
62083	11,299
62084	10,705
62085	11,181
62086	10,58
62087	10,917
62088	11,32
62089	11,352
62090	10,703
62091	11,099
62092	11,365
62093	11,395
62094	10,788
62095	11,32
62096	11,395
62097	10,788
62098	11,352
62099	10,703
62100	11,099
62101	11,464
62102	11,573
62103	10,818
62104	11,353
62105	11,463
62106	11,533
62107	10,836
62108	11,464
62109	11,533
62110	10,836
62111	11,573
62112	10,818
62113	11,353
62114	11,747
62115	11,624
62116	10,932
62117	11,758
62118	11,704
62119	11,547
62120	10,891
62121	11,747
62122	11,547
62123	10,891
62124	11,624
62125	10,932
62126	11,758
62127	11,619
62128	10,762
62129	14,179
62130	11,309
62131	11,714
62132	11,58
62133	10,707
62134	14,069
62135	11,259
62136	11,619
62137	10,707
62138	14,069
62139	11,259
62140	10,762
62141	14,179
62142	11,309
62143	11,714
62144	9,6112
62145	8,737
62146	10,456
62147	8,86
62148	9,1921
62149	10,289
62150	9,692
62151	9,6126
62152	8,7496
62153	10,429
62154	8,8463
62155	9,1753
62156	10,275
62157	9,6112
62158	8,7496
62159	10,429
62160	8,8463
62161	9,1753
62162	10,275
62163	8,737
62164	10,456
62165	8,86
62166	9,1921
62167	10,289
62168	9,692
62169	8,2043
62170	7,2711
62171	7,8325
62172	8,406
62173	8,2097
62174	8,2179
62175	7,3042
62176	7,8421
62177	8,4028
62178	8,2043
62179	7,3042
62180	7,8421
62181	8,4028
62182	7,2711
62183	7,8325
62184	8,406
62185	8,2097
62186	6,5668
62187	6,0414
62188	6,3908
62189	6,6646
62190	6,2658
62191	6,5061
62192	6,5886
62193	6,0896
62194	6,419
62195	6,6916
62196	6,2812
62197	6,5668
62198	6,0896
62199	6,419
62200	6,6916
62201	6,2812
62202	6,0414
62203	6,3908
62204	6,6646
62205	6,2658
62206	6,5061
62207	5,5952
62208	5,3623
62209	4,822
62210	5,7669
62211	5,5191
62212	5,623
62213	5,419
62214	4,8615
62215	5,8029
62216	5,5952
62217	5,419
62218	4,8615
62219	5,8029
62220	5,3623
62221	4,822
62222	5,7669
62223	5,5191
62224	5,1957
62225	4,9995
62226	5,4895
62227	4,6536
62228	5,1153
62229	5,226
62230	5,0601
62231	5,5252
62232	4,6976
62233	5,1957
62234	5,0601
62235	5,5252
62236	4,6976
62237	4,9995
62238	5,4895
62239	4,6536
62240	5,1153
62241	4,8744
62242	5,0832
62243	4,7665
62244	5,2917
62245	4,7507
62246	4,9058
62247	5,1399
62248	4,8207
62249	5,3293
62250	4,8744
62251	5,1399
62252	4,8207
62253	5,3293
62254	5,0832
62255	4,7665
62256	5,2917
62257	4,7507
62258	5,3562
62259	5,2611
62260	5,5598
62261	5,323
62262	5,382
62263	5,3153
62264	5,5844
62265	5,3562
62266	5,3153
62267	5,5844
62268	5,2611
62269	5,5598
62270	5,323
62271	5,2231
62272	5,3975
62273	4,9372
62274	5,149
62275	5,2528
62276	5,4478
62277	4,9908
62278	5,2231
62279	5,4478
62280	4,9908
62281	5,3975
62282	4,9372
62283	5,149
62284	5,6361
62285	5,7644
62286	5,8346
62287	5,6221
62288	5,6576
62289	5,8097
62290	5,8526
62291	5,6361
62292	5,8097
62293	5,8526
62294	5,7644
62295	5,8346
62296	5,6221
62297	5,9382
62298	6,2733
62299	6,0628
62300	5,2636
62301	5,8976
62302	5,9626
62303	6,3183
62304	6,0884
62305	5,3118
62306	5,9382
62307	6,3183
62308	6,0884
62309	5,3118
62310	6,2733
62311	6,0628
62312	5,2636
62313	5,8976
62314	6,662
62315	7,2119
62316	6,5961
62317	5,3345
62318	6,6061
62319	6,683
62320	7,2449
62321	6,6221
62322	5,3597
62323	6,662
62324	7,2449
62325	6,6221
62326	5,3597
62327	7,2119
62328	6,5961
62329	5,3345
62330	6,6061
62331	8,0177
62332	8,6476
62333	7,862
62334	7,5313
62335	7,6862
62336	8,0313
62337	8,0317
62338	8,6645
62339	7,8643
62340	7,5409
62341	7,6861
62342	8,0177
62343	8,6645
62344	7,8643
62345	7,5409
62346	7,6861
62347	8,6476
62348	7,862
62349	7,5313
62350	7,6862
62351	8,0313
62352	9,4084
62353	9,8615
62354	8,8697
62355	9,6963
62356	9,4691
62357	9,4132
62358	9,8391
62359	8,858
62360	9,6948
62361	9,4084
62362	9,8391
62363	8,858
62364	9,6948
62365	9,8615
62366	8,8697
62367	9,6963
62368	9,4691
62369	11,162
62370	10,305
62371	11,832
62372	11,395
62373	10,561
62374	11,276
62375	11,144
62376	10,265
62377	11,778
62378	11,335
62379	10,537
62380	11,162
62381	10,265
62382	11,778
62383	11,335
62384	10,537
62385	10,305
62386	11,832
62387	11,395
62388	10,561
62389	11,276
62390	11,676
62391	11,567
62392	10,901
62393	12,984
62394	11,605
62395	11,697
62396	11,634
62397	11,518
62398	10,859
62399	12,852
62400	11,525
62401	11,676
62402	11,518
62403	10,859
62404	12,852
62405	11,525
62406	11,567
62407	10,901
62408	12,984
62409	11,605
62410	11,697
62411	11,51
62412	11,426
62413	10,838
62414	11,401
62415	11,499
62416	11,46
62417	10,848
62418	11,51
62419	11,46
62420	10,848
62421	11,426
62422	10,838
62423	11,401
62424	11,412
62425	11,244
62426	10,743
62427	11,201
62428	11,456
62429	11,362
62430	10,828
62431	11,412
62432	11,362
62433	10,828
62434	11,244
62435	10,743
62436	11,201
62437	11,208
62438	11,069
62439	10,601
62440	12,003
62441	10,946
62442	11,282
62443	11,218
62444	10,725
62445	12,171
62446	11,208
62447	11,218
62448	10,725
62449	12,171
62450	11,069
62451	10,601
62452	12,003
62453	10,946
62454	11,08
62455	10,949
62456	10,492
62457	11,665
62458	10,863
62459	11,156
62460	11,08
62461	10,614
62462	11,855
62463	11,08
62464	11,08
62465	10,614
62466	11,855
62467	10,949
62468	10,492
62469	11,665
62470	10,863
62471	10,949
62472	10,856
62473	10,404
62474	10,802
62475	11,005
62476	10,945
62477	10,494
62478	10,949
62479	10,945
62480	10,494
62481	10,856
62482	10,404
62483	10,802
62484	10,852
62485	10,763
62486	10,329
62487	11,398
62488	10,768
62489	10,885
62490	10,813
62491	10,383
62492	11,479
62493	10,852
62494	10,813
62495	10,383
62496	11,479
62497	10,763
62498	10,329
62499	11,398
62500	10,768
62501	10,724
62502	10,632
62503	10,227
62504	11,248
62505	10,683
62506	10,74
62507	10,655
62508	10,254
62509	11,286
62510	10,724
62511	10,655
62512	10,254
62513	11,286
62514	10,632
62515	10,227
62516	11,248
62517	10,683
62518	10,564
62519	10,463
62520	10,092
62521	11,06
62522	10,549
62523	10,57
62524	10,471
62525	10,102
62526	11,073
62527	10,564
62528	10,471
62529	10,102
62530	11,073
62531	10,463
62532	10,092
62533	11,06
62534	10,549
62535	10,37
62536	10,26
62537	9,9235
62538	10,835
62539	10,368
62540	10,371
62541	10,26
62542	9,9252
62543	10,836
62544	10,37
62545	10,26
62546	9,9252
62547	10,836
62548	10,26
62549	9,9235
62550	10,835
62551	10,368
62552	10,15
62553	10,033
62554	9,7291
62555	10,584
62556	10,154
62557	10,149
62558	10,03
62559	9,7272
62560	10,58
62561	10,15
62562	10,03
62563	9,7272
62564	10,58
62565	10,033
62566	9,7291
62567	10,584
62568	10,154
62569	9,9129
62570	9,7912
62571	9,5166
62572	10,316
62573	9,9189
62574	9,9108
62575	9,7868
62576	9,5135
62577	10,31
62578	9,9129
62579	9,7868
62580	9,5135
62581	10,31
62582	9,7912
62583	9,5166
62584	10,316
62585	9,9189
62586	9,6654
62587	9,5422
62588	9,2931
62589	10,04
62590	9,672
62591	9,6631
62592	9,5376
62593	9,2899
62594	10,034
62595	9,6654
62596	9,5376
62597	9,2899
62598	10,034
62599	9,5422
62600	9,2931
62601	10,04
62602	9,672
62603	9,4146
62604	9,2922
62605	9,0646
62606	9,7645
62607	9,4212
62608	9,4123
62609	9,2877
62610	9,0615
62611	9,7583
62612	9,4146
62613	9,2877
62614	9,0615
62615	9,7583
62616	9,2922
62617	9,0646
62618	9,7645
62619	9,4212
62620	9,1655
62621	9,0457
62622	8,8355
62623	9,4933
62624	9,172
62625	9,1632
62626	9,0412
62627	8,8325
62628	9,4873
62629	9,1655
62630	9,0412
62631	8,8325
62632	9,4873
62633	9,0457
62634	8,8355
62635	9,4933
62636	9,172
62637	8,9216
62638	8,8056
62639	8,6091
62640	9,2303
62641	8,9282
62642	8,9193
62643	8,8011
62644	8,6059
62645	9,2244
62646	8,9216
62647	8,8011
62648	8,6059
62649	9,2244
62650	8,8056
62651	8,6091
62652	9,2303
62653	8,9282
62654	8,6853
62655	8,5742
62656	8,3875
62657	8,9779
62658	8,6922
62659	8,6829
62660	8,5693
62661	8,3841
62662	8,9719
62663	8,6853
62664	8,5693
62665	8,3841
62666	8,9719
62667	8,5742
62668	8,3875
62669	8,9779
62670	8,6922
62671	8,4583
62672	8,3528
62673	8,1725
62674	8,7377
62675	8,4658
62676	8,4558
62677	8,3476
62678	8,1687
62679	8,7315
62680	8,4583
62681	8,3476
62682	8,1687
62683	8,7315
62684	8,3528
62685	8,1725
62686	8,7377
62687	8,4658
62688	8,2421
62689	8,1427
62690	7,9657
62691	8,5107
62692	8,2503
62693	8,2393
62694	8,1369
62695	7,9613
62696	8,5042
62697	8,2421
62698	8,1369
62699	7,9613
62700	8,5042
62701	8,1427
62702	7,9657
62703	8,5107
62704	8,2503
62705	8,0376
62706	7,9451
62707	7,7682
62708	8,298
62709	8,0467
62710	8,0346
62711	7,9386
62712	7,7631
62713	8,291
62714	8,0376
62715	7,9386
62716	7,7631
62717	8,291
62718	7,9451
62719	7,7682
62720	8,298
62721	8,0467
62722	7,8461
62723	7,7608
62724	7,5813
62725	8,1004
62726	7,8562
62727	7,8427
62728	7,7537
62729	7,5755
62730	8,0928
62731	7,8461
62732	7,7537
62733	7,5755
62734	8,0928
62735	7,7608
62736	7,5813
62737	8,1004
62738	7,8562
62739	7,6685
62740	7,5913
62741	7,4063
62742	7,9188
62743	7,6798
62744	7,6647
62745	7,5833
62746	7,3997
62747	7,9105
62748	7,6685
62749	7,5833
62750	7,3997
62751	7,9105
62752	7,5913
62753	7,4063
62754	7,9188
62755	7,6798
62756	7,5061
62757	7,4376
62758	7,2446
62759	7,7543
62760	7,5186
62761	7,502
62762	7,4288
62763	7,2371
62764	7,7452
62765	7,5061
62766	7,4288
62767	7,2371
62768	7,7452
62769	7,4376
62770	7,2446
62771	7,7543
62772	7,5186
62773	7,3603
62774	7,3012
62775	7,0976
62776	7,6081
62777	7,3742
62778	7,3557
62779	7,2915
62780	7,0892
62781	7,5981
62782	7,3603
62783	7,2915
62784	7,0892
62785	7,5981
62786	7,3012
62787	7,0976
62788	7,6081
62789	7,3742
62790	7,2325
62791	7,1837
62792	6,9669
62793	7,4816
62794	7,2478
62795	7,2274
62796	7,173
62797	6,9575
62798	7,4707
62799	7,2325
62800	7,173
62801	6,9575
62802	7,4707
62803	7,1837
62804	6,9669
62805	7,4816
62806	7,2478
62807	7,1245
62808	7,0871
62809	6,8544
62810	7,3764
62811	7,1414
62812	7,1189
62813	7,0753
62814	6,8439
62815	7,3646
62816	7,1245
62817	7,0753
62818	6,8439
62819	7,3646
62820	7,0871
62821	6,8544
62822	7,3764
62823	7,1414
62824	7,0382
62825	7,0132
62826	6,7618
62827	7,2945
62828	7,0567
62829	7,032
62830	7,0002
62831	6,7502
62832	7,2816
62833	7,0382
62834	7,0002
62835	6,7502
62836	7,2816
62837	7,0132
62838	6,7618
62839	7,2945
62840	7,0567
62841	6,9757
62842	6,9645
62843	6,6915
62844	7,2381
62845	6,9962
62846	6,9689
62847	6,9502
62848	6,6787
62849	7,2239
62850	6,9757
62851	6,9502
62852	6,6787
62853	7,2239
62854	6,9645
62855	6,6915
62856	7,2381
62857	6,9962
62858	6,9397
62859	6,9437
62860	6,646
62861	7,2096
62862	6,9622
62863	6,9322
62864	6,928
62865	6,6317
62866	7,194
62867	6,9397
62868	6,928
62869	6,6317
62870	7,194
62871	6,9437
62872	6,646
62873	7,2096
62874	6,9622
62875	6,9329
62876	6,954
62877	6,6281
62878	7,2119
62879	6,9578
62880	6,9247
62881	6,9366
62882	6,6123
62883	7,1948
62884	6,9329
62885	6,9366
62886	6,6123
62887	7,1948
62888	6,954
62889	6,6281
62890	7,2119
62891	6,9578
62892	6,9589
62893	6,999
62894	6,6412
62895	7,2484
62896	6,9864
62897	6,9497
62898	6,9798
62899	6,6236
62900	7,2296
62901	6,9589
62902	6,9798
62903	6,6236
62904	7,2296
62905	6,999
62906	6,6412
62907	7,2484
62908	6,9864
62909	7,0215
62910	7,0833
62911	6,6895
62912	7,323
62913	7,052
62914	7,0114
62915	7,0619
62916	6,6699
62917	7,3024
62918	7,0215
62919	7,0619
62920	6,6699
62921	7,3024
62922	7,0833
62923	6,6895
62924	7,323
62925	7,052
62926	7,1258
62927	7,212
62928	6,7778
62929	7,4405
62930	7,1594
62931	7,1146
62932	7,1885
62933	6,7559
62934	7,4178
62935	7,1258
62936	7,1885
62937	6,7559
62938	7,4178
62939	7,212
62940	6,7778
62941	7,4405
62942	7,1594
62943	7,2775
62944	7,392
62945	6,9122
62946	7,6066
62947	7,3146
62948	7,2651
62949	7,366
62950	6,8879
62951	7,5817
62952	7,2775
62953	7,366
62954	6,8879
62955	7,5817
62956	7,392
62957	6,9122
62958	7,6066
62959	7,3146
62960	7,4841
62961	7,6315
62962	7,1005
62963	7,8284
62964	7,5249
62965	7,4706
62966	7,6031
62967	7,0734
62968	7,8013
62969	7,4841
62970	7,6031
62971	7,0734
62972	7,8013
62973	7,6315
62974	7,1005
62975	7,8284
62976	7,5249
62977	7,7552
62978	7,9413
62979	7,3525
62980	8,1149
62981	7,7994
62982	7,7404
62983	7,9106
62984	7,3225
62985	8,0856
62986	7,7552
62987	7,9106
62988	7,3225
62989	8,0856
62990	7,9413
62991	7,3525
62992	8,1149
62993	7,7994
62994	8,1028
62995	8,3351
62996	7,6809
62997	8,4776
62998	8,15
62999	8,087
63000	8,3029
63001	7,6482
63002	8,4467
63003	8,1028
63004	8,3029
63005	7,6482
63006	8,4467
63007	8,3351
63008	7,6809
63009	8,4776
63010	8,15
63011	8,5432
63012	8,8315
63013	8,1021
63014	8,9321
63015	8,5919
63016	8,5268
63017	8,7993
63018	8,0674
63019	8,9005
63020	8,5432
63021	8,7993
63022	8,0674
63023	8,9005
63024	8,8315
63025	8,1021
63026	8,9321
63027	8,5919
63028	9,0976
63029	9,4542
63030	8,6376
63031	9,4994
63032	9,145
63033	9,0818
63034	9,4251
63035	8,6024
63036	9,4695
63037	9,0976
63038	9,4251
63039	8,6024
63040	9,4695
63041	9,4542
63042	8,6376
63043	9,4994
63044	9,145
63045	9,7939
63046	10,234
63047	9,3142
63048	10,208
63049	9,8345
63050	9,7805
63051	10,214
63052	9,2818
63053	10,184
63054	9,7939
63055	10,214
63056	9,2818
63057	10,184
63058	10,234
63059	9,3142
63060	10,208
63061	9,8345
63062	10,668
63063	11,2
63064	10,164
63065	11,096
63066	10,692
63067	10,661
63068	11,197
63069	10,14
63070	11,087
63071	10,668
63072	11,197
63073	10,14
63074	11,087
63075	11,2
63076	10,164
63077	11,096
63078	10,692
63079	11,743
63080	12,4
63081	11,214
63082	11,735
63083	11,747
63084	12,426
63085	11,207
63086	11,743
63087	12,426
63088	11,207
63089	12,4
63090	11,214
63091	11,735
63092	13,095
63093	13,893
63094	12,506
63095	13,571
63096	13,033
63097	13,116
63098	13,96
63099	12,527
63100	13,629
63101	13,095
63102	13,96
63103	12,527
63104	13,629
63105	13,893
63106	12,506
63107	13,571
63108	13,033
63109	14,766
63110	14,076
63111	15,757
63112	14,623
63113	14,811
63114	14,133
63115	15,868
63116	14,766
63117	14,133
63118	15,868
63119	14,076
63120	15,757
63121	14,623
63122	20,69
63123	19,881
63124	21,736
63125	20,397
63126	20,615
63127	20,684
63128	19,855
63129	21,673
63130	20,426
63131	20,69
63132	19,855
63133	21,673
63134	20,426
63135	19,881
63136	21,736
63137	20,397
63138	20,615
63139	14,818
63140	13,936
63141	14,134
63142	15,82
63143	14,672
63144	14,863
63145	14,003
63146	14,192
63147	15,931
63148	14,818
63149	14,003
63150	14,192
63151	15,931
63152	13,936
63153	14,134
63154	15,82
63155	14,672
63156	13,13
63157	12,44
63158	12,555
63159	13,066
63160	13,151
63161	12,467
63162	12,577
63163	13,13
63164	12,467
63165	12,577
63166	12,44
63167	12,555
63168	13,066
63169	11,789
63170	11,249
63171	11,268
63172	11,779
63173	11,793
63174	11,247
63175	11,262
63176	11,789
63177	11,247
63178	11,262
63179	11,249
63180	11,268
63181	11,779
63182	10,72
63183	10,287
63184	10,222
63185	10,743
63186	10,713
63187	10,267
63188	10,199
63189	10,72
63190	10,267
63191	10,199
63192	10,287
63193	10,222
63194	10,743
63195	9,8483
63196	9,5102
63197	9,3745
63198	10,246
63199	9,8887
63200	9,835
63201	9,4809
63202	9,3419
63203	10,223
63204	9,8483
63205	9,4809
63206	9,3419
63207	10,223
63208	9,5102
63209	9,3745
63210	10,246
63211	9,8887
63212	9,1555
63213	8,8921
63214	8,7017
63215	9,5504
63216	9,2036
63217	9,1395
63218	8,8593
63219	8,6658
63220	9,5203
63221	9,1555
63222	8,8593
63223	8,6658
63224	9,5203
63225	8,8921
63226	8,7017
63227	9,5504
63228	9,2036
63229	8,6065
63230	8,4023
63231	8,1718
63232	8,9882
63233	8,6565
63234	8,5897
63235	8,3691
63236	8,1361
63237	8,956
63238	8,6065
63239	8,3691
63240	8,1361
63241	8,956
63242	8,4023
63243	8,1718
63244	8,9882
63245	8,6565
63246	8,1734
63247	8,0167
63248	7,7582
63249	8,5405
63250	8,2222
63251	8,157
63252	7,9848
63253	7,7242
63254	8,5085
63255	8,1734
63256	7,9848
63257	7,7242
63258	8,5085
63259	8,0167
63260	7,7582
63261	8,5405
63262	8,2222
63263	7,8348
63264	7,7169
63265	7,4393
63266	8,1861
63267	7,881
63268	7,8193
63269	7,6871
63270	7,4079
63271	8,1556
63272	7,8348
63273	7,6871
63274	7,4079
63275	8,1556
63276	7,7169
63277	7,4393
63278	8,1861
63279	7,881
63280	7,5744
63281	7,4891
63282	7,1986
63283	7,9096
63284	7,6173
63285	7,5601
63286	7,4615
63287	7,1699
63288	7,8811
63289	7,5744
63290	7,4615
63291	7,1699
63292	7,8811
63293	7,4891
63294	7,1986
63295	7,9096
63296	7,6173
63297	7,3802
63298	7,3225
63299	7,0234
63300	7,6993
63301	7,4197
63302	7,367
63303	7,2972
63304	6,9974
63305	7,6729
63306	7,3802
63307	7,2972
63308	6,9974
63309	7,6729
63310	7,3225
63311	7,0234
63312	7,6993
63313	7,4197
63314	7,2427
63315	7,209
63316	6,9041
63317	7,5462
63318	7,2788
63319	7,2306
63320	7,1859
63321	6,8805
63322	7,5219
63323	7,2427
63324	7,1859
63325	6,8805
63326	7,5219
63327	7,209
63328	6,9041
63329	7,5462
63330	7,2788
63331	7,1546
63332	7,142
63333	6,8331
63334	7,4435
63335	7,1877
63336	7,1436
63337	7,1209
63338	6,8116
63339	7,4212
63340	7,1546
63341	7,1209
63342	6,8116
63343	7,4212
63344	7,142
63345	6,8331
63346	7,4435
63347	7,1877
63348	7,1102
63349	7,1165
63350	6,8045
63351	7,3856
63352	7,1406
63353	7,1001
63354	7,0971
63355	6,7849
63356	7,365
63357	7,1102
63358	7,0971
63359	6,7849
63360	7,365
63361	7,1165
63362	6,8045
63363	7,3856
63364	7,1406
63365	7,1049
63366	7,1282
63367	6,8136
63368	7,3678
63369	7,1329
63370	7,0956
63371	7,1103
63372	6,7957
63373	7,3489
63374	7,1049
63375	7,1103
63376	6,7957
63377	7,3489
63378	7,1282
63379	6,8136
63380	7,3678
63381	7,1329
63382	7,1349
63383	7,1737
63384	6,8567
63385	7,3866
63386	7,1607
63387	7,1263
63388	7,1571
63389	6,8401
63390	7,369
63391	7,1349
63392	7,1571
63393	6,8401
63394	7,369
63395	7,1737
63396	6,8567
63397	7,3866
63398	7,1607
63399	7,197
63400	7,2501
63401	6,9306
63402	7,4386
63403	7,221
63404	7,189
63405	7,2347
63406	6,9153
63407	7,4222
63408	7,197
63409	7,2347
63410	6,9153
63411	7,4222
63412	7,2501
63413	6,9306
63414	7,4386
63415	7,221
63416	7,2886
63417	7,3549
63418	7,0328
63419	7,5212
63420	7,311
63421	7,2811
63422	7,3405
63423	7,0185
63424	7,5059
63425	7,2886
63426	7,3405
63427	7,0185
63428	7,5059
63429	7,3549
63430	7,0328
63431	7,5212
63432	7,311
63433	7,4075
63434	7,4862
63435	7,1612
63436	7,6321
63437	7,4285
63438	7,4005
63439	7,4726
63440	7,1479
63441	7,6178
63442	7,4075
63443	7,4726
63444	7,1479
63445	7,6178
63446	7,4862
63447	7,1612
63448	7,6321
63449	7,4285
63450	7,5518
63451	7,642
63452	7,314
63453	7,7695
63454	7,5715
63455	7,5452
63456	7,6293
63457	7,3014
63458	7,7559
63459	7,5518
63460	7,6293
63461	7,3014
63462	7,7559
63463	7,642
63464	7,314
63465	7,7695
63466	7,5715
63467	7,7199
63468	7,821
63469	7,4896
63470	7,9315
63471	7,7385
63472	7,7137
63473	7,809
63474	7,4777
63475	7,9187
63476	7,7199
63477	7,809
63478	7,4777
63479	7,9187
63480	7,821
63481	7,4896
63482	7,9315
63483	7,7385
63484	7,9104
63485	8,0219
63486	7,6867
63487	8,1168
63488	7,928
63489	7,9045
63490	8,0104
63491	7,6755
63492	8,1046
63493	7,9104
63494	8,0104
63495	7,6755
63496	8,1046
63497	8,0219
63498	7,6867
63499	8,1168
63500	7,928
63501	8,1221
63502	8,2435
63503	7,9041
63504	8,3242
63505	8,1389
63506	8,1166
63507	8,2327
63508	7,8935
63509	8,3126
63510	8,1221
63511	8,2327
63512	7,8935
63513	8,3126
63514	8,2435
63515	7,9041
63516	8,3242
63517	8,1389
63518	8,3542
63519	8,4851
63520	8,1409
63521	8,5527
63522	8,3701
63523	8,3489
63524	8,4748
63525	8,1309
63526	8,5417
63527	8,3542
63528	8,4748
63529	8,1309
63530	8,5417
63531	8,4851
63532	8,1409
63533	8,5527
63534	8,3701
63535	8,6058
63536	8,746
63537	8,3962
63538	8,8018
63539	8,6209
63540	8,6009
63541	8,7363
63542	8,3868
63543	8,7913
63544	8,6058
63545	8,7363
63546	8,3868
63547	8,7913
63548	8,746
63549	8,3962
63550	8,8018
63551	8,6209
63552	8,8766
63553	9,0259
63554	8,6694
63555	9,0711
63556	8,8908
63557	8,8719
63558	9,0168
63559	8,6606
63560	9,0611
63561	8,8766
63562	9,0168
63563	8,6606
63564	9,0611
63565	9,0259
63566	8,6694
63567	9,0711
63568	8,8908
63569	9,1662
63570	9,3248
63571	8,9601
63572	9,3605
63573	9,1795
63574	9,1617
63575	9,3162
63576	8,9519
63577	9,351
63578	9,1662
63579	9,3162
63580	8,9519
63581	9,351
63582	9,3248
63583	8,9601
63584	9,3605
63585	9,1795
63586	9,4748
63587	9,643
63588	9,2679
63589	9,6706
63590	9,4873
63591	9,4707
63592	9,635
63593	9,2605
63594	9,6615
63595	9,4748
63596	9,635
63597	9,2605
63598	9,6615
63599	9,643
63600	9,2679
63601	9,6706
63602	9,4873
63603	9,8032
63604	9,9816
63605	9,5932
63606	10,003
63607	9,8149
63608	9,7993
63609	9,974
63610	9,5864
63611	9,9938
63612	9,8032
63613	9,974
63614	9,5864
63615	9,9938
63616	9,9816
63617	9,5932
63618	10,003
63619	9,8149
63620	10,152
63621	10,342
63622	9,9364
63623	10,358
63624	10,164
63625	10,149
63626	10,335
63627	9,9303
63628	10,35
63629	10,152
63630	10,335
63631	9,9303
63632	10,35
63633	10,342
63634	9,9364
63635	10,358
63636	10,164
63637	10,525
63638	10,728
63639	10,299
63640	10,74
63641	10,536
63642	10,522
63643	10,721
63644	10,293
63645	10,732
63646	10,525
63647	10,721
63648	10,293
63649	10,732
63650	10,728
63651	10,299
63652	10,74
63653	10,536
63654	10,924
63655	11,143
63656	10,682
63657	11,154
63658	10,935
63659	10,921
63660	11,136
63661	10,677
63662	11,145
63663	10,924
63664	11,136
63665	10,677
63666	11,145
63667	11,143
63668	10,682
63669	11,154
63670	10,935
63671	11,355
63672	11,593
63673	11,09
63674	11,604
63675	11,366
63676	11,351
63677	11,584
63678	11,085
63679	11,594
63680	11,355
63681	11,584
63682	11,085
63683	11,594
63684	11,593
63685	11,09
63686	11,604
63687	11,366
63688	11,823
63689	12,086
63690	11,528
63691	12,1
63692	11,837
63693	11,818
63694	12,074
63695	11,522
63696	12,087
63697	11,823
63698	12,074
63699	11,522
63700	12,087
63701	12,086
63702	11,528
63703	12,1
63704	11,837
63705	12,337
63706	12,63
63707	12,
63708	12,652
63709	12,357
63710	12,331
63711	12,614
63712	11,992
63713	12,635
63714	12,337
63715	12,614
63716	11,992
63717	12,635
63718	12,63
63719	12,
63720	12,652
63721	12,357
63722	12,908
63723	13,237
63724	12,514
63725	13,273
63726	12,936
63727	12,898
63728	13,213
63729	12,501
63730	13,248
63731	12,908
63732	13,213
63733	12,501
63734	13,248
63735	13,237
63736	12,514
63737	13,273
63738	12,936
63739	13,544
63740	13,914
63741	13,076
63742	13,976
63743	13,586
63744	13,53
63745	13,881
63746	13,056
63747	13,941
63748	13,544
63749	13,881
63750	13,056
63751	13,941
63752	13,914
63753	13,076
63754	13,976
63755	13,586
63756	14,252
63757	14,665
63758	13,69
63759	14,774
63760	14,313
63761	14,233
63762	14,621
63763	13,66
63764	14,726
63765	14,252
63766	14,621
63767	13,66
63768	14,726
63769	14,665
63770	13,69
63771	14,774
63772	14,313
63773	15,035
63774	15,472
63775	14,349
63776	15,675
63777	15,116
63778	15,011
63779	15,424
63780	14,311
63781	15,615
63782	15,035
63783	15,424
63784	14,311
63785	15,615
63786	15,472
63787	14,349
63788	15,675
63789	15,116
63790	15,862
63791	16,291
63792	15,024
63793	15,954
63794	15,838
63795	16,255
63796	14,987
63797	15,862
63798	16,255
63799	14,987
63800	16,291
63801	15,024
63802	15,954
63803	16,685
63804	17,056
63805	15,659
63806	16,755
63807	16,674
63808	17,067
63809	15,644
63810	16,685
63811	17,067
63812	15,644
63813	17,056
63814	15,659
63815	16,755
63816	17,441
63817	17,734
63818	16,189
63819	17,421
63820	17,463
63821	17,835
63822	16,232
63823	17,441
63824	17,835
63825	16,232
63826	17,734
63827	16,189
63828	17,421
63829	18,131
63830	18,544
63831	16,607
63832	17,923
63833	18,211
63834	18,776
63835	16,751
63836	18,131
63837	18,776
63838	16,751
63839	18,544
63840	16,607
63841	17,923
63842	19,19
63843	19,481
63844	17,161
63845	18,681
63846	19,342
63847	19,839
63848	17,426
63849	19,19
63850	19,839
63851	17,426
63852	19,481
63853	17,161
63854	18,681
63855	20,138
63856	19,877
63857	17,675
63858	24,348
63859	19,287
63860	20,343
63861	20,266
63862	18,022
63863	24,73
63864	20,138
63865	20,266
63866	18,022
63867	24,73
63868	19,877
63869	17,675
63870	24,348
63871	19,287
63872	20,036
63873	19,442
63874	17,693
63875	24,279
63876	19,125
63877	20,222
63878	19,699
63879	17,996
63880	24,611
63881	20,036
63882	19,699
63883	17,996
63884	24,611
63885	19,442
63886	17,693
63887	24,279
63888	19,125
63889	19,218
63890	17,442
63891	22,254
63892	18,477
63893	18,712
63894	19,296
63895	17,553
63896	22,397
63897	18,453
63898	19,218
63899	17,553
63900	22,397
63901	18,453
63902	17,442
63903	22,254
63904	18,477
63905	18,712
63906	20,628
63907	22,508
63908	19,674
63909	20,611
63910	20,57
63911	20,621
63912	22,459
63913	19,651
63914	20,551
63915	20,628
63916	22,459
63917	19,651
63918	20,551
63919	22,508
63920	19,674
63921	20,611
63922	20,57
63923	23,64
63924	23,017
63925	22,9
63926	21,491
63927	23,394
63928	28,125
63929	23,604
63930	23,043
63931	22,75
63932	21,446
63933	27,949
63934	23,64
63935	23,043
63936	22,75
63937	21,446
63938	27,949
63939	23,017
63940	22,9
63941	21,491
63942	23,394
63943	28,125
63944	23,051
63945	20,823
63946	20,487
63947	23,804
63948	22,484
63949	29,449
63950	23,109
63951	20,961
63952	20,551
63953	23,921
63954	29,428
63955	23,051
63956	20,961
63957	20,551
63958	23,921
63959	29,428
63960	20,823
63961	20,487
63962	23,804
63963	22,484
63964	29,449
63965	18,867
63966	17,507
63967	17,777
63968	18,516
63969	18,943
63970	17,638
63971	17,875
63972	18,867
63973	17,638
63974	17,875
63975	17,507
63976	17,777
63977	18,516
63978	16,292
63979	15,404
63980	15,672
63981	16,746
63982	16,092
63983	16,347
63984	15,501
63985	15,75
63986	16,88
63987	16,292
63988	15,501
63989	15,75
63990	16,88
63991	15,404
63992	15,672
63993	16,746
63994	16,092
63995	14,618
63996	13,869
63997	14,037
63998	14,486
63999	14,66
64000	13,933
64001	14,09
64002	14,618
64003	13,933
64004	14,09
64005	13,869
64006	14,037
64007	14,486
64008	13,189
64009	12,549
64010	12,634
64011	13,124
64012	13,212
64013	12,579
64014	12,657
64015	13,189
64016	12,579
64017	12,657
64018	12,549
64019	12,634
64020	13,124
64021	11,948
64022	11,41
64023	11,423
64024	11,932
64025	11,955
64026	11,412
64027	11,42
64028	11,948
64029	11,412
64030	11,42
64031	11,41
64032	11,423
64033	11,932
64034	10,886
64035	10,443
64036	10,384
64037	10,905
64038	10,881
64039	10,425
64040	10,363
64041	10,886
64042	10,425
64043	10,363
64044	10,443
64045	10,384
64046	10,905
64047	9,9963
64048	9,6483
64049	9,5183
64050	10,405
64051	10,034
64052	9,9839
64053	9,6203
64054	9,4869
64055	10,384
64056	9,9963
64057	9,6203
64058	9,4869
64059	10,384
64060	9,6483
64061	9,5183
64062	10,405
64063	10,034
64064	9,285
64065	9,0128
64066	8,8273
64067	9,6823
64068	9,332
64069	9,2693
64070	8,9804
64071	8,7918
64072	9,6531
64073	9,285
64074	8,9804
64075	8,7918
64076	9,6531
64077	9,0128
64078	8,8273
64079	9,6823
64080	9,332
64081	8,7189
64082	8,5067
64083	8,2801
64084	9,1036
64085	8,7688
64086	8,7022
64087	8,4734
64088	8,2441
64089	9,0716
64090	8,7189
64091	8,4734
64092	8,2441
64093	9,0716
64094	8,5067
64095	8,2801
64096	9,1036
64097	8,7688
64098	8,2697
64099	8,1055
64100	7,8498
64101	8,6404
64102	8,319
64103	8,2532
64104	8,0732
64105	7,8153
64106	8,6082
64107	8,2697
64108	8,0732
64109	7,8153
64110	8,6082
64111	8,1055
64112	7,8498
64113	8,6404
64114	8,319
64115	7,9158
64116	7,7909
64117	7,5152
64118	8,2714
64119	7,9628
64120	7,9001
64121	7,7605
64122	7,4831
64123	8,2404
64124	7,9158
64125	7,7605
64126	7,4831
64127	8,2404
64128	7,7909
64129	7,5152
64130	8,2714
64131	7,9628
64132	7,6409
64133	7,5488
64134	7,2596
64135	7,9806
64136	7,6848
64137	7,6263
64138	7,5206
64139	7,2302
64140	7,9516
64141	7,6409
64142	7,5206
64143	7,2302
64144	7,9516
64145	7,5488
64146	7,2596
64147	7,9806
64148	7,6848
64149	7,4326
64150	7,3683
64151	7,0702
64152	7,7564
64153	7,4731
64154	7,4191
64155	7,3423
64156	7,0434
64157	7,7294
64158	7,4326
64159	7,3423
64160	7,0434
64161	7,7294
64162	7,3683
64163	7,0702
64164	7,7564
64165	7,4731
64166	7,2813
64167	7,241
64168	6,937
64169	7,5897
64170	7,3185
64171	7,2689
64172	7,2172
64173	6,9126
64174	7,5647
64175	7,2813
64176	7,2172
64177	6,9126
64178	7,5647
64179	7,241
64180	6,937
64181	7,5897
64182	7,3185
64183	7,1795
64184	7,1605
64185	6,8524
64186	7,4733
64187	7,2137
64188	7,1682
64189	7,1387
64190	6,8302
64191	7,4503
64192	7,1795
64193	7,1387
64194	6,8302
64195	7,4503
64196	7,1605
64197	6,8524
64198	7,4733
64199	7,2137
64200	7,1216
64201	7,1213
64202	6,8103
64203	7,4017
64204	7,1529
64205	7,1112
64206	7,1013
64207	6,7901
64208	7,3805
64209	7,1216
64210	7,1013
64211	6,7901
64212	7,3805
64213	7,1213
64214	6,8103
64215	7,4017
64216	7,1529
64217	7,1027
64218	7,1194
64219	6,8061
64220	7,3702
64221	7,1315
64222	7,0931
64223	7,101
64224	6,7875
64225	7,3506
64226	7,1027
64227	7,101
64228	6,7875
64229	7,3506
64230	7,1194
64231	6,8061
64232	7,3702
64233	7,1315
64234	7,119
64235	7,1512
64236	6,8357
64237	7,375
64238	7,1456
64239	7,1102
64240	7,1341
64241	6,8187
64242	7,3569
64243	7,119
64244	7,1341
64245	6,8187
64246	7,3569
64247	7,1512
64248	6,8357
64249	7,375
64250	7,1456
64251	7,1674
64252	7,2138
64253	6,8962
64254	7,413
64255	7,1921
64256	7,1591
64257	7,1979
64258	6,8804
64259	7,3962
64260	7,1674
64261	7,1979
64262	6,8804
64263	7,3962
64264	7,2138
64265	6,8962
64266	7,413
64267	7,1921
64268	7,2451
64269	7,3046
64270	6,9848
64271	7,4815
64272	7,2682
64273	7,2374
64274	7,2898
64275	6,9701
64276	7,4658
64277	7,2451
64278	7,2898
64279	6,9701
64280	7,4658
64281	7,3046
64282	6,9848
64283	7,4815
64284	7,2682
64285	7,35
64286	7,4217
64287	7,0995
64288	7,5781
64289	7,3716
64290	7,3428
64291	7,4078
64292	7,0857
64293	7,5634
64294	7,35
64295	7,4078
64296	7,0857
64297	7,5634
64298	7,4217
64299	7,0995
64300	7,5781
64301	7,3716
64302	7,4801
64303	7,5633
64304	7,2384
64305	7,701
64306	7,5004
64307	7,4733
64308	7,5501
64309	7,2254
64310	7,687
64311	7,4801
64312	7,5501
64313	7,2254
64314	7,687
64315	7,5633
64316	7,2384
64317	7,701
64318	7,5004
64319	7,6337
64320	7,7277
64321	7,3998
64322	7,8482
64323	7,6529
64324	7,6274
64325	7,7153
64326	7,3876
64327	7,8351
64328	7,6337
64329	7,7153
64330	7,3876
64331	7,8351
64332	7,7277
64333	7,3998
64334	7,8482
64335	7,6529
64336	7,8096
64337	7,9138
64338	7,5826
64339	8,0186
64340	7,8277
64341	7,8036
64342	7,902
64343	7,5711
64344	8,0061
64345	7,8096
64346	7,902
64347	7,5711
64348	8,0061
64349	7,9138
64350	7,5826
64351	8,0186
64352	7,8277
64353	8,0064
64354	8,1204
64355	7,7855
64356	8,2107
64357	8,0237
64358	8,0007
64359	8,1092
64360	7,7745
64361	8,1988
64362	8,0064
64363	8,1092
64364	7,7745
64365	8,1988
64366	8,1204
64367	7,7855
64368	8,2107
64369	8,0237
64370	8,2233
64371	8,3465
64372	8,0074
64373	8,4236
64374	8,2396
64375	8,2178
64376	8,3359
64377	7,9971
64378	8,4123
64379	8,2233
64380	8,3359
64381	7,9971
64382	8,4123
64383	8,3465
64384	8,0074
64385	8,4236
64386	8,2396
64387	8,4593
64388	8,5916
64389	8,2476
64390	8,6566
64391	8,4748
64392	8,4541
64393	8,5815
64394	8,2379
64395	8,6458
64396	8,4593
64397	8,5815
64398	8,2379
64399	8,6458
64400	8,5916
64401	8,2476
64402	8,6566
64403	8,4748
64404	8,7139
64405	8,855
64406	8,5054
64407	8,9091
64408	8,7286
64409	8,709
64410	8,8455
64411	8,4962
64412	8,8988
64413	8,7139
64414	8,8455
64415	8,4962
64416	8,8988
64417	8,855
64418	8,5054
64419	8,9091
64420	8,7286
64421	8,9867
64422	9,1367
64423	8,7802
64424	9,181
64425	9,0006
64426	8,9821
64427	9,1278
64428	8,7716
64429	9,1712
64430	8,9867
64431	9,1278
64432	8,7716
64433	9,1712
64434	9,1367
64435	8,7802
64436	9,181
64437	9,0006
64438	9,2777
64439	9,4367
64440	9,0716
64441	9,4724
64442	9,2908
64443	9,2734
64444	9,4283
64445	9,0637
64446	9,4631
64447	9,2777
64448	9,4283
64449	9,0637
64450	9,4631
64451	9,4367
64452	9,0716
64453	9,4724
64454	9,2908
64455	9,5872
64456	9,7555
64457	9,3796
64458	9,784
64459	9,5995
64460	9,5832
64461	9,7477
64462	9,3723
64463	9,7751
64464	9,5872
64465	9,7477
64466	9,3723
64467	9,7751
64468	9,7555
64469	9,3796
64470	9,784
64471	9,5995
64472	9,916
64473	10,094
64474	9,7044
64475	10,117
64476	9,9275
64477	9,9122
64478	10,087
64479	9,6979
64480	10,108
64481	9,916
64482	10,087
64483	9,6979
64484	10,108
64485	10,094
64486	9,7044
64487	10,117
64488	9,9275
64489	10,266
64490	10,455
64491	10,047
64492	10,474
64493	10,276
64494	10,262
64495	10,448
64496	10,041
64497	10,465
64498	10,266
64499	10,448
64500	10,041
64501	10,465
64502	10,455
64503	10,047
64504	10,474
64505	10,276
64506	10,638
64507	10,842
64508	10,408
64509	10,857
64510	10,649
64511	10,635
64512	10,834
64513	10,403
64514	10,849
64515	10,638
64516	10,834
64517	10,403
64518	10,849
64519	10,842
64520	10,408
64521	10,857
64522	10,649
64523	11,038
64524	11,257
64525	10,791
64526	11,272
64527	11,049
64528	11,034
64529	11,249
64530	10,786
64531	11,263
64532	11,038
64533	11,249
64534	10,786
64535	11,263
64536	11,257
64537	10,791
64538	11,272
64539	11,049
64540	11,469
64541	11,708
64542	11,198
64543	11,725
64544	11,481
64545	11,465
64546	11,699
64547	11,193
64548	11,714
64549	11,469
64550	11,699
64551	11,193
64552	11,714
64553	11,708
64554	11,198
64555	11,725
64556	11,481
64557	11,938
64558	12,202
64559	11,634
64560	12,223
64561	11,954
64562	11,933
64563	12,19
64564	11,628
64565	12,21
64566	11,938
64567	12,19
64568	11,628
64569	12,21
64570	12,202
64571	11,634
64572	12,223
64573	11,954
64574	12,454
64575	12,748
64576	12,106
64577	12,778
64578	12,475
64579	12,447
64580	12,731
64581	12,097
64582	12,76
64583	12,454
64584	12,731
64585	12,097
64586	12,76
64587	12,748
64588	12,106
64589	12,778
64590	12,475
64591	13,026
64592	13,356
64593	12,619
64594	13,403
64595	13,057
64596	13,016
64597	13,331
64598	12,605
64599	13,377
64600	13,026
64601	13,331
64602	12,605
64603	13,377
64604	13,356
64605	12,619
64606	13,403
64607	13,057
64608	13,662
64609	14,033
64610	13,18
64611	14,108
64612	13,707
64613	13,647
64614	13,998
64615	13,158
64616	14,072
64617	13,662
64618	13,998
64619	13,158
64620	14,072
64621	14,033
64622	13,18
64623	14,108
64624	13,707
64625	14,369
64626	14,78
64627	13,789
64628	14,907
64629	14,433
64630	14,349
64631	14,735
64632	13,759
64633	14,857
64634	14,369
64635	14,735
64636	13,759
64637	14,857
64638	14,78
64639	13,789
64640	14,907
64641	14,433
64642	15,147
64643	15,588
64644	14,441
64645	15,23
64646	15,122
64647	15,539
64648	14,402
64649	15,147
64650	15,539
64651	14,402
64652	15,588
64653	14,441
64654	15,23
64655	15,982
64656	16,432
64657	15,113
64658	16,073
64659	15,959
64660	16,4
64661	15,077
64662	15,982
64663	16,4
64664	15,077
64665	16,432
64666	15,113
64667	16,073
64668	16,852
64669	17,258
64670	15,768
64671	16,916
64672	16,843
64673	17,278
64674	15,758
64675	16,852
64676	17,278
64677	15,758
64678	17,258
64679	15,768
64680	16,916
64681	17,687
64682	16,319
64683	17,951
64684	17,647
64685	17,715
64686	16,371
64687	18,066
64688	17,687
64689	16,371
64690	18,066
64691	16,319
64692	17,951
64693	17,647
64694	18,796
64695	18,808
64696	16,818
64697	18,474
64698	20,4
64699	18,061
64700	18,98
64701	19,177
64702	17,134
64703	18,808
64704	20,795
64705	18,796
64706	19,177
64707	17,134
64708	18,808
64709	20,795
64710	18,808
64711	16,818
64712	18,474
64713	20,4
64714	18,061
64715	19,207
64716	19,02
64717	17,058
64718	23,241
64719	18,363
64720	19,393
64721	19,321
64722	17,355
64723	23,608
64724	19,207
64725	19,321
64726	17,355
64727	23,608
64728	19,02
64729	17,058
64730	23,241
64731	18,363
64732	15,85
64733	16,216
64734	16,056
64735	15,148
64736	16,03
64737	17,209
64738	12,744
64739	15,528
64740	15,695
64741	15,545
64742	14,535
64743	15,433
64744	11,761
64745	15,85
64746	15,695
64747	15,545
64748	14,535
64749	15,433
64750	11,761
64751	16,216
64752	16,056
64753	15,148
64754	16,03
64755	17,209
64756	12,744
64757	19,186
64758	18,876
64759	17,213
64760	22,892
64761	18,538
64762	19,305
64763	19,018
64764	17,389
64765	23,121
64766	19,186
64767	19,018
64768	17,389
64769	23,121
64770	18,876
64771	17,213
64772	22,892
64773	18,538
64774	18,643
64775	18,227
64776	20,321
64777	18,051
64778	18,911
64779	18,56
64780	17,992
64781	20,205
64782	17,916
64783	18,643
64784	17,992
64785	20,205
64786	17,916
64787	18,227
64788	20,321
64789	18,051
64790	18,911
64791	17,617
64792	17,232
64793	17,478
64794	18,219
64795	17,463
64796	16,89
64797	17,143
64798	17,617
64799	16,89
64800	17,143
64801	17,232
64802	17,478
64803	18,219
64804	18,749
64805	17,073
64806	19,942
64807	18,108
64808	18,487
64809	18,774
64810	17,079
64811	19,958
64812	18,071
64813	18,749
64814	17,079
64815	19,958
64816	18,071
64817	17,073
64818	19,942
64819	18,108
64820	18,487
64821	8,024
64822	8,3011
64823	7,7571
64824	7,8294
64825	8,1393
64826	8,0089
64827	8,2649
64828	7,7212
64829	7,7754
64830	8,024
64831	8,2649
64832	7,7212
64833	7,7754
64834	8,3011
64835	7,7571
64836	7,8294
64837	8,1393
64838	7,1017
64839	6,8761
64840	7,2649
64841	7,0282
64842	7,1934
64843	7,0951
64844	6,8706
64845	7,2378
64846	6,9872
64847	7,1017
64848	6,8706
64849	7,2378
64850	6,9872
64851	6,8761
64852	7,2649
64853	7,0282
64854	7,1934
64855	9,1608
64856	9,3137
64857	8,8863
64858	8,8281
64859	9,5726
64860	9,2714
64861	9,1393
64862	9,2699
64863	8,844
64864	8,7794
64865	9,5487
64866	9,1608
64867	9,2699
64868	8,844
64869	8,7794
64870	9,5487
64871	9,3137
64872	8,8863
64873	8,8281
64874	9,5726
64875	9,2714
64876	6,7049
64877	6,4897
64878	6,6684
64879	6,7787
64880	6,7065
64881	6,4912
64882	6,6383
64883	6,7049
64884	6,4912
64885	6,6383
64886	6,4897
64887	6,6684
64888	6,7787
64889	9,5031
64890	9,681
64891	9,1997
64892	9,5749
64893	9,4794
64894	9,6454
64895	9,1628
64896	9,5031
64897	9,6454
64898	9,1628
64899	9,681
64900	9,1997
64901	9,5749
64902	6,3024
64903	6,1806
64904	6,3683
64905	6,372
64906	6,3029
64907	6,1775
64908	6,3393
64909	6,3024
64910	6,1775
64911	6,3393
64912	6,1806
64913	6,3683
64914	6,372
64915	9,9072
64916	9,9892
64917	9,527
64918	10,747
64919	9,9214
64920	9,893
64921	9,9757
64922	9,5136
64923	10,692
64924	9,9072
64925	9,9757
64926	9,5136
64927	10,692
64928	9,9892
64929	9,527
64930	10,747
64931	9,9214
64932	6,084
64933	5,9956
64934	6,1746
64935	6,1577
64936	6,0808
64937	5,9877
64938	6,1449
64939	6,084
64940	5,9877
64941	6,1449
64942	5,9956
64943	6,1746
64944	6,1577
64945	10,118
64946	10,115
64947	9,7414
64948	10,07
64949	10,117
64950	10,136
64951	9,7555
64952	10,118
64953	10,136
64954	9,7555
64955	10,115
64956	9,7414
64957	10,07
64958	10,189
64959	10,137
64960	9,8321
64961	10,077
64962	10,211
64963	10,198
64964	9,8791
64965	10,189
64966	10,198
64967	9,8791
64968	10,137
64969	9,8321
64970	10,077
64971	5,8002
64972	5,8511
64973	5,7766
64974	5,9412
64975	5,8645
64976	5,7998
64977	5,8459
64978	5,7805
64979	5,9154
64980	5,8002
64981	5,8459
64982	5,7805
64983	5,9154
64984	5,8511
64985	5,7766
64986	5,9412
64987	5,8645
64988	10,164
64989	10,094
64990	9,8064
64991	10,01
64992	10,205
64993	10,185
64994	9,8788
64995	10,164
64996	10,185
64997	9,8788
64998	10,094
64999	9,8064
65000	10,01
65001	10,118
65002	10,023
65003	9,725
65004	9,9594
65005	10,169
65006	10,121
65007	9,808
65008	10,118
65009	10,121
65010	9,808
65011	10,023
65012	9,725
65013	9,9594
65014	5,8501
65015	5,7979
65016	5,916
65017	5,989
65018	5,903
65019	5,8554
65020	5,8075
65021	5,9278
65022	5,9682
65023	5,8501
65024	5,8075
65025	5,9278
65026	5,9682
65027	5,7979
65028	5,916
65029	5,989
65030	5,903
65031	10,026
65032	9,947
65033	9,6125
65034	9,8929
65035	10,073
65036	10,028
65037	9,6859
65038	10,026
65039	10,028
65040	9,6859
65041	9,947
65042	9,6125
65043	9,8929
65044	9,9496
65045	9,8771
65046	9,5124
65047	9,8576
65048	9,9841
65049	9,9325
65050	9,5653
65051	9,9496
65052	9,9325
65053	9,5653
65054	9,8771
65055	9,5124
65056	9,8576
65057	6,3138
65058	6,4599
65059	6,14
65060	6,3699
65061	6,3762
65062	6,3167
65063	6,4543
65064	6,1495
65065	6,343
65066	6,3138
65067	6,4543
65068	6,1495
65069	6,343
65070	6,4599
65071	6,14
65072	6,3699
65073	6,3762
65074	9,8604
65075	9,7935
65076	9,4133
65077	9,8068
65078	9,8812
65079	9,8248
65080	9,4444
65081	9,8604
65082	9,8248
65083	9,4444
65084	9,7935
65085	9,4133
65086	9,8068
65087	6,6379
65088	6,8489
65089	6,6554
65090	6,732
65091	6,6295
65092	6,8422
65093	6,6177
65094	6,6379
65095	6,8422
65096	6,6177
65097	6,8489
65098	6,6554
65099	6,732
65100	9,7582
65101	9,6875
65102	9,3087
65103	9,7319
65104	9,7686
65105	9,702
65106	9,3235
65107	9,7582
65108	9,702
65109	9,3235
65110	9,6875
65111	9,3087
65112	9,7319
65113	7,0617
65114	7,3111
65115	6,9746
65116	7,1344
65117	7,064
65118	7,3052
65119	6,9429
65120	7,0617
65121	7,3052
65122	6,9429
65123	7,3111
65124	6,9746
65125	7,1344
65126	9,6315
65127	9,5537
65128	9,1893
65129	9,6216
65130	9,6355
65131	9,5585
65132	9,1943
65133	9,6315
65134	9,5585
65135	9,1943
65136	9,5537
65137	9,1893
65138	9,6216
65139	7,6297
65140	7,8498
65141	7,4474
65142	7,7292
65143	7,6221
65144	7,826
65145	7,4044
65146	7,6297
65147	7,826
65148	7,4044
65149	7,8498
65150	7,4474
65151	7,7292
65152	9,4807
65153	9,3945
65154	9,0525
65155	9,4789
65156	9,4815
65157	9,3947
65158	9,0529
65159	9,4807
65160	9,3947
65161	9,0529
65162	9,3945
65163	9,0525
65164	9,4789
65165	9,3085
65166	9,2151
65167	8,8992
65168	9,3101
65169	9,3079
65170	9,2135
65171	8,898
65172	9,3085
65173	9,2135
65174	8,898
65175	9,2151
65176	8,8992
65177	9,3101
65178	8,4433
65179	8,2689
65180	8,785
65181	8,2847
65182	8,5757
65183	8,4167
65184	8,2263
65185	8,7355
65186	8,2234
65187	8,4433
65188	8,2263
65189	8,7355
65190	8,2234
65191	8,2689
65192	8,785
65193	8,2847
65194	8,5757
65195	9,1201
65196	9,0213
65197	8,7321
65198	9,1226
65199	9,1192
65200	9,0194
65201	8,7308
65202	9,1201
65203	9,0194
65204	8,7308
65205	9,0213
65206	8,7321
65207	9,1226
65208	8,9206
65209	8,8184
65210	8,5543
65211	8,923
65212	8,9197
65213	8,8166
65214	8,5534
65215	8,9206
65216	8,8166
65217	8,5534
65218	8,8184
65219	8,5543
65220	8,923
65221	9,5677
65222	9,7221
65223	9,3215
65224	9,2166
65225	10,305
65226	9,6506
65227	9,5428
65228	9,6829
65229	9,2749
65230	9,1783
65231	10,271
65232	9,5677
65233	9,6829
65234	9,2749
65235	9,1783
65236	10,271
65237	9,7221
65238	9,3215
65239	9,2166
65240	10,305
65241	9,6506
65242	8,7146
65243	8,6108
65244	8,3688
65245	8,7167
65246	8,7137
65247	8,6092
65248	8,3683
65249	8,7146
65250	8,6092
65251	8,3683
65252	8,6108
65253	8,3688
65254	8,7167
65255	9,9395
65256	9,9907
65257	9,5441
65258	9,9582
65259	9,9227
65260	9,9772
65261	9,5284
65262	9,9395
65263	9,9772
65264	9,5284
65265	9,9907
65266	9,5441
65267	9,9582
65268	8,5055
65269	8,4017
65270	8,1782
65271	8,5077
65272	8,5047
65273	8,4
65274	8,1778
65275	8,5055
65276	8,4
65277	8,1778
65278	8,4017
65279	8,1782
65280	8,5077
65281	10,11
65282	10,118
65283	9,7387
65284	10,061
65285	10,111
65286	10,14
65287	9,754
65288	10,11
65289	10,14
65290	9,754
65291	10,118
65292	9,7387
65293	10,061
65294	8,2962
65295	8,1935
65296	7,9847
65297	8,2987
65298	8,2954
65299	8,1916
65300	7,9841
65301	8,2962
65302	8,1916
65303	7,9841
65304	8,1935
65305	7,9847
65306	8,2987
65307	10,2
65308	10,147
65309	9,838
65310	10,087
65311	10,22
65312	10,207
65313	9,8844
65314	10,2
65315	10,207
65316	9,8844
65317	10,147
65318	9,838
65319	10,087
65320	8,0889
65321	7,9883
65322	7,7901
65323	8,0919
65324	8,0879
65325	7,9859
65326	7,7892
65327	8,0889
65328	7,9859
65329	7,7892
65330	7,9883
65331	7,7901
65332	8,0919
65333	10,173
65334	10,097
65335	9,8111
65336	10,021
65337	10,214
65338	10,189
65339	9,8839
65340	10,173
65341	10,189
65342	9,8839
65343	10,097
65344	9,8111
65345	10,021
65346	7,8853
65347	7,7876
65348	7,5964
65349	7,8891
65350	7,884
65351	7,7847
65352	7,5949
65353	7,8853
65354	7,7847
65355	7,5949
65356	7,7876
65357	7,5964
65358	7,8891
65359	10,116
65360	10,025
65361	9,7244
65362	9,9569
65363	10,168
65364	10,122
65365	9,8075
65366	10,116
65367	10,122
65368	9,8075
65369	10,025
65370	9,7244
65371	9,9569
65372	7,6871
65373	7,5931
65374	7,4052
65375	7,6919
65376	7,6854
65377	7,5895
65378	7,4029
65379	7,6871
65380	7,5895
65381	7,4029
65382	7,5931
65383	7,4052
65384	7,6919
65385	10,03
65386	9,9485
65387	9,6148
65388	9,8978
65389	10,077
65390	10,03
65391	9,6882
65392	10,03
65393	10,03
65394	9,6882
65395	9,9485
65396	9,6148
65397	9,8978
65398	7,4956
65399	7,4062
65400	7,2181
65401	7,5016
65402	7,4936
65403	7,4017
65404	7,2151
65405	7,4956
65406	7,4017
65407	7,2151
65408	7,4062
65409	7,2181
65410	7,5016
65411	9,9479
65412	9,8765
65413	9,5119
65414	9,8561
65415	9,9822
65416	9,9318
65417	9,5646
65418	9,9479
65419	9,9318
65420	9,5646
65421	9,8765
65422	9,5119
65423	9,8561
65424	7,3124
65425	7,2283
65426	7,0369
65427	7,3196
65428	7,3099
65429	7,223
65430	7,033
65431	7,3124
65432	7,223
65433	7,033
65434	7,2283
65435	7,0369
65436	7,3196
65437	9,8608
65438	9,7933
65439	9,4133
65440	9,8072
65441	9,8816
65442	9,8246
65443	9,4444
65444	9,8608
65445	9,8246
65446	9,4444
65447	9,7933
65448	9,4133
65449	9,8072
65450	7,1389
65451	7,0609
65452	6,8632
65453	7,1475
65454	7,136
65455	7,0547
65456	6,8584
65457	7,1389
65458	7,0547
65459	6,8584
65460	7,0609
65461	6,8632
65462	7,1475
65463	9,7574
65464	9,6869
65465	9,3082
65466	9,7312
65467	9,7678
65468	9,7014
65469	9,323
65470	9,7574
65471	9,7014
65472	9,323
65473	9,6869
65474	9,3082
65475	9,7312
65476	6,9767
65477	6,9055
65478	6,6987
65479	6,9866
65480	6,9733
65481	6,8984
65482	6,693
65483	6,9767
65484	6,8984
65485	6,693
65486	6,9055
65487	6,6987
65488	6,9866
65489	9,631
65490	9,5531
65491	9,1888
65492	9,6211
65493	9,635
65494	9,5579
65495	9,1938
65496	9,631
65497	9,5579
65498	9,1938
65499	9,5531
65500	9,1888
65501	9,6211
65502	6,8273
65503	6,7639
65504	6,5452
65505	6,8387
65506	6,8235
65507	6,7558
65508	6,5385
65509	6,8273
65510	6,7558
65511	6,5385
65512	6,7639
65513	6,5452
65514	6,8387
65515	9,4801
65516	9,3939
65517	9,052
65518	9,4783
65519	9,4808
65520	9,394
65521	9,0524
65522	9,4801
65523	9,394
65524	9,0524
65525	9,3939
65526	9,052
65527	9,4783
65528	6,6925
65529	6,6378
65530	6,4044
65531	6,7054
65532	6,6882
65533	6,6287
65534	6,3967
65535	6,6925
65536	6,6287
65537	6,3967
65538	6,6378
65539	6,4044
65540	6,7054
65541	9,3079
65542	9,2144
65543	8,8986
65544	9,3094
65545	9,3073
65546	9,2129
65547	8,8974
65548	9,3079
65549	9,2129
65550	8,8974
65551	9,2144
65552	8,8986
65553	9,3094
65554	6,5741
65555	6,5291
65556	6,2782
65557	6,5886
65558	6,5693
65559	6,5189
65560	6,2695
65561	6,5741
65562	6,5189
65563	6,2695
65564	6,5291
65565	6,2782
65566	6,5886
65567	9,1194
65568	9,0206
65569	8,7314
65570	9,1219
65571	9,1185
65572	9,0187
65573	8,7302
65574	9,1194
65575	9,0187
65576	8,7302
65577	9,0206
65578	8,7314
65579	9,1219
65580	6,474
65581	6,4399
65582	6,1687
65583	6,4903
65584	6,4686
65585	6,4285
65586	6,1588
65587	6,474
65588	6,4285
65589	6,1588
65590	6,4399
65591	6,1687
65592	6,4903
65593	8,9199
65594	8,8177
65595	8,5536
65596	8,9223
65597	8,919
65598	8,8159
65599	8,5527
65600	8,9199
65601	8,8159
65602	8,5527
65603	8,8177
65604	8,5536
65605	8,9223
65606	6,3945
65607	6,3726
65608	6,0779
65609	6,4127
65610	6,3885
65611	6,3598
65612	6,0668
65613	6,3945
65614	6,3598
65615	6,0668
65616	6,3726
65617	6,0779
65618	6,4127
65619	8,7138
65620	8,61
65621	8,3681
65622	8,716
65623	8,713
65624	8,6084
65625	8,3676
65626	8,7138
65627	8,6084
65628	8,3676
65629	8,61
65630	8,3681
65631	8,716
65632	6,3381
65633	6,3298
65634	6,0084
65635	6,3584
65636	6,3314
65637	6,3155
65638	5,9959
65639	6,3381
65640	6,3155
65641	5,9959
65642	6,3298
65643	6,0084
65644	6,3584
65645	8,5047
65646	8,4009
65647	8,1774
65648	8,5069
65649	8,5039
65650	8,3992
65651	8,177
65652	8,5047
65653	8,3992
65654	8,177
65655	8,4009
65656	8,1774
65657	8,5069
65658	6,3077
65659	6,3148
65660	5,9629
65661	6,3303
65662	6,3001
65663	6,2988
65664	5,9488
65665	6,3077
65666	6,2988
65667	5,9488
65668	6,3148
65669	5,9629
65670	6,3303
65671	8,2954
65672	8,1927
65673	7,9839
65674	8,2978
65675	8,2946
65676	8,1907
65677	7,9833
65678	8,2954
65679	8,1907
65680	7,9833
65681	8,1927
65682	7,9839
65683	8,2978
65684	6,3065
65685	6,3312
65686	5,9448
65687	6,3318
65688	6,2981
65689	6,3133
65690	5,9289
65691	6,3065
65692	6,3133
65693	5,9289
65694	6,3312
65695	5,9448
65696	6,3318
65697	8,0881
65698	7,9874
65699	7,7893
65700	8,0911
65701	8,087
65702	7,9851
65703	7,7884
65704	8,0881
65705	7,9851
65706	7,7884
65707	7,9874
65708	7,7893
65709	8,0911
65710	6,3388
65711	6,3837
65712	5,9582
65713	6,3672
65714	6,3294
65715	6,3635
65716	5,9401
65717	6,3388
65718	6,3635
65719	5,9401
65720	6,3837
65721	5,9582
65722	6,3672
65723	7,8845
65724	7,7868
65725	7,5956
65726	7,8883
65727	7,8831
65728	7,7838
65729	7,594
65730	7,8845
65731	7,7838
65732	7,594
65733	7,7868
65734	7,5956
65735	7,8883
65736	6,4096
65737	6,4779
65738	6,0081
65739	6,4416
65740	6,3989
65741	6,4552
65742	5,9875
65743	6,4096
65744	6,4552
65745	5,9875
65746	6,4779
65747	6,0081
65748	6,4416
65749	7,6862
65750	7,5923
65751	7,4043
65752	7,691
65753	7,6845
65754	7,5886
65755	7,4021
65756	7,6862
65757	7,5886
65758	7,4021
65759	7,5923
65760	7,4043
65761	7,691
65762	6,5251
65763	6,621
65764	6,1009
65765	6,5611
65766	6,5131
65767	6,5954
65768	6,0774
65769	6,5251
65770	6,5954
65771	6,0774
65772	6,621
65773	6,1009
65774	6,5611
65775	7,4947
65776	7,4053
65777	7,2172
65778	7,5007
65779	7,4927
65780	7,4009
65781	7,2142
65782	7,4947
65783	7,4009
65784	7,2142
65785	7,4053
65786	7,2172
65787	7,5007
65788	6,6935
65789	6,8221
65790	6,2449
65791	6,7339
65792	6,6799
65793	6,7933
65794	6,2179
65795	6,6935
65796	6,7933
65797	6,2179
65798	6,8221
65799	6,2449
65800	6,7339
65801	7,3115
65802	7,2274
65803	7,036
65804	7,3188
65805	7,3091
65806	7,2221
65807	7,0321
65808	7,3115
65809	7,2221
65810	7,0321
65811	7,2274
65812	7,036
65813	7,3188
65814	6,925
65815	7,093
65816	6,4508
65817	6,9702
65818	6,9098
65819	7,0608
65820	6,4199
65821	6,925
65822	7,0608
65823	6,4199
65824	7,093
65825	6,4508
65826	6,9702
65827	7,138
65828	7,06
65829	6,8623
65830	7,1466
65831	7,1352
65832	7,0538
65833	6,8575
65834	7,138
65835	7,0538
65836	6,8575
65837	7,06
65838	6,8623
65839	7,1466
65840	7,2331
65841	7,449
65842	6,7327
65843	7,2831
65844	7,2162
65845	7,4136
65846	6,6975
65847	7,2331
65848	7,4136
65849	6,6975
65850	7,449
65851	6,7327
65852	7,2831
65853	6,9758
65854	6,9047
65855	6,6979
65856	6,9858
65857	6,9725
65858	6,8976
65859	6,6921
65860	6,9758
65861	6,8976
65862	6,6921
65863	6,9047
65864	6,6979
65865	6,9858
65866	7,6352
65867	7,9097
65868	7,1087
65869	7,6897
65870	7,6168
65871	7,872
65872	7,0692
65873	7,6352
65874	7,872
65875	7,0692
65876	7,9097
65877	7,1087
65878	7,6897
65879	6,8265
65880	6,7632
65881	6,5444
65882	6,8379
65883	6,8227
65884	6,7551
65885	6,5376
65886	6,8265
65887	6,7551
65888	6,5376
65889	6,7632
65890	6,5444
65891	6,8379
65892	8,1538
65893	8,4997
65894	7,6023
65895	8,2113
65896	8,1345
65897	8,4615
65898	7,5592
65899	8,1538
65900	8,4615
65901	7,5592
65902	8,4997
65903	7,6023
65904	8,2113
65905	6,6918
65906	6,6371
65907	6,4036
65908	6,7047
65909	6,6875
65910	6,628
65911	6,3959
65912	6,6918
65913	6,628
65914	6,3959
65915	6,6371
65916	6,4036
65917	6,7047
65918	8,8167
65919	9,2478
65920	8,2419
65921	8,8738
65922	8,7977
65923	9,2128
65924	8,1971
65925	8,8167
65926	9,2128
65927	8,1971
65928	9,2478
65929	8,2419
65930	8,8738
65931	6,5734
65932	6,5285
65933	6,2775
65934	6,588
65935	6,5686
65936	6,5183
65937	6,2688
65938	6,5734
65939	6,5183
65940	6,2688
65941	6,5285
65942	6,2775
65943	6,588
65944	9,6548
65945	10,185
65946	9,0596
65947	9,7057
65948	9,6385
65949	10,159
65950	9,0169
65951	9,6548
65952	10,159
65953	9,0169
65954	10,185
65955	9,0596
65956	9,7057
65957	6,4735
65958	6,4394
65959	6,168
65960	6,4897
65961	6,4681
65962	6,428
65963	6,1582
65964	6,4735
65965	6,428
65966	6,1582
65967	6,4394
65968	6,168
65969	6,4897
65970	10,7
65971	11,333
65972	10,086
65973	10,735
65974	10,69
65975	11,323
65976	10,052
65977	10,7
65978	11,323
65979	10,052
65980	11,333
65981	10,086
65982	10,735
65983	6,3941
65984	6,3722
65985	6,0774
65986	6,4122
65987	6,3881
65988	6,3594
65989	6,0663
65990	6,3941
65991	6,3594
65992	6,0663
65993	6,3722
65994	6,0774
65995	6,4122
65996	11,965
65997	12,71
65998	11,338
65999	11,972
66000	11,965
66001	12,725
66002	11,319
66003	11,965
66004	12,725
66005	11,319
66006	12,71
66007	11,338
66008	11,972
66009	6,3378
66010	6,3296
66011	6,008
66012	6,3581
66013	6,3311
66014	6,3153
66015	5,9955
66016	6,3378
66017	6,3153
66018	5,9955
66019	6,3296
66020	6,008
66021	6,3581
66022	13,476
66023	14,268
66024	12,816
66025	13,441
66026	13,49
66027	14,306
66028	12,82
66029	13,476
66030	14,306
66031	12,82
66032	14,268
66033	12,816
66034	13,441
66035	6,3075
66036	6,3148
66037	5,9626
66038	6,3302
66039	6,3
66040	6,2988
66041	5,9485
66042	6,3075
66043	6,2988
66044	5,9485
66045	6,3148
66046	5,9626
66047	6,3302
66048	15,1
66049	15,836
66050	14,429
66051	15,926
66052	15,022
66053	15,125
66054	15,887
66055	14,453
66056	16,015
66057	15,1
66058	15,887
66059	14,453
66060	16,015
66061	15,836
66062	14,429
66063	15,926
66064	15,022
66065	6,3066
66066	6,3314
66067	5,9448
66068	6,332
66069	6,2982
66070	6,3135
66071	5,9288
66072	6,3066
66073	6,3135
66074	5,9288
66075	6,3314
66076	5,9448
66077	6,332
66078	16,638
66079	17,344
66080	16,
66081	17,689
66082	16,536
66083	16,667
66084	17,382
66085	16,034
66086	17,785
66087	16,638
66088	17,382
66089	16,034
66090	17,785
66091	17,344
66092	16,
66093	17,689
66094	16,536
66095	6,3392
66096	6,3842
66097	5,9584
66098	6,3676
66099	6,3297
66100	6,364
66101	5,9403
66102	6,3392
66103	6,364
66104	5,9403
66105	6,3842
66106	5,9584
66107	6,3676
66108	18,153
66109	18,664
66110	17,455
66111	19,049
66112	18,083
66113	18,167
66114	18,663
66115	17,47
66116	19,105
66117	18,153
66118	18,663
66119	17,47
66120	19,105
66121	18,664
66122	17,455
66123	19,049
66124	18,083
66125	6,4103
66126	6,4788
66127	6,0086
66128	6,4423
66129	6,3996
66130	6,456
66131	5,988
66132	6,4103
66133	6,456
66134	5,988
66135	6,4788
66136	6,0086
66137	6,4423
66138	19,322
66139	19,72
66140	18,674
66141	21,756
66142	19,358
66143	19,311
66144	19,643
66145	18,648
66146	21,739
66147	19,322
66148	19,643
66149	18,648
66150	21,739
66151	19,72
66152	18,674
66153	21,756
66154	19,358
66155	6,5262
66156	6,6223
66157	6,1018
66158	6,5622
66159	6,5142
66160	6,5967
66161	6,0782
66162	6,5262
66163	6,5967
66164	6,0782
66165	6,6223
66166	6,1018
66167	6,5622
66168	20,365
66169	21,965
66170	19,739
66171	20,385
66172	20,641
66173	20,296
66174	21,8
66175	19,625
66176	20,194
66177	20,365
66178	21,8
66179	19,625
66180	20,194
66181	21,965
66182	19,739
66183	20,385
66184	20,641
66185	6,695
66186	6,824
66187	6,2463
66188	6,7355
66189	6,6815
66190	6,7951
66191	6,2193
66192	6,695
66193	6,7951
66194	6,2193
66195	6,824
66196	6,2463
66197	6,7355
66198	6,9271
66199	7,0956
66200	6,4528
66201	6,9724
66202	6,9119
66203	7,0634
66204	6,4219
66205	6,9271
66206	7,0634
66207	6,4219
66208	7,0956
66209	6,4528
66210	6,9724
66211	7,236
66212	7,4524
66213	6,7354
66214	7,2861
66215	7,2191
66216	7,417
66217	6,7002
66218	7,236
66219	7,417
66220	6,7002
66221	7,4524
66222	6,7354
66223	7,2861
66224	7,6391
66225	7,9142
66226	7,1125
66227	7,6937
66228	7,6207
66229	7,8765
66230	7,073
66231	7,6391
66232	7,8765
66233	7,073
66234	7,9142
66235	7,1125
66236	7,6937
66237	21,358
66238	21,388
66239	21,085
66240	20,911
66241	20,841
66242	22,175
66243	21,17
66244	20,934
66245	20,757
66246	20,573
66247	20,54
66248	21,358
66249	20,934
66250	20,757
66251	20,573
66252	20,54
66253	21,388
66254	21,085
66255	20,911
66256	20,841
66257	22,175
66258	8,159
66259	8,5056
66260	7,6073
66261	8,2164
66262	8,1397
66263	8,4674
66264	7,5642
66265	8,159
66266	8,4674
66267	7,5642
66268	8,5056
66269	7,6073
66270	8,2164
66271	8,8233
66272	9,2555
66273	8,2486
66274	8,8804
66275	8,8043
66276	9,2205
66277	8,2037
66278	8,8233
66279	9,2205
66280	8,2037
66281	9,2555
66282	8,2486
66283	8,8804
66284	9,6636
66285	10,194
66286	9,0683
66287	9,7144
66288	9,6473
66289	10,169
66290	9,0256
66291	9,6636
66292	10,169
66293	9,0256
66294	10,194
66295	9,0683
66296	9,7144
66297	10,71
66298	11,345
66299	10,097
66300	10,745
66301	10,7
66302	11,336
66303	10,063
66304	10,71
66305	11,336
66306	10,063
66307	11,345
66308	10,097
66309	10,745
66310	21,152
66311	21,349
66312	20,792
66313	21,016
66314	20,79
66315	21,829
66316	20,993
66317	20,948
66318	20,523
66319	20,696
66320	20,534
66321	21,152
66322	20,948
66323	20,523
66324	20,696
66325	20,534
66326	21,349
66327	20,792
66328	21,016
66329	20,79
66330	21,829
66331	11,98
66332	12,714
66333	11,352
66334	11,987
66335	11,98
66336	12,728
66337	11,334
66338	11,98
66339	12,728
66340	11,334
66341	12,714
66342	11,352
66343	11,987
66344	13,467
66345	14,237
66346	12,822
66347	13,433
66348	13,481
66349	14,275
66350	12,825
66351	13,467
66352	14,275
66353	12,825
66354	14,237
66355	12,822
66356	13,433
66357	19,837
66358	19,38
66359	21,471
66360	19,422
66361	20,163
66362	20,075
66363	19,78
66364	19,307
66365	21,345
66366	19,328
66367	20,003
66368	19,837
66369	19,307
66370	21,345
66371	19,328
66372	20,003
66373	19,38
66374	21,471
66375	19,422
66376	20,163
66377	20,075
66378	15,048
66379	15,74
66380	14,391
66381	14,971
66382	15,073
66383	15,788
66384	14,415
66385	15,048
66386	15,788
66387	14,415
66388	15,74
66389	14,391
66390	14,971
66391	19,061
66392	18,413
66393	18,478
66394	19,101
66395	19,043
66396	18,406
66397	18,448
66398	19,061
66399	18,406
66400	18,448
66401	18,413
66402	18,478
66403	19,101
66404	16,494
66405	17,087
66406	15,896
66407	16,405
66408	16,519
66409	17,121
66410	15,927
66411	16,494
66412	17,121
66413	15,927
66414	17,087
66415	15,896
66416	16,405
66417	17,929
66418	17,257
66419	17,333
66420	19,087
66421	17,87
66422	17,941
66423	17,292
66424	17,347
66425	19,134
66426	17,929
66427	17,292
66428	17,347
66429	19,134
66430	17,257
66431	17,333
66432	19,087
66433	17,87
66434	17,769
66435	17,21
66436	18,177
66437	17,715
66438	17,781
66439	17,226
66440	18,173
66441	17,769
66442	17,226
66443	18,173
66444	17,21
66445	18,177
66446	17,715
66447	16,676
66448	15,873
66449	16,016
66450	17,745
66451	16,581
66452	16,703
66453	15,923
66454	16,048
66455	17,84
66456	16,676
66457	15,923
66458	16,048
66459	17,84
66460	15,873
66461	16,016
66462	17,745
66463	16,581
66464	15,136
66465	14,317
66466	14,479
66467	15,979
66468	15,058
66469	15,16
66470	14,355
66471	14,503
66472	16,069
66473	15,136
66474	14,355
66475	14,503
66476	16,069
66477	14,317
66478	14,479
66479	15,979
66480	15,058
66481	19,658
66482	19,935
66483	19,097
66484	19,307
66485	20,24
66486	19,853
66487	19,605
66488	19,786
66489	19,032
66490	19,218
66491	20,133
66492	19,658
66493	19,786
66494	19,032
66495	19,218
66496	20,133
66497	19,935
66498	19,097
66499	19,307
66500	20,24
66501	19,853
66502	13,539
66503	12,773
66504	12,883
66505	13,503
66506	13,553
66507	12,789
66508	12,887
66509	13,539
66510	12,789
66511	12,887
66512	12,773
66513	12,883
66514	13,503
66515	20,344
66516	21,404
66517	20,134
66518	20,608
66519	20,782
66520	20,243
66521	21,184
66522	19,961
66523	20,366
66524	20,344
66525	21,184
66526	19,961
66527	20,366
66528	21,404
66529	20,134
66530	20,608
66531	20,782
66532	12,029
66533	11,396
66534	11,407
66535	12,035
66536	12,029
66537	11,387
66538	11,388
66539	12,029
66540	11,387
66541	11,388
66542	11,396
66543	11,407
66544	12,035
66545	10,764
66546	10,249
66547	10,155
66548	10,799
66549	10,755
66550	10,224
66551	10,121
66552	10,764
66553	10,224
66554	10,121
66555	10,249
66556	10,155
66557	10,799
66558	9,7197
66559	9,3132
66560	9,129
66561	9,7706
66562	9,7035
66563	9,2781
66564	9,0861
66565	9,7197
66566	9,2781
66567	9,0861
66568	9,3132
66569	9,129
66570	9,7706
66571	8,8828
66572	8,5676
66573	8,3124
66574	8,9406
66575	8,8636
66576	8,5288
66577	8,2669
66578	8,8828
66579	8,5288
66580	8,2669
66581	8,5676
66582	8,3124
66583	8,9406
66584	21,119
66585	21,327
66586	20,827
66587	20,893
66588	20,88
66589	20,953
66590	21,854
66591	20,946
66592	20,895
66593	20,528
66594	20,582
66595	20,575
66596	20,618
66597	21,119
66598	20,895
66599	20,528
66600	20,582
66601	20,575
66602	20,618
66603	21,327
66604	20,827
66605	20,893
66606	20,88
66607	20,953
66608	21,854
66609	8,2235
66610	7,9823
66611	7,6759
66612	8,2822
66613	8,2037
66614	7,9436
66615	7,6317
66616	8,2235
66617	7,9436
66618	7,6317
66619	7,9823
66620	7,6759
66621	8,2822
66622	7,7104
66623	7,5283
66624	7,1876
66625	7,7666
66626	7,6914
66627	7,4917
66628	7,1468
66629	7,7104
66630	7,4917
66631	7,1468
66632	7,5283
66633	7,1876
66634	7,7666
66635	20,957
66636	21,237
66637	20,801
66638	20,938
66639	20,832
66640	21,628
66641	20,796
66642	20,836
66643	20,514
66644	20,61
66645	20,542
66646	20,957
66647	20,836
66648	20,514
66649	20,61
66650	20,542
66651	21,237
66652	20,801
66653	20,938
66654	20,832
66655	21,628
66656	7,3158
66657	7,1811
66658	6,819
66659	7,368
66660	7,2982
66661	7,1475
66662	6,7824
66663	7,3158
66664	7,1475
66665	6,7824
66666	7,1811
66667	6,819
66668	7,368
66669	7,0174
66670	6,921
66671	6,5469
66672	7,0649
66673	7,0014
66674	6,8906
66675	6,5144
66676	7,0174
66677	6,8906
66678	6,5144
66679	6,921
66680	6,5469
66681	7,0649
66682	20,442
66683	20,216
66684	21,058
66685	20,127
66686	20,541
66687	20,833
66688	20,343
66689	20,061
66690	20,788
66691	19,958
66692	20,313
66693	20,442
66694	20,061
66695	20,788
66696	19,958
66697	20,313
66698	20,216
66699	21,058
66700	20,127
66701	20,541
66702	20,833
66703	6,7976
66704	6,7327
66705	6,353
66706	6,8405
66707	6,7832
66708	6,7054
66709	6,3242
66710	6,7976
66711	6,7054
66712	6,3242
66713	6,7327
66714	6,353
66715	6,8405
66716	20,048
66717	21,328
66718	19,605
66719	19,496
66720	20,278
66721	19,988
66722	21,161
66723	19,532
66724	19,398
66725	20,048
66726	21,161
66727	19,532
66728	19,398
66729	21,328
66730	19,605
66731	19,496
66732	20,278
66733	6,643
66734	6,6046
66735	6,2231
66736	6,6816
66737	6,6301
66738	6,58
66739	6,1978
66740	6,643
66741	6,58
66742	6,1978
66743	6,6046
66744	6,2231
66745	6,6816
66746	6,5434
66747	6,5275
66748	6,1469
66749	6,5782
66750	6,5318
66751	6,5054
66752	6,1244
66753	6,5434
66754	6,5054
66755	6,1244
66756	6,5275
66757	6,1469
66758	6,5782
66759	18,048
66760	17,398
66761	17,453
66762	18,634
66763	17,993
66764	18,062
66765	17,436
66766	17,47
66767	18,632
66768	18,048
66769	17,436
66770	17,47
66771	18,632
66772	17,398
66773	17,453
66774	18,634
66775	17,993
66776	6,491
66777	6,4947
66778	6,1161
66779	6,5224
66780	6,4805
66781	6,4748
66782	6,0961
66783	6,491
66784	6,4748
66785	6,0961
66786	6,4947
66787	6,1161
66788	6,5224
66789	16,847
66790	15,967
66791	16,168
66792	16,747
66793	16,874
66794	16,016
66795	16,2
66796	16,847
66797	16,016
66798	16,2
66799	15,967
66800	16,168
66801	16,747
66802	6,4796
66803	6,5008
66804	6,1247
66805	6,5081
66806	6,4701
66807	6,4826
66808	6,1067
66809	6,4796
66810	6,4826
66811	6,1067
66812	6,5008
66813	6,1247
66814	6,5081
66815	15,154
66816	14,326
66817	14,567
66818	15,08
66819	15,179
66820	14,362
66821	14,592
66822	15,154
66823	14,362
66824	14,592
66825	14,326
66826	14,567
66827	15,08
66828	6,5046
66829	6,5413
66830	6,168
66831	6,5306
66832	6,4959
66833	6,5247
66834	6,1516
66835	6,5046
66836	6,5247
66837	6,1516
66838	6,5413
66839	6,168
66840	6,5306
66841	13,536
66842	12,823
66843	12,957
66844	13,505
66845	13,549
66846	12,837
66847	12,96
66848	13,536
66849	12,837
66850	12,96
66851	12,823
66852	12,957
66853	13,505
66854	6,5621
66855	6,613
66856	6,2421
66857	6,586
66858	6,5541
66859	6,5977
66860	6,2272
66861	6,5621
66862	6,5977
66863	6,2272
66864	6,613
66865	6,2421
66866	6,586
66867	12,128
66868	11,522
66869	11,535
66870	12,132
66871	12,129
66872	11,515
66873	11,518
66874	12,128
66875	11,515
66876	11,518
66877	11,522
66878	11,535
66879	12,132
66880	6,6491
66881	6,7131
66882	6,3443
66883	6,6712
66884	6,6418
66885	6,6989
66886	6,3305
66887	6,6491
66888	6,6989
66889	6,3305
66890	6,7131
66891	6,3443
66892	6,6712
66893	10,917
66894	10,405
66895	10,317
66896	10,949
66897	10,908
66898	10,381
66899	10,284
66900	10,917
66901	10,381
66902	10,284
66903	10,405
66904	10,317
66905	10,949
66906	6,7632
66907	6,8392
66908	6,4721
66909	6,7838
66910	6,7564
66911	6,826
66912	6,4593
66913	6,7632
66914	6,826
66915	6,4593
66916	6,8392
66917	6,4721
66918	6,7838
66919	9,8795
66920	9,4633
66921	9,2856
66922	9,9283
66923	9,8641
66924	9,4294
66925	9,2437
66926	9,8795
66927	9,4294
66928	9,2437
66929	9,4633
66930	9,2856
66931	9,9283
66932	6,9023
66933	6,9896
66934	6,6236
66935	6,9215
66936	6,896
66937	6,9773
66938	6,6117
66939	6,9023
66940	6,9773
66941	6,6117
66942	6,9896
66943	6,6236
66944	6,9215
66945	9,0243
66946	8,6996
66947	8,4502
66948	9,0813
66949	9,0054
66950	8,6612
66951	8,4048
66952	9,0243
66953	8,6612
66954	8,4048
66955	8,6996
66956	8,4502
66957	9,0813
66958	7,0648
66959	7,1626
66960	6,7973
66961	7,0828
66962	7,0588
66963	7,151
66964	6,7861
66965	7,0648
66966	7,151
66967	6,7861
66968	7,1626
66969	6,7973
66970	7,0828
66971	8,3463
66972	8,096
66973	7,7939
66974	8,4051
66975	8,3265
66976	8,057
66977	7,7493
66978	8,3463
66979	8,057
66980	7,7493
66981	8,096
66982	7,7939
66983	8,4051
66984	7,249
66985	7,3568
66986	6,9918
66987	7,266
66988	7,2434
66989	7,3459
66990	6,9812
66991	7,249
66992	7,3459
66993	6,9812
66994	7,3568
66995	6,9918
66996	7,266
66997	7,8147
66998	7,6242
66999	7,2863
67000	7,8716
67001	7,7954
67002	7,5869
67003	7,2447
67004	7,8147
67005	7,5869
67006	7,2447
67007	7,6242
67008	7,2863
67009	7,8716
67010	7,4538
67011	7,571
67012	7,2058
67013	7,4698
67014	7,4485
67015	7,5607
67016	7,1959
67017	7,4538
67018	7,5607
67019	7,1959
67020	7,571
67021	7,2058
67022	7,4698
67023	7,4027
67024	7,2601
67025	6,8996
67026	7,4559
67027	7,3847
67028	7,2257
67029	6,8619
67030	7,4027
67031	7,2257
67032	6,8619
67033	7,2601
67034	6,8996
67035	7,4559
67036	7,678
67037	7,8042
67038	7,4383
67039	7,6931
67040	7,673
67041	7,7945
67042	7,429
67043	7,678
67044	7,7945
67045	7,429
67046	7,8042
67047	7,4383
67048	7,6931
67049	7,0879
67050	6,9842
67051	6,6107
67052	7,1367
67053	7,0715
67054	6,9529
67055	6,577
67056	7,0879
67057	6,9529
67058	6,577
67059	6,9842
67060	6,6107
67061	7,1367
67062	7,9207
67063	8,0553
67064	7,6882
67065	7,9349
67066	7,916
67067	8,0462
67068	7,6795
67069	7,9207
67070	8,0462
67071	7,6795
67072	8,0553
67073	7,6882
67074	7,9349
67075	6,8528
67076	6,781
67077	6,401
67078	6,897
67079	6,838
67080	6,7528
67081	6,3712
67082	6,8528
67083	6,7528
67084	6,3712
67085	6,781
67086	6,401
67087	6,897
67088	8,1808
67089	8,3235
67090	7,9546
67091	8,1941
67092	8,1765
67093	8,3151
67094	7,9466
67095	8,1808
67096	8,3151
67097	7,9466
67098	8,3235
67099	7,9546
67100	8,1941
67101	6,6837
67102	6,6386
67103	6,2565
67104	6,7236
67105	6,6703
67106	6,6132
67107	6,2302
67108	6,6837
67109	6,6132
67110	6,2302
67111	6,6386
67112	6,2565
67113	6,7236
67114	8,4578
67115	8,6081
67116	8,2366
67117	8,47
67118	8,4537
67119	8,6004
67120	8,2293
67121	8,4578
67122	8,6004
67123	8,2293
67124	8,6081
67125	8,2366
67126	8,47
67127	6,5701
67128	6,5478
67129	6,1663
67130	6,6061
67131	6,5581
67132	6,5249
67133	6,1429
67134	6,5701
67135	6,5249
67136	6,1429
67137	6,5478
67138	6,1663
67139	6,6061
67140	8,7507
67141	8,9084
67142	8,5332
67143	8,7619
67144	8,747
67145	8,9014
67146	8,5266
67147	8,7507
67148	8,9014
67149	8,5266
67150	8,9084
67151	8,5332
67152	8,7619
67153	6,5041
67154	6,5015
67155	6,1221
67156	6,5366
67157	6,4933
67158	6,4809
67159	6,1012
67160	6,5041
67161	6,4809
67162	6,1012
67163	6,5015
67164	6,1221
67165	6,5366
67166	9,0591
67167	9,2239
67168	8,8435
67169	9,069
67170	9,0558
67171	9,2177
67172	8,8378
67173	9,0591
67174	9,2177
67175	8,8378
67176	9,2239
67177	8,8435
67178	9,069
67179	6,4794
67180	6,4943
67181	6,1176
67182	6,5089
67183	6,4696
67184	6,4755
67185	6,0988
67186	6,4794
67187	6,4755
67188	6,0988
67189	6,4943
67190	6,1176
67191	6,5089
67192	9,3825
67193	9,5543
67194	9,1664
67195	9,3911
67196	9,3797
67197	9,5491
67198	9,1617
67199	9,3825
67200	9,5491
67201	9,1617
67202	9,5543
67203	9,1664
67204	9,3911
67205	6,4912
67206	6,5216
67207	6,1479
67208	6,5181
67209	6,4823
67210	6,5045
67211	6,1309
67212	6,4912
67213	6,5045
67214	6,1309
67215	6,5216
67216	6,1479
67217	6,5181
67218	9,7208
67219	9,8996
67220	9,5011
67221	9,728
67222	9,7185
67223	9,8954
67224	9,4976
67225	9,7208
67226	9,8954
67227	9,4976
67228	9,8996
67229	9,5011
67230	9,728
67231	6,5356
67232	6,5801
67233	6,2092
67234	6,5602
67235	6,5274
67236	6,5643
67237	6,1937
67238	6,5356
67239	6,5643
67240	6,1937
67241	6,5801
67242	6,2092
67243	6,5602
67244	10,074
67245	10,26
67246	9,8466
67247	10,08
67248	10,072
67249	10,257
67250	9,8445
67251	10,074
67252	10,257
67253	9,8445
67254	10,26
67255	9,8466
67256	10,08
67257	6,6094
67258	6,6669
67259	6,2984
67260	6,6322
67261	6,6018
67262	6,6523
67263	6,2842
67264	6,6094
67265	6,6523
67266	6,2842
67267	6,6669
67268	6,2984
67269	6,6322
67270	10,444
67271	10,638
67272	10,202
67273	10,448
67274	10,442
67275	10,635
67276	10,202
67277	10,444
67278	10,635
67279	10,202
67280	10,638
67281	10,202
67282	10,448
67283	6,7102
67284	6,7797
67285	6,4132
67286	6,7314
67287	6,7032
67288	6,7661
67289	6,4
67290	6,7102
67291	6,7661
67292	6,4
67293	6,7797
67294	6,4132
67295	6,7314
67296	10,83
67297	11,034
67298	10,568
67299	10,833
67300	10,829
67301	11,032
67302	10,568
67303	10,83
67304	11,032
67305	10,568
67306	11,034
67307	10,568
67308	10,833
67309	6,8359
67310	6,9165
67311	6,5516
67312	6,8557
67313	6,8293
67314	6,9038
67315	6,5393
67316	6,8359
67317	6,9038
67318	6,5393
67319	6,9165
67320	6,5516
67321	6,8557
67322	11,236
67323	11,452
67324	10,943
67325	11,24
67326	11,235
67327	11,449
67328	10,944
67329	11,236
67330	11,449
67331	10,944
67332	11,452
67333	10,943
67334	11,24
67335	6,9847
67336	7,0758
67337	6,712
67338	7,0032
67339	6,9785
67340	7,0638
67341	6,7005
67342	6,9847
67343	7,0638
67344	6,7005
67345	7,0758
67346	6,712
67347	7,0032
67348	11,665
67349	11,895
67350	11,328
67351	11,67
67352	11,663
67353	11,89
67354	11,329
67355	11,665
67356	11,89
67357	11,329
67358	11,895
67359	11,328
67360	11,67
67361	7,1551
67362	7,2561
67363	6,8929
67364	7,1726
67365	7,1493
67366	7,2448
67367	6,8821
67368	7,1551
67369	7,2448
67370	6,8821
67371	7,2561
67372	6,8929
67373	7,1726
67374	12,12
67375	12,366
67376	11,723
67377	12,13
67378	12,117
67379	12,357
67380	11,722
67381	12,12
67382	12,357
67383	11,722
67384	12,366
67385	11,723
67386	12,13
67387	7,3459
67388	7,4562
67389	7,0932
67390	7,3624
67391	7,3404
67392	7,4455
67393	7,083
67394	7,3459
67395	7,4455
67396	7,083
67397	7,4562
67398	7,0932
67399	7,3624
67400	12,604
67401	12,867
67402	12,128
67403	12,622
67404	12,598
67405	12,851
67406	12,122
67407	12,604
67408	12,851
67409	12,122
67410	12,867
67411	12,128
67412	12,622
67413	7,5559
67414	7,675
67415	7,3118
67416	7,5715
67417	7,5507
67418	7,6649
67419	7,3022
67420	7,5559
67421	7,6649
67422	7,3022
67423	7,675
67424	7,3118
67425	7,5715
67426	13,115
67427	13,391
67428	12,538
67429	13,146
67430	13,105
67431	13,368
67432	12,527
67433	13,115
67434	13,368
67435	12,527
67436	13,391
67437	12,538
67438	13,146
67439	7,7841
67440	7,9116
67441	7,5477
67442	7,7988
67443	7,7792
67444	7,9021
67445	7,5387
67446	7,7841
67447	7,9021
67448	7,5387
67449	7,9116
67450	7,5477
67451	7,7988
67452	13,645
67453	13,921
67454	12,943
67455	13,689
67456	13,632
67457	13,894
67458	12,925
67459	13,645
67460	13,894
67461	12,925
67462	13,921
67463	12,943
67464	13,689
67465	8,0296
67466	8,1651
67467	7,8
67468	8,0434
67469	8,0251
67470	8,1563
67471	7,7915
67472	8,0296
67473	8,1563
67474	7,7915
67475	8,1651
67476	7,8
67477	8,0434
67478	14,172
67479	14,414
67480	13,319
67481	14,22
67482	14,159
67483	14,397
67484	13,301
67485	14,172
67486	14,397
67487	13,301
67488	14,414
67489	13,319
67490	14,22
67491	8,2917
67492	8,4347
67493	8,0677
67494	8,3046
67495	8,2875
67496	8,4266
67497	8,0599
67498	8,2917
67499	8,4266
67500	8,0599
67501	8,4347
67502	8,0677
67503	8,3046
67504	14,641
67505	14,81
67506	13,623
67507	14,67
67508	14,638
67509	14,829
67510	13,621
67511	14,641
67512	14,829
67513	13,621
67514	14,81
67515	13,623
67516	14,67
67517	8,5696
67518	8,7198
67519	8,35
67520	8,5814
67521	8,5657
67522	8,7124
67523	8,343
67524	8,5696
67525	8,7124
67526	8,343
67527	8,7198
67528	8,35
67529	8,5814
67530	15,
67531	15,077
67532	13,811
67533	14,958
67534	15,022
67535	15,163
67536	13,849
67537	15,
67538	15,163
67539	13,849
67540	15,077
67541	13,811
67542	14,958
67543	8,8626
67544	9,0198
67545	8,646
67546	8,8734
67547	8,8591
67548	9,0131
67549	8,6398
67550	8,8626
67551	9,0131
67552	8,6398
67553	9,0198
67554	8,646
67555	8,8734
67556	15,241
67557	15,233
67558	13,874
67559	15,064
67560	15,306
67561	15,411
67562	13,979
67563	15,241
67564	15,411
67565	13,979
67566	15,233
67567	13,874
67568	15,064
67569	9,1703
67570	9,3343
67571	8,9548
67572	9,1799
67573	9,1672
67574	9,3285
67575	8,9495
67576	9,1703
67577	9,3285
67578	8,9495
67579	9,3343
67580	8,9548
67581	9,1799
67582	15,403
67583	15,355
67584	13,869
67585	15,039
67586	15,515
67587	15,607
67588	14,046
67589	15,403
67590	15,607
67591	14,046
67592	15,355
67593	13,869
67594	15,039
67595	9,4925
67596	9,6631
67597	9,2755
67598	9,5006
67599	9,4898
67600	9,6582
67601	9,2712
67602	9,4925
67603	9,6582
67604	9,2712
67605	9,6631
67606	9,2755
67607	9,5006
67608	15,559
67609	15,483
67610	13,905
67611	15,064
67612	15,699
67613	15,737
67614	14,115
67615	15,559
67616	15,737
67617	14,115
67618	15,483
67619	13,905
67620	15,064
67621	9,8289
67622	10,006
67623	9,6072
67624	9,8356
67625	9,8267
67626	10,002
67627	9,6041
67628	9,8289
67629	10,002
67630	9,6041
67631	10,006
67632	9,6072
67633	9,8356
67634	15,666
67635	15,671
67636	14,105
67637	15,218
67638	15,781
67639	15,812
67640	14,265
67641	15,666
67642	15,812
67643	14,265
67644	15,671
67645	14,105
67646	15,218
67647	10,18
67648	10,365
67649	9,9491
67650	10,185
67651	10,178
67652	10,362
67653	9,9474
67654	10,18
67655	10,362
67656	9,9474
67657	10,365
67658	9,9491
67659	10,185
67660	15,846
67661	15,966
67662	14,499
67663	15,697
67664	15,877
67665	15,915
67666	14,523
67667	15,846
67668	15,915
67669	14,523
67670	15,966
67671	14,499
67672	15,697
67673	10,547
67674	10,74
67675	10,301
67676	10,551
67677	10,545
67678	10,737
67679	10,3
67680	10,547
67681	10,737
67682	10,3
67683	10,74
67684	10,301
67685	10,551
67686	16,117
67687	14,974
67688	17,031
67689	16,374
67690	16,042
67691	14,831
67692	16,86
67693	16,117
67694	14,831
67695	16,86
67696	14,974
67697	17,031
67698	16,374
67699	10,931
67700	11,133
67701	10,662
67702	10,934
67703	10,93
67704	11,131
67705	10,662
67706	10,931
67707	11,131
67708	10,662
67709	11,133
67710	10,662
67711	10,934
67712	11,334
67713	11,548
67714	11,032
67715	11,338
67716	11,333
67717	11,545
67718	11,033
67719	11,334
67720	11,545
67721	11,033
67722	11,548
67723	11,032
67724	11,338
67725	11,76
67726	11,989
67727	11,411
67728	11,766
67729	11,758
67730	11,982
67731	11,412
67732	11,76
67733	11,982
67734	11,412
67735	11,989
67736	11,411
67737	11,766
67738	12,212
67739	12,456
67740	11,801
67741	12,223
67742	12,208
67743	12,446
67744	11,799
67745	12,212
67746	12,446
67747	11,799
67748	12,456
67749	11,801
67750	12,223
67751	17,301
67752	16,645
67753	17,218
67754	17,584
67755	16,843
67756	18,264
67757	17,075
67758	16,223
67759	16,783
67760	17,264
67761	16,428
67762	17,301
67763	16,223
67764	16,783
67765	17,264
67766	16,428
67767	16,645
67768	17,218
67769	17,584
67770	16,843
67771	18,264
67772	12,691
67773	12,952
67774	12,199
67775	12,712
67776	12,685
67777	12,934
67778	12,193
67779	12,691
67780	12,934
67781	12,193
67782	12,952
67783	12,199
67784	12,712
67785	17,023
67786	15,91
67787	16,256
67788	16,826
67789	16,732
67790	18,118
67791	16,783
67792	15,55
67793	15,689
67794	16,419
67795	16,308
67796	17,023
67797	15,55
67798	15,689
67799	16,419
67800	16,308
67801	15,91
67802	16,256
67803	16,826
67804	16,732
67805	18,118
67806	13,197
67807	13,468
67808	12,602
67809	13,229
67810	13,186
67811	13,444
67812	12,589
67813	13,197
67814	13,444
67815	12,589
67816	13,468
67817	12,602
67818	13,229
67819	13,717
67820	13,986
67821	12,996
67822	13,762
67823	13,704
67824	13,96
67825	12,978
67826	13,717
67827	13,96
67828	12,978
67829	13,986
67830	12,996
67831	13,762
67832	14,23
67833	14,47
67834	13,359
67835	14,278
67836	14,218
67837	14,456
67838	13,342
67839	14,23
67840	14,456
67841	13,342
67842	14,47
67843	13,359
67844	14,278
67845	14,697
67846	14,849
67847	13,655
67848	14,721
67849	14,696
67850	14,872
67851	13,655
67852	14,697
67853	14,872
67854	13,655
67855	14,849
67856	13,655
67857	14,721
67858	15,024
67859	15,05
67860	13,811
67861	14,975
67862	15,049
67863	15,14
67864	13,853
67865	15,024
67866	15,14
67867	13,853
67868	15,05
67869	13,811
67870	14,975
67871	16,55
67872	16,061
67873	15,876
67874	16,553
67875	16,572
67876	17,529
67877	16,344
67878	15,697
67879	15,317
67880	16,197
67881	16,202
67882	16,55
67883	15,697
67884	15,317
67885	16,197
67886	16,202
67887	16,061
67888	15,876
67889	16,553
67890	16,572
67891	17,529
67892	15,166
67893	15,062
67894	13,809
67895	16,668
67896	14,984
67897	15,232
67898	15,236
67899	13,916
67900	16,819
67901	15,166
67902	15,236
67903	13,916
67904	16,819
67905	15,062
67906	13,809
67907	16,668
67908	14,984
67909	16,408
67910	16,394
67911	16,672
67912	17,387
67913	16,197
67914	15,988
67915	16,293
67916	16,408
67917	15,988
67918	16,293
67919	16,394
67920	16,672
67921	17,387
67922	15,131
67923	15,025
67924	13,687
67925	16,681
67926	14,787
67927	15,239
67928	15,263
67929	13,859
67930	16,939
67931	15,131
67932	15,263
67933	13,859
67934	16,939
67935	15,025
67936	13,687
67937	16,681
67938	14,787
67939	16,69
67940	16,797
67941	16,791
67942	17,652
67943	16,468
67944	16,356
67945	16,39
67946	16,69
67947	16,356
67948	16,39
67949	16,797
67950	16,791
67951	17,652
67952	15,157
67953	15,064
67954	13,653
67955	14,697
67956	15,287
67957	15,303
67958	13,851
67959	15,157
67960	15,303
67961	13,851
67962	15,064
67963	13,653
67964	14,697
67965	16,762
67966	16,62
67967	16,83
67968	16,711
67969	17,76
67970	16,534
67971	16,115
67972	16,39
67973	16,296
67974	16,762
67975	16,115
67976	16,39
67977	16,296
67978	16,62
67979	16,83
67980	16,711
67981	17,76
67982	15,214
67983	15,251
67984	13,777
67985	14,798
67986	15,324
67987	15,414
67988	13,933
67989	15,214
67990	15,414
67991	13,933
67992	15,251
67993	13,777
67994	14,798
67995	15,463
67996	15,43
67997	14,119
67998	15,229
67999	15,518
68000	15,461
68001	14,172
68002	15,463
68003	15,461
68004	14,172
68005	15,43
68006	14,119
68007	15,229
68008	16,52
68009	16,426
68010	16,754
68011	16,077
68012	17,262
68013	16,332
68014	16,092
68015	16,346
68016	15,728
68017	16,52
68018	16,092
68019	16,346
68020	15,728
68021	16,426
68022	16,754
68023	16,077
68024	17,262
68025	15,454
68026	15,656
68027	14,433
68028	15,511
68029	15,435
68030	15,544
68031	14,362
68032	15,454
68033	15,544
68034	14,362
68035	15,656
68036	14,433
68037	15,511
68038	15,793
68039	16,033
68040	15,001
68041	16,689
68042	16,103
68043	15,706
68044	15,798
68045	14,815
68046	16,54
68047	15,793
68048	15,798
68049	14,815
68050	16,54
68051	16,033
68052	15,001
68053	16,689
68054	16,103
68055	9,1758
68056	9,2635
68057	9,1127
68058	9,0287
68059	9,1467
68060	9,1766
68061	9,2806
68062	9,1143
68063	9,0172
68064	9,1758
68065	9,2806
68066	9,1143
68067	9,0172
68068	9,2635
68069	9,1127
68070	9,0287
68071	9,1467
68072	9,4075
68073	9,4363
68074	9,3572
68075	9,3274
68076	9,4231
68077	9,4781
68078	9,3904
68079	9,4075
68080	9,4781
68081	9,3904
68082	9,4363
68083	9,3572
68084	9,3274
68085	9,5299
68086	9,4932
68087	9,4291
68088	9,4296
68089	9,5562
68090	9,5515
68091	9,4831
68092	9,5299
68093	9,5515
68094	9,4831
68095	9,4932
68096	9,4291
68097	9,4296
68098	9,5219
68099	9,4354
68100	9,3357
68101	9,4195
68102	9,5546
68103	9,5
68104	9,3972
68105	9,5219
68106	9,5
68107	9,3972
68108	9,4354
68109	9,3357
68110	9,4195
68111	9,4142
68112	9,3138
68113	9,1445
68114	9,3242
68115	9,4467
68116	9,373
68117	9,2016
68118	9,4142
68119	9,373
68120	9,2016
68121	9,3138
68122	9,1445
68123	9,3242
68124	9,2725
68125	9,1776
68126	8,9305
68127	9,2042
68128	9,2993
68129	9,2228
68130	8,9749
68131	9,2725
68132	9,2228
68133	8,9749
68134	9,1776
68135	8,9305
68136	9,2042
68137	9,1284
68138	9,0484
68139	8,7354
68140	9,0849
68141	9,1467
68142	9,0771
68143	8,764
68144	9,1284
68145	9,0771
68146	8,764
68147	9,0484
68148	8,7354
68149	9,0849
68150	9,1838
68151	9,2658
68152	9,116
68153	9,0325
68154	9,1575
68155	9,1848
68156	9,2826
68157	9,1179
68158	9,0206
68159	9,1838
68160	9,2826
68161	9,1179
68162	9,0206
68163	9,2658
68164	9,116
68165	9,0325
68166	9,1575
68167	8,9978
68168	8,9288
68169	8,5734
68170	8,9755
68171	9,0081
68172	8,9435
68173	8,5879
68174	8,9978
68175	8,9435
68176	8,5879
68177	8,9288
68178	8,5734
68179	8,9755
68180	9,4084
68181	9,4373
68182	9,359
68183	9,328
68184	9,4235
68185	9,4791
68186	9,392
68187	9,4084
68188	9,4791
68189	9,392
68190	9,4373
68191	9,359
68192	9,328
68193	8,8749
68194	8,8113
68195	8,4385
68196	8,8667
68197	8,8793
68198	8,8167
68199	8,4433
68200	8,8749
68201	8,8167
68202	8,4433
68203	8,8113
68204	8,4385
68205	8,8667
68206	9,5303
68207	9,4934
68208	9,429
68209	9,4298
68210	9,5571
68211	9,5522
68212	9,4833
68213	9,5303
68214	9,5522
68215	9,4833
68216	9,4934
68217	9,429
68218	9,4298
68219	8,7533
68220	8,6895
68221	8,3196
68222	8,7523
68223	8,7544
68224	8,6902
68225	8,3195
68226	8,7533
68227	8,6902
68228	8,3195
68229	8,6895
68230	8,3196
68231	8,7523
68232	9,5225
68233	9,4362
68234	9,3361
68235	9,4199
68236	9,5552
68237	9,5007
68238	9,3977
68239	9,5225
68240	9,5007
68241	9,3977
68242	9,4362
68243	9,3361
68244	9,4199
68245	8,6263
68246	8,5589
68247	8,206
68248	8,6277
68249	8,626
68250	8,558
68251	8,2043
68252	8,6263
68253	8,558
68254	8,2043
68255	8,5589
68256	8,206
68257	8,6277
68258	9,4151
68259	9,3143
68260	9,145
68261	9,325
68262	9,4475
68263	9,3733
68264	9,202
68265	9,4151
68266	9,3733
68267	9,202
68268	9,3143
68269	9,145
68270	9,325
68271	8,4906
68272	8,4181
68273	8,0901
68274	8,4917
68275	8,49
68276	8,4172
68277	8,0886
68278	8,4906
68279	8,4172
68280	8,0886
68281	8,4181
68282	8,0901
68283	8,4917
68284	9,2723
68285	9,1777
68286	8,9305
68287	9,204
68288	9,2992
68289	9,223
68290	8,975
68291	9,2723
68292	9,223
68293	8,975
68294	9,1777
68295	8,9305
68296	9,204
68297	8,3448
68298	8,2671
68299	7,9669
68300	8,3448
68301	8,3445
68302	8,2669
68303	7,9664
68304	8,3448
68305	8,2669
68306	7,9664
68307	8,2671
68308	7,9669
68309	8,3448
68310	9,1289
68311	9,0484
68312	8,7356
68313	9,0855
68314	9,1472
68315	9,0771
68316	8,7641
68317	9,1289
68318	9,0771
68319	8,7641
68320	9,0484
68321	8,7356
68322	9,0855
68323	8,1893
68324	8,1068
68325	7,8339
68326	8,1881
68327	8,1893
68328	8,1072
68329	7,8344
68330	8,1893
68331	8,1072
68332	7,8344
68333	8,1068
68334	7,8339
68335	8,1881
68336	8,9974
68337	8,9285
68338	8,5732
68339	8,9751
68340	9,0076
68341	8,9431
68342	8,5877
68343	8,9974
68344	8,9431
68345	8,5877
68346	8,9285
68347	8,5732
68348	8,9751
68349	8,0248
68350	7,9385
68351	7,6902
68352	8,023
68353	8,0252
68354	7,9392
68355	7,6914
68356	8,0248
68357	7,9392
68358	7,6914
68359	7,9385
68360	7,6902
68361	8,023
68362	8,8747
68363	8,811
68364	8,4383
68365	8,8665
68366	8,8791
68367	8,8164
68368	8,4431
68369	8,8747
68370	8,8164
68371	8,4431
68372	8,811
68373	8,4383
68374	8,8665
68375	7,8529
68376	7,7636
68377	7,5361
68378	7,8509
68379	7,8533
68380	7,7643
68381	7,5375
68382	7,8529
68383	7,7643
68384	7,5375
68385	7,7636
68386	7,5361
68387	7,8509
68388	8,7529
68389	8,689
68390	8,3192
68391	8,7519
68392	8,7539
68393	8,6897
68394	8,3191
68395	8,7529
68396	8,6897
68397	8,3191
68398	8,689
68399	8,3192
68400	8,7519
68401	7,675
68402	7,5837
68403	7,3726
68404	7,6734
68405	7,6754
68406	7,5842
68407	7,3738
68408	7,675
68409	7,5842
68410	7,3738
68411	7,5837
68412	7,3726
68413	7,6734
68414	8,6259
68415	8,5584
68416	8,2056
68417	8,6272
68418	8,6255
68419	8,5575
68420	8,2039
68421	8,6259
68422	8,5575
68423	8,2039
68424	8,5584
68425	8,2056
68426	8,6272
68427	7,4929
68428	7,4007
68429	7,2013
68430	7,4921
68431	7,4931
68432	7,4006
68433	7,2021
68434	7,4929
68435	7,4006
68436	7,2021
68437	7,4007
68438	7,2013
68439	7,4921
68440	8,49
68441	8,4176
68442	8,0896
68443	8,4912
68444	8,4895
68445	8,4167
68446	8,0882
68447	8,49
68448	8,4167
68449	8,0882
68450	8,4176
68451	8,0896
68452	8,4912
68453	7,3084
68454	7,2163
68455	7,0243
68456	7,3087
68457	7,3082
68458	7,2155
68459	7,0245
68460	7,3084
68461	7,2155
68462	7,0245
68463	7,2163
68464	7,0243
68465	7,3087
68466	8,3442
68467	8,2665
68468	7,9664
68469	8,3442
68470	8,3439
68471	8,2663
68472	7,9659
68473	8,3442
68474	8,2663
68475	7,9659
68476	8,2665
68477	7,9664
68478	8,3442
68479	7,1234
68480	7,0324
68481	6,8436
68482	7,1249
68483	7,1228
68484	7,0308
68485	6,843
68486	7,1234
68487	7,0308
68488	6,843
68489	7,0324
68490	6,8436
68491	7,1249
68492	8,1886
68493	8,1062
68494	7,8334
68495	8,1875
68496	8,1887
68497	8,1066
68498	7,8339
68499	8,1886
68500	8,1066
68501	7,8339
68502	8,1062
68503	7,8334
68504	8,1875
68505	6,9398
68506	6,8509
68507	6,6615
68508	6,9427
68509	6,9388
68510	6,8484
68511	6,6601
68512	6,9398
68513	6,8484
68514	6,6601
68515	6,8509
68516	6,6615
68517	6,9427
68518	8,0242
68519	7,9378
68520	7,6896
68521	8,0223
68522	8,0245
68523	7,9385
68524	7,6908
68525	8,0242
68526	7,9385
68527	7,6908
68528	7,9378
68529	7,6896
68530	8,0223
68531	6,7595
68532	6,6737
68533	6,4802
68534	6,7638
68535	6,758
68536	6,6703
68537	6,4779
68538	6,7595
68539	6,6703
68540	6,4779
68541	6,6737
68542	6,4802
68543	6,7638
68544	7,8522
68545	7,7628
68546	7,5354
68547	7,8502
68548	7,8526
68549	7,7636
68550	7,5368
68551	7,8522
68552	7,7636
68553	7,5368
68554	7,7628
68555	7,5354
68556	7,8502
68557	6,5845
68558	6,5027
68559	6,3018
68560	6,5902
68561	6,5825
68562	6,4983
68563	6,2987
68564	6,5845
68565	6,4983
68566	6,2987
68567	6,5027
68568	6,3018
68569	6,5902
68570	7,6743
68571	7,583
68572	7,3718
68573	7,6727
68574	7,6746
68575	7,5834
68576	7,3731
68577	7,6743
68578	7,5834
68579	7,3731
68580	7,583
68581	7,3718
68582	7,6727
68583	6,4166
68584	6,3398
68585	6,1285
68586	6,4238
68587	6,4141
68588	6,3344
68589	6,1244
68590	6,4166
68591	6,3344
68592	6,1244
68593	6,3398
68594	6,1285
68595	6,4238
68596	7,4922
68597	7,3999
68598	7,2005
68599	7,4913
68600	7,4923
68601	7,3998
68602	7,2014
68603	7,4922
68604	7,3998
68605	7,2014
68606	7,3999
68607	7,2005
68608	7,4913
68609	6,2576
68610	6,1868
68611	5,9622
68612	6,2663
68613	6,2547
68614	6,1805
68615	5,9572
68616	6,2576
68617	6,1805
68618	5,9572
68619	6,1868
68620	5,9622
68621	6,2663
68622	7,3076
68623	7,2155
68624	7,0235
68625	7,3078
68626	7,3074
68627	7,2147
68628	7,0237
68629	7,3076
68630	7,2147
68631	7,0237
68632	7,2155
68633	7,0235
68634	7,3078
68635	6,1096
68636	6,0456
68637	5,8049
68638	6,1198
68639	6,1062
68640	6,0383
68641	5,799
68642	6,1096
68643	6,0383
68644	5,799
68645	6,0456
68646	5,8049
68647	6,1198
68648	7,1226
68649	7,0316
68650	6,8427
68651	7,1241
68652	7,122
68653	7,0299
68654	6,8422
68655	7,1226
68656	7,0299
68657	6,8422
68658	7,0316
68659	6,8427
68660	7,1241
68661	5,9743
68662	5,9183
68663	5,6585
68664	5,9861
68665	5,9704
68666	5,9099
68667	5,6516
68668	5,9743
68669	5,9099
68670	5,6516
68671	5,9183
68672	5,6585
68673	5,9861
68674	6,9389
68675	6,85
68676	6,6606
68677	6,9418
68678	6,9379
68679	6,8475
68680	6,6592
68681	6,9389
68682	6,8475
68683	6,6592
68684	6,85
68685	6,6606
68686	6,9418
68687	5,8539
68688	5,8069
68689	5,5251
68690	5,8673
68691	5,8494
68692	5,7973
68693	5,5171
68694	5,8539
68695	5,7973
68696	5,5171
68697	5,8069
68698	5,5251
68699	5,8673
68700	6,7586
68701	6,6728
68702	6,4793
68703	6,763
68704	6,7572
68705	6,6694
68706	6,477
68707	6,7586
68708	6,6694
68709	6,477
68710	6,6728
68711	6,4793
68712	6,763
68713	5,7504
68714	5,7136
68715	5,4066
68716	5,7656
68717	5,7453
68718	5,7028
68719	5,3974
68720	5,7504
68721	5,7028
68722	5,3974
68723	5,7136
68724	5,4066
68725	5,7656
68726	6,5836
68727	6,5018
68728	6,3009
68729	6,5894
68730	6,5816
68731	6,4974
68732	6,2977
68733	6,5836
68734	6,4974
68735	6,2977
68736	6,5018
68737	6,3009
68738	6,5894
68739	5,6662
68740	5,6412
68741	5,3054
68742	5,6834
68743	5,6604
68744	5,6289
68745	5,2949
68746	5,6662
68747	5,6289
68748	5,2949
68749	5,6412
68750	5,3054
68751	5,6834
68752	6,4157
68753	6,3389
68754	6,1276
68755	6,4229
68756	6,4132
68757	6,3336
68758	6,1235
68759	6,4157
68760	6,3336
68761	6,1235
68762	6,3389
68763	6,1276
68764	6,4229
68765	5,6041
68766	5,5926
68767	5,224
68768	5,6236
68769	5,5975
68770	5,5785
68771	5,2119
68772	5,6041
68773	5,5785
68774	5,2119
68775	5,5926
68776	5,224
68777	5,6236
68778	6,2568
68779	6,1859
68780	5,9613
68781	6,2655
68782	6,2539
68783	6,1796
68784	5,9563
68785	6,2568
68786	6,1796
68787	5,9563
68788	6,1859
68789	5,9613
68790	6,2655
68791	5,5673
68792	5,5715
68793	5,1656
68794	5,5896
68795	5,5598
68796	5,5554
68797	5,1516
68798	5,5673
68799	5,5554
68800	5,1516
68801	5,5715
68802	5,1656
68803	5,5896
68804	6,1088
68805	6,0448
68806	5,804
68807	6,119
68808	6,1054
68809	6,0375
68810	5,7981
68811	6,1088
68812	6,0375
68813	5,7981
68814	6,0448
68815	5,804
68816	6,119
68817	5,5599
68818	5,5824
68819	5,134
68820	5,5854
68821	5,5513
68822	5,5639
68823	5,1177
68824	5,5599
68825	5,5639
68826	5,1177
68827	5,5824
68828	5,134
68829	5,5854
68830	5,9736
68831	5,9176
68832	5,6577
68833	5,9853
68834	5,9697
68835	5,9092
68836	5,6508
68837	5,9736
68838	5,9092
68839	5,6508
68840	5,9176
68841	5,6577
68842	5,9853
68843	5,5869
68844	5,6313
68845	5,1341
68846	5,6163
68847	5,577
68848	5,6097
68849	5,115
68850	5,5869
68851	5,6097
68852	5,115
68853	5,6313
68854	5,1341
68855	5,6163
68856	5,8532
68857	5,8062
68858	5,5243
68859	5,8666
68860	5,8487
68861	5,7967
68862	5,5163
68863	5,8532
68864	5,7967
68865	5,5163
68866	5,8062
68867	5,5243
68868	5,8666
68869	5,6548
68870	5,7255
68871	5,1724
68872	5,6888
68873	5,6433
68874	5,7004
68875	5,1498
68876	5,6548
68877	5,7004
68878	5,1498
68879	5,7255
68880	5,1724
68881	5,6888
68882	5,7498
68883	5,7131
68884	5,4059
68885	5,765
68886	5,7447
68887	5,7022
68888	5,3967
68889	5,7498
68890	5,7022
68891	5,3967
68892	5,7131
68893	5,4059
68894	5,765
68895	5,7722
68896	5,8749
68897	5,2573
68898	5,8117
68899	5,7587
68900	5,8457
68901	5,2304
68902	5,7722
68903	5,8457
68904	5,2304
68905	5,8749
68906	5,2573
68907	5,8117
68908	5,6657
68909	5,6408
68910	5,3048
68911	5,6829
68912	5,6599
68913	5,6284
68914	5,2943
68915	5,6657
68916	5,6284
68917	5,2943
68918	5,6408
68919	5,3048
68920	5,6829
68921	5,9501
68922	6,0927
68923	5,4002
68924	5,9962
68925	5,9344
68926	6,0586
68927	5,3681
68928	5,9501
68929	6,0586
68930	5,3681
68931	6,0927
68932	5,4002
68933	5,9962
68934	5,6037
68935	5,5923
68936	5,2235
68937	5,6233
68938	5,5972
68939	5,5783
68940	5,2114
68941	5,6037
68942	5,5783
68943	5,2114
68944	5,5923
68945	5,2235
68946	5,6233
68947	6,2035
68948	6,3957
68949	5,6164
68950	6,2571
68951	6,1852
68952	6,3563
68953	5,5783
68954	6,2035
68955	6,3563
68956	5,5783
68957	6,3957
68958	5,6164
68959	6,2571
68960	5,5671
68961	5,5714
68962	5,1653
68963	5,5894
68964	5,5596
68965	5,5553
68966	5,1513
68967	5,5671
68968	5,5553
68969	5,1513
68970	5,5714
68971	5,1653
68972	5,5894
68973	6,5519
68974	6,8062
68975	5,9262
68976	6,6139
68977	6,5308
68978	6,7614
68979	5,8814
68980	6,5519
68981	6,7614
68982	5,8814
68983	6,8062
68984	5,9262
68985	6,6139
68986	5,56
68987	5,5826
68988	5,1339
68989	5,5855
68990	5,5514
68991	5,5641
68992	5,1176
68993	5,56
68994	5,5641
68995	5,1176
68996	5,5826
68997	5,1339
68998	5,5855
68999	7,0203
69000	7,3518
69001	6,3559
69002	7,0911
69003	6,9965
69004	7,3024
69005	6,3046
69006	7,0203
69007	7,3024
69008	6,3046
69009	7,3518
69010	6,3559
69011	7,0911
69012	5,5873
69013	5,6318
69014	5,1343
69015	5,6167
69016	5,5773
69017	5,6103
69018	5,1151
69019	5,5873
69020	5,6103
69021	5,1151
69022	5,6318
69023	5,1343
69024	5,6167
69025	7,6397
69026	8,0648
69027	6,9386
69028	7,7187
69029	7,6139
69030	8,0131
69031	6,8821
69032	7,6397
69033	8,0131
69034	6,8821
69035	8,0648
69036	6,9386
69037	7,7187
69038	5,6555
69039	5,7264
69040	5,1729
69041	5,6896
69042	5,644
69043	5,7013
69044	5,1502
69045	5,6555
69046	5,7013
69047	5,1502
69048	5,7264
69049	5,1729
69050	5,6896
69051	8,4452
69052	8,9783
69053	7,7127
69054	8,5298
69055	8,4189
69056	8,9284
69057	7,6548
69058	8,4452
69059	8,9284
69060	7,6548
69061	8,9783
69062	7,7127
69063	8,5298
69064	5,7733
69065	5,8764
69066	5,2582
69067	5,8129
69068	5,7599
69069	5,8472
69070	5,2313
69071	5,7733
69072	5,8472
69073	5,2313
69074	5,8764
69075	5,2582
69076	5,8129
69077	9,4689
69078	10,118
69079	8,717
69080	9,5544
69081	9,4448
69082	10,076
69083	8,6643
69084	9,4689
69085	10,076
69086	8,6643
69087	10,118
69088	8,717
69089	9,5544
69090	5,9519
69091	6,0949
69092	5,4017
69093	5,998
69094	5,9361
69095	6,0607
69096	5,3696
69097	5,9519
69098	6,0607
69099	5,3696
69100	6,0949
69101	5,4017
69102	5,998
69103	10,732
69104	11,482
69105	9,9816
69106	10,811
69107	10,714
69108	11,455
69109	9,9434
69110	10,732
69111	11,455
69112	9,9434
69113	11,482
69114	9,9816
69115	10,811
69116	6,2061
69117	6,3988
69118	5,6187
69119	6,2598
69120	6,1877
69121	6,3594
69122	5,5805
69123	6,2061
69124	6,3594
69125	5,5805
69126	6,3988
69127	5,6187
69128	6,2598
69129	12,208
69130	13,026
69131	11,501
69132	12,271
69133	12,198
69134	13,017
69135	11,486
69136	12,208
69137	13,017
69138	11,486
69139	13,026
69140	11,501
69141	12,271
69142	6,5554
69143	6,8105
69144	5,9295
69145	6,6176
69146	6,5343
69147	6,7656
69148	5,8847
69149	6,5554
69150	6,7656
69151	5,8847
69152	6,8105
69153	5,9295
69154	6,6176
69155	13,835
69156	14,633
69157	13,223
69158	13,872
69159	13,836
69160	14,639
69161	13,238
69162	13,835
69163	14,639
69164	13,238
69165	14,633
69166	13,223
69167	13,872
69168	7,0252
69169	7,3576
69170	6,3606
69171	7,0961
69172	7,0014
69173	7,3082
69174	6,3092
69175	7,0252
69176	7,3082
69177	6,3092
69178	7,3576
69179	6,3606
69180	7,0961
69181	15,441
69182	16,107
69183	14,995
69184	15,45
69185	15,449
69186	16,116
69187	15,033
69188	15,441
69189	16,116
69190	15,033
69191	16,107
69192	14,995
69193	15,45
69194	7,6464
69195	8,0726
69196	6,9451
69197	7,7254
69198	7,6206
69199	8,0208
69200	6,8886
69201	7,6464
69202	8,0208
69203	6,8886
69204	8,0726
69205	6,9451
69206	7,7254
69207	16,81
69208	17,386
69209	16,596
69210	16,799
69211	16,815
69212	17,377
69213	16,629
69214	16,81
69215	17,377
69216	16,629
69217	17,386
69218	16,596
69219	16,799
69220	8,454
69221	8,9886
69222	7,7214
69223	8,5387
69224	8,4277
69225	8,9387
69226	7,6635
69227	8,454
69228	8,9387
69229	7,6635
69230	8,9886
69231	7,7214
69232	8,5387
69233	18,052
69234	17,887
69235	18,497
69236	18,075
69237	18,04
69238	17,878
69239	18,443
69240	18,052
69241	17,878
69242	18,443
69243	17,887
69244	18,497
69245	18,075
69246	9,4807
69247	10,131
69248	8,7288
69249	9,5662
69250	9,4566
69251	10,089
69252	8,6761
69253	9,4807
69254	10,089
69255	8,6761
69256	10,131
69257	8,7288
69258	9,5662
69259	10,745
69260	11,499
69261	9,9961
69262	10,824
69263	10,727
69264	11,471
69265	9,958
69266	10,745
69267	11,471
69268	9,958
69269	11,499
69270	9,9961
69271	10,824
69272	12,228
69273	13,023
69274	11,52
69275	12,29
69276	12,218
69277	13,014
69278	11,506
69279	12,228
69280	13,014
69281	11,506
69282	13,023
69283	11,52
69284	12,29
69285	13,81
69286	14,588
69287	13,222
69288	13,849
69289	13,811
69290	14,594
69291	13,238
69292	13,81
69293	14,594
69294	13,238
69295	14,588
69296	13,222
69297	13,849
69298	15,376
69299	16,023
69300	14,958
69301	15,387
69302	15,384
69303	16,033
69304	14,997
69305	15,376
69306	16,033
69307	14,997
69308	16,023
69309	14,958
69310	15,387
69311	16,708
69312	17,236
69313	16,536
69314	16,697
69315	16,714
69316	17,233
69317	16,573
69318	16,708
69319	17,233
69320	16,573
69321	17,236
69322	16,536
69323	16,697
69324	17,851
69325	17,815
69326	18,275
69327	18,316
69328	17,847
69329	17,843
69330	17,812
69331	18,251
69332	18,275
69333	17,851
69334	17,812
69335	18,251
69336	18,275
69337	17,815
69338	18,275
69339	18,316
69340	17,847
69341	17,903
69342	17,307
69343	17,837
69344	18,379
69345	17,912
69346	17,893
69347	17,3
69348	17,831
69349	18,334
69350	17,903
69351	17,3
69352	17,831
69353	18,334
69354	17,307
69355	17,837
69356	18,379
69357	17,912
69358	16,794
69359	16,095
69360	16,595
69361	16,784
69362	16,799
69363	16,104
69364	16,628
69365	16,794
69366	16,104
69367	16,628
69368	16,095
69369	16,595
69370	16,784
69371	15,434
69372	14,661
69373	15,025
69374	15,446
69375	15,442
69376	14,667
69377	15,062
69378	15,434
69379	14,667
69380	15,062
69381	14,661
69382	15,025
69383	15,446
69384	13,898
69385	13,093
69386	13,293
69387	13,936
69388	13,899
69389	13,084
69390	13,309
69391	13,898
69392	13,084
69393	13,309
69394	13,093
69395	13,293
69396	13,936
69397	12,279
69398	11,555
69399	11,578
69400	12,342
69401	12,27
69402	11,527
69403	11,564
69404	12,279
69405	11,527
69406	11,564
69407	11,555
69408	11,578
69409	12,342
69410	10,807
69411	10,193
69412	10,06
69413	10,885
69414	10,788
69415	10,151
69416	10,022
69417	10,807
69418	10,151
69419	10,022
69420	10,193
69421	10,06
69422	10,885
69423	9,5435
69424	9,0526
69425	8,7946
69426	9,6297
69427	9,5194
69428	9,0024
69429	8,7418
69430	9,5435
69431	9,0024
69432	8,7418
69433	9,0526
69434	8,7946
69435	9,6297
69436	17,985
69437	17,418
69438	17,881
69439	18,655
69440	18,392
69441	18,008
69442	17,973
69443	17,408
69444	17,873
69445	18,625
69446	18,346
69447	17,985
69448	17,408
69449	17,873
69450	18,625
69451	18,346
69452	17,418
69453	17,881
69454	18,655
69455	18,392
69456	18,008
69457	8,519
69458	8,1391
69459	7,7883
69460	8,6048
69461	8,4925
69462	8,0866
69463	7,7299
69464	8,519
69465	8,0866
69466	7,7299
69467	8,1391
69468	7,7883
69469	8,6048
69470	16,917
69471	16,218
69472	16,707
69473	16,906
69474	16,922
69475	16,226
69476	16,738
69477	16,917
69478	16,226
69479	16,738
69480	16,218
69481	16,707
69482	16,906
69483	7,714
69484	7,4275
69485	7,0136
69486	7,7946
69487	7,6877
69488	7,3771
69489	6,9562
69490	7,714
69491	7,3771
69492	6,9562
69493	7,4275
69494	7,0136
69495	7,7946
69496	15,562
69497	14,803
69498	15,16
69499	15,571
69500	15,568
69501	14,81
69502	15,198
69503	15,562
69504	14,81
69505	15,198
69506	14,803
69507	15,16
69508	15,571
69509	7,0968
69510	6,8856
69511	6,4324
69512	7,1696
69513	7,0724
69514	6,8394
69515	6,3798
69516	7,0968
69517	6,8394
69518	6,3798
69519	6,8856
69520	6,4324
69521	7,1696
69522	14,055
69523	13,243
69524	13,455
69525	14,089
69526	14,057
69527	13,236
69528	13,473
69529	14,055
69530	13,236
69531	13,473
69532	13,243
69533	13,455
69534	14,089
69535	6,6331
69536	6,4811
69537	6,0069
69538	6,6974
69539	6,6113
69540	6,4402
69541	5,9606
69542	6,6331
69543	6,4402
69544	5,9606
69545	6,4811
69546	6,0069
69547	6,6974
69548	12,424
69549	11,706
69550	11,746
69551	12,486
69552	12,416
69553	11,68
69554	11,735
69555	12,424
69556	11,68
69557	11,735
69558	11,706
69559	11,746
69560	12,486
69561	6,2919
69562	6,1866
69563	5,704
69564	6,348
69565	6,2728
69566	6,1508
69567	5,6642
69568	6,2919
69569	6,1508
69570	5,6642
69571	6,1866
69572	5,704
69573	6,348
69574	10,964
69575	10,357
69576	10,233
69577	11,042
69578	10,947
69579	10,317
69580	10,197
69581	10,964
69582	10,317
69583	10,197
69584	10,357
69585	10,233
69586	11,042
69587	6,0481
69588	5,9797
69589	5,4972
69590	6,0968
69591	6,0315
69592	5,9488
69593	5,4635
69594	6,0481
69595	5,9488
69596	5,4635
69597	5,9797
69598	5,4972
69599	6,0968
69600	9,7155
69601	9,2161
69602	8,9657
69603	9,8011
69604	9,692
69605	9,1668
69606	8,9145
69607	9,7155
69608	9,1668
69609	8,9145
69610	9,2161
69611	8,9657
69612	9,8011
69613	5,8822
69614	5,8436
69615	5,3664
69616	5,9244
69617	5,8679
69618	5,8167
69619	5,3378
69620	5,8822
69621	5,8167
69622	5,3378
69623	5,8436
69624	5,3664
69625	5,9244
69626	8,6746
69627	8,2845
69628	7,94
69629	8,7609
69630	8,6482
69631	8,2321
69632	7,882
69633	8,6746
69634	8,2321
69635	7,882
69636	8,2845
69637	7,94
69638	8,7609
69639	5,7794
69640	5,7653
69641	5,2963
69642	5,8162
69643	5,7669
69644	5,7419
69645	5,2719
69646	5,7794
69647	5,7419
69648	5,2719
69649	5,7653
69650	5,2963
69651	5,8162
69652	7,8492
69653	7,5523
69654	7,1428
69655	7,931
69656	7,8228
69657	7,5012
69658	7,0848
69659	7,8492
69660	7,5012
69661	7,0848
69662	7,5523
69663	7,1428
69664	7,931
69665	5,7286
69666	5,735
69667	5,2756
69668	5,7609
69669	5,7177
69670	5,7145
69671	5,2546
69672	5,7286
69673	5,7145
69674	5,2546
69675	5,735
69676	5,2756
69677	5,7609
69678	7,2105
69679	6,9894
69680	6,5386
69681	7,285
69682	7,1857
69683	6,9422
69684	6,4848
69685	7,2105
69686	6,9422
69687	6,4848
69688	6,9894
69689	6,5386
69690	7,285
69691	5,7215
69692	5,7456
69693	5,296
69694	5,7501
69695	5,7119
69696	5,7274
69697	5,2778
69698	5,7215
69699	5,7274
69700	5,2778
69701	5,7456
69702	5,296
69703	5,7501
69704	6,7261
69705	6,5651
69706	6,0914
69707	6,7923
69708	6,7037
69709	6,523
69710	6,0436
69711	6,7261
69712	6,523
69713	6,0436
69714	6,5651
69715	6,0914
69716	6,7923
69717	5,7519
69718	5,7915
69719	5,3515
69720	5,7774
69721	5,7434
69722	5,7752
69723	5,3355
69724	5,7519
69725	5,7752
69726	5,3355
69727	5,7915
69728	5,3515
69729	5,7774
69730	6,3657
69731	6,2522
69732	5,7686
69733	6,4238
69734	6,346
69735	6,2152
69736	5,7273
69737	6,3657
69738	6,2152
69739	5,7273
69740	6,2522
69741	5,7686
69742	6,4238
69743	5,8151
69744	5,8686
69745	5,4374
69746	5,8382
69747	5,8074
69748	5,8538
69749	5,4231
69750	5,8151
69751	5,8538
69752	5,4231
69753	5,8686
69754	5,4374
69755	5,8382
69756	6,1044
69757	6,0286
69758	5,544
69759	6,1549
69760	6,0872
69761	5,9964
69762	5,5087
69763	6,1044
69764	5,9964
69765	5,5087
69766	6,0286
69767	5,544
69768	6,1549
69769	5,9075
69770	5,9735
69771	5,5504
69772	5,9285
69773	5,9005
69774	5,9601
69775	5,5375
69776	5,9075
69777	5,9601
69778	5,5375
69779	5,9735
69780	5,5504
69781	5,9285
69782	5,9224
69783	5,8769
69784	5,397
69785	5,9664
69786	5,9075
69787	5,8489
69788	5,367
69789	5,9224
69790	5,8489
69791	5,367
69792	5,8769
69793	5,397
69794	5,9664
69795	6,0262
69796	6,1038
69797	5,6878
69798	6,0456
69799	6,0198
69800	6,0914
69801	5,676
69802	6,0262
69803	6,0914
69804	5,676
69805	6,1038
69806	5,6878
69807	6,0456
69808	5,8048
69809	5,7841
69810	5,3121
69811	5,8431
69812	5,7918
69813	5,7597
69814	5,2865
69815	5,8048
69816	5,7597
69817	5,2865
69818	5,7841
69819	5,3121
69820	5,8431
69821	6,1691
69822	6,2575
69823	5,8477
69824	6,1871
69825	6,1632
69826	6,246
69827	5,8369
69828	6,1691
69829	6,246
69830	5,8369
69831	6,2575
69832	5,8477
69833	6,1871
69834	5,74
69835	5,7402
69836	5,2776
69837	5,7737
69838	5,7287
69839	5,7188
69840	5,2557
69841	5,74
69842	5,7188
69843	5,2557
69844	5,7402
69845	5,2776
69846	5,7737
69847	6,3345
69848	6,4329
69849	6,0285
69850	6,3512
69851	6,3289
69852	6,4222
69853	6,0184
69854	6,3345
69855	6,4222
69856	6,0184
69857	6,4329
69858	6,0285
69859	6,3512
69860	5,7196
69861	5,7376
69862	5,2851
69863	5,7494
69864	5,7096
69865	5,7187
69866	5,266
69867	5,7196
69868	5,7187
69869	5,266
69870	5,7376
69871	5,2851
69872	5,7494
69873	6,5207
69874	6,6286
69875	6,2289
69876	6,5364
69877	6,5155
69878	6,6186
69879	6,2195
69880	6,5207
69881	6,6186
69882	6,2195
69883	6,6286
69884	6,2289
69885	6,5364
69886	5,7372
69887	5,7707
69888	5,328
69889	5,7637
69890	5,7283
69891	5,7538
69892	5,3112
69893	5,7372
69894	5,7538
69895	5,3112
69896	5,7707
69897	5,328
69898	5,7637
69899	6,7266
69900	6,8435
69901	6,4478
69902	6,7413
69903	6,7217
69904	6,8341
69905	6,439
69906	6,7266
69907	6,8341
69908	6,439
69909	6,8435
69910	6,4478
69911	6,7413
69912	5,7877
69913	5,8351
69914	5,4016
69915	5,8116
69916	5,7797
69917	5,8198
69918	5,3867
69919	5,7877
69920	5,8198
69921	5,3867
69922	5,8351
69923	5,4016
69924	5,8116
69925	6,951
69926	7,0764
69927	6,6842
69928	6,9649
69929	6,9464
69930	7,0675
69931	6,6759
69932	6,951
69933	7,0675
69934	6,6759
69935	7,0764
69936	6,6842
69937	6,9649
69938	5,8675
69939	5,9274
69940	5,5024
69941	5,8892
69942	5,8602
69943	5,9135
69944	5,489
69945	5,8675
69946	5,9135
69947	5,489
69948	5,9274
69949	5,5024
69950	5,8892
69951	7,1929
69952	7,3263
69953	6,9371
69954	7,206
69955	7,1887
69956	7,318
69957	6,9294
69958	7,1929
69959	7,318
69960	6,9294
69961	7,3263
69962	6,9371
69963	7,206
69964	5,9736
69965	6,0451
69966	5,6276
69967	5,9936
69968	5,967
69969	6,0323
69970	5,6154
69971	5,9736
69972	6,0323
69973	5,6154
69974	6,0451
69975	5,6276
69976	5,9936
69977	7,4514
69978	7,5922
69979	7,2056
69980	7,4635
69981	7,4474
69982	7,5845
69983	7,1984
69984	7,4514
69985	7,5845
69986	7,1984
69987	7,5922
69988	7,2056
69989	7,4635
69990	6,1039
69991	6,186
69992	5,7752
69993	6,1224
69994	6,0977
69995	6,1741
69996	5,7639
69997	6,1039
69998	6,1741
69999	5,7639
70000	6,186
70001	5,7752
70002	6,1224
70003	7,7253
70004	7,8729
70005	7,4886
70006	7,7365
70007	7,7216
70008	7,866
70009	7,482
70010	7,7253
70011	7,866
70012	7,482
70013	7,8729
70014	7,4886
70015	7,7365
70016	6,2563
70017	6,3484
70018	5,9435
70019	6,2736
70020	6,2506
70021	6,3373
70022	5,9331
70023	6,2563
70024	6,3373
70025	5,9331
70026	6,3484
70027	5,9435
70028	6,2736
70029	8,0136
70030	8,1675
70031	7,7849
70032	8,0237
70033	8,0103
70034	8,1613
70035	7,7791
70036	8,0136
70037	8,1613
70038	7,779
70039	8,1675
70040	7,7849
70041	8,0237
70042	6,4295
70043	6,531
70044	6,1312
70045	6,4457
70046	6,4242
70047	6,5206
70048	6,1214
70049	6,4295
70050	6,5206
70051	6,1214
70052	6,531
70053	6,1312
70054	6,4457
70055	8,3151
70056	8,4745
70057	8,0931
70058	8,3239
70059	8,3123
70060	8,4692
70061	8,0882
70062	8,3151
70063	8,4692
70064	8,0882
70065	8,4745
70066	8,0931
70067	8,3239
70068	6,6222
70069	6,7326
70070	6,3371
70071	6,6374
70072	6,6172
70073	6,7228
70074	6,328
70075	6,6222
70076	6,7228
70077	6,328
70078	6,7326
70079	6,3371
70080	6,6374
70081	8,6286
70082	8,7926
70083	8,4117
70084	8,6359
70085	8,6262
70086	8,7884
70087	8,4078
70088	8,6286
70089	8,7884
70090	8,4078
70091	8,7926
70092	8,4117
70093	8,6359
70094	6,8332
70095	6,952
70096	6,5604
70097	6,8476
70098	6,8285
70099	6,9428
70100	6,5518
70101	6,8332
70102	6,9428
70103	6,5518
70104	6,952
70105	6,5604
70106	6,8476
70107	8,9524
70108	9,1201
70109	8,7387
70110	8,9579
70111	8,9507
70112	9,1173
70113	8,7359
70114	8,9524
70115	9,1173
70116	8,7359
70117	9,1201
70118	8,7387
70119	8,9579
70120	7,0616
70121	7,1882
70122	6,8
70123	7,0751
70124	7,0571
70125	7,1796
70126	6,792
70127	7,0616
70128	7,1796
70129	6,792
70130	7,1882
70131	6,8
70132	7,0751
70133	9,285
70134	9,4552
70135	9,0715
70136	9,2883
70137	9,2839
70138	9,4539
70139	9,0703
70140	9,285
70141	9,4539
70142	9,0703
70143	9,4552
70144	9,0715
70145	9,2883
70146	7,3063
70147	7,4404
70148	7,0551
70149	7,3189
70150	7,3022
70151	7,4324
70152	7,0476
70153	7,3063
70154	7,4324
70155	7,0476
70156	7,4404
70157	7,0551
70158	7,3189
70159	9,6242
70160	9,7959
70161	9,4073
70162	9,625
70163	9,624
70164	9,7962
70165	9,4078
70166	9,6242
70167	9,7962
70168	9,4078
70169	9,7959
70170	9,4073
70171	9,625
70172	7,5665
70173	7,7075
70174	7,3247
70175	7,5782
70176	7,5626
70177	7,7001
70178	7,3178
70179	7,5665
70180	7,7001
70181	7,3178
70182	7,7075
70183	7,3247
70184	7,5782
70185	9,968
70186	10,14
70187	9,7423
70188	9,9658
70189	9,9686
70190	10,142
70191	9,7448
70192	9,968
70193	10,142
70194	9,7448
70195	10,14
70196	9,7423
70197	9,9658
70198	7,8411
70199	7,9884
70200	7,6078
70201	7,8518
70202	7,8376
70203	7,9818
70204	7,6015
70205	7,8411
70206	7,9818
70207	7,6015
70208	7,9884
70209	7,6078
70210	7,8518
70211	10,314
70212	10,484
70213	10,072
70214	10,308
70215	10,315
70216	10,488
70217	10,077
70218	10,314
70219	10,488
70220	10,077
70221	10,484
70222	10,072
70223	10,308
70224	8,1291
70225	8,2822
70226	7,9031
70227	8,1387
70228	8,126
70229	8,2763
70230	7,8976
70231	8,1291
70232	8,2763
70233	7,8976
70234	8,2822
70235	7,9031
70236	8,1387
70237	10,659
70238	10,826
70239	10,391
70240	10,65
70241	10,661
70242	10,831
70243	10,397
70244	10,659
70245	10,831
70246	10,397
70247	10,826
70248	10,391
70249	10,65
70250	8,4294
70251	8,5874
70252	8,2094
70253	8,4376
70254	8,4267
70255	8,5825
70256	8,2048
70257	8,4294
70258	8,5825
70259	8,2048
70260	8,5874
70261	8,2094
70262	8,4376
70263	10,999
70264	11,163
70265	10,693
70266	10,99
70267	11,002
70268	11,168
70269	10,701
70270	10,999
70271	11,168
70272	10,701
70273	11,163
70274	10,693
70275	10,99
70276	8,7406
70277	8,9028
70278	8,525
70279	8,7472
70280	8,7384
70281	8,899
70282	8,5215
70283	8,7406
70284	8,899
70285	8,5215
70286	8,9028
70287	8,525
70288	8,7472
70289	11,333
70290	11,492
70291	10,97
70292	11,323
70293	11,335
70294	11,495
70295	10,978
70296	11,333
70297	11,495
70298	10,978
70299	11,492
70300	10,97
70301	11,323
70302	9,0612
70303	9,2266
70304	8,8479
70305	9,066
70306	9,0597
70307	9,2242
70308	8,8456
70309	9,0612
70310	9,2242
70311	8,8456
70312	9,2266
70313	8,8479
70314	9,066
70315	11,655
70316	11,806
70317	11,214
70318	11,648
70319	11,656
70320	11,805
70321	11,22
70322	11,655
70323	11,805
70324	11,22
70325	11,806
70326	11,214
70327	11,648
70328	9,3896
70329	9,5571
70330	9,1755
70331	9,3922
70332	9,3888
70333	9,5563
70334	9,1748
70335	9,3896
70336	9,5563
70337	9,1748
70338	9,5571
70339	9,1755
70340	9,3922
70341	11,958
70342	12,097
70343	11,415
70344	11,959
70345	11,956
70346	12,091
70347	11,417
70348	11,958
70349	12,091
70350	11,417
70351	12,097
70352	11,415
70353	11,959
70354	9,7239
70355	9,8923
70356	9,505
70357	9,7238
70358	9,7239
70359	9,8932
70360	9,506
70361	9,7239
70362	9,8932
70363	9,506
70364	9,8923
70365	9,505
70366	9,7238
70367	12,231
70368	12,348
70369	11,561
70370	12,242
70371	12,227
70372	12,339
70373	11,558
70374	12,231
70375	12,339
70376	11,558
70377	12,348
70378	11,561
70379	12,242
70380	10,062
70381	10,23
70382	9,8325
70383	10,059
70384	10,063
70385	10,232
70386	9,8355
70387	10,062
70388	10,232
70389	9,8355
70390	10,23
70391	9,8325
70392	10,059
70393	12,457
70394	12,535
70395	11,638
70396	12,475
70397	12,453
70398	12,531
70399	11,634
70400	12,457
70401	12,531
70402	11,634
70403	12,535
70404	11,638
70405	12,475
70406	10,401
70407	10,567
70408	10,154
70409	10,395
70410	10,402
70411	10,571
70412	10,159
70413	10,401
70414	10,571
70415	10,159
70416	10,567
70417	10,154
70418	10,395
70419	12,61
70420	12,629
70421	11,631
70422	12,619
70423	12,61
70424	12,645
70425	11,635
70426	12,61
70427	12,645
70428	11,635
70429	12,629
70430	11,631
70431	12,619
70432	10,738
70433	10,902
70434	10,463
70435	10,73
70436	10,741
70437	10,907
70438	10,47
70439	10,738
70440	10,907
70441	10,47
70442	10,902
70443	10,463
70444	10,73
70445	12,665
70446	12,611
70447	11,535
70448	12,634
70449	12,681
70450	12,667
70451	11,563
70452	12,665
70453	12,667
70454	11,563
70455	12,611
70456	11,535
70457	12,634
70458	11,071
70459	11,231
70460	10,754
70461	11,061
70462	11,074
70463	11,236
70464	10,762
70465	11,071
70466	11,236
70467	10,762
70468	11,231
70469	10,754
70470	11,061
70471	12,613
70472	12,509
70473	11,366
70474	12,505
70475	12,654
70476	12,615
70477	11,431
70478	12,613
70479	12,615
70480	11,431
70481	12,509
70482	11,366
70483	12,505
70484	11,396
70485	11,551
70486	11,02
70487	11,387
70488	11,398
70489	11,553
70490	11,028
70491	11,396
70492	11,553
70493	11,028
70494	11,551
70495	11,02
70496	11,387
70497	12,512
70498	12,418
70499	11,19
70500	12,315
70501	12,578
70502	12,554
70503	11,289
70504	12,512
70505	12,554
70506	11,289
70507	12,418
70508	11,19
70509	12,315
70510	11,709
70511	11,856
70512	11,252
70513	11,704
70514	11,71
70515	11,854
70516	11,258
70517	11,709
70518	11,854
70519	11,258
70520	11,856
70521	11,252
70522	11,704
70523	12,461
70524	11,098
70525	12,523
70526	12,231
70527	12,532
70528	11,195
70529	12,64
70530	12,461
70531	11,195
70532	12,64
70533	11,098
70534	12,523
70535	12,231
70536	12,002
70537	12,136
70538	11,441
70539	12,005
70540	12,
70541	12,13
70542	11,442
70543	12,002
70544	12,13
70545	11,442
70546	12,136
70547	11,441
70548	12,005
70549	12,265
70550	12,376
70551	11,575
70552	12,277
70553	12,261
70554	12,367
70555	11,572
70556	12,265
70557	12,367
70558	11,572
70559	12,376
70560	11,575
70561	12,277
70562	12,479
70563	12,55
70564	11,641
70565	12,497
70566	12,475
70567	12,547
70568	11,637
70569	12,479
70570	12,547
70571	11,637
70572	12,55
70573	11,641
70574	12,497
70575	13,717
70576	12,535
70577	13,914
70578	13,469
70579	13,943
70580	13,654
70581	12,425
70582	13,747
70583	13,398
70584	13,717
70585	12,425
70586	13,747
70587	13,398
70588	12,535
70589	13,914
70590	13,469
70591	13,943
70592	12,619
70593	12,622
70594	11,625
70595	12,625
70596	12,62
70597	12,641
70598	11,631
70599	12,619
70600	12,641
70601	11,631
70602	12,622
70603	11,625
70604	12,625
70605	12,644
70606	12,573
70607	11,514
70608	12,609
70609	12,662
70610	12,631
70611	11,544
70612	12,644
70613	12,631
70614	11,544
70615	12,573
70616	11,514
70617	12,609
70618	12,56
70619	12,435
70620	11,332
70621	12,45
70622	12,601
70623	12,54
70624	11,398
70625	12,56
70626	12,54
70627	11,398
70628	12,435
70629	11,332
70630	12,45
70631	12,415
70632	12,315
70633	11,138
70634	12,222
70635	12,479
70636	12,447
70637	11,235
70638	12,415
70639	12,447
70640	11,235
70641	12,315
70642	11,138
70643	12,222
70644	12,348
70645	11,029
70646	12,364
70647	12,128
70648	12,416
70649	11,124
70650	12,478
70651	12,348
70652	11,124
70653	12,478
70654	11,029
70655	12,364
70656	12,128
70657	21,572
70658	22,523
70659	20,072
70660	19,859
70661	21,208
70662	22,447
70663	24,971
70664	21,048
70665	21,13
70666	19,254
70667	19,324
70668	20,522
70669	24,292
70670	21,572
70671	21,13
70672	19,254
70673	19,324
70674	20,522
70675	24,292
70676	22,523
70677	20,072
70678	19,859
70679	21,208
70680	22,447
70681	24,971
70682	22,605
70683	22,887
70684	25,03
70685	23,383
70686	21,687
70687	20,722
70688	22,19
70689	22,605
70690	20,722
70691	22,19
70692	22,887
70693	25,03
70694	23,383
70695	21,003
70696	22,814
70697	24,679
70698	19,215
70699	19,733
70700	20,106
70701	17,492
70702	21,003
70703	20,106
70704	17,492
70705	22,814
70706	24,679
70707	19,215
70708	21,738
70709	23,025
70710	24,13
70711	17,121
70712	20,237
70713	20,163
70714	14,735
70715	21,738
70716	20,163
70717	14,735
70718	23,025
70719	24,13
70720	17,121
70721	21,291
70722	23,102
70723	23,916
70724	24,293
70725	17,81
70726	19,847
70727	20,744
70728	22,424
70729	15,654
70730	21,291
70731	20,744
70732	22,424
70733	15,654
70734	23,102
70735	23,916
70736	24,293
70737	17,81
70738	22,626
70739	23,306
70740	24,576
70741	24,19
70742	21,342
70743	21,613
70744	21,568
70745	23,372
70746	19,921
70747	22,626
70748	21,568
70749	23,372
70750	19,921
70751	23,306
70752	24,576
70753	24,19
70754	21,342
70755	22,38
70756	23,835
70757	24,508
70758	21,591
70759	23,596
70760	22,38
70761	23,596
70762	23,835
70763	24,508
70764	22,194
70765	20,952
70766	23,003
70767	26,792
70768	21,832
70769	20,439
70770	26,504
70771	22,194
70772	20,439
70773	26,504
70774	20,952
70775	23,003
70776	26,792
70777	19,634
70778	18,004
70779	20,201
70780	24,272
70781	19,494
70782	17,785
70783	24,081
70784	19,634
70785	17,785
70786	24,081
70787	18,004
70788	20,201
70789	24,272
70790	16,736
70791	15,312
70792	17,025
70793	20,573
70794	16,655
70795	15,177
70796	20,468
70797	16,736
70798	15,177
70799	20,468
70800	15,312
70801	17,025
70802	20,573
70803	14,461
70804	12,847
70805	12,72
70806	14,602
70807	17,034
70808	14,405
70809	12,758
70810	12,657
70811	16,955
70812	14,461
70813	12,758
70814	12,657
70815	16,955
70816	12,847
70817	12,72
70818	14,602
70819	17,034
70820	11,669
70821	10,127
70822	11,729
70823	13,144
70824	11,637
70825	10,077
70826	13,081
70827	11,669
70828	10,077
70829	13,081
70830	10,127
70831	11,729
70832	13,144
70833	8,9383
70834	7,4971
70835	8,93
70836	9,4821
70837	8,9202
70838	7,4706
70839	9,4402
70840	8,9383
70841	7,4706
70842	9,4402
70843	7,4971
70844	8,93
70845	9,4821
70846	6,2478
70847	5,2352
70848	6,1702
70849	6,0808
70850	6,2393
70851	5,2348
70852	6,0645
70853	6,2478
70854	5,2348
70855	6,0645
70856	5,2352
70857	6,1702
70858	6,0808
70859	4,2293
70860	4,0583
70861	3,1406
70862	4,2376
70863	3,1688
70864	4,2293
70865	3,1688
70866	4,0583
70867	3,1406
70868	4,7152
70869	4,581
70870	4,5656
70871	4,7388
70872	4,6079
70873	4,7152
70874	4,6079
70875	4,581
70876	4,5656
70877	4,5973
70878	6,2619
70879	4,4842
70880	4,337
70881	4,5973
70882	6,2453
70883	4,3353
70884	4,5973
70885	6,2453
70886	4,3353
70887	6,2619
70888	4,4842
70889	4,337
70890	8,1226
70891	9,2611
70892	8,1026
70893	8,0535
70894	8,1053
70895	9,2148
70896	8,0198
70897	8,1226
70898	9,2148
70899	8,0198
70900	9,2611
70901	8,1026
70902	8,0535
70903	10,762
70904	11,648
70905	10,798
70906	11,504
70907	10,733
70908	11,575
70909	11,448
70910	10,762
70911	11,575
70912	11,448
70913	11,648
70914	10,798
70915	11,504
70916	13,147
70917	14,193
70918	11,599
70919	13,256
70920	14,998
70921	13,105
70922	14,104
70923	11,555
70924	14,929
70925	13,147
70926	14,104
70927	11,555
70928	14,929
70929	14,193
70930	11,599
70931	13,256
70932	14,998
70933	15,878
70934	18,168
70935	14,8
70936	13,721
70937	16,154
70938	18,915
70939	15,832
70940	18,
70941	14,675
70942	13,64
70943	18,809
70944	15,878
70945	18,
70946	14,675
70947	13,64
70948	18,809
70949	18,168
70950	14,8
70951	13,721
70952	16,154
70953	18,915
70954	20,439
70955	19,747
70956	20,92
70957	23,737
70958	20,317
70959	19,34
70960	23,632
70961	20,439
70962	19,34
70963	23,632
70964	19,747
70965	20,92
70966	23,737
70967	19,196
70968	18,709
70969	19,561
70970	24,597
70971	18,911
70972	18,15
70973	24,376
70974	19,196
70975	18,15
70976	24,376
70977	18,709
70978	19,561
70979	24,597
70980	18,064
70981	18,293
70982	24,209
70983	17,749
70984	23,803
70985	18,064
70986	23,803
70987	18,293
70988	24,209
70989	21,044
70990	19,048
70991	23,05
70992	19,318
70993	20,872
70994	25,174
70995	20,925
70996	18,684
70997	22,977
70998	19,162
70999	24,813
71000	21,044
71001	18,684
71002	22,977
71003	19,162
71004	24,813
71005	19,048
71006	23,05
71007	19,318
71008	20,872
71009	25,174
71010	17,352
71011	16,229
71012	18,219
71013	17,895
71014	17,084
71015	15,638
71016	17,18
71017	17,352
71018	15,638
71019	17,18
71020	16,229
71021	18,219
71022	17,895
71023	15,442
71024	15,166
71025	16,858
71026	13,563
71027	15,081
71028	14,498
71029	12,553
71030	15,442
71031	14,498
71032	12,553
71033	15,166
71034	16,858
71035	13,563
71036	15,189
71037	16,651
71038	12,472
71039	14,821
71040	11,414
71041	15,189
71042	11,414
71043	16,651
71044	12,472
71045	16,344
71046	16,782
71047	17,613
71048	15,108
71049	16,034
71050	16,296
71051	14,251
71052	16,344
71053	16,296
71054	14,251
71055	16,782
71056	17,613
71057	15,108
71058	17,379
71059	19,59
71060	17,226
71061	18,151
71062	20,137
71063	17,171
71064	19,331
71065	16,82
71066	19,617
71067	17,379
71068	19,331
71069	16,82
71070	19,617
71071	19,59
71072	17,226
71073	18,151
71074	20,137
71075	21,961
71076	24,045
71077	21,472
71078	28,207
71079	21,899
71080	24,079
71081	27,996
71082	21,961
71083	24,079
71084	27,996
71085	24,045
71086	21,472
71087	28,207
71088	26,92
71089	26,931
71090	25,639
71091	34,478
71092	27,013
71093	27,202
71094	34,555
71095	26,92
71096	27,202
71097	34,555
71098	26,931
71099	25,639
71100	34,478
71101	27,654
71102	28,585
71103	24,812
71104	26,351
71105	35,756
71106	27,838
71107	28,921
71108	25,207
71109	36,039
71110	27,654
71111	28,921
71112	25,207
71113	36,039
71114	28,585
71115	24,812
71116	26,351
71117	35,756
71118	30,413
71119	28,695
71120	29,525
71121	35,71
71122	30,583
71123	28,958
71124	36,022
71125	30,413
71126	28,958
71127	36,022
71128	28,695
71129	29,525
71130	35,71
71131	27,488
71132	26,266
71133	27,36
71134	30,619
71135	27,587
71136	26,407
71137	30,842
71138	27,488
71139	26,407
71140	30,842
71141	26,266
71142	27,36
71143	30,619
71144	25,729
71145	23,598
71146	24,609
71147	26,075
71148	25,951
71149	25,764
71150	23,654
71151	24,605
71152	26,032
71153	25,729
71154	23,654
71155	24,605
71156	26,032
71157	23,598
71158	24,609
71159	26,075
71160	25,951
71161	21,681
71162	19,92
71163	22,154
71164	20,713
71165	21,691
71166	19,967
71167	20,725
71168	21,681
71169	19,967
71170	20,725
71171	19,92
71172	22,154
71173	20,713
71174	18,219
71175	17,091
71176	18,546
71177	18,447
71178	17,427
71179	18,249
71180	17,199
71181	18,534
71182	17,513
71183	18,219
71184	17,199
71185	18,534
71186	17,513
71187	17,091
71188	18,546
71189	18,447
71190	17,427
71191	16,072
71192	15,861
71193	16,241
71194	16,147
71195	16,465
71196	16,072
71197	16,465
71198	15,861
71199	16,241
71200	17,261
71201	18,617
71202	17,347
71203	16,791
71204	17,294
71205	18,646
71206	16,933
71207	17,261
71208	18,646
71209	16,933
71210	18,617
71211	17,347
71212	16,791
71213	20,01
71214	21,787
71215	19,95
71216	20,448
71217	18,923
71218	20,003
71219	21,777
71220	19,867
71221	18,94
71222	20,01
71223	21,777
71224	19,867
71225	18,94
71226	21,787
71227	19,95
71228	20,448
71229	18,923
71230	23,673
71231	25,196
71232	24,177
71233	23,149
71234	23,661
71235	25,261
71236	23,16
71237	23,673
71238	25,261
71239	23,16
71240	25,196
71241	24,177
71242	23,149
71243	27,037
71244	28,851
71245	27,135
71246	28,55
71247	27,104
71248	29,062
71249	28,708
71250	27,037
71251	29,062
71252	28,708
71253	28,851
71254	27,135
71255	28,55
71256	31,02
71257	29,599
71258	30,446
71259	34,581
71260	31,164
71261	29,921
71262	34,866
71263	31,02
71264	29,921
71265	34,866
71266	29,599
71267	30,446
71268	34,581
71269	29,078
71270	28,562
71271	27,999
71272	35,952
71273	29,267
71274	28,88
71275	36,272
71276	29,078
71277	28,88
71278	36,272
71279	28,562
71280	27,999
71281	35,952
71282	28,889
71283	26,907
71284	27,481
71285	36,394
71286	29,033
71287	27,081
71288	36,587
71289	28,889
71290	27,081
71291	36,587
71292	26,907
71293	27,481
71294	36,394
71295	25,658
71296	24,588
71297	32,267
71298	25,693
71299	32,227
71300	25,658
71301	32,227
71302	24,588
71303	32,267
71304	19,634
71305	20,9
71306	19,511
71307	21,141
71308	19,678
71309	21,004
71310	21,226
71311	19,634
71312	21,004
71313	21,226
71314	20,9
71315	19,511
71316	21,141
71317	22,559
71318	23,766
71319	22,387
71320	24,883
71321	22,623
71322	23,901
71323	25,007
71324	22,559
71325	23,901
71326	25,007
71327	23,766
71328	22,387
71329	24,883
71330	25,465
71331	25,943
71332	25,191
71333	28,596
71334	25,541
71335	26,095
71336	28,732
71337	25,465
71338	26,095
71339	28,732
71340	25,943
71341	25,191
71342	28,596
71343	27,062
71344	25,895
71345	26,623
71346	31,338
71347	27,145
71348	26,052
71349	31,457
71350	27,062
71351	26,052
71352	31,457
71353	25,895
71354	26,623
71355	31,338
71356	25,528
71357	24,88
71358	31,392
71359	25,616
71360	31,47
71361	25,528
71362	31,47
71363	24,88
71364	31,392
71365	22,611
71366	22,093
71367	22,886
71368	24,74
71369	22,489
71370	21,793
71371	24,41
71372	22,611
71373	21,793
71374	24,41
71375	22,093
71376	22,886
71377	24,74
71378	21,809
71379	21,34
71380	21,371
71381	22,544
71382	21,659
71383	21,62
71384	20,926
71385	21,052
71386	21,153
71387	21,809
71388	20,926
71389	21,052
71390	21,153
71391	21,34
71392	21,371
71393	22,544
71394	21,659
71395	21,478
71396	21,139
71397	21,409
71398	22,563
71399	19,994
71400	21,225
71401	20,648
71402	20,984
71403	19,33
71404	21,478
71405	20,648
71406	20,984
71407	19,33
71408	21,139
71409	21,409
71410	22,563
71411	19,994
71412	21,252
71413	21,376
71414	22,394
71415	19,914
71416	20,984
71417	20,904
71418	19,232
71419	21,252
71420	20,904
71421	19,232
71422	21,376
71423	22,394
71424	19,914
71425	21,67
71426	21,725
71427	21,468
71428	22,546
71429	21,664
71430	21,447
71431	21,399
71432	21,106
71433	21,11
71434	21,67
71435	21,399
71436	21,106
71437	21,11
71438	21,725
71439	21,468
71440	22,546
71441	21,664
71442	22,304
71443	23,111
71444	21,451
71445	22,65
71446	24,551
71447	22,179
71448	22,936
71449	21,288
71450	24,215
71451	22,304
71452	22,936
71453	21,288
71454	24,215
71455	23,111
71456	21,451
71457	22,65
71458	24,551
71459	24,4
71460	24,64
71461	24,127
71462	28,666
71463	24,347
71464	24,61
71465	28,479
71466	24,4
71467	24,61
71468	28,479
71469	24,64
71470	24,127
71471	28,666
71472	25,41
71473	24,308
71474	24,792
71475	31,086
71476	25,431
71477	24,422
71478	31,02
71479	25,41
71480	24,422
71481	31,02
71482	24,308
71483	24,792
71484	31,086
71485	23,801
71486	24,271
71487	23,139
71488	30,365
71489	23,897
71490	24,44
71491	30,436
71492	23,801
71493	24,44
71494	30,436
71495	24,271
71496	23,139
71497	30,365
71498	25,498
71499	24,856
71500	24,986
71501	30,37
71502	25,59
71503	25,015
71504	30,496
71505	25,498
71506	25,015
71507	30,496
71508	24,856
71509	24,986
71510	30,37
71511	25,186
71512	23,674
71513	22,437
71514	24,905
71515	28,401
71516	25,265
71517	23,812
71518	22,586
71519	28,539
71520	25,186
71521	23,812
71522	22,586
71523	28,539
71524	23,674
71525	22,437
71526	24,905
71527	28,401
71528	22,782
71529	20,887
71530	22,616
71531	24,977
71532	22,846
71533	20,99
71534	25,103
71535	22,782
71536	20,99
71537	25,103
71538	20,887
71539	22,616
71540	24,977
71541	19,459
71542	17,963
71543	19,342
71544	21,008
71545	19,502
71546	18,026
71547	21,094
71548	19,459
71549	18,026
71550	21,094
71551	17,963
71552	19,342
71553	21,008
71554	16,79
71555	15,874
71556	16,104
71557	16,706
71558	17,59
71559	16,814
71560	15,903
71561	16,137
71562	17,627
71563	16,79
71564	15,903
71565	16,137
71566	17,627
71567	15,874
71568	16,104
71569	16,706
71570	17,59
71571	15,131
71572	14,728
71573	15,084
71574	15,17
71575	15,139
71576	14,735
71577	15,162
71578	15,131
71579	14,735
71580	15,162
71581	14,728
71582	15,084
71583	15,17
71584	14,438
71585	14,638
71586	14,415
71587	14,201
71588	14,439
71589	14,641
71590	14,171
71591	14,438
71592	14,641
71593	14,171
71594	14,638
71595	14,415
71596	14,201
71597	14,946
71598	14,909
71599	15,074
71600	14,952
71601	15,061
71602	14,946
71603	15,061
71604	14,909
71605	15,074
71606	23,015
71607	23,875
71608	22,336
71609	23,02
71610	26,362
71611	22,942
71612	23,798
71613	22,105
71614	26,125
71615	23,015
71616	23,798
71617	22,105
71618	26,125
71619	23,875
71620	22,336
71621	23,02
71622	26,362
71623	25,348
71624	24,656
71625	22,782
71626	24,807
71627	30,222
71628	25,346
71629	24,729
71630	22,824
71631	30,112
71632	25,348
71633	24,729
71634	22,824
71635	30,112
71636	24,656
71637	22,782
71638	24,807
71639	30,222
71640	24,653
71641	25,608
71642	21,701
71643	23,975
71644	30,842
71645	24,731
71646	25,746
71647	21,843
71648	30,867
71649	24,653
71650	25,746
71651	21,843
71652	30,867
71653	25,608
71654	21,701
71655	23,975
71656	30,842
71657	27,182
71658	25,796
71659	24,215
71660	26,58
71661	32,059
71662	27,256
71663	25,952
71664	24,394
71665	32,147
71666	27,182
71667	25,952
71668	24,394
71669	32,147
71670	25,796
71671	24,215
71672	26,58
71673	32,059
71674	25,01
71675	23,849
71676	24,63
71677	29,217
71678	25,099
71679	24,005
71680	29,356
71681	25,01
71682	24,005
71683	29,356
71684	23,849
71685	24,63
71686	29,217
71687	23,439
71688	21,404
71689	23,224
71690	26,417
71691	23,513
71692	21,523
71693	26,553
71694	23,439
71695	21,523
71696	26,553
71697	21,404
71698	23,224
71699	26,417
71700	19,77
71701	18,553
71702	19,651
71703	22,155
71704	19,82
71705	18,631
71706	22,257
71707	19,77
71708	18,631
71709	22,257
71710	18,553
71711	19,651
71712	22,155
71713	17,819
71714	16,717
71715	16,903
71716	17,722
71717	19,13
71718	17,851
71719	16,759
71720	16,95
71721	19,188
71722	17,819
71723	16,759
71724	16,95
71725	19,188
71726	16,717
71727	16,903
71728	17,722
71729	19,13
71730	15,838
71731	15,178
71732	15,775
71733	16,251
71734	15,852
71735	15,193
71736	16,262
71737	15,838
71738	15,193
71739	16,262
71740	15,178
71741	15,775
71742	16,251
71743	14,65
71744	14,534
71745	14,621
71746	14,475
71747	14,653
71748	14,535
71749	14,45
71750	14,65
71751	14,535
71752	14,45
71753	14,534
71754	14,621
71755	14,475
71756	14,517
71757	15,
71758	14,49
71759	14,398
71760	14,52
71761	15,011
71762	14,371
71763	14,517
71764	15,011
71765	14,371
71766	15,
71767	14,49
71768	14,398
71769	15,624
71770	16,684
71771	15,562
71772	16,107
71773	15,637
71774	16,724
71775	16,12
71776	15,624
71777	16,724
71778	16,12
71779	16,684
71780	15,562
71781	16,107
71782	17,989
71783	19,165
71784	17,887
71785	19,24
71786	18,02
71787	19,246
71788	19,299
71789	17,989
71790	19,246
71791	19,299
71792	19,165
71793	17,887
71794	19,24
71795	20,949
71796	22,291
71797	18,991
71798	20,815
71799	22,846
71800	21,004
71801	22,414
71802	19,073
71803	22,955
71804	20,949
71805	22,414
71806	19,073
71807	22,955
71808	22,291
71809	18,991
71810	20,815
71811	22,846
71812	24,103
71813	24,104
71814	21,961
71815	23,883
71816	26,755
71817	24,176
71818	24,259
71819	22,096
71820	26,889
71821	24,103
71822	24,259
71823	22,096
71824	26,889
71825	24,104
71826	21,961
71827	23,883
71828	26,755
71829	24,811
71830	25,555
71831	24,44
71832	29,092
71833	24,9
71834	25,715
71835	29,23
71836	24,811
71837	25,715
71838	29,23
71839	25,555
71840	24,44
71841	29,092
71842	26,881
71843	25,278
71844	23,954
71845	26,28
71846	31,891
71847	26,961
71848	25,425
71849	24,137
71850	31,983
71851	26,881
71852	25,425
71853	24,137
71854	31,983
71855	25,278
71856	23,954
71857	26,28
71858	31,891
71859	24,285
71860	23,797
71861	21,477
71862	21,47
71863	23,601
71864	30,637
71865	24,367
71866	23,869
71867	21,623
71868	21,655
71869	30,672
71870	24,285
71871	23,869
71872	21,623
71873	21,655
71874	30,672
71875	23,797
71876	21,477
71877	21,47
71878	23,601
71879	30,637
71880	24,222
71881	23,404
71882	22,012
71883	23,794
71884	29,533
71885	24,222
71886	23,309
71887	22,067
71888	29,424
71889	24,222
71890	23,309
71891	22,067
71892	29,424
71893	23,404
71894	22,012
71895	23,794
71896	29,533
71897	23,451
71898	22,474
71899	23,546
71900	26,809
71901	23,345
71902	22,177
71903	26,527
71904	23,451
71905	22,177
71906	26,527
71907	22,474
71908	23,546
71909	26,809
71910	22,
71911	21,415
71912	21,585
71913	22,72
71914	23,161
71915	21,792
71916	20,951
71917	21,253
71918	22,679
71919	22,
71920	20,951
71921	21,253
71922	22,679
71923	21,415
71924	21,585
71925	22,72
71926	23,161
71927	21,079
71928	20,958
71929	22,238
71930	20,411
71931	20,802
71932	20,412
71933	19,745
71934	21,079
71935	20,412
71936	19,745
71937	20,958
71938	22,238
71939	20,411
71940	20,959
71941	21,142
71942	21,185
71943	22,209
71944	19,442
71945	20,667
71946	20,61
71947	20,729
71948	18,712
71949	20,959
71950	20,61
71951	20,729
71952	18,712
71953	21,142
71954	21,185
71955	22,209
71956	19,442
71957	21,398
71958	21,701
71959	22,447
71960	20,553
71961	21,139
71962	21,284
71963	19,911
71964	21,398
71965	21,284
71966	19,911
71967	21,701
71968	22,447
71969	20,553
71970	22,315
71971	21,555
71972	22,908
71973	23,199
71974	22,139
71975	21,283
71976	22,75
71977	22,315
71978	21,283
71979	22,75
71980	21,555
71981	22,908
71982	23,199
71983	20,203
71984	20,321
71985	20,011
71986	20,277
71987	20,48
71988	20,368
71989	20,128
71990	20,152
71991	19,904
71992	20,093
71993	20,238
71994	20,203
71995	20,152
71996	19,904
71997	20,093
71998	20,238
71999	20,321
72000	20,011
72001	20,277
72002	20,48
72003	20,368
72004	20,445
72005	20,561
72006	20,546
72007	20,756
72008	20,786
72009	20,347
72010	20,358
72011	20,32
72012	20,594
72013	20,445
72014	20,358
72015	20,32
72016	20,594
72017	20,561
72018	20,546
72019	20,756
72020	20,786
72021	20,659
72022	20,681
72023	20,669
72024	20,983
72025	21,101
72026	20,551
72027	20,464
72028	20,432
72029	20,878
72030	20,659
72031	20,464
72032	20,432
72033	20,878
72034	20,681
72035	20,669
72036	20,983
72037	21,101
72038	20,671
72039	20,645
72040	20,723
72041	20,994
72042	21,179
72043	20,56
72044	20,428
72045	20,469
72046	20,949
72047	20,671
72048	20,428
72049	20,469
72050	20,949
72051	20,645
72052	20,723
72053	20,994
72054	21,179
72055	20,614
72056	20,533
72057	20,679
72058	20,947
72059	21,071
72060	20,505
72061	20,329
72062	20,432
72063	20,849
72064	20,614
72065	20,329
72066	20,432
72067	20,849
72068	20,533
72069	20,679
72070	20,947
72071	21,071
72072	20,445
72073	20,302
72074	20,518
72075	20,762
72076	20,782
72077	20,347
72078	20,134
72079	20,293
72080	20,589
72081	20,445
72082	20,134
72083	20,293
72084	20,589
72085	20,302
72086	20,518
72087	20,762
72088	20,782
72089	20,173
72090	20,
72091	20,263
72092	20,451
72093	20,361
72094	20,1
72095	19,897
72096	20,088
72097	20,233
72098	20,173
72099	19,897
72100	20,088
72101	20,233
72102	20,
72103	20,263
72104	20,451
72105	20,361
72106	19,862
72107	19,422
72108	19,807
72109	20,026
72110	19,928
72111	19,83
72112	19,379
72113	19,705
72114	19,884
72115	19,862
72116	19,379
72117	19,705
72118	19,884
72119	19,422
72120	19,807
72121	20,026
72122	19,928
72123	19,031
72124	18,395
72125	18,955
72126	19,016
72127	19,734
72128	19,019
72129	18,384
72130	18,908
72131	19,684
72132	19,031
72133	18,384
72134	18,908
72135	19,684
72136	18,395
72137	18,955
72138	19,016
72139	19,734
72140	17,853
72141	17,203
72142	17,731
72143	18,949
72144	17,853
72145	17,227
72146	18,914
72147	17,853
72148	17,227
72149	18,914
72150	17,203
72151	17,731
72152	18,949
72153	16,617
72154	15,734
72155	16,533
72156	17,056
72157	16,641
72158	15,785
72159	17,118
72160	16,617
72161	15,785
72162	17,118
72163	15,734
72164	16,533
72165	17,056
72166	14,911
72167	13,928
72168	14,905
72169	14,711
72170	14,939
72171	13,969
72172	14,816
72173	14,911
72174	13,969
72175	14,816
72176	13,928
72177	14,905
72178	14,711
72179	12,986
72180	12,064
72181	13,049
72182	12,357
72183	12,999
72184	12,074
72185	12,443
72186	12,986
72187	12,074
72188	12,443
72189	12,064
72190	13,049
72191	12,357
72192	11,151
72193	10,355
72194	11,256
72195	10,278
72196	11,148
72197	10,333
72198	10,321
72199	11,151
72200	10,333
72201	10,321
72202	10,355
72203	11,256
72204	10,278
72205	9,5383
72206	8,9004
72207	9,6632
72208	8,5706
72209	9,5195
72210	8,8541
72211	8,5699
72212	9,5383
72213	8,8541
72214	8,5699
72215	8,9004
72216	9,6632
72217	8,5706
72218	8,2185
72219	7,7298
72220	8,3455
72221	7,2408
72222	8,1905
72223	7,6704
72224	7,2082
72225	8,2185
72226	7,6704
72227	7,2082
72228	7,7298
72229	8,3455
72230	7,2408
72231	7,1845
72232	6,8239
72233	7,303
72234	6,2435
72235	7,1528
72236	6,7609
72237	6,1932
72238	7,1845
72239	6,7609
72240	6,1932
72241	6,8239
72242	7,303
72243	6,2435
72244	6,4031
72245	6,145
72246	6,5079
72247	5,5186
72248	6,3716
72249	6,0848
72250	5,4621
72251	6,4031
72252	6,0848
72253	5,4621
72254	6,145
72255	6,5079
72256	5,5186
72257	5,829
72258	5,6501
72259	5,9185
72260	5,0075
72261	5,8002
72262	5,5961
72263	4,9523
72264	5,829
72265	5,5961
72266	4,9523
72267	5,6501
72268	5,9185
72269	5,0075
72270	5,419
72271	5,3003
72272	5,4939
72273	4,6598
72274	5,3938
72275	5,2537
72276	4,6099
72277	5,419
72278	5,2537
72279	4,6099
72280	5,3003
72281	5,4939
72282	4,6598
72283	5,1363
72284	5,0633
72285	5,1984
72286	4,4358
72287	5,1148
72288	5,0239
72289	4,3927
72290	5,1363
72291	5,0239
72292	4,3927
72293	5,0633
72294	5,1984
72295	4,4358
72296	4,9517
72297	4,9137
72298	5,003
72299	4,3052
72300	4,9338
72301	4,8807
72302	4,2687
72303	4,9517
72304	4,8807
72305	4,2687
72306	4,9137
72307	5,003
72308	4,3052
72309	4,8433
72310	4,8325
72311	4,8857
72312	4,2456
72313	4,8283
72314	4,8049
72315	4,2151
72316	4,8433
72317	4,8049
72318	4,2151
72319	4,8325
72320	4,8857
72321	4,2456
72322	4,7945
72323	4,8054
72324	4,83
72325	4,2408
72326	4,7819
72327	4,7823
72328	4,2153
72329	4,7945
72330	4,7823
72331	4,2153
72332	4,8054
72333	4,83
72334	4,2408
72335	4,7935
72336	4,8222
72337	4,8235
72338	4,2791
72339	4,7829
72340	4,8026
72341	4,2577
72342	4,7935
72343	4,8026
72344	4,2577
72345	4,8222
72346	4,8235
72347	4,2791
72348	4,8315
72349	4,8752
72350	4,8572
72351	4,3523
72352	4,8224
72353	4,8583
72354	4,3341
72355	4,8315
72356	4,8583
72357	4,3341
72358	4,8752
72359	4,8572
72360	4,3523
72361	4,9022
72362	4,959
72363	4,9246
72364	4,4544
72365	4,8944
72366	4,9442
72367	4,4389
72368	4,9022
72369	4,9442
72370	4,4389
72371	4,959
72372	4,9246
72373	4,4544
72374	5,0011
72375	5,0695
72376	5,0209
72377	4,5814
72378	4,9942
72379	5,0564
72380	4,5678
72381	5,0011
72382	5,0564
72383	4,5678
72384	5,0695
72385	5,0209
72386	4,5814
72387	5,1248
72388	5,2037
72389	5,1426
72390	4,7303
72391	5,1186
72392	5,1919
72393	4,7183
72394	5,1248
72395	5,1919
72396	4,7183
72397	5,2037
72398	5,1426
72399	4,7303
72400	5,2708
72401	5,3594
72402	5,2871
72403	4,8991
72404	5,2652
72405	5,3487
72406	4,8883
72407	5,2708
72408	5,3487
72409	4,8883
72410	5,3594
72411	5,2871
72412	4,8991
72413	5,4373
72414	5,535
72415	5,4524
72416	5,0862
72417	5,4322
72418	5,5252
72419	5,0764
72420	5,4373
72421	5,5252
72422	5,0764
72423	5,535
72424	5,4524
72425	5,0862
72426	5,6229
72427	5,7293
72428	5,6369
72429	5,2906
72430	5,6182
72431	5,7201
72432	5,2816
72433	5,6229
72434	5,7201
72435	5,2816
72436	5,7293
72437	5,6369
72438	5,2906
72439	5,8265
72440	5,941
72441	5,8396
72442	5,5113
72443	5,822
72444	5,9325
72445	5,503
72446	5,8265
72447	5,9325
72448	5,503
72449	5,941
72450	5,8396
72451	5,5113
72452	6,047
72453	6,1694
72454	6,0594
72455	5,7478
72456	6,0429
72457	6,1613
72458	5,74
72459	6,047
72460	6,1613
72461	5,74
72462	6,1694
72463	6,0594
72464	5,7478
72465	6,2837
72466	6,4135
72467	6,2954
72468	5,9992
72469	6,2798
72470	6,406
72471	5,992
72472	6,2837
72473	6,406
72474	5,992
72475	6,4135
72476	6,2954
72477	5,9992
72478	6,5358
72479	6,6725
72480	6,5467
72481	6,265
72482	6,5321
72483	6,6655
72484	6,2582
72485	6,5358
72486	6,6655
72487	6,2582
72488	6,6725
72489	6,5467
72490	6,265
72491	6,8023
72492	6,9456
72493	6,8125
72494	6,5444
72495	6,799
72496	6,9392
72497	6,5381
72498	6,8023
72499	6,9392
72500	6,5381
72501	6,9456
72502	6,8125
72503	6,5444
72504	7,0825
72505	7,2317
72506	7,0918
72507	6,8366
72508	7,0794
72509	7,2259
72510	6,8308
72511	7,0825
72512	7,2259
72513	6,8308
72514	7,2317
72515	7,0918
72516	6,8366
72517	7,3752
72518	7,5297
72519	7,3836
72520	7,1405
72521	7,3724
72522	7,5245
72523	7,1353
72524	7,3752
72525	7,5245
72526	7,1353
72527	7,5297
72528	7,3836
72529	7,1405
72530	7,6791
72531	7,838
72532	7,6863
72533	7,4548
72534	7,6767
72535	7,8337
72536	7,4502
72537	7,6791
72538	7,8337
72539	7,4502
72540	7,838
72541	7,6863
72542	7,4548
72543	7,9927
72544	8,155
72545	7,9985
72546	7,7777
72547	7,9907
72548	8,1516
72549	7,774
72550	7,9927
72551	8,1516
72552	7,774
72553	8,155
72554	7,9985
72555	7,7777
72556	8,3139
72557	8,4782
72558	8,318
72559	8,1072
72560	8,3125
72561	8,4761
72562	8,1045
72563	8,3139
72564	8,4761
72565	8,1045
72566	8,4782
72567	8,318
72568	8,1072
72569	8,6404
72570	8,8048
72571	8,6422
72572	8,4404
72573	8,6396
72574	8,8042
72575	8,4388
72576	8,6404
72577	8,8042
72578	8,4388
72579	8,8048
72580	8,6422
72581	8,4404
72582	8,9687
72583	9,1312
72584	8,9677
72585	8,7734
72586	8,9688
72587	9,1324
72588	8,7732
72589	8,9687
72590	9,1324
72591	8,7732
72592	9,1312
72593	8,9677
72594	8,7734
72595	9,2949
72596	9,4526
72597	9,2905
72598	9,1015
72599	9,296
72600	9,4559
72601	9,1028
72602	9,2949
72603	9,4559
72604	9,1028
72605	9,4526
72606	9,2905
72607	9,1015
72608	9,6136
72609	9,7631
72610	9,6051
72611	9,418
72612	9,6158
72613	9,7687
72614	9,421
72615	9,6136
72616	9,7687
72617	9,421
72618	9,7631
72619	9,6051
72620	9,418
72621	9,9182
72622	10,055
72623	9,9049
72624	9,7146
72625	9,9216
72626	10,063
72627	9,7193
72628	9,9182
72629	10,063
72630	9,7193
72631	10,055
72632	9,9049
72633	9,7146
72634	10,2
72635	10,32
72636	10,182
72637	9,9804
72638	10,205
72639	10,33
72640	9,9864
72641	10,2
72642	10,33
72643	9,9864
72644	10,32
72645	10,182
72646	9,9804
72647	10,45
72648	10,547
72649	10,427
72650	10,202
72651	10,455
72652	10,558
72653	10,208
72654	10,45
72655	10,558
72656	10,208
72657	10,547
72658	10,427
72659	10,202
72660	10,655
72661	10,724
72662	10,628
72663	10,362
72664	10,661
72665	10,734
72666	10,368
72667	10,655
72668	10,734
72669	10,368
72670	10,724
72671	10,628
72672	10,362
72673	10,804
72674	10,838
72675	10,776
72676	10,442
72677	10,809
72678	10,847
72679	10,447
72680	10,804
72681	10,847
72682	10,447
72683	10,838
72684	10,776
72685	10,442
72686	10,883
72687	10,88
72688	10,859
72689	10,424
72690	10,886
72691	10,885
72692	10,425
72693	10,883
72694	10,885
72695	10,425
72696	10,88
72697	10,859
72698	10,424
72699	10,883
72700	10,839
72701	10,866
72702	10,291
72703	10,885
72704	10,843
72705	10,291
72706	10,883
72707	10,843
72708	10,291
72709	10,839
72710	10,866
72711	10,291
72712	10,8
72713	10,715
72714	10,792
72715	10,04
72716	10,801
72717	10,721
72718	10,041
72719	10,8
72720	10,721
72721	10,041
72722	10,715
72723	10,792
72724	10,04
72725	10,637
72726	10,517
72727	10,634
72728	9,6844
72729	10,641
72730	10,534
72731	9,698
72732	10,637
72733	10,534
72734	9,698
72735	10,517
72736	10,634
72737	9,6844
72738	10,414
72739	10,273
72740	10,401
72741	9,2722
72742	10,427
72743	10,311
72744	9,3097
72745	10,414
72746	10,311
72747	9,3097
72748	10,273
72749	10,401
72750	9,2722
72751	10,17
72752	10,034
72753	10,128
72754	8,8852
72755	10,196
72756	10,093
72757	8,9519
72758	10,17
72759	10,093
72760	8,9519
72761	10,034
72762	10,128
72763	8,8852
72764	9,9587
72765	9,8516
72766	9,8874
72767	8,6188
72768	9,9917
72769	9,9117
72770	8,6988
72771	9,9587
72772	9,9117
72773	8,6988
72774	9,8516
72775	9,8874
72776	8,6188
72777	9,8053
72778	9,8538
72779	9,7376
72780	8,5191
72781	9,8321
72782	9,8917
72783	8,5792
72784	9,8053
72785	9,8917
72786	8,5792
72787	9,8538
72788	9,7376
72789	8,5191
72790	9,9418
72791	10,173
72792	11,191
72793	9,9397
72794	8,4959
72795	9,9536
72796	10,172
72797	11,248
72798	8,5379
72799	9,9418
72800	10,172
72801	11,248
72802	8,5379
72803	10,173
72804	11,191
72805	9,9397
72806	8,4959
72807	10,41
72808	10,749
72809	11,624
72810	10,511
72811	8,8081
72812	10,399
72813	10,694
72814	11,613
72815	8,828
72816	10,41
72817	10,694
72818	11,613
72819	8,828
72820	10,749
72821	11,624
72822	10,511
72823	8,8081
72824	11,058
72825	11,541
72826	12,239
72827	11,253
72828	9,6436
72829	11,016
72830	11,433
72831	12,148
72832	9,6144
72833	11,058
72834	11,433
72835	12,148
72836	9,6144
72837	11,541
72838	12,239
72839	11,253
72840	9,6436
72841	11,969
72842	12,555
72843	13,062
72844	12,233
72845	10,826
72846	11,903
72847	12,404
72848	12,902
72849	10,756
72850	11,969
72851	12,404
72852	12,902
72853	10,756
72854	12,555
72855	13,062
72856	12,233
72857	10,826
72858	13,07
72859	13,697
72860	14,
72861	13,39
72862	12,263
72863	12,985
72864	13,514
72865	13,784
72866	12,16
72867	13,07
72868	13,514
72869	13,784
72870	12,16
72871	13,697
72872	14,
72873	13,39
72874	12,263
72875	14,255
72876	14,835
72877	14,877
72878	14,614
72879	13,83
72880	14,157
72881	14,63
72882	14,623
72883	13,696
72884	14,255
72885	14,63
72886	14,623
72887	13,696
72888	14,835
72889	14,877
72890	14,614
72891	13,83
72892	15,355
72893	15,876
72894	15,755
72895	15,736
72896	15,384
72897	15,247
72898	15,656
72899	15,473
72900	15,221
72901	15,355
72902	15,656
72903	15,473
72904	15,221
72905	15,876
72906	15,755
72907	15,736
72908	15,384
72909	16,348
72910	16,776
72911	16,449
72912	16,735
72913	16,841
72914	16,233
72915	16,548
72916	16,155
72917	16,649
72918	16,348
72919	16,548
72920	16,155
72921	16,649
72922	16,776
72923	16,449
72924	16,735
72925	16,841
72926	17,191
72927	17,508
72928	16,995
72929	17,573
72930	18,108
72931	17,074
72932	17,279
72933	16,703
72934	17,892
72935	17,191
72936	17,279
72937	16,703
72938	17,892
72939	17,508
72940	16,995
72941	17,573
72942	18,108
72943	17,849
72944	18,059
72945	17,408
72946	18,216
72947	19,098
72948	17,732
72949	17,832
72950	17,126
72951	18,861
72952	17,849
72953	17,832
72954	17,126
72955	18,861
72956	18,059
72957	17,408
72958	18,216
72959	19,098
72960	18,305
72961	18,44
72962	17,671
72963	18,642
72964	19,761
72965	18,189
72966	18,215
72967	17,395
72968	19,513
72969	18,305
72970	18,215
72971	17,395
72972	19,513
72973	18,44
72974	17,671
72975	18,642
72976	19,761
72977	18,6
72978	18,526
72979	17,943
72980	18,933
72981	20,049
72982	18,484
72983	18,301
72984	17,681
72985	19,797
72986	18,6
72987	18,301
72988	17,681
72989	19,797
72990	18,526
72991	17,943
72992	18,933
72993	20,049
72994	18,41
72995	18,203
72996	17,519
72997	18,736
72998	19,808
72999	18,297
73000	17,983
73001	17,239
73002	19,562
73003	18,41
73004	17,983
73005	17,239
73006	19,562
73007	18,203
73008	17,519
73009	18,736
73010	19,808
73011	17,976
73012	17,711
73013	17,347
73014	18,304
73015	19,169
73016	17,865
73017	17,491
73018	17,059
73019	18,937
73020	17,976
73021	17,491
73022	17,059
73023	18,937
73024	17,711
73025	17,347
73026	18,304
73027	19,169
73028	17,41
73029	16,91
73030	17,084
73031	17,759
73032	18,244
73033	17,297
73034	16,692
73035	16,813
73036	18,029
73037	17,41
73038	16,692
73039	16,813
73040	18,029
73041	16,91
73042	17,084
73043	17,759
73044	18,244
73045	16,417
73046	15,924
73047	16,507
73048	16,783
73049	16,895
73050	16,307
73051	15,715
73052	16,217
73053	16,705
73054	16,417
73055	15,715
73056	16,217
73057	16,705
73058	15,924
73059	16,507
73060	16,783
73061	16,895
73062	15,398
73063	14,809
73064	15,801
73065	15,749
73066	15,408
73067	15,296
73068	14,614
73069	15,514
73070	15,248
73071	15,398
73072	14,614
73073	15,514
73074	15,248
73075	14,809
73076	15,801
73077	15,749
73078	15,408
73079	14,165
73080	13,607
73081	14,786
73082	14,507
73083	13,807
73084	14,072
73085	13,437
73086	14,545
73087	13,676
73088	14,165
73089	13,437
73090	14,545
73091	13,676
73092	13,607
73093	14,786
73094	14,507
73095	13,807
73096	12,968
73097	12,505
73098	13,625
73099	13,257
73100	12,227
73101	12,893
73102	12,364
73103	13,433
73104	12,128
73105	12,968
73106	12,364
73107	13,433
73108	12,128
73109	12,505
73110	13,625
73111	13,257
73112	12,227
73113	11,998
73114	11,65
73115	13,073
73116	12,262
73117	10,849
73118	11,932
73119	11,538
73120	12,905
73121	10,778
73122	11,998
73123	11,538
73124	12,905
73125	10,778
73126	11,65
73127	13,073
73128	12,262
73129	10,849
73130	11,251
73131	10,955
73132	11,454
73133	9,7413
73134	11,206
73135	10,894
73136	9,7082
73137	11,251
73138	10,894
73139	9,7082
73140	10,955
73141	11,454
73142	9,7413
73143	10,627
73144	10,305
73145	11,914
73146	10,734
73147	8,9209
73148	10,612
73149	10,301
73150	11,894
73151	8,937
73152	10,627
73153	10,301
73154	11,894
73155	8,937
73156	10,305
73157	11,914
73158	10,734
73159	8,9209
73160	9,9868
73161	9,8898
73162	11,317
73163	9,9838
73164	8,5202
73165	9,9988
73166	9,9281
73167	11,375
73168	8,5623
73169	9,9868
73170	9,9281
73171	11,375
73172	8,5623
73173	9,8898
73174	11,317
73175	9,9838
73176	8,5202
73177	9,8327
73178	9,8696
73179	9,7643
73180	8,532
73181	9,8596
73182	9,9297
73183	8,5925
73184	9,8327
73185	9,9297
73186	8,5925
73187	9,8696
73188	9,7643
73189	8,532
73190	9,9674
73191	10,046
73192	9,8965
73193	8,6264
73194	10,
73195	10,104
73196	8,7065
73197	9,9674
73198	10,104
73199	8,7065
73200	10,046
73201	9,8965
73202	8,6264
73203	10,183
73204	10,29
73205	10,144
73206	8,9045
73207	10,208
73208	10,326
73209	8,9697
73210	10,183
73211	10,326
73212	8,9697
73213	10,29
73214	10,144
73215	8,9045
73216	10,433
73217	10,537
73218	10,421
73219	9,3049
73220	10,445
73221	10,553
73222	9,3401
73223	10,433
73224	10,553
73225	9,3401
73226	10,537
73227	10,421
73228	9,3049
73229	10,657
73230	10,733
73231	10,654
73232	9,7235
73233	10,661
73234	10,738
73235	9,7354
73236	10,657
73237	10,738
73238	9,7354
73239	10,733
73240	10,654
73241	9,7235
73242	10,814
73243	10,849
73244	10,806
73245	10,076
73246	10,816
73247	10,853
73248	10,077
73249	10,814
73250	10,853
73251	10,077
73252	10,849
73253	10,806
73254	10,076
73255	10,889
73256	10,879
73257	10,871
73258	10,318
73259	10,891
73260	10,885
73261	10,317
73262	10,889
73263	10,885
73264	10,317
73265	10,879
73266	10,871
73267	10,318
73268	10,876
73269	10,824
73270	10,851
73271	10,435
73272	10,88
73273	10,833
73274	10,437
73275	10,876
73276	10,833
73277	10,437
73278	10,824
73279	10,851
73280	10,435
73281	10,782
73282	10,695
73283	10,755
73284	10,435
73285	10,787
73286	10,706
73287	10,44
73288	10,782
73289	10,706
73290	10,44
73291	10,695
73292	10,755
73293	10,435
73294	10,619
73295	10,503
73296	10,593
73297	10,336
73298	10,625
73299	10,514
73300	10,343
73301	10,619
73302	10,514
73303	10,343
73304	10,503
73305	10,593
73306	10,336
73307	10,399
73308	10,263
73309	10,377
73310	10,158
73311	10,404
73312	10,272
73313	10,165
73314	10,399
73315	10,272
73316	10,165
73317	10,263
73318	10,377
73319	10,158
73320	10,136
73321	9,9852
73322	10,119
73323	9,921
73324	10,14
73325	9,9925
73326	9,9267
73327	10,136
73328	9,9925
73329	9,9267
73330	9,9852
73331	10,119
73332	9,921
73333	9,8418
73334	9,6817
73335	9,8298
73336	9,641
73337	9,8449
73338	9,6866
73339	9,6452
73340	9,8418
73341	9,6866
73342	9,6452
73343	9,6817
73344	9,8298
73345	9,641
73346	9,5266
73347	9,3613
73348	9,5192
73349	9,3321
73350	9,5284
73351	9,3639
73352	9,3346
73353	9,5266
73354	9,3639
73355	9,3346
73356	9,3613
73357	9,5192
73358	9,3321
73359	9,1987
73360	9,0315
73361	9,1954
73362	9,0051
73363	9,1995
73364	9,0321
73365	9,0059
73366	9,1987
73367	9,0321
73368	9,0059
73369	9,0315
73370	9,1954
73371	9,0051
73372	8,8649
73373	8,6981
73374	8,8648
73375	8,6683
73376	8,8647
73377	8,697
73378	8,6677
73379	8,8649
73380	8,697
73381	8,6677
73382	8,6981
73383	8,8648
73384	8,6683
73385	8,5302
73386	8,3658
73387	8,5328
73388	8,3282
73389	8,5293
73390	8,3632
73391	8,3262
73392	8,5302
73393	8,3632
73394	8,3262
73395	8,3658
73396	8,5328
73397	8,3282
73398	8,1988
73399	8,0381
73400	8,2035
73401	7,9893
73402	8,1972
73403	8,0344
73404	7,9862
73405	8,1988
73406	8,0344
73407	7,9862
73408	8,0381
73409	8,2035
73410	7,9893
73411	7,8738
73412	7,718
73413	7,8802
73414	7,6554
73415	7,8717
73416	7,7133
73417	7,6514
73418	7,8738
73419	7,7133
73420	7,6514
73421	7,718
73422	7,8802
73423	7,6554
73424	7,5576
73425	7,4076
73426	7,5653
73427	7,3293
73428	7,555
73429	7,4021
73430	7,3245
73431	7,5576
73432	7,4021
73433	7,3245
73434	7,4076
73435	7,5653
73436	7,3293
73437	7,2521
73438	7,1086
73439	7,2609
73440	7,0129
73441	7,2492
73442	7,1025
73443	7,0074
73444	7,2521
73445	7,1025
73446	7,0074
73447	7,1086
73448	7,2609
73449	7,0129
73450	6,9589
73451	6,8224
73452	6,9687
73453	6,7079
73454	6,9557
73455	6,8157
73456	6,7019
73457	6,9589
73458	6,8157
73459	6,7019
73460	6,8224
73461	6,9687
73462	6,7079
73463	6,6793
73464	6,5504
73465	6,6898
73466	6,4156
73467	6,6758
73468	6,5431
73469	6,4091
73470	6,6793
73471	6,5431
73472	6,4091
73473	6,5504
73474	6,6898
73475	6,4156
73476	6,4142
73477	6,2933
73478	6,4255
73479	6,1371
73480	6,4105
73481	6,2855
73482	6,13
73483	6,4142
73484	6,2855
73485	6,13
73486	6,2933
73487	6,4255
73488	6,1371
73489	6,1646
73490	6,0522
73491	6,1767
73492	5,873
73493	6,1606
73494	6,0439
73495	5,8655
73496	6,1646
73497	6,0439
73498	5,8655
73499	6,0522
73500	6,1767
73501	5,873
73502	5,9315
73503	5,8279
73504	5,9442
73505	5,6242
73506	5,9272
73507	5,8191
73508	5,6162
73509	5,9315
73510	5,8191
73511	5,6162
73512	5,8279
73513	5,9442
73514	5,6242
73515	5,7155
73516	5,6214
73517	5,7291
73518	5,3914
73519	5,7109
73520	5,6119
73521	5,3827
73522	5,7155
73523	5,6119
73524	5,3827
73525	5,6214
73526	5,7291
73527	5,3914
73528	5,5178
73529	5,4337
73530	5,5323
73531	5,1752
73532	5,5128
73533	5,4234
73534	5,1658
73535	5,5178
73536	5,4234
73537	5,1658
73538	5,4337
73539	5,5323
73540	5,1752
73541	5,3393
73542	5,266
73543	5,355
73544	4,9766
73545	5,334
73546	5,2548
73547	4,9663
73548	5,3393
73549	5,2548
73550	4,9663
73551	5,266
73552	5,355
73553	4,9766
73554	5,1815
73555	5,12
73556	5,1987
73557	4,7965
73558	5,1756
73559	5,1075
73560	4,7851
73561	5,1815
73562	5,1075
73563	4,7851
73564	5,12
73565	5,1987
73566	4,7965
73567	5,046
73568	4,9977
73569	5,065
73570	4,6364
73571	5,0394
73572	4,9836
73573	4,6235
73574	5,046
73575	4,9836
73576	4,6235
73577	4,9977
73578	5,065
73579	4,6364
73580	4,9353
73581	4,9018
73582	4,9567
73583	4,4982
73584	4,9278
73585	4,8858
73586	4,4834
73587	4,9353
73588	4,8858
73589	4,4834
73590	4,9018
73591	4,9567
73592	4,4982
73593	4,8524
73594	4,8363
73595	4,8769
73596	4,3845
73597	4,8438
73598	4,8177
73599	4,3674
73600	4,8524
73601	4,8177
73602	4,3674
73603	4,8363
73604	4,8769
73605	4,3845
73606	4,8017
73607	4,8064
73608	4,8302
73609	4,2993
73610	4,7917
73611	4,7844
73612	4,2791
73613	4,8017
73614	4,7844
73615	4,2791
73616	4,8064
73617	4,8302
73618	4,2993
73619	4,7892
73620	4,8192
73621	4,8229
73622	4,2481
73623	4,7773
73624	4,793
73625	4,224
73626	4,7892
73627	4,793
73628	4,224
73629	4,8192
73630	4,8229
73631	4,2481
73632	4,8233
73633	4,8848
73634	4,8636
73635	4,2388
73636	4,8091
73637	4,8534
73638	4,2099
73639	4,8233
73640	4,8534
73641	4,2099
73642	4,8848
73643	4,8636
73644	4,2388
73645	4,9154
73646	5,017
73647	4,9642
73648	4,2825
73649	4,8983
73650	4,9793
73651	4,2478
73652	4,9154
73653	4,9793
73654	4,2478
73655	5,017
73656	4,9642
73657	4,2825
73658	5,0816
73659	5,2344
73660	5,1408
73661	4,395
73662	5,0611
73663	5,1895
73664	4,3535
73665	5,0816
73666	5,1895
73667	4,3535
73668	5,2344
73669	5,1408
73670	4,395
73671	5,3435
73672	5,5621
73673	5,4153
73674	4,5981
73675	5,3191
73676	5,5097
73677	4,5497
73678	5,3435
73679	5,5097
73680	4,5497
73681	5,5621
73682	5,4153
73683	4,5981
73684	5,73
73685	6,0327
73686	5,8164
73687	4,9217
73688	5,7019
73689	5,9736
73690	4,8674
73691	5,73
73692	5,9736
73693	4,8674
73694	6,0327
73695	5,8164
73696	4,9217
73697	6,2786
73698	6,6862
73699	6,3804
73700	5,4057
73701	6,2474
73702	6,6233
73703	5,349
73704	6,2786
73705	6,6233
73706	5,349
73707	6,6862
73708	6,3804
73709	5,4057
73710	7,0337
73711	7,5676
73712	7,1502
73713	6,1012
73714	7,0018
73715	7,5071
73716	6,0491
73717	7,0337
73718	7,5071
73719	6,0491
73720	7,5676
73721	7,1502
73722	6,1012
73723	8,0438
73724	8,719
73725	8,1701
73726	7,0692
73727	8,015
73728	8,6703
73729	7,0331
73730	8,0438
73731	8,6703
73732	7,0331
73733	8,719
73734	8,1701
73735	7,0692
73736	9,3479
73737	10,165
73738	9,4739
73739	8,3743
73740	9,3276
73741	10,139
73742	8,3686
73743	9,3479
73744	10,139
73745	8,3686
73746	10,165
73747	9,4739
73748	8,3743
73749	10,957
73750	11,883
73751	11,066
73752	10,068
73753	10,951
73754	11,89
73755	10,105
73756	10,957
73757	11,89
73758	10,105
73759	11,883
73760	11,066
73761	10,068
73762	12,815
73763	13,77
73764	12,883
73765	12,153
73766	12,828
73767	13,809
73768	12,236
73769	12,815
73770	13,809
73771	12,236
73772	13,77
73773	12,883
73774	12,153
73775	14,765
73776	15,613
73777	14,764
73778	14,532
73779	14,791
73780	15,664
73781	14,637
73782	14,765
73783	15,664
73784	14,637
73785	15,613
73786	14,764
73787	14,532
73788	16,523
73789	17,146
73790	16,44
73791	16,932
73792	16,548
73793	17,172
73794	16,998
73795	16,523
73796	17,172
73797	16,998
73798	17,146
73799	16,44
73800	16,932
73801	17,837
73802	18,373
73803	17,714
73804	18,913
73805	17,838
73806	18,362
73807	18,88
73808	17,837
73809	18,362
73810	18,88
73811	18,373
73812	17,714
73813	18,913
73814	18,999
73815	19,4
73816	18,977
73817	18,981
73818	19,714
73819	18,987
73820	19,354
73821	18,929
73822	19,664
73823	18,999
73824	19,354
73825	18,929
73826	19,664
73827	19,4
73828	18,977
73829	18,981
73830	19,714
73831	19,864
73832	20,022
73833	19,872
73834	20,039
73835	19,929
73836	19,828
73837	19,914
73838	19,76
73839	19,883
73840	19,864
73841	19,914
73842	19,76
73843	19,883
73844	20,022
73845	19,872
73846	20,039
73847	19,929
73848	20,224
73849	20,341
73850	20,315
73851	20,505
73852	20,392
73853	20,149
73854	20,171
73855	20,128
73856	20,262
73857	20,224
73858	20,171
73859	20,128
73860	20,262
73861	20,341
73862	20,315
73863	20,505
73864	20,392
73865	20,462
73866	20,579
73867	20,569
73868	20,774
73869	20,814
73870	20,364
73871	20,376
73872	20,345
73873	20,621
73874	20,462
73875	20,376
73876	20,345
73877	20,621
73878	20,579
73879	20,569
73880	20,774
73881	20,814
73882	20,685
73883	20,711
73884	20,669
73885	21,008
73886	21,131
73887	20,576
73888	20,495
73889	20,434
73890	20,909
73891	20,685
73892	20,495
73893	20,434
73894	20,909
73895	20,711
73896	20,669
73897	21,008
73898	21,131
73899	20,688
73900	20,646
73901	20,726
73902	21,008
73903	21,206
73904	20,577
73905	20,431
73906	20,468
73907	20,977
73908	20,688
73909	20,431
73910	20,468
73911	20,977
73912	20,646
73913	20,726
73914	21,008
73915	21,206
73916	20,621
73917	20,527
73918	20,694
73919	20,957
73920	21,081
73921	20,513
73922	20,325
73923	20,443
73924	20,859
73925	20,621
73926	20,325
73927	20,443
73928	20,859
73929	20,527
73930	20,694
73931	20,957
73932	21,081
73933	20,437
73934	20,331
73935	20,524
73936	20,745
73937	20,789
73938	20,34
73939	20,166
73940	20,304
73941	20,599
73942	20,437
73943	20,166
73944	20,304
73945	20,599
73946	20,331
73947	20,524
73948	20,745
73949	20,789
73950	20,223
73951	20,034
73952	20,239
73953	20,493
73954	20,387
73955	20,152
73956	19,932
73957	20,073
73958	20,261
73959	20,223
73960	19,932
73961	20,073
73962	20,261
73963	20,034
73964	20,239
73965	20,493
73966	20,387
73967	19,871
73968	19,419
73969	19,915
73970	20,038
73971	19,921
73972	19,837
73973	19,377
73974	19,797
73975	19,877
73976	19,871
73977	19,377
73978	19,797
73979	19,877
73980	19,419
73981	19,915
73982	20,038
73983	19,921
73984	19,031
73985	18,358
73986	19,041
73987	19,016
73988	19,708
73989	19,019
73990	18,348
73991	18,986
73992	19,659
73993	19,031
73994	18,348
73995	18,986
73996	19,659
73997	18,358
73998	19,041
73999	19,016
74000	19,708
74001	17,788
74002	17,117
74003	17,673
74004	18,858
74005	17,789
74006	17,142
74007	18,827
74008	17,788
74009	17,142
74010	18,827
74011	17,117
74012	17,673
74013	18,858
74014	16,511
74015	15,576
74016	16,43
74017	16,885
74018	16,536
74019	15,627
74020	16,952
74021	16,511
74022	15,627
74023	16,952
74024	15,576
74025	16,43
74026	16,885
74027	14,701
74028	13,7
74029	14,702
74030	14,452
74031	14,727
74032	13,738
74033	14,557
74034	14,701
74035	13,738
74036	14,557
74037	13,7
74038	14,702
74039	14,452
74040	12,738
74041	11,802
74042	12,806
74043	12,062
74044	12,75
74045	11,808
74046	12,144
74047	12,738
74048	11,808
74049	12,144
74050	11,802
74051	12,806
74052	12,062
74053	10,872
74054	10,08
74055	10,981
74056	9,9762
74057	10,866
74058	10,054
74059	10,013
74060	10,872
74061	10,054
74062	10,013
74063	10,08
74064	10,981
74065	9,9762
74066	9,2635
74067	8,6365
74068	9,3888
74069	8,2881
74070	9,243
74071	8,5874
74072	8,2809
74073	9,2635
74074	8,5874
74075	8,2809
74076	8,6365
74077	9,3888
74078	8,2881
74079	7,9628
74080	7,4884
74081	8,0876
74082	6,99
74083	7,9339
74084	7,4281
74085	6,9531
74086	7,9628
74087	7,4281
74088	6,9531
74089	7,4884
74090	8,0876
74091	6,99
74092	6,9565
74093	6,6098
74094	7,071
74095	6,0281
74096	6,9249
74097	6,5477
74098	5,9759
74099	6,9565
74100	6,5477
74101	5,9759
74102	6,6098
74103	7,071
74104	6,0281
74105	6,2037
74106	5,9571
74107	6,3032
74108	5,3362
74109	6,1731
74110	5,8992
74111	5,2801
74112	6,2037
74113	5,8992
74114	5,2801
74115	5,9571
74116	6,3032
74117	5,3362
74118	5,6548
74119	5,4845
74120	5,7386
74121	4,8526
74122	5,6273
74123	5,4336
74124	4,7994
74125	5,6548
74126	5,4336
74127	4,7994
74128	5,4845
74129	5,7386
74130	4,8526
74131	5,2649
74132	5,1519
74133	5,3341
74134	4,5261
74135	5,2414
74136	5,1087
74137	4,479
74138	5,2649
74139	5,1087
74140	4,479
74141	5,1519
74142	5,3341
74143	4,5261
74144	4,9967
74145	4,9267
74146	5,0532
74147	4,3168
74148	4,977
74149	4,8907
74150	4,2768
74151	4,9967
74152	4,8907
74153	4,2768
74154	4,9267
74155	5,0532
74156	4,3168
74157	4,8213
74158	4,7838
74159	4,8674
74160	4,195
74161	4,8051
74162	4,7541
74163	4,1617
74164	4,8213
74165	4,7541
74166	4,1617
74167	4,7838
74168	4,8674
74169	4,195
74170	4,7171
74171	4,7046
74172	4,7547
74173	4,1389
74174	4,7037
74175	4,6801
74176	4,1115
74177	4,7171
74178	4,6801
74179	4,1115
74180	4,7046
74181	4,7547
74182	4,1389
74183	4,668
74184	4,6752
74185	4,699
74186	4,1328
74187	4,6569
74188	4,655
74189	4,1103
74190	4,668
74191	4,655
74192	4,1103
74193	4,6752
74194	4,699
74195	4,1328
74196	4,6624
74197	4,6855
74198	4,6882
74199	4,1655
74200	4,6532
74201	4,6686
74202	4,1469
74203	4,6624
74204	4,6686
74205	4,1469
74206	4,6855
74207	4,6882
74208	4,1655
74209	4,6919
74210	4,728
74211	4,7135
74212	4,2288
74213	4,6842
74214	4,7138
74215	4,2133
74216	4,6919
74217	4,7138
74218	4,2133
74219	4,728
74220	4,7135
74221	4,2288
74222	4,75
74223	4,7971
74224	4,7684
74225	4,317
74226	4,7435
74227	4,7851
74228	4,304
74229	4,75
74230	4,7851
74231	4,304
74232	4,7971
74233	4,7684
74234	4,317
74235	4,8322
74236	4,8886
74237	4,8479
74238	4,4257
74239	4,8266
74240	4,8782
74241	4,4147
74242	4,8322
74243	4,8782
74244	4,4147
74245	4,8886
74246	4,8479
74247	4,4257
74248	4,9347
74249	4,9991
74250	4,9482
74251	4,5517
74252	4,9299
74253	4,9902
74254	4,5423
74255	4,9347
74256	4,9902
74257	4,5423
74258	4,9991
74259	4,9482
74260	4,5517
74261	5,0546
74262	5,1259
74263	5,0664
74264	4,6926
74265	5,0505
74266	5,1183
74267	4,6845
74268	5,0546
74269	5,1183
74270	4,6845
74271	5,1259
74272	5,0664
74273	4,6926
74274	5,1896
74275	5,2668
74276	5,1997
74277	4,846
74278	5,186
74279	5,2602
74280	4,8391
74281	5,1896
74282	5,2602
74283	4,8391
74284	5,2668
74285	5,1997
74286	4,846
74287	5,3374
74288	5,4196
74289	5,3461
74290	5,0102
74291	5,3344
74292	5,414
74293	5,0042
74294	5,3374
74295	5,414
74296	5,0042
74297	5,4196
74298	5,3461
74299	5,0102
74300	5,4962
74301	5,5825
74302	5,5035
74303	5,1833
74304	5,4937
74305	5,5778
74306	5,1783
74307	5,4962
74308	5,5778
74309	5,1783
74310	5,5825
74311	5,5035
74312	5,1833
74313	5,664
74314	5,7533
74315	5,6699
74316	5,3635
74317	5,6619
74318	5,7495
74319	5,3593
74320	5,664
74321	5,7495
74322	5,3593
74323	5,7533
74324	5,6699
74325	5,3635
74326	5,8388
74327	5,9302
74328	5,8434
74329	5,5489
74330	5,8372
74331	5,9273
74332	5,5455
74333	5,8388
74334	5,9273
74335	5,5455
74336	5,9302
74337	5,8434
74338	5,5489
74339	6,0187
74340	6,111
74341	6,0218
74342	5,7373
74343	6,0174
74344	6,109
74345	5,7347
74346	6,0187
74347	6,109
74348	5,7347
74349	6,111
74350	6,0218
74351	5,7373
74352	6,2014
74353	6,2936
74354	6,203
74355	5,9265
74356	6,2006
74357	6,2924
74358	5,9247
74359	6,2014
74360	6,2924
74361	5,9247
74362	6,2936
74363	6,203
74364	5,9265
74365	6,3846
74366	6,4754
74367	6,3848
74368	6,114
74369	6,3842
74370	6,4751
74371	6,1129
74372	6,3846
74373	6,4751
74374	6,1129
74375	6,4754
74376	6,3848
74377	6,114
74378	6,566
74379	6,6542
74380	6,5647
74381	6,297
74382	6,566
74383	6,6547
74384	6,2966
74385	6,566
74386	6,6547
74387	6,2966
74388	6,6542
74389	6,5647
74390	6,297
74391	6,743
74392	6,8274
74393	6,7403
74394	6,4727
74395	6,7434
74396	6,8286
74397	6,4729
74398	6,743
74399	6,8286
74400	6,4729
74401	6,8274
74402	6,7403
74403	6,4727
74404	6,913
74405	6,9924
74406	6,909
74407	6,6381
74408	6,9137
74409	6,9941
74410	6,6387
74411	6,913
74412	6,9941
74413	6,6387
74414	6,9924
74415	6,909
74416	6,6381
74417	7,0736
74418	7,1471
74419	7,0687
74420	6,7902
74421	7,0746
74422	7,1491
74423	6,791
74424	7,0736
74425	7,1491
74426	6,791
74427	7,1471
74428	7,0687
74429	6,7902
74430	7,2226
74431	7,2896
74432	7,2173
74433	6,9263
74434	7,2237
74435	7,2915
74436	6,9271
74437	7,2226
74438	7,2915
74439	6,9271
74440	7,2896
74441	7,2173
74442	6,9263
74443	7,3585
74444	7,4189
74445	7,3535
74446	7,0445
74447	7,3594
74448	7,4202
74449	7,045
74450	7,3585
74451	7,4202
74452	7,045
74453	7,4189
74454	7,3535
74455	7,0445
74456	7,4806
74457	7,5351
74458	7,4768
74459	7,144
74460	7,4811
74461	7,5354
74462	7,1438
74463	7,4806
74464	7,5354
74465	7,1438
74466	7,5351
74467	7,4768
74468	7,144
74469	7,5899
74470	7,6401
74471	7,5883
74472	7,2262
74473	7,5897
74474	7,6391
74475	7,225
74476	7,5899
74477	7,6391
74478	7,225
74479	7,6401
74480	7,5883
74481	7,2262
74482	7,6894
74483	7,7383
74484	7,6909
74485	7,2952
74486	7,6885
74487	7,7362
74488	7,2931
74489	7,6894
74490	7,7362
74491	7,2931
74492	7,7383
74493	7,6909
74494	7,2952
74495	7,7851
74496	7,8372
74497	7,7904
74498	7,3595
74499	7,7838
74500	7,8347
74501	7,3574
74502	7,7851
74503	7,8347
74504	7,3574
74505	7,8372
74506	7,7904
74507	7,3595
74508	7,8868
74509	7,9477
74510	7,8951
74511	7,4328
74512	7,8857
74513	7,9471
74514	7,4327
74515	7,8868
74516	7,9471
74517	7,4327
74518	7,9477
74519	7,8951
74520	7,4328
74521	8,0082
74522	8,084
74523	8,017
74524	7,5351
74525	8,0087
74526	8,0888
74527	7,5403
74528	8,0082
74529	8,0888
74530	7,5403
74531	8,084
74532	8,017
74533	7,5351
74534	8,165
74535	8,2614
74536	8,1698
74537	7,691
74538	8,1692
74539	8,2758
74540	7,7062
74541	8,165
74542	8,2758
74543	7,7062
74544	8,2614
74545	8,1698
74546	7,691
74547	8,3727
74548	8,4895
74549	8,3668
74550	7,9266
74551	8,3829
74552	8,5173
74553	7,9565
74554	8,3727
74555	8,5173
74556	7,9565
74557	8,4895
74558	8,3668
74559	7,9266
74560	8,6345
74561	8,7626
74562	8,611
74563	8,2587
74564	8,652
74565	8,8048
74566	8,3054
74567	8,6345
74568	8,8048
74569	8,3054
74570	8,7626
74571	8,611
74572	8,2587
74573	8,9329
74574	9,0453
74575	8,8855
74576	8,6801
74577	8,9575
74578	9,0988
74579	8,7412
74580	8,9329
74581	9,0988
74582	8,7412
74583	9,0453
74584	8,8855
74585	8,6801
74586	9,211
74587	9,2683
74588	9,1363
74589	9,1399
74590	9,2399
74591	9,3253
74592	9,2053
74593	9,211
74594	9,3253
74595	9,2053
74596	9,2683
74597	9,1363
74598	9,1399
74599	9,3841
74600	9,3409
74601	9,2842
74602	9,5355
74603	9,4122
74604	9,3872
74605	9,5885
74606	9,3841
74607	9,3872
74608	9,5886
74609	9,3409
74610	9,2842
74611	9,5355
74612	9,3514
74613	9,1961
74614	9,2439
74615	9,7153
74616	9,3696
74617	9,216
74618	9,7326
74619	9,3514
74620	9,216
74621	9,7326
74622	9,1961
74623	9,2439
74624	9,7153
74625	9,079
74626	8,9018
74627	9,0074
74628	9,5335
74629	9,0804
74630	8,8949
74631	9,5045
74632	9,079
74633	8,8949
74634	9,5045
74635	8,9018
74636	9,0074
74637	9,5335
74638	8,7521
74639	8,5408
74640	8,8283
74641	8,7793
74642	8,8171
74643	8,7433
74644	8,5119
74645	8,8055
74646	8,7895
74647	8,7521
74648	8,5119
74649	8,8055
74650	8,7895
74651	8,5408
74652	8,8283
74653	8,7793
74654	8,8171
74655	8,327
74656	8,0822
74657	8,4309
74658	8,4351
74659	8,0896
74660	8,3062
74661	8,0255
74662	8,3815
74663	8,0636
74664	8,327
74665	8,0255
74666	8,3815
74667	8,0636
74668	8,0822
74669	8,4309
74670	8,4351
74671	8,0896
74672	7,8222
74673	7,6364
74674	7,9795
74675	7,9604
74676	7,6438
74677	7,786
74678	7,5581
74679	7,9073
74680	7,5824
74681	7,8222
74682	7,5581
74683	7,9073
74684	7,5824
74685	7,6364
74686	7,9795
74687	7,9604
74688	7,6438
74689	7,4233
74690	7,283
74691	7,5806
74692	7,5633
74693	7,3149
74694	7,3811
74695	7,1987
74696	7,4988
74697	7,2343
74698	7,4233
74699	7,1987
74700	7,4988
74701	7,2343
74702	7,283
74703	7,5806
74704	7,5633
74705	7,3149
74706	7,1129
74707	6,9971
74708	7,2122
74709	7,2461
74710	7,0628
74711	7,0706
74712	6,9149
74713	7,1324
74714	6,9789
74715	7,1129
74716	6,9149
74717	7,1324
74718	6,9789
74719	6,9971
74720	7,2122
74721	7,2461
74722	7,0628
74723	6,8543
74724	6,7673
74725	6,9319
74726	6,9794
74727	6,8554
74728	6,8142
74729	6,6898
74730	6,8574
74731	6,7743
74732	6,8543
74733	6,6898
74734	6,8574
74735	6,7743
74736	6,7673
74737	6,9319
74738	6,9794
74739	6,8554
74740	6,6556
74741	6,5842
74742	6,6798
74743	6,7753
74744	6,6884
74745	6,618
74746	6,5108
74747	6,6107
74748	6,6113
74749	6,6556
74750	6,5108
74751	6,6107
74752	6,6113
74753	6,5842
74754	6,6798
74755	6,7753
74756	6,6884
74757	6,4913
74758	6,4405
74759	6,4888
74760	6,6071
74761	6,5513
74762	6,4553
74763	6,3698
74764	6,4234
74765	6,4777
74766	6,4913
74767	6,3698
74768	6,4234
74769	6,4777
74770	6,4405
74771	6,4888
74772	6,6071
74773	6,5513
74774	6,3692
74775	6,3367
74776	6,3331
74777	6,4834
74778	6,4464
74779	6,3342
74780	6,2678
74781	6,2711
74782	6,375
74783	6,3692
74784	6,2678
74785	6,2711
74786	6,375
74787	6,3367
74788	6,3331
74789	6,4834
74790	6,4464
74791	6,2856
74792	6,2741
74793	6,228
74794	6,3987
74795	6,3748
74796	6,2513
74797	6,206
74798	6,1675
74799	6,3049
74800	6,2856
74801	6,206
74802	6,1675
74803	6,3049
74804	6,2741
74805	6,228
74806	6,3987
74807	6,3748
74808	6,2432
74809	6,2532
74810	6,1778
74811	6,356
74812	6,3382
74813	6,2092
74814	6,1854
74815	6,118
74816	6,2689
74817	6,2432
74818	6,1854
74819	6,118
74820	6,2689
74821	6,2532
74822	6,1778
74823	6,356
74824	6,3382
74825	6,2431
74826	6,2744
74827	6,1833
74828	6,3557
74829	6,3383
74830	6,2091
74831	6,2063
74832	6,1228
74833	6,2692
74834	6,2431
74835	6,2063
74836	6,1228
74837	6,2692
74838	6,2744
74839	6,1833
74840	6,3557
74841	6,3383
74842	6,2857
74843	6,3369
74844	6,2285
74845	6,3989
74846	6,375
74847	6,2513
74848	6,2679
74849	6,1682
74850	6,3051
74851	6,2857
74852	6,2679
74853	6,1682
74854	6,3051
74855	6,3369
74856	6,2285
74857	6,3989
74858	6,375
74859	6,3677
74860	6,4396
74861	6,3329
74862	6,4817
74863	6,4461
74864	6,3328
74865	6,369
74866	6,2708
74867	6,3749
74868	6,3677
74869	6,369
74870	6,2708
74871	6,3749
74872	6,4396
74873	6,3329
74874	6,4817
74875	6,4462
74876	6,4913
74877	6,5848
74878	6,4852
74879	6,607
74880	6,5516
74881	6,4553
74882	6,5111
74883	6,42
74884	6,478
74885	6,4913
74886	6,5111
74887	6,42
74888	6,478
74889	6,5848
74890	6,4852
74891	6,607
74892	6,5516
74893	6,659
74894	6,7727
74895	6,6832
74896	6,7791
74897	6,6905
74898	6,621
74899	6,695
74900	6,615
74901	6,6132
74902	6,659
74903	6,695
74904	6,615
74905	6,6132
74906	6,7727
74907	6,6832
74908	6,7792
74909	6,6905
74910	6,8612
74911	7,0021
74912	6,9361
74913	6,9864
74914	6,8593
74915	6,8212
74916	6,9202
74917	6,8616
74918	6,7782
74919	6,8612
74920	6,9202
74921	6,8616
74922	6,7782
74923	7,0021
74924	6,9361
74925	6,9864
74926	6,8593
74927	7,1164
74928	7,2858
74929	7,2316
74930	7,2499
74931	7,0653
74932	7,0742
74933	7,2013
74934	7,1527
74935	6,9815
74936	7,1164
74937	7,2013
74938	7,1527
74939	6,9815
74940	7,2858
74941	7,2316
74942	7,2499
74943	7,0653
74944	7,422
74945	7,6369
74946	7,5782
74947	7,5621
74948	7,3153
74949	7,3796
74950	7,5585
74951	7,4973
74952	7,2345
74953	7,422
74954	7,5585
74955	7,4973
74956	7,2345
74957	7,6369
74958	7,5782
74959	7,5621
74960	7,3153
74961	7,8275
74962	8,097
74963	7,9819
74964	7,9658
74965	7,6481
74966	7,7914
74967	8,0411
74968	7,9101
74969	7,5869
74970	7,8275
74971	8,0411
74972	7,9101
74973	7,5869
74974	8,097
74975	7,9819
74976	7,9658
74977	7,6481
74978	8,3532
74979	8,565
74980	8,4485
74981	8,4595
74982	8,106
74983	8,3331
74984	8,5372
74985	8,3999
74986	8,0809
74987	8,3532
74988	8,5372
74989	8,3999
74990	8,0809
74991	8,565
74992	8,4485
74993	8,4595
74994	8,106
74995	8,7783
74996	8,9181
74997	8,8364
74998	8,7989
74999	8,8368
75000	8,7698
75001	8,9116
75002	8,8134
75003	8,809
75004	8,7783
75005	8,9116
75006	8,8134
75007	8,809
75008	8,9181
75009	8,8364
75010	8,7989
75011	8,8368
75012	9,0816
75013	9,1983
75014	9,0089
75015	9,5347
75016	9,0832
75017	9,2188
75018	9,5061
75019	9,0816
75020	9,2188
75021	9,5061
75022	9,1983
75023	9,0089
75024	9,5347
75025	9,3539
75026	9,342
75027	9,2463
75028	9,7168
75029	9,3724
75030	9,3886
75031	9,7344
75032	9,3539
75033	9,3886
75034	9,7344
75035	9,342
75036	9,2463
75037	9,7168
75038	9,3837
75039	9,2684
75040	9,2838
75041	9,5355
75042	9,4117
75043	9,3253
75044	9,5885
75045	9,3837
75046	9,3253
75047	9,5885
75048	9,2684
75049	9,2838
75050	9,5355
75051	9,2114
75052	9,0455
75053	9,1367
75054	9,1402
75055	9,2405
75056	9,0991
75057	9,2056
75058	9,2114
75059	9,0991
75060	9,2056
75061	9,0455
75062	9,1367
75063	9,1402
75064	8,9329
75065	8,7627
75066	8,8855
75067	8,6802
75068	8,9575
75069	8,8049
75070	8,7412
75071	8,9329
75072	8,8049
75073	8,7412
75074	8,7627
75075	8,8855
75076	8,6802
75077	8,6348
75078	8,4896
75079	8,6113
75080	8,2588
75081	8,6523
75082	8,5173
75083	8,3056
75084	8,6348
75085	8,5173
75086	8,3056
75087	8,4896
75088	8,6113
75089	8,2588
75090	8,3726
75091	8,2613
75092	8,3668
75093	7,9266
75094	8,3827
75095	8,2757
75096	7,9564
75097	8,3726
75098	8,2757
75099	7,9564
75100	8,2613
75101	8,3668
75102	7,9266
75103	8,165
75104	8,0839
75105	8,1698
75106	7,691
75107	8,1692
75108	8,0887
75109	7,7061
75110	8,165
75111	8,0887
75112	7,7061
75113	8,0839
75114	8,1698
75115	7,691
75116	8,0079
75117	7,9475
75118	8,0167
75119	7,5349
75120	8,0084
75121	7,9469
75122	7,5401
75123	8,0079
75124	7,9469
75125	7,5401
75126	7,9475
75127	8,0167
75128	7,5349
75129	7,8866
75130	7,8369
75131	7,8948
75132	7,4326
75133	7,8855
75134	7,8344
75135	7,4324
75136	7,8866
75137	7,8344
75138	7,4324
75139	7,8369
75140	7,8948
75141	7,4326
75142	7,7848
75143	7,738
75144	7,79
75145	7,3592
75146	7,7834
75147	7,7358
75148	7,3571
75149	7,7848
75150	7,7358
75151	7,3571
75152	7,738
75153	7,79
75154	7,3592
75155	7,689
75156	7,6397
75157	7,6906
75158	7,2949
75159	7,6881
75160	7,6387
75161	7,2928
75162	7,689
75163	7,6387
75164	7,2928
75165	7,6397
75166	7,6905
75167	7,2949
75168	7,5894
75169	7,5346
75170	7,5878
75171	7,2258
75172	7,5893
75173	7,5349
75174	7,2246
75175	7,5894
75176	7,5349
75177	7,2246
75178	7,5346
75179	7,5878
75180	7,2258
75181	7,4801
75182	7,4184
75183	7,4763
75184	7,1436
75185	7,4806
75186	7,4197
75187	7,1433
75188	7,4801
75189	7,4197
75190	7,1433
75191	7,4184
75192	7,4763
75193	7,1436
75194	7,358
75195	7,2891
75196	7,3529
75197	7,044
75198	7,3588
75199	7,2909
75200	7,0445
75201	7,358
75202	7,2909
75203	7,0445
75204	7,2891
75205	7,3529
75206	7,044
75207	7,222
75208	7,1465
75209	7,2167
75210	6,9257
75211	7,223
75212	7,1484
75213	6,9265
75214	7,222
75215	7,1484
75216	6,9265
75217	7,1465
75218	7,2167
75219	6,9257
75220	7,0729
75221	6,9917
75222	7,0681
75223	6,7895
75224	7,0739
75225	6,9934
75226	6,7904
75227	7,0729
75228	6,9934
75229	6,7904
75230	6,9917
75231	7,0681
75232	6,7895
75233	6,9123
75234	6,8266
75235	6,9083
75236	6,6374
75237	6,913
75238	6,8278
75239	6,638
75240	6,9123
75241	6,8278
75242	6,638
75243	6,8266
75244	6,9083
75245	6,6374
75246	6,7422
75247	6,6534
75248	6,7395
75249	6,472
75250	6,7426
75251	6,6539
75252	6,4721
75253	6,7422
75254	6,6539
75255	6,4721
75256	6,6534
75257	6,7395
75258	6,472
75259	6,5651
75260	6,4746
75261	6,5638
75262	6,2962
75263	6,5652
75264	6,4743
75265	6,2958
75266	6,5651
75267	6,4743
75268	6,2958
75269	6,4746
75270	6,5638
75271	6,2962
75272	6,3837
75273	6,2927
75274	6,3839
75275	6,1131
75276	6,3834
75277	6,2915
75278	6,112
75279	6,3837
75280	6,2915
75281	6,112
75282	6,2927
75283	6,3839
75284	6,1131
75285	6,2004
75286	6,1101
75287	6,2021
75288	5,9256
75289	6,1996
75290	6,1081
75291	5,9237
75292	6,2004
75293	6,1081
75294	5,9237
75295	6,1101
75296	6,2021
75297	5,9256
75298	6,0177
75299	5,9293
75300	6,0208
75301	5,7363
75302	6,0165
75303	5,9263
75304	5,7337
75305	6,0177
75306	5,9263
75307	5,7337
75308	5,9293
75309	6,0208
75310	5,7363
75311	5,8379
75312	5,7524
75313	5,8424
75314	5,5479
75315	5,8362
75316	5,7486
75317	5,5445
75318	5,8379
75319	5,7486
75320	5,5445
75321	5,7524
75322	5,8424
75323	5,5479
75324	5,663
75325	5,5815
75326	5,669
75327	5,3625
75328	5,6609
75329	5,5768
75330	5,3583
75331	5,663
75332	5,5768
75333	5,3583
75334	5,5815
75335	5,669
75336	5,3625
75337	5,4953
75338	5,4187
75339	5,5026
75340	5,1823
75341	5,4927
75342	5,4131
75343	5,1772
75344	5,4953
75345	5,4131
75346	5,1772
75347	5,4187
75348	5,5026
75349	5,1823
75350	5,3365
75351	5,2659
75352	5,3452
75353	5,0092
75354	5,3335
75355	5,2593
75356	5,0032
75357	5,3365
75358	5,2593
75359	5,0032
75360	5,2659
75361	5,3452
75362	5,0092
75363	5,1887
75364	5,1251
75365	5,1988
75366	4,845
75367	5,1851
75368	5,1174
75369	4,8381
75370	5,1887
75371	5,1174
75372	4,8381
75373	5,1251
75374	5,1988
75375	4,845
75376	5,0538
75377	4,9983
75378	5,0655
75379	4,6916
75380	5,0497
75381	4,9894
75382	4,6835
75383	5,0538
75384	4,9894
75385	4,6835
75386	4,9983
75387	5,0655
75388	4,6916
75389	4,9339
75390	4,8879
75391	4,9475
75392	4,5508
75393	4,9291
75394	4,8775
75395	4,5414
75396	4,9339
75397	4,8775
75398	4,5414
75399	4,8879
75400	4,9475
75401	4,5508
75402	4,8315
75403	4,7965
75404	4,8473
75405	4,4249
75406	4,826
75407	4,7845
75408	4,4138
75409	4,8315
75410	4,7845
75411	4,4138
75412	4,7965
75413	4,8473
75414	4,4249
75415	4,7495
75416	4,7276
75417	4,7679
75418	4,3163
75419	4,743
75420	4,7134
75421	4,3032
75422	4,7495
75423	4,7134
75424	4,3032
75425	4,7276
75426	4,7679
75427	4,3163
75428	4,6915
75429	4,6853
75430	4,7132
75431	4,2282
75432	4,6838
75433	4,6684
75434	4,2127
75435	4,6915
75436	4,6684
75437	4,2127
75438	4,6853
75439	4,7132
75440	4,2282
75441	4,6623
75442	4,6753
75443	4,6881
75444	4,1651
75445	4,6531
75446	4,655
75447	4,1465
75448	4,6623
75449	4,655
75450	4,1465
75451	4,6753
75452	4,6881
75453	4,1651
75454	4,6682
75455	4,705
75456	4,6992
75457	4,1327
75458	4,6571
75459	4,6806
75460	4,1101
75461	4,6682
75462	4,6806
75463	4,1101
75464	4,705
75465	4,6992
75466	4,1327
75467	4,7177
75468	4,7847
75469	4,7554
75470	4,1392
75471	4,7043
75472	4,755
75473	4,1117
75474	4,7177
75475	4,755
75476	4,1117
75477	4,7847
75478	4,7554
75479	4,1392
75480	4,8225
75481	4,9283
75482	4,8687
75483	4,1958
75484	4,8062
75485	4,8922
75486	4,1624
75487	4,8225
75488	4,8922
75489	4,1624
75490	4,9283
75491	4,8687
75492	4,1958
75493	4,9987
75494	5,1544
75495	5,0553
75496	4,3183
75497	4,9789
75498	5,1111
75499	4,2782
75500	4,9987
75501	5,1111
75502	4,2782
75503	5,1544
75504	5,0553
75505	4,3183
75506	5,2679
75507	5,4883
75508	5,3372
75509	4,5285
75510	5,2443
75511	5,4372
75512	4,4814
75513	5,2679
75514	5,4372
75515	4,4814
75516	5,4883
75517	5,3372
75518	4,5285
75519	5,6592
75520	5,9625
75521	5,7431
75522	4,8564
75523	5,6317
75524	5,9045
75525	4,8032
75526	5,6592
75527	5,9045
75528	4,8032
75529	5,9625
75530	5,7431
75531	4,8564
75532	6,21
75533	6,6174
75534	6,3097
75535	5,342
75536	6,1793
75537	6,5553
75538	5,2859
75539	6,21
75540	6,5553
75541	5,2859
75542	6,6174
75543	6,3097
75544	5,342
75545	6,9655
75546	7,4989
75547	7,0801
75548	6,0365
75549	6,9338
75550	7,4386
75551	5,9844
75552	6,9655
75553	7,4386
75554	5,9844
75555	7,4989
75556	7,0801
75557	6,0365
75558	7,9748
75559	8,6506
75560	8,0998
75561	7,002
75562	7,946
75563	8,6016
75564	6,9652
75565	7,9748
75566	8,6016
75567	6,9652
75568	8,6506
75569	8,0998
75570	7,002
75571	9,2797
75572	10,098
75573	9,405
75574	8,3047
75575	9,2593
75576	10,072
75577	8,2979
75578	9,2797
75579	10,072
75580	8,2979
75581	10,098
75582	9,405
75583	8,3047
75584	10,892
75585	11,823
75586	11,001
75587	9,9981
75588	10,886
75589	11,83
75590	10,035
75591	10,892
75592	11,83
75593	10,035
75594	11,823
75595	11,001
75596	9,9981
75597	12,76
75598	13,706
75599	12,828
75600	12,089
75601	12,772
75602	13,745
75603	12,172
75604	12,76
75605	13,745
75606	12,172
75607	13,706
75608	12,828
75609	12,089
75610	14,692
75611	15,562
75612	14,692
75613	14,468
75614	14,719
75615	15,615
75616	14,573
75617	14,692
75618	15,615
75619	14,573
75620	15,562
75621	14,692
75622	14,468
75623	16,496
75624	17,136
75625	16,411
75626	16,904
75627	16,522
75628	17,164
75629	16,971
75630	16,496
75631	17,164
75632	16,971
75633	17,136
75634	16,411
75635	16,904
75636	17,845
75637	18,388
75638	17,718
75639	18,922
75640	17,847
75641	18,378
75642	18,889
75643	17,845
75644	18,378
75645	18,889
75646	18,388
75647	17,718
75648	18,922
75649	19,02
75650	19,407
75651	18,959
75652	18,998
75653	19,724
75654	19,008
75655	19,362
75656	18,913
75657	19,675
75658	19,02
75659	19,362
75660	18,913
75661	19,675
75662	19,407
75663	18,959
75664	18,998
75665	19,724
75666	19,857
75667	19,867
75668	20,033
75669	19,917
75670	19,822
75671	19,759
75672	19,87
75673	19,857
75674	19,759
75675	19,87
75676	19,867
75677	20,033
75678	19,917
75679	6,858
75680	6,8584
75681	6,8578
75682	6,858
75683	6,8584
75684	7,8693
75685	7,8765
75686	7,8669
75687	7,8693
75688	7,8765
75689	7,0618
75690	7,0053
75691	7,0637
75692	7,0612
75693	7,0044
75694	7,0618
75695	7,0044
75696	7,0053
75697	7,0637
75698	6,961
75699	6,9619
75700	6,9606
75701	6,961
75702	6,9619
75703	6,9699
75704	7,0281
75705	6,9703
75706	6,9699
75707	7,0278
75708	6,9699
75709	7,0278
75710	7,0281
75711	6,9703
75712	7,025
75713	7,0851
75714	7,027
75715	7,0243
75716	7,0834
75717	7,025
75718	7,0834
75719	7,0851
75720	7,027
75721	8,1499
75722	8,1581
75723	8,1472
75724	8,1499
75725	8,1581
75726	8,0253
75727	7,8868
75728	8,033
75729	8,0227
75730	7,8821
75731	8,0253
75732	7,8821
75733	7,8868
75734	8,033
75735	7,7529
75736	7,6371
75737	7,7594
75738	7,7508
75739	7,6332
75740	7,7529
75741	7,6332
75742	7,6371
75743	7,7594
75744	7,5281
75745	7,4359
75746	7,5335
75747	7,5263
75748	7,4326
75749	7,5281
75750	7,4326
75751	7,4359
75752	7,5335
75753	7,3521
75754	7,285
75755	7,3565
75756	7,3506
75757	7,2823
75758	7,3521
75759	7,2823
75760	7,285
75761	7,3565
75762	7,229
75763	7,1899
75764	7,2328
75765	7,2277
75766	7,1876
75767	7,229
75768	7,1876
75769	7,1899
75770	7,2328
75771	7,1631
75772	7,1521
75773	7,1665
75774	7,1619
75775	7,1498
75776	7,1631
75777	7,1498
75778	7,1521
75779	7,1665
75780	7,3754
75781	7,3802
75782	7,3738
75783	7,3754
75784	7,3802
75785	7,4221
75786	7,5141
75787	7,427
75788	7,4205
75789	7,5106
75790	7,4221
75791	7,5106
75792	7,5141
75793	7,427
75794	7,6134
75795	7,7317
75796	7,6192
75797	7,6114
75798	7,7274
75799	7,6134
75800	7,7274
75801	7,7316
75802	7,6192
75803	7,8552
75804	7,9961
75805	7,8622
75806	7,8529
75807	7,9911
75808	7,8552
75809	7,9911
75810	7,9961
75811	7,8622
75812	8,1405
75813	8,1488
75814	8,1377
75815	8,1405
75816	8,1488
75817	7,1851
75818	7,1372
75819	7,1865
75820	7,1846
75821	7,1365
75822	7,1851
75823	7,1365
75824	7,1372
75825	7,1865
75826	7,0954
75827	7,1715
75828	7,0963
75829	7,0951
75830	7,1706
75831	7,0954
75832	7,1706
75833	7,1715
75834	7,0963
75835	6,9333
75836	6,9495
75837	6,9339
75838	6,9331
75839	6,9489
75840	6,9333
75841	6,9489
75842	6,9495
75843	6,9339
75844	7,065
75845	7,0482
75846	7,0655
75847	7,0648
75848	7,0479
75849	7,065
75850	7,0479
75851	7,0482
75852	7,0655
75853	7,3701
75854	7,3748
75855	7,3686
75856	7,3701
75857	7,3748
75858	7,1534
75859	7,1568
75860	7,1523
75861	7,1534
75862	7,1568
75863	8,6594
75864	8,6711
75865	8,6555
75866	8,6594
75867	8,6711
75868	7,1805
75869	7,1789
75870	7,1819
75871	7,1801
75872	7,1779
75873	7,1805
75874	7,1779
75875	7,1789
75876	7,1819
75877	7,3826
75878	7,4805
75879	7,3848
75880	7,3818
75881	7,4786
75882	7,3826
75883	7,4786
75884	7,4805
75885	7,3848
75886	7,9622
75887	7,9679
75888	7,9603
75889	7,9622
75890	7,9679
75891	7,2556
75892	7,2574
75893	7,255
75894	7,2556
75895	7,2574
75896	6,9746
75897	7,0109
75898	6,9758
75899	6,9742
75900	7,0098
75901	6,9746
75902	7,0098
75903	7,0109
75904	6,9758
75905	7,1861
75906	7,1897
75907	7,1849
75908	7,1861
75909	7,1897
75910	7,039
75911	7,0401
75912	7,0396
75913	7,0388
75914	7,0396
75915	7,039
75916	7,0396
75917	7,0401
75918	7,0396
75919	7,0271
75920	7,0573
75921	7,0285
75922	7,0266
75923	7,0563
75924	7,0271
75925	7,0563
75926	7,0573
75927	7,0285
75928	7,4686
75929	7,4809
75930	7,5803
75931	7,472
75932	7,4674
75933	7,4784
75934	7,5775
75935	7,4686
75936	7,4784
75937	7,5775
75938	7,4809
75939	7,5803
75940	7,472
75941	8,1911
75942	8,1983
75943	8,1888
75944	8,1911
75945	8,1983
75946	7,4962
75947	7,5052
75948	7,5058
75949	7,5031
75950	7,494
75951	7,5006
75952	7,5012
75953	7,4962
75954	7,5006
75955	7,5012
75956	7,5052
75957	7,5058
75958	7,5031
75959	8,8726
75960	8,7159
75961	8,8843
75962	8,8687
75963	8,7085
75964	8,8726
75965	8,7085
75966	8,7159
75967	8,8843
75968	7,5857
75969	7,6962
75970	7,5892
75971	7,5845
75972	7,6933
75973	7,5857
75974	7,6933
75975	7,6962
75976	7,5892
75977	7,0501
75978	7,0717
75979	7,0511
75980	7,0497
75981	7,0709
75982	7,0501
75983	7,0709
75984	7,0717
75985	7,0511
75986	7,7941
75987	7,8687
75988	7,7411
75989	7,8026
75990	7,7912
75991	7,8628
75992	7,7355
75993	7,7941
75994	7,8628
75995	7,7355
75996	7,8687
75997	7,7411
75998	7,8026
75999	7,9517
76000	8,056
76001	7,961
76002	7,9487
76003	8,0496
76004	7,9517
76005	8,0496
76006	8,056
76007	7,961
76008	8,1669
76009	8,2977
76010	8,1771
76011	8,1635
76012	8,2905
76013	8,1669
76014	8,2905
76015	8,2977
76016	8,1771
76017	8,4327
76018	8,589
76019	8,4441
76020	8,4289
76021	8,5809
76022	8,4327
76023	8,5809
76024	8,589
76025	8,4441
76026	8,7473
76027	8,9251
76028	8,7601
76029	8,743
76030	8,9161
76031	8,7473
76032	8,9161
76033	8,9251
76034	8,7601
76035	9,1027
76036	9,1171
76037	9,0979
76038	9,1027
76039	9,1171
76040	8,6958
76041	8,551
76042	8,7069
76043	8,6921
76044	8,544
76045	8,6958
76046	8,544
76047	8,551
76048	8,7069
76049	8,4068
76050	8,2751
76051	8,4169
76052	8,4035
76053	8,2687
76054	8,4068
76055	8,2687
76056	8,2751
76057	8,4169
76058	8,1455
76059	8,0312
76060	8,1547
76061	8,1425
76062	8,0255
76063	8,1455
76064	8,0255
76065	8,0312
76066	8,1547
76067	7,921
76068	7,8274
76069	7,9293
76070	7,9182
76071	7,8221
76072	7,921
76073	7,8221
76074	7,8274
76075	7,9293
76076	7,7398
76077	7,6691
76078	7,7474
76079	7,7372
76080	7,6642
76081	7,7398
76082	7,6642
76083	7,6691
76084	7,7474
76085	7,6058
76086	7,5604
76087	7,6129
76088	7,6035
76089	7,5557
76090	7,6058
76091	7,5557
76092	7,5604
76093	7,6129
76094	7,5236
76095	7,5304
76096	7,5213
76097	7,5236
76098	7,5304
76099	9,5102
76100	9,313
76101	9,5265
76102	9,5048
76103	9,3028
76104	9,5102
76105	9,3028
76106	9,313
76107	9,5265
76108	9,1142
76109	8,9322
76110	9,1286
76111	9,1094
76112	8,9231
76113	9,1142
76114	8,9231
76115	8,9322
76116	9,1286
76117	8,7506
76118	8,5923
76119	8,7634
76120	8,7463
76121	8,5842
76122	8,7506
76123	8,5842
76124	8,5923
76125	8,7634
76126	8,4361
76127	8,3
76128	8,4475
76129	8,4323
76130	8,2928
76131	8,4361
76132	8,2928
76133	8,3
76134	8,4475
76135	8,1683
76136	8,0573
76137	8,1785
76138	8,1649
76139	8,0508
76140	8,1683
76141	8,0508
76142	8,0573
76143	8,1785
76144	7,9528
76145	7,8696
76146	7,9621
76147	7,9497
76148	7,8637
76149	7,9528
76150	7,8637
76151	7,8696
76152	7,9621
76153	7,7948
76154	7,7416
76155	7,8034
76156	7,792
76157	7,7361
76158	7,7948
76159	7,7361
76160	7,7416
76161	7,8034
76162	7,6982
76163	7,7064
76164	7,6955
76165	7,6982
76166	7,7064
76167	7,5537
76168	7,6035
76169	7,5606
76170	7,5513
76171	7,5987
76172	7,5537
76173	7,5987
76174	7,6035
76175	7,5606
76176	7,662
76177	7,7385
76178	7,6693
76179	7,6596
76180	7,7334
76181	7,662
76182	7,7334
76183	7,7385
76184	7,6693
76185	7,8222
76186	7,9229
76187	7,8301
76188	7,8196
76189	7,9174
76190	7,8222
76191	7,9174
76192	7,9229
76193	7,8301
76194	8,0288
76195	8,1516
76196	8,0375
76197	8,0259
76198	8,1455
76199	8,0288
76200	8,1455
76201	8,1516
76202	8,0375
76203	8,2779
76204	8,4176
76205	8,2875
76206	8,2747
76207	8,4109
76208	8,2779
76209	8,4109
76210	8,4176
76211	8,2875
76212	8,559
76213	8,5697
76214	8,5555
76215	8,559
76216	8,5697
76217	7,1857
76218	7,2043
76219	7,1874
76220	7,1852
76221	7,203
76222	7,1857
76223	7,203
76224	7,2043
76225	7,1874
76226	7,5838
76227	7,6941
76228	7,5873
76229	7,5826
76230	7,6913
76231	7,5838
76232	7,6913
76233	7,6941
76234	7,5873
76235	8,3878
76236	8,3961
76237	8,3851
76238	8,3878
76239	8,3961
76240	8,4522
76241	8,4608
76242	8,4493
76243	8,4522
76244	8,4608
76245	7,0557
76246	7,1115
76247	7,0578
76248	7,055
76249	7,1097
76250	7,0557
76251	7,1097
76252	7,1115
76253	7,0578
76254	7,1023
76255	7,104
76256	7,1017
76257	7,1023
76258	7,104
76259	7,6978
76260	7,706
76261	7,6951
76262	7,6978
76263	7,706
76264	7,5251
76265	7,5322
76266	7,5228
76267	7,5251
76268	7,5322
76269	7,4985
76270	7,6122
76271	7,5025
76272	7,4971
76273	7,6091
76274	7,4985
76275	7,6091
76276	7,6122
76277	7,5025
76278	7,697
76279	7,7126
76280	7,7019
76281	7,6954
76282	7,7092
76283	7,697
76284	7,7092
76285	7,7126
76286	7,7019
76287	9,3746
76288	9,456
76289	9,3877
76290	9,3702
76291	9,447
76292	9,3746
76293	9,447
76294	9,456
76295	9,3877
76296	7,1751
76297	7,2484
76298	7,1785
76299	7,1739
76300	7,2456
76301	7,1751
76302	7,2456
76303	7,2484
76304	7,1785
76305	7,5023
76306	7,4147
76307	7,5085
76308	7,5002
76309	7,4112
76310	7,5023
76311	7,4112
76312	7,4147
76313	7,5085
76314	7,3333
76315	7,3836
76316	7,3377
76317	7,3319
76318	7,3805
76319	7,3333
76320	7,3805
76321	7,3836
76322	7,3377
76323	7,2311
76324	7,2717
76325	7,2336
76326	7,2303
76327	7,2697
76328	7,2311
76329	7,2697
76330	7,2717
76331	7,2336
76332	7,8078
76333	7,8128
76334	7,8062
76335	7,8078
76336	7,8128
76337	7,3968
76338	7,5056
76339	7,3999
76340	7,3958
76341	7,5031
76342	7,3968
76343	7,5031
76344	7,5056
76345	7,3999
76346	7,3282
76347	7,3333
76348	7,3265
76349	7,3282
76350	7,3333
76351	7,81
76352	7,8149
76353	7,8083
76354	7,81
76355	7,8149
76356	7,5028
76357	7,509
76358	7,5007
76359	7,5028
76360	7,509
76361	7,7318
76362	7,7372
76363	7,7299
76364	7,7318
76365	7,7372
76366	8,345
76367	8,3638
76368	8,3534
76369	8,3422
76370	8,3581
76371	8,345
76372	8,3581
76373	8,3638
76374	8,3534
76375	8,4564
76376	8,4653
76377	8,4535
76378	8,4564
76379	8,4653
76380	9,5362
76381	9,634
76382	9,55
76383	9,5316
76384	9,6245
76385	9,5362
76386	9,6245
76387	9,634
76388	9,55
76389	10,587
76390	10,609
76391	10,58
76392	10,587
76393	10,609
76394	7,3202
76395	7,3797
76396	7,3237
76397	7,319
76398	7,3769
76399	7,3202
76400	7,3769
76401	7,3797
76402	7,3237
76403	10,769
76404	10,791
76405	10,761
76406	10,769
76407	10,791
76408	7,4463
76409	7,4513
76410	7,4446
76411	7,4463
76412	7,4513
76413	7,6327
76414	7,6707
76415	7,6375
76416	7,6311
76417	7,6672
76418	7,6327
76419	7,6672
76420	7,6707
76421	7,6375
76422	8,5698
76423	8,5792
76424	8,5666
76425	8,5698
76426	8,5792
76427	7,6204
76428	7,7403
76429	7,6247
76430	7,6189
76431	7,7369
76432	7,6204
76433	7,7369
76434	7,7403
76435	7,6247
76436	7,4473
76437	7,5259
76438	7,4523
76439	7,4456
76440	7,5223
76441	7,4473
76442	7,5223
76443	7,5259
76444	7,4523
76445	7,7484
76446	7,8366
76447	7,757
76448	7,7456
76449	7,8301
76450	7,7484
76451	7,8301
76452	7,8366
76453	7,757
76454	8,3798
76455	8,3887
76456	8,3769
76457	8,3798
76458	8,3887
76459	9,7278
76460	9,9114
76461	9,7426
76462	9,7229
76463	9,9012
76464	9,7278
76465	9,9012
76466	9,9114
76467	9,7426
76468	9,8779
76469	9,9713
76470	9,8931
76471	9,8728
76472	9,9609
76473	9,8779
76474	9,9609
76475	9,9713
76476	9,8931
76477	7,864
76478	7,8699
76479	7,8621
76480	7,864
76481	7,8699
76482	8,2491
76483	8,3478
76484	8,2569
76485	8,2466
76486	8,3422
76487	8,2491
76488	8,3422
76489	8,3478
76490	8,2569
76491	10,059
76492	10,075
76493	10,053
76494	10,059
76495	10,075
76496	7,7137
76497	7,7689
76498	7,7196
76499	7,7117
76500	7,7645
76501	7,7137
76502	7,7645
76503	7,7689
76504	7,7196
76505	8,1497
76506	8,1169
76507	8,2875
76508	8,1578
76509	8,147
76510	8,1118
76511	8,2815
76512	8,1497
76513	8,1118
76514	8,2815
76515	8,1169
76516	8,2875
76517	8,1578
76518	8,0851
76519	8,2145
76520	8,0923
76521	8,0827
76522	8,2092
76523	8,0851
76524	8,2092
76525	8,2145
76526	8,0923
76527	8,775
76528	8,8383
76529	8,7863
76530	8,7713
76531	8,8304
76532	8,775
76533	8,8304
76534	8,8383
76535	8,7863
76536	8,4684
76537	8,4776
76538	8,4653
76539	8,4684
76540	8,4776
76541	7,8131
76542	7,8741
76543	7,8203
76544	7,8107
76545	7,8688
76546	7,8131
76547	7,8688
76548	7,8741
76549	7,8203
76550	8,1469
76551	8,1549
76552	8,1442
76553	8,1469
76554	8,1549
76555	7,6154
76556	7,6883
76557	7,6215
76558	7,6134
76559	7,6837
76560	7,6154
76561	7,6837
76562	7,6883
76563	7,6215
76564	7,7658
76565	7,8526
76566	7,7737
76567	7,7632
76568	7,8467
76569	7,7658
76570	7,8467
76571	7,8526
76572	7,7737
76573	7,9423
76574	8,0394
76575	7,9523
76576	7,939
76577	8,032
76578	7,9423
76579	8,032
76580	8,0394
76581	7,9523
76582	7,9266
76583	7,9374
76584	7,923
76585	7,9266
76586	7,9374
76587	8,1599
76588	8,2239
76589	8,3025
76590	8,1693
76591	8,1567
76592	8,2171
76593	8,2956
76594	8,1599
76595	8,2171
76596	8,2956
76597	8,2239
76598	8,3025
76599	8,1693
76600	10,088
76601	10,104
76602	10,083
76603	10,088
76604	10,104
76605	7,8286
76606	7,836
76607	7,8261
76608	7,8286
76609	7,836
76610	8,4433
76611	8,5338
76612	8,4523
76613	8,4403
76614	8,5274
76615	8,4433
76616	8,5274
76617	8,5338
76618	8,4523
76619	8,202
76620	8,2684
76621	8,2159
76622	8,1974
76623	8,2588
76624	8,202
76625	8,2588
76626	8,2684
76627	8,2159
76628	8,4265
76629	8,3859
76630	8,4364
76631	8,4232
76632	8,3797
76633	8,4265
76634	8,3797
76635	8,3859
76636	8,4364
76637	8,3445
76638	8,4637
76639	8,3534
76640	8,3415
76641	8,4573
76642	8,3445
76643	8,4573
76644	8,4637
76645	8,3534
76646	8,5055
76647	8,5446
76648	8,5151
76649	8,5023
76650	8,5379
76651	8,5055
76652	8,5379
76653	8,5446
76654	8,5151
76655	8,8951
76656	8,9074
76657	8,8911
76658	8,8951
76659	8,9074
76660	7,9383
76661	8,0127
76662	7,9472
76663	7,9354
76664	8,0061
76665	7,9383
76666	8,0061
76667	8,0127
76668	7,9472
76669	8,1374
76670	8,2403
76671	8,1498
76672	8,1333
76673	8,2312
76674	8,1374
76675	8,2312
76676	8,2403
76677	8,1498
76678	8,3106
76679	8,3959
76680	8,3264
76681	8,3054
76682	8,3849
76683	8,3106
76684	8,3849
76685	8,3959
76686	8,3264
76687	8,2891
76688	8,4363
76689	8,3003
76690	8,2854
76691	8,4283
76692	8,2891
76693	8,4283
76694	8,4363
76695	8,3003
76696	8,4474
76697	8,517
76698	8,4587
76699	8,4436
76700	8,5088
76701	8,4474
76702	8,5088
76703	8,517
76704	8,4587
76705	8,7948
76706	8,9328
76707	8,8073
76708	8,7907
76709	8,9238
76710	8,7948
76711	8,9238
76712	8,9328
76713	8,8073
76714	8,62
76715	8,6629
76716	8,6302
76717	8,6166
76718	8,6558
76719	8,62
76720	8,6558
76721	8,6629
76722	8,6302
76723	8,5811
76724	8,5916
76725	8,5776
76726	8,5811
76727	8,5916
76728	8,6859
76729	8,6965
76730	8,6824
76731	8,6859
76732	8,6965
76733	8,7012
76734	8,7123
76735	8,6976
76736	8,7012
76737	8,7123
76738	8,3406
76739	8,4443
76740	8,3557
76741	8,3356
76742	8,4334
76743	8,3406
76744	8,4334
76745	8,4443
76746	8,3557
76747	8,8767
76748	8,9706
76749	8,8889
76750	8,8726
76751	8,9619
76752	8,8767
76753	8,9619
76754	8,9706
76755	8,8889
76756	8,8279
76757	8,9451
76758	8,8402
76759	8,8238
76760	8,9364
76761	8,8279
76762	8,9364
76763	8,9451
76764	8,8402
76765	8,6939
76766	8,7511
76767	8,7057
76768	8,69
76769	8,7429
76770	8,6939
76771	8,7429
76772	8,7511
76773	8,7057
76774	8,0891
76775	8,1742
76776	8,0999
76777	8,0855
76778	8,1663
76779	8,0891
76780	8,1663
76781	8,1742
76782	8,0999
76783	8,3418
76784	8,4454
76785	8,3568
76786	8,3368
76787	8,4345
76788	8,3418
76789	8,4345
76790	8,4454
76791	8,3568
76792	8,4842
76793	8,5961
76794	8,5015
76795	8,4785
76796	8,584
76797	8,4842
76798	8,584
76799	8,5961
76800	8,5015
76801	8,586
76802	8,5992
76803	8,5816
76804	8,586
76805	8,5992
76806	11,025
76807	11,215
76808	11,044
76809	11,019
76810	11,202
76811	11,025
76812	11,202
76813	11,215
76814	11,044
76815	11,342
76816	11,362
76817	11,336
76818	11,342
76819	11,362
76820	12,01
76821	12,042
76822	12,286
76823	12,041
76824	12,
76825	12,022
76826	12,264
76827	12,01
76828	12,022
76829	12,264
76830	12,042
76831	12,286
76832	12,041
76833	12,217
76834	12,091
76835	12,249
76836	12,207
76837	12,07
76838	12,217
76839	12,07
76840	12,091
76841	12,249
76842	11,961
76843	12,028
76844	11,99
76845	11,951
76846	12,008
76847	11,961
76848	12,008
76849	12,028
76850	11,99
76851	12,092
76852	12,184
76853	12,123
76854	12,082
76855	12,163
76856	12,092
76857	12,163
76858	12,184
76859	12,123
76860	12,267
76861	12,298
76862	12,256
76863	12,267
76864	12,298
76865	12,012
76866	12,044
76867	12,042
76868	12,002
76869	12,024
76870	12,012
76871	12,024
76872	12,044
76873	12,042
76874	8,5439
76875	8,5617
76876	8,538
76877	8,5439
76878	8,5617
76879	8,5339
76880	8,6707
76881	8,5451
76882	8,5301
76883	8,6626
76884	8,5339
76885	8,6626
76886	8,6707
76887	8,5451
76888	8,2599
76889	8,3523
76890	8,273
76891	8,2555
76892	8,3427
76893	8,2599
76894	8,3427
76895	8,3523
76896	8,273
76897	8,5451
76898	8,5628
76899	8,5392
76900	8,5451
76901	8,5628
76902	9,0676
76903	9,0821
76904	9,0627
76905	9,0676
76906	9,0821
76907	8,7721
76908	8,7365
76909	8,7937
76910	8,765
76911	8,7226
76912	8,7721
76913	8,7226
76914	8,7365
76915	8,7937
76916	8,6998
76917	8,6926
76918	8,7202
76919	8,693
76920	8,6793
76921	8,6998
76922	8,6793
76923	8,6926
76924	8,7202
76925	8,6841
76926	8,7045
76927	8,7036
76928	8,6776
76929	8,6917
76930	8,6841
76931	8,6917
76932	8,7045
76933	8,7036
76934	8,7232
76935	8,7702
76936	8,7422
76937	8,7169
76938	8,7577
76939	8,7232
76940	8,7577
76941	8,7702
76942	8,7422
76943	8,8148
76944	8,887
76945	8,8334
76946	8,8085
76947	8,8746
76948	8,8148
76949	8,8746
76950	8,887
76951	8,8334
76952	8,956
76953	9,0522
76954	8,9746
76955	8,9498
76956	9,0397
76957	8,956
76958	9,0397
76959	9,0522
76960	8,9746
76961	9,1439
76962	9,2627
76963	9,1627
76964	9,1377
76965	9,25
76966	9,1439
76967	9,25
76968	9,2627
76969	9,1627
76970	9,3758
76971	9,5157
76972	9,3949
76973	9,3694
76974	9,5027
76975	9,3758
76976	9,5027
76977	9,5157
76978	9,3949
76979	9,6488
76980	9,8088
76981	9,6686
76982	9,6421
76983	9,7953
76984	9,6488
76985	9,7953
76986	9,8088
76987	9,6686
76988	9,9606
76989	10,14
76990	9,9813
76991	9,9537
76992	10,126
76993	9,9606
76994	10,126
76995	10,14
76996	9,9813
76997	10,31
76998	10,508
76999	10,331
77000	10,302
77001	10,492
77002	10,31
77003	10,492
77004	10,508
77005	10,331
77006	10,694
77007	10,911
77008	10,718
77009	10,686
77010	10,894
77011	10,694
77012	10,894
77013	10,911
77014	10,718
77015	11,114
77016	11,349
77017	11,14
77018	11,106
77019	11,332
77020	11,114
77021	11,332
77022	11,349
77023	11,14
77024	11,569
77025	11,824
77026	11,597
77027	11,56
77028	11,804
77029	11,569
77030	11,804
77031	11,824
77032	11,597
77033	12,061
77034	12,092
77035	12,051
77036	12,061
77037	12,092
77038	11,181
77039	11,008
77040	11,201
77041	11,174
77042	10,995
77043	11,181
77044	10,995
77045	11,008
77046	11,201
77047	10,824
77048	10,658
77049	10,843
77050	10,817
77051	10,645
77052	10,824
77053	10,645
77054	10,658
77055	10,843
77056	10,483
77057	10,325
77058	10,501
77059	10,476
77060	10,313
77061	10,483
77062	10,313
77063	10,325
77064	10,501
77065	10,159
77066	10,012
77067	10,177
77068	10,153
77069	10,
77070	10,159
77071	10,
77072	10,012
77073	10,177
77074	9,856
77075	9,7191
77076	9,8735
77077	9,8503
77078	9,7077
77079	9,856
77080	9,7077
77081	9,7191
77082	9,8735
77083	9,575
77084	9,45
77085	9,5919
77086	9,5693
77087	9,4388
77088	9,575
77089	9,4388
77090	9,45
77091	9,5919
77092	9,3186
77093	9,2071
77094	9,3353
77095	9,3131
77096	9,196
77097	9,3186
77098	9,196
77099	9,2071
77100	9,3353
77101	9,0901
77102	8,9935
77103	9,1066
77104	9,0846
77105	8,9826
77106	9,0901
77107	8,9826
77108	8,9935
77109	9,1066
77110	8,8925
77111	8,8127
77112	8,9089
77113	8,887
77114	8,8018
77115	8,8925
77116	8,8018
77117	8,8127
77118	8,9089
77119	8,7294
77120	8,6682
77121	8,7459
77122	8,7239
77123	8,6571
77124	8,7294
77125	8,6571
77126	8,6682
77127	8,7459
77128	8,6043
77129	8,5636
77130	8,621
77131	8,5988
77132	8,5523
77133	8,6043
77134	8,5523
77135	8,5636
77136	8,621
77137	8,5209
77138	8,5024
77139	8,538
77140	8,5152
77141	8,4908
77142	8,5209
77143	8,4908
77144	8,5024
77145	8,538
77146	8,4826
77147	8,4879
77148	8,5003
77149	8,4767
77150	8,4758
77151	8,4826
77152	8,4758
77153	8,4879
77154	8,5003
77155	8,4923
77156	8,5228
77157	8,5108
77158	8,4861
77159	8,5101
77160	8,4923
77161	8,5101
77162	8,5228
77163	8,5108
77164	8,5526
77165	8,5722
77166	8,5461
77167	8,5526
77168	8,5722
77169	12,063
77170	11,826
77171	12,094
77172	12,053
77173	11,806
77174	12,063
77175	11,806
77176	11,826
77177	12,094
77178	11,571
77179	11,351
77180	11,599
77181	11,562
77182	11,333
77183	11,571
77184	11,333
77185	11,351
77186	11,599
77187	11,116
77188	10,912
77189	11,141
77190	11,108
77191	10,896
77192	11,116
77193	10,896
77194	10,912
77195	11,141
77196	10,696
77197	10,509
77198	10,719
77199	10,688
77200	10,494
77201	10,696
77202	10,494
77203	10,509
77204	10,719
77205	10,311
77206	10,142
77207	10,333
77208	10,304
77209	10,127
77210	10,311
77211	10,127
77212	10,142
77213	10,333
77214	9,9622
77215	9,8104
77216	9,9829
77217	9,9553
77218	9,7968
77219	9,9622
77220	9,7968
77221	9,8104
77222	9,9829
77223	9,6502
77224	9,5171
77225	9,6701
77226	9,6436
77227	9,5041
77228	9,6502
77229	9,5041
77230	9,5171
77231	9,6701
77232	9,3771
77233	9,2639
77234	9,3963
77235	9,3707
77236	9,2513
77237	9,3771
77238	9,2513
77239	9,2639
77240	9,3963
77241	9,1451
77242	9,0532
77243	9,1639
77244	9,1388
77245	9,0408
77246	9,1451
77247	9,0408
77248	9,0532
77249	9,1639
77250	8,9569
77251	8,8879
77252	8,9755
77253	8,9507
77254	8,8755
77255	8,9569
77256	8,8755
77257	8,8879
77258	8,9755
77259	8,8154
77260	8,7708
77261	8,8341
77262	8,8092
77263	8,7582
77264	8,8154
77265	8,7582
77266	8,7708
77267	8,8341
77268	8,7236
77269	8,7048
77270	8,7426
77271	8,7173
77272	8,692
77273	8,7236
77274	8,692
77275	8,7048
77276	8,7426
77277	8,6841
77278	8,6925
77279	8,7037
77280	8,6776
77281	8,6792
77282	8,6841
77283	8,6792
77284	8,6925
77285	8,7037
77286	8,6995
77287	8,7361
77288	8,7199
77289	8,6927
77290	8,7221
77291	8,6995
77292	8,7221
77293	8,7361
77294	8,7199
77295	8,7714
77296	8,793
77297	8,7643
77298	8,7714
77299	8,793
77300	8,7681
77301	8,6933
77302	8,872
77303	8,7902
77304	8,7607
77305	8,6791
77306	8,8566
77307	8,7681
77308	8,6791
77309	8,8566
77310	8,6933
77311	8,872
77312	8,7902
77313	8,6178
77314	8,5706
77315	8,6383
77316	8,611
77317	8,5575
77318	8,6178
77319	8,5575
77320	8,5706
77321	8,6383
77322	8,5231
77323	8,5029
77324	8,5423
77325	8,5168
77326	8,4905
77327	8,5231
77328	8,4905
77329	8,5029
77330	8,5423
77331	8,4824
77332	8,4881
77333	8,5005
77334	8,4763
77335	8,4763
77336	8,4824
77337	8,4763
77338	8,4881
77339	8,5005
77340	8,4932
77341	8,5236
77342	8,5106
77343	8,4874
77344	8,5121
77345	8,4932
77346	8,5121
77347	8,5236
77348	8,5106
77349	8,5528
77350	8,6061
77351	8,5697
77352	8,5472
77353	8,595
77354	8,5528
77355	8,595
77356	8,6061
77357	8,5697
77358	8,6576
77359	8,7322
77360	8,6742
77361	8,6521
77362	8,7212
77363	8,6576
77364	8,7212
77365	8,7322
77366	8,6742
77367	8,8041
77368	8,898
77369	8,8205
77370	8,7986
77371	8,8871
77372	8,8041
77373	8,8871
77374	8,898
77375	8,8205
77376	8,9883
77377	9,0997
77378	9,0047
77379	8,9828
77380	9,0887
77381	8,9883
77382	9,0887
77383	9,0997
77384	9,0047
77385	9,2065
77386	9,3336
77387	9,223
77388	9,201
77389	9,3225
77390	9,2065
77391	9,3225
77392	9,3336
77393	9,223
77394	9,4551
77395	9,5963
77396	9,4719
77397	9,4495
77398	9,585
77399	9,4551
77400	9,585
77401	9,5963
77402	9,4719
77403	9,7308
77404	9,8846
77405	9,748
77406	9,7251
77407	9,873
77408	9,7308
77409	9,873
77410	9,8846
77411	9,748
77412	10,031
77413	10,196
77414	10,048
77415	10,025
77416	10,184
77417	10,031
77418	10,184
77419	10,196
77420	10,048
77421	10,352
77422	10,528
77423	10,371
77424	10,346
77425	10,515
77426	10,352
77427	10,515
77428	10,528
77429	10,371
77430	10,693
77431	10,878
77432	10,712
77433	10,687
77434	10,865
77435	10,693
77436	10,865
77437	10,878
77438	10,712
77439	11,052
77440	11,072
77441	11,045
77442	11,052
77443	11,072
77444	8,6663
77445	8,7424
77446	8,6792
77447	8,662
77448	8,7332
77449	8,6663
77450	8,7332
77451	8,7424
77452	8,6792
77453	9,0584
77454	9,1016
77455	9,0724
77456	9,0538
77457	9,092
77458	9,0584
77459	9,092
77460	9,1016
77461	9,0724
77462	9,1431
77463	9,1583
77464	9,1381
77465	9,1431
77466	9,1583
77467	8,8056
77468	8,8187
77469	8,8012
77470	8,8056
77471	8,8187
77472	8,6622
77473	8,7521
77474	8,677
77475	8,6573
77476	8,7415
77477	8,6622
77478	8,7415
77479	8,7521
77480	8,677
77481	8,4433
77482	8,5387
77483	8,459
77484	8,4381
77485	8,5273
77486	8,4433
77487	8,5273
77488	8,5387
77489	8,459
77490	8,6305
77491	8,7238
77492	8,6489
77493	8,6244
77494	8,7106
77495	8,6305
77496	8,7106
77497	8,7238
77498	8,6489
77499	8,8113
77500	8,8971
77501	8,8326
77502	8,8042
77503	8,882
77504	8,8113
77505	8,882
77506	8,8971
77507	8,8326
77508	8,9746
77509	8,9987
77510	8,9666
77511	8,9746
77512	8,9987
77513	8,7897
77514	8,8027
77515	8,7853
77516	8,7897
77517	8,8027
77518	8,5877
77519	8,6034
77520	8,5825
77521	8,5877
77522	8,6034
77523	8,71
77524	8,8473
77525	8,729
77526	8,7036
77527	8,8339
77528	8,71
77529	8,8339
77530	8,8473
77531	8,729
77532	8,9256
77533	9,0956
77534	8,9436
77535	8,9197
77536	9,0828
77537	8,9256
77538	9,0828
77539	9,0956
77540	8,9436
77541	9,0386
77542	9,0521
77543	9,0341
77544	9,0386
77545	9,0521
77546	11,394
77547	11,48
77548	11,413
77549	11,387
77550	11,466
77551	11,394
77552	11,466
77553	11,48
77554	11,413
77555	12,542
77556	12,576
77557	12,531
77558	12,542
77559	12,576
77560	13,02
77561	13,121
77562	13,162
77563	13,057
77564	13,007
77565	13,096
77566	13,136
77567	13,02
77568	13,096
77569	13,136
77570	13,121
77571	13,162
77572	13,057
77573	9,1525
77574	9,2502
77575	9,1677
77576	9,1475
77577	9,2396
77578	9,1525
77579	9,2396
77580	9,2502
77581	9,1677
77582	11,557
77583	11,577
77584	11,55
77585	11,557
77586	11,577
77587	11,664
77588	11,744
77589	11,684
77590	11,657
77591	11,73
77592	11,664
77593	11,73
77594	11,744
77595	11,684
77596	13,202
77597	13,308
77598	13,241
77599	13,189
77600	13,281
77601	13,202
77602	13,281
77603	13,308
77604	13,241
77605	9,219
77606	9,267
77607	9,2466
77608	9,2098
77609	9,2479
77610	9,219
77611	9,2479
77612	9,267
77613	9,2466
77614	8,8172
77615	8,9091
77616	8,8322
77617	8,8123
77618	8,8984
77619	8,8172
77620	8,8984
77621	8,9091
77622	8,8322
77623	9,1038
77624	9,2366
77625	9,1192
77626	9,0986
77627	9,2257
77628	9,1038
77629	9,2257
77630	9,2366
77631	9,1192
77632	8,8397
77633	8,934
77634	8,857
77635	8,8339
77636	8,9216
77637	8,8397
77638	8,9216
77639	8,934
77640	8,857
77641	8,9853
77642	9,0832
77643	9,0067
77644	8,9782
77645	9,068
77646	8,9853
77647	9,068
77648	9,0832
77649	9,0067
77650	8,9853
77651	9,0066
77652	8,9782
77653	8,9853
77654	9,0066
77655	9,2646
77656	9,4491
77657	9,2853
77658	9,2577
77659	9,4343
77660	9,2646
77661	9,4343
77662	9,4491
77663	9,2853
77664	9,3339
77665	9,3501
77666	9,3285
77667	9,3339
77668	9,3501
77669	11,891
77670	12,102
77671	11,914
77672	11,884
77673	12,087
77674	11,891
77675	12,087
77676	12,102
77677	11,914
77678	11,815
77679	11,837
77680	11,808
77681	11,815
77682	11,837
77683	13,537
77684	13,42
77685	13,864
77686	13,58
77687	13,523
77688	13,392
77689	13,834
77690	13,537
77691	13,392
77692	13,834
77693	13,42
77694	13,864
77695	13,58
77696	13,283
77697	13,323
77698	13,269
77699	13,283
77700	13,323
77701	13,395
77702	13,436
77703	13,381
77704	13,395
77705	13,436
77706	8,9983
77707	9,104
77708	9,0158
77709	8,9926
77710	9,0915
77711	8,9983
77712	9,0915
77713	9,104
77714	9,0158
77715	9,3661
77716	9,3835
77717	9,3603
77718	9,3661
77719	9,3835
77720	9,0244
77721	9,0446
77722	9,0177
77723	9,0244
77724	9,0446
77725	9,1732
77726	9,2608
77727	9,1976
77728	9,1651
77729	9,2436
77730	9,1732
77731	9,2436
77732	9,2608
77733	9,1976
77734	9,3409
77735	9,4323
77736	9,3576
77737	9,3353
77738	9,4206
77739	9,3409
77740	9,4206
77741	9,4323
77742	9,3576
77743	12,3
77744	12,323
77745	12,292
77746	12,3
77747	12,323
77748	9,5486
77749	9,4295
77750	9,5153
77751	9,5812
77752	9,5377
77753	9,4087
77754	9,4945
77755	9,5486
77756	9,4087
77757	9,4945
77758	9,4295
77759	9,5153
77760	9,5812
77761	9,3026
77762	9,2127
77763	9,3325
77764	9,2926
77765	9,1935
77766	9,3026
77767	9,1935
77768	9,2127
77769	9,3325
77770	9,1157
77771	9,0542
77772	9,1434
77773	9,1064
77774	9,0363
77775	9,1157
77776	9,0363
77777	9,0542
77778	9,1434
77779	8,9861
77780	8,9521
77781	9,0119
77782	8,9774
77783	8,9353
77784	8,9861
77785	8,9353
77786	8,9521
77787	9,0119
77788	8,9117
77789	8,9041
77790	8,936
77791	8,9035
77792	8,8883
77793	8,9117
77794	8,8883
77795	8,9041
77796	8,936
77797	8,8901
77798	8,9079
77799	8,9133
77800	8,8824
77801	8,8928
77802	8,8901
77803	8,8928
77804	8,9079
77805	8,9133
77806	8,919
77807	8,9608
77808	8,9412
77809	8,9116
77810	8,9462
77811	8,919
77812	8,9462
77813	8,9608
77814	8,9412
77815	8,9955
77816	9,0601
77817	9,0171
77818	8,9883
77819	9,0459
77820	8,9955
77821	9,0459
77822	9,0601
77823	9,0171
77824	9,1171
77825	9,2033
77826	9,1382
77827	9,1101
77828	9,1893
77829	9,1171
77830	9,1893
77831	9,2033
77832	9,1382
77833	9,2812
77834	9,3879
77835	9,3022
77836	9,2743
77837	9,374
77838	9,2812
77839	9,374
77840	9,3879
77841	9,3022
77842	9,4856
77843	9,6119
77844	9,5066
77845	9,4787
77846	9,5979
77847	9,4856
77848	9,5979
77849	9,6119
77850	9,5066
77851	9,7284
77852	9,8736
77853	9,7496
77854	9,7213
77855	9,8593
77856	9,7284
77857	9,8593
77858	9,8736
77859	9,7496
77860	10,008
77861	10,172
77862	10,03
77863	10,001
77864	10,157
77865	10,008
77866	10,157
77867	10,172
77868	10,03
77869	10,324
77870	10,506
77871	10,346
77872	10,316
77873	10,49
77874	10,324
77875	10,49
77876	10,506
77877	10,346
77878	10,675
77879	10,875
77880	10,698
77881	10,667
77882	10,859
77883	10,675
77884	10,859
77885	10,875
77886	10,698
77887	11,062
77888	11,282
77889	11,087
77890	11,053
77891	11,264
77892	11,062
77893	11,264
77894	11,282
77895	11,087
77896	11,486
77897	11,726
77898	11,513
77899	11,477
77900	11,707
77901	11,486
77902	11,707
77903	11,726
77904	11,513
77905	11,948
77906	12,211
77907	11,978
77908	11,938
77909	12,19
77910	11,948
77911	12,19
77912	12,211
77913	11,978
77914	12,453
77915	12,739
77916	12,486
77917	12,442
77918	12,716
77919	12,453
77920	12,716
77921	12,739
77922	12,486
77923	13,003
77924	13,041
77925	12,991
77926	13,003
77927	13,041
77928	11,657
77929	11,477
77930	11,679
77931	11,65
77932	11,462
77933	11,657
77934	11,462
77935	11,477
77936	11,679
77937	11,283
77938	11,112
77939	11,304
77940	11,276
77941	11,099
77942	11,283
77943	11,099
77944	11,112
77945	11,304
77946	10,93
77947	10,769
77948	10,95
77949	10,923
77950	10,756
77951	10,93
77952	10,756
77953	10,769
77954	10,95
77955	10,597
77956	10,448
77957	10,617
77958	10,591
77959	10,435
77960	10,597
77961	10,435
77962	10,448
77963	10,617
77964	10,287
77965	10,148
77966	10,306
77967	10,281
77968	10,135
77969	10,287
77970	10,135
77971	10,148
77972	10,306
77973	9,9991
77974	9,8717
77975	10,018
77976	9,9928
77977	9,8591
77978	9,9991
77979	9,8591
77980	9,8717
77981	10,018
77982	9,7349
77983	9,6199
77984	9,7537
77985	9,7286
77986	9,6074
77987	9,7349
77988	9,6074
77989	9,6199
77990	9,7537
77991	9,496
77992	9,3944
77993	9,5148
77994	9,4898
77995	9,3819
77996	9,496
77997	9,3819
77998	9,3944
77999	9,5148
78000	9,2846
78001	9,1975
78002	9,3034
78003	9,2783
78004	9,1849
78005	9,2846
78006	9,1849
78007	9,1975
78008	9,3034
78009	9,1028
78010	9,0317
78011	9,1219
78012	9,0964
78013	9,0188
78014	9,1028
78015	9,0188
78016	9,0317
78017	9,1219
78018	8,9534
78019	8,8996
78020	8,9728
78021	8,9469
78022	8,8865
78023	8,9534
78024	8,8865
78025	8,8996
78026	8,9728
78027	8,8392
78028	8,8044
78029	8,8592
78030	8,8325
78031	8,7908
78032	8,8392
78033	8,7908
78034	8,8044
78035	8,8592
78036	8,7633
78037	8,7491
78038	8,784
78039	8,7564
78040	8,735
78041	8,7633
78042	8,735
78043	8,7491
78044	8,784
78045	8,7289
78046	8,7367
78047	8,7505
78048	8,7217
78049	8,722
78050	8,7289
78051	8,722
78052	8,7367
78053	8,7505
78054	8,7389
78055	8,7704
78056	8,7616
78057	8,7313
78058	8,7548
78059	8,7389
78060	8,7548
78061	8,7704
78062	8,7616
78063	8,7963
78064	8,853
78065	8,8204
78066	8,7882
78067	8,8363
78068	8,7963
78069	8,8363
78070	8,853
78071	8,8204
78072	8,9038
78073	8,987
78074	8,9296
78075	8,8951
78076	8,9691
78077	8,9038
78078	8,9691
78079	8,987
78080	8,9296
78081	9,0637
78082	9,0916
78083	9,0545
78084	9,0637
78085	9,0916
78086	12,455
78087	12,212
78088	12,488
78089	12,444
78090	12,191
78091	12,455
78092	12,191
78093	12,212
78094	12,488
78095	11,95
78096	11,728
78097	11,98
78098	11,94
78099	11,709
78100	11,95
78101	11,709
78102	11,728
78103	11,98
78104	11,487
78105	11,283
78106	11,515
78107	11,478
78108	11,266
78109	11,487
78110	11,266
78111	11,283
78112	11,515
78113	11,063
78114	10,877
78115	11,089
78116	11,055
78117	10,861
78118	11,063
78119	10,861
78120	10,877
78121	11,089
78122	10,676
78123	10,507
78124	10,7
78125	10,668
78126	10,492
78127	10,676
78128	10,492
78129	10,507
78130	10,7
78131	10,325
78132	10,173
78133	10,348
78134	10,318
78135	10,158
78136	10,325
78137	10,158
78138	10,173
78139	10,348
78140	10,009
78141	9,875
78142	10,031
78143	10,002
78144	9,8606
78145	10,009
78146	9,8606
78147	9,875
78148	10,031
78149	9,7297
78150	9,6132
78151	9,7509
78152	9,7226
78153	9,5991
78154	9,7297
78155	9,5991
78156	9,6132
78157	9,7509
78158	9,4868
78159	9,389
78160	9,5078
78161	9,4798
78162	9,3751
78163	9,4868
78164	9,3751
78165	9,389
78166	9,5078
78167	9,2822
78168	9,2042
78169	9,3032
78170	9,2753
78171	9,1902
78172	9,2822
78173	9,1902
78174	9,2042
78175	9,3032
78176	9,1179
78177	9,0608
78178	9,139
78179	9,1109
78180	9,0466
78181	9,1179
78182	9,0466
78183	9,0608
78184	9,139
78185	8,9961
78186	8,9612
78187	9,0177
78188	8,9889
78189	8,9466
78190	8,9961
78191	8,9466
78192	8,9612
78193	9,0177
78194	8,9193
78195	8,9081
78196	8,9415
78197	8,9119
78198	8,8929
78199	8,9193
78200	8,8929
78201	8,9081
78202	8,9415
78203	8,8902
78204	8,904
78205	8,9133
78206	8,8825
78207	8,8882
78208	8,8902
78209	8,8882
78210	8,904
78211	8,9133
78212	8,9114
78213	8,9516
78214	8,9357
78215	8,9033
78216	8,9349
78217	8,9114
78218	8,9349
78219	8,9516
78220	8,9357
78221	8,9854
78222	9,0533
78223	9,0113
78224	8,9768
78225	9,0355
78226	8,9854
78227	9,0355
78228	9,0533
78229	9,0113
78230	9,1146
78231	9,2114
78232	9,1423
78233	9,1054
78234	9,1922
78235	9,1146
78236	9,1922
78237	9,2114
78238	9,1423
78239	9,301
78240	9,331
78241	9,2911
78242	9,301
78243	9,331
78244	9,46
78245	9,3347
78246	9,4922
78247	9,4493
78248	9,3142
78249	9,46
78250	9,3142
78251	9,3347
78252	9,4922
78253	9,202
78254	9,1053
78255	9,2315
78256	9,1922
78257	9,0865
78258	9,202
78259	9,0865
78260	9,1053
78261	9,2315
78262	9,0022
78263	8,9331
78264	9,0293
78265	8,9931
78266	8,9157
78267	9,0022
78268	8,9157
78269	8,9331
78270	9,0293
78271	8,8584
78272	8,816
78273	8,8836
78274	8,85
78275	8,7998
78276	8,8584
78277	8,7998
78278	8,816
78279	8,8836
78280	8,7683
78281	8,7514
78282	8,7919
78283	8,7604
78284	8,7362
78285	8,7683
78286	8,7362
78287	8,7514
78288	8,7919
78289	8,7293
78290	8,7365
78291	8,7515
78292	8,7218
78293	8,722
78294	8,7293
78295	8,722
78296	8,7365
78297	8,7515
78298	8,7383
78299	8,7681
78300	8,7595
78301	8,7312
78302	8,7543
78303	8,7383
78304	8,7543
78305	8,7681
78306	8,7595
78307	8,7922
78308	8,8431
78309	8,8126
78310	8,7855
78311	8,8297
78312	8,7922
78313	8,8297
78314	8,8431
78315	8,8126
78316	8,8878
78317	8,9581
78318	8,9075
78319	8,8812
78320	8,9451
78321	8,8878
78322	8,9451
78323	8,9581
78324	8,9075
78325	9,0217
78326	9,1098
78327	9,0409
78328	9,0153
78329	9,0971
78330	9,0217
78331	9,0971
78332	9,1098
78333	9,0409
78334	9,1908
78335	9,2953
78336	9,2097
78337	9,1845
78338	9,2828
78339	9,1908
78340	9,2828
78341	9,2953
78342	9,2097
78343	9,3921
78344	9,5117
78345	9,4108
78346	9,3858
78347	9,4992
78348	9,3921
78349	9,4992
78350	9,5117
78351	9,4108
78352	9,6229
78353	9,7565
78354	9,6417
78355	9,6167
78356	9,744
78357	9,6229
78358	9,744
78359	9,7565
78360	9,6417
78361	9,8811
78362	10,028
78363	9,8999
78364	9,8748
78365	10,015
78366	9,8811
78367	10,015
78368	10,028
78369	9,8999
78370	10,165
78371	10,323
78372	10,184
78373	10,158
78374	10,311
78375	10,165
78376	10,311
78377	10,323
78378	10,184
78379	10,472
78380	10,643
78381	10,491
78382	10,465
78383	10,629
78384	10,472
78385	10,629
78386	10,643
78387	10,492
78388	10,802
78389	10,984
78390	10,822
78391	10,796
78392	10,971
78393	10,802
78394	10,971
78395	10,984
78396	10,822
78397	11,155
78398	11,348
78399	11,176
78400	11,148
78401	11,334
78402	11,155
78403	11,334
78404	11,348
78405	11,176
78406	11,529
78407	11,551
78408	11,522
78409	11,529
78410	11,551
78411	9,2823
78412	9,3821
78413	9,3062
78414	9,2744
78415	9,3652
78416	9,2823
78417	9,3652
78418	9,3821
78419	9,3062
78420	9,4146
78421	9,3129
78422	9,438
78423	9,4067
78424	9,2984
78425	9,4146
78426	9,2984
78427	9,3129
78428	9,438
78429	9,2051
78430	9,2254
78431	9,1984
78432	9,2051
78433	9,2254
78434	9,8749
78435	10,061
78436	9,8967
78437	9,8677
78438	10,046
78439	9,8749
78440	10,046
78441	10,061
78442	9,8967
78443	9,6906
78444	9,7116
78445	9,6836
78446	9,6906
78447	9,7116
78448	9,338
78449	9,409
78450	9,3653
78451	9,3289
78452	9,3899
78453	9,338
78454	9,3899
78455	9,409
78456	9,3653
78457	9,4672
78458	9,4974
78459	9,4572
78460	9,4672
78461	9,4974
78462	9,6298
78463	9,6537
78464	9,6218
78465	9,6298
78466	9,6537
78467	9,5168
78468	9,5351
78469	9,5107
78470	9,5168
78471	9,5351
78472	14,165
78473	14,214
78474	14,148
78475	14,165
78476	14,214
78477	13,777
78478	13,769
78479	13,822
78480	13,762
78481	13,739
78482	13,777
78483	13,739
78484	13,769
78485	13,822
78486	9,4727
78487	9,4998
78488	9,4637
78489	9,4727
78490	9,4998
78491	9,4599
78492	9,6282
78493	9,4903
78494	9,4498
78495	9,6069
78496	9,4599
78497	9,6069
78498	9,6282
78499	9,4903
78500	9,7621
78501	9,7827
78502	9,7553
78503	9,7621
78504	9,7827
78505	9,9177
78506	9,8295
78507	10,009
78508	9,9409
78509	9,9099
78510	9,8146
78511	9,993
78512	9,9177
78513	9,8146
78514	9,993
78515	9,8295
78516	10,009
78517	9,9409
78518	13,743
78519	13,788
78520	13,728
78521	13,743
78522	13,788
78523	9,6618
78524	9,7933
78525	9,6847
78526	9,6541
78527	9,7768
78528	9,6618
78529	9,7768
78530	9,7933
78531	9,6847
78532	10,047
78533	10,072
78534	10,038
78535	10,047
78536	10,072
78537	9,9953
78538	10,019
78539	9,9875
78540	9,9953
78541	10,019
78542	10,234
78543	10,26
78544	10,226
78545	10,234
78546	10,26
78547	9,7066
78548	9,8387
78549	9,7287
78550	9,6993
78551	9,8229
78552	9,7066
78553	9,8229
78554	9,8387
78555	9,7287
78556	9,8284
78557	9,8532
78558	9,8201
78559	9,8284
78560	9,8532
78561	9,7363
78562	9,7582
78563	9,729
78564	9,7363
78565	9,7582
78566	9,9623
78567	9,9852
78568	9,9547
78569	9,9623
78570	9,9852
78571	12,692
78572	12,797
78573	12,86
78574	12,715
78575	12,685
78576	12,781
78577	12,844
78578	12,692
78579	12,781
78580	12,844
78581	12,797
78582	12,86
78583	12,715
78584	12,738
78585	12,762
78586	12,73
78587	12,738
78588	12,762
78589	9,9147
78590	10,048
78591	9,9413
78592	9,9059
78593	10,029
78594	9,9147
78595	10,029
78596	10,048
78597	9,9413
78598	9,9594
78599	10,124
78600	9,9848
78601	9,9509
78602	10,106
78603	9,9594
78604	10,106
78605	10,124
78606	9,9848
78607	9,7895
78608	9,9867
78609	9,8232
78610	9,7783
78611	9,963
78612	9,7895
78613	9,963
78614	9,9867
78615	9,8232
78616	10,093
78617	10,118
78618	10,085
78619	10,093
78620	10,118
78621	12,89
78622	13,087
78623	12,914
78624	12,882
78625	13,071
78626	12,89
78627	13,071
78628	13,087
78629	12,914
78630	12,915
78631	12,943
78632	12,906
78633	12,915
78634	12,943
78635	10,169
78636	10,2
78637	10,159
78638	10,169
78639	10,2
78640	10,403
78641	10,624
78642	10,431
78643	10,393
78644	10,603
78645	10,403
78646	10,603
78647	10,624
78648	10,431
78649	10,566
78650	10,427
78651	10,7
78652	10,598
78653	10,555
78654	10,407
78655	10,678
78656	10,566
78657	10,407
78658	10,678
78659	10,427
78660	10,7
78661	10,598
78662	10,28
78663	10,309
78664	10,271
78665	10,28
78666	10,309
78667	10,139
78668	10,19
78669	10,175
78670	10,126
78671	10,165
78672	10,139
78673	10,165
78674	10,19
78675	10,175
78676	10,224
78677	10,264
78678	10,211
78679	10,224
78680	10,264
78681	10,281
78682	10,515
78683	10,316
78684	10,27
78685	10,489
78686	10,281
78687	10,489
78688	10,515
78689	10,316
78690	10,349
78691	10,409
78692	10,376
78693	10,34
78694	10,391
78695	10,349
78696	10,391
78697	10,409
78698	10,376
78699	13,014
78700	13,147
78701	13,038
78702	13,007
78703	13,131
78704	13,014
78705	13,131
78706	13,147
78707	13,038
78708	15,145
78709	15,553
78710	15,208
78711	15,123
78712	15,506
78713	15,145
78714	15,506
78715	15,553
78716	15,208
78717	15,743
78718	15,846
78719	15,817
78720	15,719
78721	15,796
78722	15,743
78723	15,796
78724	15,846
78725	15,817
78726	10,244
78727	10,465
78728	10,285
78729	10,23
78730	10,436
78731	10,244
78732	10,436
78733	10,465
78734	10,285
78735	10,542
78736	10,573
78737	10,532
78738	10,542
78739	10,573
78740	10,242
78741	10,367
78742	10,274
78743	10,232
78744	10,345
78745	10,242
78746	10,345
78747	10,367
78748	10,274
78749	10,175
78750	10,213
78751	10,163
78752	10,175
78753	10,213
78754	10,615
78755	10,841
78756	10,649
78757	10,604
78758	10,816
78759	10,615
78760	10,816
78761	10,841
78762	10,649
78763	10,459
78764	10,487
78765	10,449
78766	10,459
78767	10,487
78768	13,269
78769	13,293
78770	13,261
78771	13,269
78772	13,293
78773	10,826
78774	10,861
78775	10,815
78776	10,826
78777	10,861
78778	10,477
78779	10,714
78780	10,512
78781	10,465
78782	10,688
78783	10,477
78784	10,688
78785	10,714
78786	10,512
78787	10,738
78788	10,98
78789	10,778
78790	10,724
78791	10,951
78792	10,738
78793	10,951
78794	10,98
78795	10,778
78796	10,818
78797	10,852
78798	10,807
78799	10,818
78800	10,852
78801	10,807
78802	10,841
78803	10,796
78804	10,807
78805	10,841
78806	15,917
78807	15,944
78808	16,359
78809	15,994
78810	15,891
78811	15,893
78812	16,304
78813	15,917
78814	15,893
78815	16,304
78816	15,944
78817	16,359
78818	15,994
78819	10,672
78820	10,927
78821	10,718
78822	10,657
78823	10,895
78824	10,672
78825	10,895
78826	10,927
78827	10,718
78828	10,896
78829	10,98
78830	10,939
78831	10,881
78832	10,95
78833	10,896
78834	10,95
78835	10,98
78836	10,939
78837	10,943
78838	11,086
78839	10,984
78840	10,929
78841	11,058
78842	10,943
78843	11,058
78844	11,086
78845	10,984
78846	11,043
78847	11,083
78848	11,03
78849	11,043
78850	11,083
78851	15,942
78852	16,418
78853	16,02
78854	15,916
78855	16,362
78856	15,942
78857	16,362
78858	16,418
78859	16,02
78860	16,603
78861	16,705
78862	16,693
78863	16,573
78864	16,645
78865	16,603
78866	16,645
78867	16,705
78868	16,693
78869	15,8
78870	15,653
78871	16,279
78872	15,877
78873	15,775
78874	15,605
78875	16,226
78876	15,8
78877	15,605
78878	16,226
78879	15,653
78880	16,279
78881	15,877
78882	11,043
78883	11,309
78884	11,09
78885	11,027
78886	11,275
78887	11,043
78888	11,275
78889	11,309
78890	11,09
78891	11,545
78892	11,59
78893	11,53
78894	11,545
78895	11,59
78896	11,209
78897	11,255
78898	11,194
78899	11,209
78900	11,255
78901	11,205
78902	11,257
78903	11,188
78904	11,205
78905	11,257
78906	11,206
78907	11,472
78908	11,252
78909	11,19
78910	11,439
78911	11,206
78912	11,439
78913	11,472
78914	11,252
78915	11,144
78916	11,183
78917	11,131
78918	11,144
78919	11,183
78920	16,749
78921	16,813
78922	16,843
78923	16,719
78924	16,753
78925	16,749
78926	16,753
78927	16,813
78928	16,843
78929	17,144
78930	17,247
78931	17,113
78932	17,144
78933	17,247
78934	16,765
78935	16,859
78936	16,735
78937	16,765
78938	16,859
78939	15,479
78940	15,943
78941	15,55
78942	15,456
78943	15,897
78944	15,479
78945	15,897
78946	15,943
78947	15,55
78948	11,166
78949	11,459
78950	11,217
78951	11,149
78952	11,424
78953	11,166
78954	11,424
78955	11,459
78956	11,217
78957	11,091
78958	11,372
78959	11,143
78960	11,074
78961	11,337
78962	11,091
78963	11,337
78964	11,372
78965	11,143
78966	11,017
78967	10,906
78968	11,337
78969	11,068
78970	11,
78971	10,873
78972	11,303
78973	11,017
78974	10,873
78975	11,303
78976	10,906
78977	11,337
78978	11,068
78979	11,999
78980	12,071
78981	12,056
78982	11,98
78983	12,033
78984	11,999
78985	12,033
78986	12,071
78987	12,056
78988	11,452
78989	11,497
78990	11,437
78991	11,452
78992	11,497
78993	11,462
78994	11,507
78995	11,447
78996	11,462
78997	11,507
78998	16,841
78999	16,937
79000	16,811
79001	16,841
79002	16,937
79003	16,706
79004	16,546
79005	16,798
79006	16,679
79007	16,495
79008	16,706
79009	16,495
79010	16,546
79011	16,798
79012	11,003
79013	11,306
79014	11,054
79015	10,987
79016	11,272
79017	11,003
79018	11,272
79019	11,306
79020	11,054
79021	11,557
79022	11,611
79023	11,54
79024	11,557
79025	11,611
79026	10,771
79027	10,6
79028	11,094
79029	10,82
79030	10,755
79031	10,569
79032	11,062
79033	10,771
79034	10,569
79035	11,062
79036	10,6
79037	11,094
79038	10,82
79039	11,716
79040	11,771
79041	11,699
79042	11,716
79043	11,771
79044	11,728
79045	11,777
79046	11,711
79047	11,728
79048	11,777
79049	11,694
79050	11,953
79051	11,743
79052	11,678
79053	11,918
79054	11,694
79055	11,918
79056	11,953
79057	11,743
79058	16,359
79059	16,885
79060	16,443
79061	16,335
79062	16,844
79063	16,359
79064	16,844
79065	16,885
79066	16,443
79067	16,361
79068	16,445
79069	16,337
79070	16,361
79071	16,445
79072	11,735
79073	11,793
79074	11,717
79075	11,735
79076	11,793
79077	11,633
79078	11,689
79079	11,615
79080	11,633
79081	11,689
79082	11,643
79083	11,534
79084	11,696
79085	11,625
79086	11,501
79087	11,643
79088	11,501
79089	11,534
79090	11,696
79091	11,842
79092	11,901
79093	11,823
79094	11,842
79095	11,901
79096	12,11
79097	12,17
79098	12,091
79099	12,11
79100	12,17
79101	12,347
79102	12,409
79103	12,326
79104	12,347
79105	12,409
79106	12,24
79107	12,223
79108	12,299
79109	12,22
79110	12,184
79111	12,24
79112	12,184
79113	12,223
79114	12,299
79115	14,592
79116	14,727
79117	14,612
79118	14,585
79119	14,711
79120	14,592
79121	14,711
79122	14,727
79123	14,612
79124	15,12
79125	15,162
79126	15,468
79127	15,174
79128	15,101
79129	15,123
79130	15,426
79131	15,12
79132	15,123
79133	15,426
79134	15,162
79135	15,468
79136	15,174
79137	10,407
79138	10,16
79139	10,454
79140	10,392
79141	10,13
79142	10,407
79143	10,13
79144	10,16
79145	10,454
79146	9,8959
79147	9,6953
79148	9,9418
79149	9,8806
79150	9,6654
79151	9,8959
79152	9,6654
79153	9,6953
79154	9,9418
79155	9,476
79156	9,3141
79157	9,5198
79158	9,4615
79159	9,2858
79160	9,476
79161	9,2858
79162	9,3141
79163	9,5198
79164	9,1333
79165	9,0047
79166	9,1744
79167	9,1196
79168	8,9783
79169	9,1333
79170	8,9783
79171	9,0047
79172	9,1744
79173	8,8575
79174	8,7584
79175	8,8958
79176	8,8448
79177	8,7338
79178	8,8575
79179	8,7338
79180	8,7584
79181	8,8958
79182	8,6414
79183	8,5687
79184	8,6768
79185	8,6296
79186	8,5459
79187	8,6414
79188	8,5459
79189	8,5687
79190	8,6768
79191	8,4789
79192	8,4302
79193	8,5117
79194	8,468
79195	8,4092
79196	8,4789
79197	8,4092
79198	8,4302
79199	8,5117
79200	8,3652
79201	8,3385
79202	8,3956
79203	8,3551
79204	8,319
79205	8,3652
79206	8,319
79207	8,3385
79208	8,3956
79209	8,2963
79210	8,2898
79211	8,3244
79212	8,287
79213	8,2717
79214	8,2963
79215	8,2717
79216	8,2898
79217	8,3244
79218	8,2685
79219	8,2805
79220	8,2946
79221	8,2598
79222	8,2637
79223	8,2685
79224	8,2637
79225	8,2805
79226	8,2946
79227	8,2785
79228	8,3078
79229	8,3028
79230	8,2704
79231	8,2921
79232	8,2785
79233	8,2921
79234	8,3078
79235	8,3028
79236	8,3237
79237	8,369
79238	8,3464
79239	8,3161
79240	8,3543
79241	8,3237
79242	8,3543
79243	8,369
79244	8,3464
79245	8,4015
79246	8,4619
79247	8,4229
79248	8,3944
79249	8,448
79250	8,4015
79251	8,448
79252	8,4619
79253	8,4229
79254	8,5098
79255	8,5844
79256	8,53
79257	8,5031
79258	8,5713
79259	8,5098
79260	8,5713
79261	8,5844
79262	8,53
79263	8,6469
79264	8,735
79265	8,6662
79266	8,6405
79267	8,7225
79268	8,6469
79269	8,7225
79270	8,735
79271	8,6662
79272	8,8114
79273	8,9125
79274	8,8298
79275	8,8053
79276	8,9004
79277	8,8114
79278	8,9004
79279	8,9125
79280	8,8298
79281	9,0021
79282	9,1159
79283	9,0199
79284	8,9962
79285	9,1042
79286	9,0021
79287	9,1042
79288	9,1159
79289	9,0199
79290	9,2184
79291	9,3447
79292	9,2358
79293	9,2126
79294	9,3332
79295	9,2184
79296	9,3332
79297	9,3447
79298	9,2358
79299	9,4598
79300	9,5986
79301	9,477
79302	9,4541
79303	9,5872
79304	9,4598
79305	9,5872
79306	9,5986
79307	9,477
79308	9,7262
79309	9,8777
79310	9,7434
79311	9,7204
79312	9,8661
79313	9,7262
79314	9,8661
79315	9,8777
79316	9,7434
79317	10,018
79318	10,182
79319	10,035
79320	10,012
79321	10,17
79322	10,018
79323	10,17
79324	10,182
79325	10,035
79326	10,334
79327	10,512
79328	10,353
79329	10,328
79330	10,499
79331	10,334
79332	10,499
79333	10,512
79334	10,353
79335	10,677
79336	10,868
79337	10,696
79338	10,671
79339	10,854
79340	10,677
79341	10,854
79342	10,868
79343	10,696
79344	11,045
79345	11,249
79346	11,066
79347	11,038
79348	11,235
79349	11,045
79350	11,235
79351	11,249
79352	11,066
79353	11,439
79354	11,657
79355	11,461
79356	11,432
79357	11,641
79358	11,439
79359	11,641
79360	11,657
79361	11,461
79362	11,858
79363	12,089
79364	11,883
79365	11,85
79366	12,072
79367	11,858
79368	12,072
79369	12,089
79370	11,883
79371	12,302
79372	12,544
79373	12,328
79374	12,293
79375	12,526
79376	12,302
79377	12,526
79378	12,544
79379	12,328
79380	12,768
79381	13,02
79382	12,795
79383	12,76
79384	13,006
79385	12,768
79386	13,006
79387	13,02
79388	12,795
79389	13,258
79390	13,515
79391	13,28
79392	13,252
79393	13,515
79394	13,258
79395	13,515
79396	13,515
79397	13,28
79398	13,772
79399	13,778
79400	13,777
79401	13,772
79402	13,778
79403	14,84
79404	14,474
79405	14,909
79406	14,817
79407	14,434
79408	14,84
79409	14,434
79410	14,474
79411	14,909
79412	14,069
79413	13,748
79414	14,12
79415	14,052
79416	13,718
79417	14,069
79418	13,718
79419	13,748
79420	14,12
79421	13,397
79422	13,113
79423	13,436
79424	13,385
79425	13,09
79426	13,397
79427	13,09
79428	13,113
79429	13,436
79430	12,806
79431	12,552
79432	12,837
79433	12,796
79434	12,533
79435	12,806
79436	12,533
79437	12,552
79438	12,837
79439	12,28
79440	12,051
79441	12,305
79442	12,271
79443	12,035
79444	12,28
79445	12,035
79446	12,051
79447	12,305
79448	11,807
79449	11,6
79450	11,829
79451	11,799
79452	11,585
79453	11,807
79454	11,585
79455	11,6
79456	11,829
79457	11,378
79458	11,189
79459	11,399
79460	11,371
79461	11,176
79462	11,378
79463	11,176
79464	11,189
79465	11,399
79466	10,987
79467	10,814
79468	11,007
79469	10,981
79470	10,802
79471	10,987
79472	10,802
79473	10,814
79474	11,007
79475	10,629
79476	10,47
79477	10,648
79478	10,623
79479	10,458
79480	10,629
79481	10,458
79482	10,47
79483	10,648
79484	10,3
79485	10,154
79486	10,318
79487	10,293
79488	10,142
79489	10,3
79490	10,142
79491	10,154
79492	10,318
79493	9,9963
79494	9,8629
79495	10,015
79496	9,9902
79497	9,8506
79498	9,9963
79499	9,8506
79500	9,8629
79501	10,015
79502	9,7176
79503	9,5961
79504	9,7362
79505	9,7115
79506	9,5836
79507	9,7176
79508	9,5836
79509	9,5961
79510	9,7362
79511	9,4627
79512	9,353
79513	9,4816
79514	9,4564
79515	9,3402
79516	9,4627
79517	9,3402
79518	9,353
79519	9,4816
79520	9,2312
79521	9,1334
79522	9,2506
79523	9,2248
79524	9,1203
79525	9,2312
79526	9,1203
79527	9,1334
79528	9,2506
79529	9,0234
79530	8,9379
79531	9,0434
79532	9,0167
79533	8,9243
79534	9,0234
79535	8,9243
79536	8,9379
79537	9,0434
79538	8,84
79539	8,7673
79540	8,8607
79541	8,8331
79542	8,7532
79543	8,84
79544	8,7532
79545	8,7673
79546	8,8607
79547	8,6819
79548	8,6228
79549	8,7035
79550	8,6747
79551	8,6081
79552	8,6819
79553	8,6081
79554	8,6228
79555	8,7035
79556	8,5507
79557	8,5061
79558	8,5733
79559	8,5432
79560	8,4906
79561	8,5507
79562	8,4906
79563	8,5061
79564	8,5733
79565	8,448
79566	8,4189
79567	8,4718
79568	8,4401
79569	8,4026
79570	8,448
79571	8,4026
79572	8,4189
79573	8,4718
79574	8,3759
79575	8,3634
79576	8,401
79577	8,3675
79578	8,3461
79579	8,3759
79580	8,3461
79581	8,3634
79582	8,401
79583	8,3365
79584	8,342
79585	8,3632
79586	8,3277
79587	8,3236
79588	8,3365
79589	8,3236
79590	8,342
79591	8,3632
79592	8,3326
79593	8,3575
79594	8,361
79595	8,3231
79596	8,3379
79597	8,3326
79598	8,3379
79599	8,3575
79600	8,361
79601	8,3669
79602	8,4129
79603	8,3973
79604	8,3568
79605	8,3919
79606	8,3669
79607	8,3919
79608	8,4129
79609	8,3973
79610	8,4427
79611	8,5116
79612	8,4753
79613	8,4318
79614	8,4891
79615	8,4427
79616	8,4891
79617	8,5116
79618	8,4753
79619	8,5635
79620	8,6575
79621	8,5986
79622	8,5519
79623	8,6333
79624	8,5635
79625	8,6333
79626	8,6575
79627	8,5986
79628	8,7336
79629	8,855
79630	8,7713
79631	8,7211
79632	8,829
79633	8,7336
79634	8,829
79635	8,855
79636	8,7713
79637	8,9577
79638	9,1094
79639	8,9981
79640	8,9443
79641	9,0816
79642	8,9577
79643	9,0816
79644	9,1094
79645	8,9981
79646	9,2418
79647	9,4274
79648	9,2849
79649	9,2276
79650	9,398
79651	9,2418
79652	9,398
79653	9,4274
79654	9,2849
79655	9,5936
79656	9,8179
79657	9,639
79658	9,5785
79659	9,7872
79660	9,5936
79661	9,7872
79662	9,8179
79663	9,639
79664	10,023
79665	10,294
79666	10,07
79667	10,008
79668	10,263
79669	10,023
79670	10,263
79671	10,294
79672	10,07
79673	10,547
79674	10,594
79675	10,532
79676	10,547
79677	10,594
79678	13,259
79679	13,021
79680	13,282
79681	13,254
79682	13,007
79683	13,259
79684	13,007
79685	13,021
79686	13,282
79687	12,77
79688	12,545
79689	12,796
79690	12,761
79691	12,528
79692	12,77
79693	12,528
79694	12,545
79695	12,796
79696	12,303
79697	12,09
79698	12,329
79699	12,294
79700	12,073
79701	12,303
79702	12,073
79703	12,09
79704	12,329
79705	11,86
79706	11,658
79707	11,884
79708	11,852
79709	11,642
79710	11,86
79711	11,642
79712	11,658
79713	11,884
79714	11,441
79715	11,251
79716	11,463
79717	11,433
79718	11,236
79719	11,441
79720	11,236
79721	11,251
79722	11,463
79723	11,047
79724	10,869
79725	11,067
79726	11,04
79727	10,856
79728	11,047
79729	10,856
79730	10,869
79731	11,067
79732	10,678
79733	10,513
79734	10,697
79735	10,672
79736	10,501
79737	10,678
79738	10,501
79739	10,513
79740	10,697
79741	10,336
79742	10,183
79743	10,354
79744	10,33
79745	10,171
79746	10,336
79747	10,171
79748	10,183
79749	10,354
79750	10,019
79751	9,8788
79752	10,036
79753	10,013
79754	9,8673
79755	10,019
79756	9,8673
79757	9,8788
79758	10,036
79759	9,7273
79760	9,5998
79761	9,7446
79762	9,7216
79763	9,5883
79764	9,7273
79765	9,5883
79766	9,5998
79767	9,7446
79768	9,4609
79769	9,3458
79770	9,4781
79771	9,4552
79772	9,3343
79773	9,4609
79774	9,3343
79775	9,3458
79776	9,4781
79777	9,2195
79778	9,1169
79779	9,2368
79780	9,2137
79781	9,1052
79782	9,2195
79783	9,1052
79784	9,1169
79785	9,2368
79786	9,0031
79787	8,9134
79788	9,0209
79789	8,9972
79790	8,9014
79791	9,0031
79792	8,9014
79793	8,9134
79794	9,0209
79795	8,8123
79796	8,7359
79797	8,8307
79798	8,8062
79799	8,7233
79800	8,8123
79801	8,7233
79802	8,7359
79803	8,8307
79804	8,6477
79805	8,5851
79806	8,6669
79807	8,6413
79808	8,572
79809	8,6477
79810	8,572
79811	8,5851
79812	8,6669
79813	8,5105
79814	8,4625
79815	8,5307
79816	8,5038
79817	8,4486
79818	8,5105
79819	8,4486
79820	8,4625
79821	8,5307
79822	8,402
79823	8,3695
79824	8,4234
79825	8,3949
79826	8,3548
79827	8,402
79828	8,3548
79829	8,3695
79830	8,4234
79831	8,3241
79832	8,3081
79833	8,3468
79834	8,3165
79835	8,2924
79836	8,3241
79837	8,2924
79838	8,3081
79839	8,3468
79840	8,2787
79841	8,2806
79842	8,303
79843	8,2706
79844	8,2638
79845	8,2787
79846	8,2638
79847	8,2806
79848	8,303
79849	8,2684
79850	8,2896
79851	8,2945
79852	8,2597
79853	8,2715
79854	8,2684
79855	8,2715
79856	8,2896
79857	8,2945
79858	8,296
79859	8,3381
79860	8,3241
79861	8,2867
79862	8,3186
79863	8,296
79864	8,3186
79865	8,3381
79866	8,3241
79867	8,3646
79868	8,4294
79869	8,395
79870	8,3546
79871	8,4084
79872	8,3646
79873	8,4084
79874	8,4294
79875	8,395
79876	8,4779
79877	8,5675
79878	8,5107
79879	8,467
79880	8,5448
79881	8,4779
79882	8,5448
79883	8,5675
79884	8,5107
79885	8,64
79886	8,7569
79887	8,6755
79888	8,6282
79889	8,7323
79890	8,64
79891	8,7323
79892	8,7569
79893	8,6755
79894	8,8558
79895	9,0027
79896	8,894
79897	8,843
79898	8,9762
79899	8,8558
79900	8,9762
79901	9,0027
79902	8,894
79903	9,131
79904	9,3115
79905	9,1721
79906	9,1173
79907	9,2832
79908	9,131
79909	9,2832
79910	9,3115
79911	9,1721
79912	9,4731
79913	9,6921
79914	9,5169
79915	9,4585
79916	9,6622
79917	9,4731
79918	9,6622
79919	9,6921
79920	9,5169
79921	9,8924
79922	10,156
79923	9,9383
79924	9,8772
79925	10,125
79926	9,8924
79927	10,125
79928	10,156
79929	9,9383
79930	10,403
79931	10,449
79932	10,387
79933	10,403
79934	10,449
79935	10,417
79936	10,172
79937	10,727
79938	10,465
79939	10,402
79940	10,141
79941	10,697
79942	10,417
79943	10,141
79944	10,697
79945	10,172
79946	10,727
79947	10,465
79948	9,9089
79949	9,7099
79950	9,9557
79951	9,8935
79952	9,6794
79953	9,9089
79954	9,6794
79955	9,7099
79956	9,9557
79957	9,4921
79958	9,3324
79959	9,537
79960	9,4773
79961	9,3034
79962	9,4921
79963	9,3034
79964	9,3324
79965	9,537
79966	9,1536
79967	9,0275
79968	9,1959
79969	9,1395
79970	9,0003
79971	9,1536
79972	9,0003
79973	9,0275
79974	9,1959
79975	8,8827
79976	8,7865
79977	8,9223
79978	8,8696
79979	8,7611
79980	8,8827
79981	8,7611
79982	8,7865
79983	8,9223
79984	8,6722
79985	8,6029
79986	8,709
79987	8,66
79988	8,5793
79989	8,6722
79990	8,5793
79991	8,6029
79992	8,709
79993	8,5162
79994	8,4713
79995	8,5504
79996	8,5048
79997	8,4493
79998	8,5162
79999	8,4493
80000	8,4713
80001	8,5504
80002	8,4098
80003	8,3872
80004	8,4416
80005	8,3992
80006	8,3668
80007	8,4098
80008	8,3668
80009	8,3872
80010	8,4416
80011	8,3489
80012	8,3468
80013	8,3785
80014	8,339
80015	8,3277
80016	8,3489
80017	8,3277
80018	8,3468
80019	8,3785
80020	8,3297
80021	8,3467
80022	8,3574
80023	8,3205
80024	8,3288
80025	8,3297
80026	8,3288
80027	8,3467
80028	8,3574
80029	8,3491
80030	8,3836
80031	8,3751
80032	8,3405
80033	8,3668
80034	8,3491
80035	8,3668
80036	8,3836
80037	8,3751
80038	8,4041
80039	8,4549
80040	8,4286
80041	8,396
80042	8,439
80043	8,4041
80044	8,439
80045	8,4549
80046	8,4286
80047	8,4922
80048	8,5581
80049	8,5154
80050	8,4844
80051	8,543
80052	8,4922
80053	8,543
80054	8,5581
80055	8,5154
80056	8,6109
80057	8,6911
80058	8,633
80059	8,6036
80060	8,6767
80061	8,6109
80062	8,6767
80063	8,6911
80064	8,633
80065	8,7585
80066	8,8521
80067	8,7796
80068	8,7515
80069	8,8383
80070	8,7585
80071	8,8383
80072	8,8521
80073	8,7796
80074	8,9332
80075	9,0395
80076	8,9535
80077	8,9264
80078	9,0262
80079	8,9332
80080	9,0262
80081	9,0395
80082	8,9535
80083	9,1336
80084	9,2524
80085	9,1533
80086	9,1271
80087	9,2394
80088	9,1336
80089	9,2394
80090	9,2524
80091	9,1533
80092	9,359
80093	9,4899
80094	9,3781
80095	9,3527
80096	9,4773
80097	9,359
80098	9,4773
80099	9,4899
80100	9,3781
80101	9,6088
80102	9,7519
80103	9,6275
80104	9,6026
80105	9,7395
80106	9,6088
80107	9,7395
80108	9,7519
80109	9,6275
80110	9,8831
80111	10,039
80112	9,9015
80113	9,877
80114	10,026
80115	9,8831
80116	10,026
80117	10,039
80118	9,9015
80119	10,183
80120	10,352
80121	10,201
80122	10,176
80123	10,339
80124	10,183
80125	10,339
80126	10,352
80127	10,201
80128	10,509
80129	10,692
80130	10,527
80131	10,502
80132	10,68
80133	10,509
80134	10,68
80135	10,692
80136	10,527
80137	10,863
80138	11,063
80139	10,882
80140	10,857
80141	11,05
80142	10,863
80143	11,05
80144	11,063
80145	10,882
80146	11,251
80147	11,47
80148	11,271
80149	11,244
80150	11,456
80151	11,251
80152	11,456
80153	11,47
80154	11,271
80155	11,675
80156	11,917
80157	11,697
80158	11,668
80159	11,902
80160	11,675
80161	11,902
80162	11,917
80163	11,697
80164	12,144
80165	12,413
80166	12,168
80167	12,135
80168	12,395
80169	12,144
80170	12,395
80171	12,413
80172	12,168
80173	12,665
80174	12,968
80175	12,694
80176	12,655
80177	12,946
80178	12,665
80179	12,946
80180	12,968
80181	12,694
80182	13,25
80183	13,596
80184	13,287
80185	13,238
80186	13,568
80187	13,25
80188	13,568
80189	13,596
80190	13,287
80191	13,915
80192	14,315
80193	13,962
80194	13,899
80195	14,278
80196	13,915
80197	14,278
80198	14,315
80199	13,962
80200	14,678
80201	14,742
80202	14,656
80203	14,678
80204	14,742
80205	11,591
80206	11,644
80207	11,573
80208	11,591
80209	11,644
80210	12,433
80211	12,736
80212	12,498
80213	12,412
80214	12,691
80215	12,433
80216	12,691
80217	12,736
80218	12,498
80219	12,239
80220	12,3
80221	12,22
80222	12,239
80223	12,3
80224	12,141
80225	12,437
80226	12,203
80227	12,121
80228	12,394
80229	12,141
80230	12,394
80231	12,437
80232	12,203
80233	11,668
80234	11,724
80235	11,65
80236	11,668
80237	11,724
80238	11,022
80239	11,066
80240	11,007
80241	11,022
80242	11,066
80243	12,315
80244	12,412
80245	12,379
80246	12,294
80247	12,37
80248	12,315
80249	12,37
80250	12,412
80251	12,379
80252	11,403
80253	11,452
80254	11,387
80255	11,403
80256	11,452
80257	12,178
80258	12,236
80259	12,159
80260	12,178
80261	12,236
80262	14,852
80263	14,875
80264	14,844
80265	14,852
80266	14,875
80267	14,751
80268	14,768
80269	14,744
80270	14,751
80271	14,768
80272	15,182
80273	15,595
80274	15,247
80275	15,161
80276	15,545
80277	15,182
80278	15,545
80279	15,595
80280	15,247
80281	17,37
80282	17,966
80283	17,457
80284	17,353
80285	17,961
80286	17,37
80287	17,961
80288	17,966
80289	17,457
80290	18,868
80291	18,983
80292	18,847
80293	18,868
80294	18,983
80295	12,23
80296	12,291
80297	12,21
80298	12,23
80299	12,291
80300	12,749
80301	12,82
80302	12,726
80303	12,749
80304	12,82
80305	12,477
80306	12,543
80307	12,456
80308	12,477
80309	12,543
80310	15,815
80311	15,897
80312	15,788
80313	15,815
80314	15,897
80315	15,777
80316	15,884
80317	15,845
80318	15,754
80319	15,832
80320	15,777
80321	15,832
80322	15,884
80323	15,845
80324	12,782
80325	12,851
80326	12,76
80327	12,782
80328	12,851
80329	12,996
80330	13,07
80331	12,973
80332	12,996
80333	13,07
80334	12,717
80335	12,788
80336	12,694
80337	12,717
80338	12,788
80339	12,327
80340	12,369
80341	12,314
80342	12,327
80343	12,369
80344	15,96
80345	16,047
80346	15,932
80347	15,96
80348	16,047
80349	18,559
80350	18,612
80351	18,571
80352	18,559
80353	18,612
80354	17,817
80355	17,84
80356	17,841
80357	17,817
80358	17,84
80359	13,237
80360	13,317
80361	13,213
80362	13,237
80363	13,317
80364	13,066
80365	13,365
80366	13,441
80367	13,135
80368	13,046
80369	13,33
80370	13,402
80371	13,066
80372	13,33
80373	13,402
80374	13,365
80375	13,441
80376	13,135
80377	12,26
80378	12,882
80379	12,267
80380	12,259
80381	12,899
80382	12,26
80383	12,899
80384	12,882
80385	12,267
80386	12,984
80387	13,06
80388	12,96
80389	12,984
80390	13,06
80391	13,283
80392	13,366
80393	13,257
80394	13,283
80395	13,366
80396	13,38
80397	13,465
80398	13,354
80399	13,38
80400	13,465
80401	14,994
80402	15,26
80403	14,834
80404	15,08
80405	15,513
80406	14,994
80407	15,513
80408	15,26
80409	14,834
80410	10,618
80411	10,257
80412	10,65
80413	10,608
80414	10,233
80415	10,618
80416	10,233
80417	10,257
80418	10,65
80419	9,8875
80420	9,6035
80421	9,9297
80422	9,8736
80423	9,5743
80424	9,8875
80425	9,5743
80426	9,6035
80427	9,9297
80428	9,3026
80429	9,0775
80430	9,3483
80431	9,2874
80432	9,047
80433	9,3026
80434	9,047
80435	9,0775
80436	9,3483
80437	8,8319
80438	8,6536
80439	8,8775
80440	8,8167
80441	8,6238
80442	8,8319
80443	8,6238
80444	8,6536
80445	8,8775
80446	8,4534
80447	8,3136
80448	8,4971
80449	8,4389
80450	8,2854
80451	8,4534
80452	8,2854
80453	8,3136
80454	8,4971
80455	8,1518
80456	8,0443
80457	8,1927
80458	8,1382
80459	8,0181
80460	8,1518
80461	8,0181
80462	8,0443
80463	8,1927
80464	7,9156
80465	7,8358
80466	7,9534
80467	7,903
80468	7,8117
80469	7,9156
80470	7,8117
80471	7,8358
80472	7,9534
80473	7,7359
80474	7,6805
80475	7,7707
80476	7,7244
80477	7,6584
80478	7,7359
80479	7,6584
80480	7,6805
80481	7,7707
80482	7,6061
80483	7,5721
80484	7,6379
80485	7,5956
80486	7,5519
80487	7,6061
80488	7,5519
80489	7,5721
80490	7,6379
80491	7,5205
80492	7,5057
80493	7,5495
80494	7,5108
80495	7,4872
80496	7,5205
80497	7,4872
80498	7,5057
80499	7,5495
80500	7,4745
80501	7,477
80502	7,501
80503	7,4657
80504	7,4601
80505	7,4745
80506	7,4601
80507	7,477
80508	7,501
80509	7,4641
80510	7,4823
80511	7,4884
80512	7,4561
80513	7,4668
80514	7,4641
80515	7,4668
80516	7,4823
80517	7,4884
80518	7,4862
80519	7,5185
80520	7,5084
80521	7,4788
80522	7,5043
80523	7,4862
80524	7,5043
80525	7,5185
80526	7,5084
80527	7,5377
80528	7,5831
80529	7,5581
80530	7,5309
80531	7,57
80532	7,5377
80533	7,57
80534	7,5831
80535	7,5581
80536	7,6162
80537	7,6736
80538	7,6349
80539	7,6099
80540	7,6615
80541	7,6162
80542	7,6615
80543	7,6736
80544	7,6349
80545	7,7195
80546	7,788
80547	7,7368
80548	7,7137
80549	7,7769
80550	7,7195
80551	7,7769
80552	7,788
80553	7,7368
80554	7,8457
80555	7,9246
80556	7,8617
80557	7,8404
80558	7,9143
80559	7,8457
80560	7,9143
80561	7,9246
80562	7,8617
80563	7,9934
80564	8,0819
80565	8,0082
80566	7,9885
80567	8,0724
80568	7,9934
80569	8,0724
80570	8,0819
80571	8,0082
80572	8,1611
80573	8,2587
80574	8,1748
80575	8,1565
80576	8,2499
80577	8,1611
80578	8,2499
80579	8,2587
80580	8,1748
80581	8,3476
80582	8,4541
80583	8,3605
80584	8,3434
80585	8,4458
80586	8,3476
80587	8,4458
80588	8,4541
80589	8,3605
80590	8,5522
80591	8,667
80592	8,5643
80593	8,5482
80594	8,6592
80595	8,5522
80596	8,6592
80597	8,667
80598	8,5643
80599	8,774
80600	8,8969
80601	8,7855
80602	8,7702
80603	8,8894
80604	8,774
80605	8,8894
80606	8,8969
80607	8,7855
80608	9,0123
80609	9,143
80610	9,0234
80611	9,0086
80612	9,1357
80613	9,0123
80614	9,1357
80615	9,143
80616	9,0234
80617	9,2664
80618	9,4045
80619	9,2773
80620	9,2628
80621	9,3972
80622	9,2664
80623	9,3972
80624	9,4045
80625	9,2773
80626	9,5353
80627	9,6801
80628	9,5462
80629	9,5317
80630	9,6727
80631	9,5353
80632	9,6727
80633	9,6801
80634	9,5462
80635	9,8176
80636	9,968
80637	9,8287
80638	9,8139
80639	9,9604
80640	9,8176
80641	9,9604
80642	9,968
80643	9,8287
80644	10,111
80645	10,265
80646	10,122
80647	10,107
80648	10,258
80649	10,111
80650	10,258
80651	10,265
80652	10,122
80653	10,412
80654	10,568
80655	10,424
80656	10,408
80657	10,56
80658	10,412
80659	10,56
80660	10,568
80661	10,424
80662	10,716
80663	10,869
80664	10,727
80665	10,712
80666	10,863
80667	10,716
80668	10,863
80669	10,869
80670	10,727
80671	11,016
80672	11,161
80673	11,025
80674	11,013
80675	11,158
80676	11,016
80677	11,158
80678	11,161
80679	11,025
80680	11,304
80681	11,433
80682	11,305
80683	11,304
80684	11,441
80685	11,304
80686	11,441
80687	11,433
80688	11,305
80689	11,571
80690	11,676
80691	11,556
80692	11,578
80693	11,705
80694	11,571
80695	11,705
80696	11,676
80697	11,556
80698	11,811
80699	11,883
80700	11,763
80701	11,833
80702	11,953
80703	11,811
80704	11,953
80705	11,883
80706	11,763
80707	12,026
80708	11,915
80709	12,074
80710	12,026
80711	11,915
80712	15,423
80713	15,008
80714	15,518
80715	15,394
80716	14,956
80717	15,423
80718	14,956
80719	15,008
80720	15,518
80721	14,54
80722	14,175
80723	14,608
80724	14,518
80725	14,136
80726	14,54
80727	14,136
80728	14,175
80729	14,608
80730	13,771
80731	13,449
80732	13,819
80733	13,755
80734	13,421
80735	13,771
80736	13,421
80737	13,449
80738	13,819
80739	13,099
80740	12,813
80741	13,133
80742	13,087
80743	12,793
80744	13,099
80745	12,793
80746	12,813
80747	13,133
80748	12,507
80749	12,251
80750	12,532
80751	12,498
80752	12,235
80753	12,507
80754	12,235
80755	12,251
80756	12,532
80757	11,98
80758	11,749
80759	12,
80760	11,973
80761	11,736
80762	11,98
80763	11,736
80764	11,749
80765	12,
80766	11,506
80767	11,296
80768	11,523
80769	11,5
80770	11,285
80771	11,506
80772	11,285
80773	11,296
80774	11,523
80775	11,075
80776	10,882
80777	11,09
80778	11,07
80779	10,872
80780	11,075
80781	10,872
80782	10,882
80783	11,09
80784	10,68
80785	10,502
80786	10,695
80787	10,675
80788	10,493
80789	10,68
80790	10,493
80791	10,502
80792	10,695
80793	10,315
80794	10,151
80795	10,33
80796	10,31
80797	10,141
80798	10,315
80799	10,141
80800	10,151
80801	10,33
80802	9,9769
80803	9,8245
80804	9,9916
80805	9,972
80806	9,8145
80807	9,9769
80808	9,8145
80809	9,8245
80810	9,9916
80811	9,6621
80812	9,5208
80813	9,6773
80814	9,6571
80815	9,5105
80816	9,6621
80817	9,5105
80818	9,5208
80819	9,6773
80820	9,3693
80821	9,2385
80822	9,3849
80823	9,3641
80824	9,2279
80825	9,3693
80826	9,2279
80827	9,2385
80828	9,3849
80829	9,0973
80830	8,9769
80831	9,1135
80832	9,0919
80833	8,9659
80834	9,0973
80835	8,9659
80836	8,9769
80837	9,1135
80838	8,8458
80839	8,7359
80840	8,8627
80841	8,8401
80842	8,7244
80843	8,8458
80844	8,7244
80845	8,7359
80846	8,8627
80847	8,6148
80848	8,5156
80849	8,6324
80850	8,6089
80851	8,5035
80852	8,6148
80853	8,5035
80854	8,5156
80855	8,6324
80856	8,4047
80857	8,3165
80858	8,4232
80859	8,3985
80860	8,3039
80861	8,4047
80862	8,3039
80863	8,3165
80864	8,4232
80865	8,2162
80866	8,1397
80867	8,2356
80868	8,2098
80869	8,1264
80870	8,2162
80871	8,1264
80872	8,1397
80873	8,2356
80874	8,0504
80875	7,9861
80876	8,0708
80877	8,0436
80878	7,9721
80879	8,0504
80880	7,9721
80881	7,9861
80882	8,0708
80883	7,9085
80884	7,8571
80885	7,93
80886	7,9013
80887	7,8423
80888	7,9085
80889	7,8423
80890	7,8571
80891	7,93
80892	7,7919
80893	7,7544
80894	7,8147
80895	7,7843
80896	7,7387
80897	7,7919
80898	7,7387
80899	7,7544
80900	7,8147
80901	7,7024
80902	7,6799
80903	7,7267
80904	7,6943
80905	7,6632
80906	7,7024
80907	7,6632
80908	7,6799
80909	7,7267
80910	7,6421
80911	7,6358
80912	7,668
80913	7,6335
80914	7,6179
80915	7,6421
80916	7,6179
80917	7,6358
80918	7,668
80919	7,6133
80920	7,6246
80921	7,6411
80922	7,604
80923	7,6054
80924	7,6133
80925	7,6054
80926	7,6246
80927	7,6411
80928	7,6187
80929	7,6493
80930	7,6487
80931	7,6088
80932	7,6286
80933	7,6187
80934	7,6286
80935	7,6493
80936	7,6487
80937	7,6617
80938	7,7134
80939	7,694
80940	7,6509
80941	7,691
80942	7,6617
80943	7,691
80944	7,7134
80945	7,694
80946	7,7458
80947	7,821
80948	7,7808
80949	7,7342
80950	7,7967
80951	7,7458
80952	7,7967
80953	7,821
80954	7,7808
80955	7,8757
80956	7,977
80957	7,9135
80958	7,8631
80959	7,9508
80960	7,8757
80961	7,9508
80962	7,977
80963	7,9135
80964	8,0567
80965	8,1875
80966	8,0975
80967	8,0432
80968	8,1594
80969	8,0567
80970	8,1594
80971	8,1875
80972	8,0975
80973	8,2959
80974	8,4603
80975	8,3394
80976	8,2814
80977	8,4305
80978	8,2959
80979	8,4305
80980	8,4603
80981	8,3394
80982	8,6019
80983	8,8054
80984	8,6478
80985	8,5867
80986	8,7744
80987	8,6019
80988	8,7744
80989	8,8054
80990	8,6478
80991	8,9865
80992	9,2363
80993	9,0336
80994	8,9708
80995	9,2052
80996	8,9865
80997	9,2052
80998	9,2363
80999	9,0336
81000	9,4656
81001	9,7717
81002	9,5117
81003	9,4503
81004	9,7429
81005	9,4656
81006	9,7429
81007	9,7717
81008	9,5117
81009	10,062
81010	10,438
81011	10,103
81012	10,048
81013	10,416
81014	10,062
81015	10,416
81016	10,438
81017	10,103
81018	10,807
81019	10,835
81020	10,799
81021	10,807
81022	10,835
81023	12,025
81024	11,884
81025	11,914
81026	12,073
81027	11,953
81028	12,025
81029	11,953
81030	11,884
81031	11,914
81032	11,812
81033	11,677
81034	11,764
81035	11,834
81036	11,706
81037	11,812
81038	11,706
81039	11,677
81040	11,764
81041	11,572
81042	11,434
81043	11,557
81044	11,579
81045	11,442
81046	11,572
81047	11,442
81048	11,434
81049	11,557
81050	11,305
81051	11,162
81052	11,306
81053	11,305
81054	11,159
81055	11,305
81056	11,159
81057	11,162
81058	11,306
81059	11,017
81060	10,87
81061	11,026
81062	11,014
81063	10,864
81064	11,017
81065	10,864
81066	10,87
81067	11,026
81068	10,717
81069	10,569
81070	10,728
81071	10,713
81072	10,561
81073	10,717
81074	10,561
81075	10,569
81076	10,728
81077	10,413
81078	10,266
81079	10,425
81080	10,409
81081	10,259
81082	10,413
81083	10,259
81084	10,266
81085	10,425
81086	10,112
81087	9,969
81088	10,123
81089	10,108
81090	9,9614
81091	10,112
81092	9,9614
81093	9,969
81094	10,123
81095	9,8186
81096	9,6811
81097	9,8297
81098	9,8149
81099	9,6737
81100	9,8186
81101	9,6737
81102	9,6811
81103	9,8297
81104	9,5363
81105	9,4055
81106	9,5472
81107	9,5327
81108	9,3982
81109	9,5363
81110	9,3982
81111	9,4055
81112	9,5472
81113	9,2674
81114	9,144
81115	9,2783
81116	9,2638
81117	9,1367
81118	9,2674
81119	9,1367
81120	9,144
81121	9,2783
81122	9,0133
81123	8,8979
81124	9,0244
81125	9,0096
81126	8,8904
81127	9,0133
81128	8,8904
81129	8,8979
81130	9,0244
81131	8,775
81132	8,668
81133	8,7865
81134	8,7712
81135	8,6602
81136	8,775
81137	8,6602
81138	8,668
81139	8,7865
81140	8,5532
81141	8,455
81142	8,5652
81143	8,5492
81144	8,4467
81145	8,5532
81146	8,4467
81147	8,455
81148	8,5652
81149	8,3486
81150	8,2596
81151	8,3614
81152	8,3443
81153	8,2508
81154	8,3486
81155	8,2508
81156	8,2596
81157	8,3614
81158	8,1619
81159	8,0827
81160	8,1757
81161	8,1574
81162	8,0732
81163	8,1619
81164	8,0732
81165	8,0827
81166	8,1757
81167	7,9942
81168	7,9253
81169	8,009
81170	7,9893
81171	7,9151
81172	7,9942
81173	7,9151
81174	7,9253
81175	8,009
81176	7,8465
81177	7,7887
81178	7,8625
81179	7,8412
81180	7,7776
81181	7,8465
81182	7,7776
81183	7,7887
81184	7,8625
81185	7,7201
81186	7,6741
81187	7,7374
81188	7,7144
81189	7,6621
81190	7,7201
81191	7,6621
81192	7,6741
81193	7,7374
81194	7,6167
81195	7,5835
81196	7,6354
81197	7,6104
81198	7,5705
81199	7,6167
81200	7,5705
81201	7,5835
81202	7,6354
81203	7,5381
81204	7,5189
81205	7,5585
81206	7,5313
81207	7,5047
81208	7,5381
81209	7,5047
81210	7,5189
81211	7,5585
81212	7,4864
81213	7,4824
81214	7,5086
81215	7,479
81216	7,4669
81217	7,4864
81218	7,4669
81219	7,4824
81220	7,5086
81221	7,4642
81222	7,4769
81223	7,4884
81224	7,4561
81225	7,46
81226	7,4642
81227	7,46
81228	7,4769
81229	7,4884
81230	7,4743
81231	7,5054
81232	7,5008
81233	7,4655
81234	7,4869
81235	7,4743
81236	7,4869
81237	7,5054
81238	7,5008
81239	7,5201
81240	7,5716
81241	7,549
81242	7,5104
81243	7,5513
81244	7,5201
81245	7,5513
81246	7,5716
81247	7,549
81248	7,6054
81249	7,6796
81250	7,6371
81251	7,5948
81252	7,6575
81253	7,6054
81254	7,6575
81255	7,6796
81256	7,6371
81257	7,7348
81258	7,8345
81259	7,7695
81260	7,7233
81261	7,8104
81262	7,7348
81263	7,8104
81264	7,8345
81265	7,7695
81266	7,914
81267	8,0425
81268	7,9518
81269	7,9015
81270	8,0163
81271	7,914
81272	8,0163
81273	8,0425
81274	7,9518
81275	8,1498
81276	8,3113
81277	8,1907
81278	8,1362
81279	8,2831
81280	8,1498
81281	8,2831
81282	8,3113
81283	8,1907
81284	8,4508
81285	8,6506
81286	8,4945
81287	8,4363
81288	8,6208
81289	8,4508
81290	8,6208
81291	8,6506
81292	8,4945
81293	8,8285
81294	9,0737
81295	8,8742
81296	8,8134
81297	9,0432
81298	8,8285
81299	9,0432
81300	9,0737
81301	8,8742
81302	9,2982
81303	9,5987
81304	9,344
81305	9,283
81306	9,5695
81307	9,2982
81308	9,5695
81309	9,5987
81310	9,344
81311	9,8822
81312	10,251
81313	9,9245
81314	9,8682
81315	10,227
81316	9,8822
81317	10,227
81318	10,251
81319	9,9245
81320	10,611
81321	11,069
81322	10,643
81323	10,601
81324	11,057
81325	10,611
81326	11,057
81327	11,069
81328	10,643
81329	11,532
81330	11,541
81331	11,53
81332	11,532
81333	11,541
81334	10,633
81335	10,284
81336	10,665
81337	10,623
81338	10,26
81339	10,633
81340	10,26
81341	10,284
81342	10,665
81343	9,9261
81344	9,6447
81345	9,9687
81346	9,9121
81347	9,6151
81348	9,9261
81349	9,6151
81350	9,6447
81351	9,9686
81352	9,3466
81353	9,125
81354	9,3932
81355	9,3311
81356	9,0938
81357	9,3466
81358	9,0938
81359	9,125
81360	9,3932
81361	8,8828
81362	8,7088
81363	8,9297
81364	8,8672
81365	8,678
81366	8,8828
81367	8,678
81368	8,7088
81369	8,9297
81370	8,5126
81371	8,3778
81372	8,5579
81373	8,4975
81374	8,3485
81375	8,5126
81376	8,3485
81377	8,3778
81378	8,5579
81379	8,2205
81380	8,1188
81381	8,2633
81382	8,2063
81383	8,0913
81384	8,2205
81385	8,0913
81386	8,1188
81387	8,2633
81388	7,9951
81389	7,9219
81390	8,0349
81391	7,9819
81392	7,8964
81393	7,9951
81394	7,8964
81395	7,9219
81396	8,0349
81397	7,8277
81398	7,7796
81399	7,8646
81400	7,8155
81401	7,756
81402	7,8277
81403	7,756
81404	7,7796
81405	7,8646
81406	7,7116
81407	7,6858
81408	7,7456
81409	7,7003
81410	7,664
81411	7,7116
81412	7,664
81413	7,6858
81414	7,7456
81415	7,6413
81416	7,6356
81417	7,6727
81418	7,6308
81419	7,6155
81420	7,6413
81421	7,6155
81422	7,6356
81423	7,6727
81424	7,6123
81425	7,625
81426	7,6414
81427	7,6026
81428	7,6063
81429	7,6123
81430	7,6063
81431	7,625
81432	7,6414
81433	7,621
81434	7,6504
81435	7,648
81436	7,612
81437	7,633
81438	7,621
81439	7,633
81440	7,6504
81441	7,648
81442	7,664
81443	7,7089
81444	7,6892
81445	7,6557
81446	7,6926
81447	7,664
81448	7,6926
81449	7,7089
81450	7,6892
81451	7,7388
81452	7,7979
81453	7,7624
81454	7,7309
81455	7,7827
81456	7,7388
81457	7,7827
81458	7,7979
81459	7,7624
81460	7,8429
81461	7,9153
81462	7,8651
81463	7,8355
81464	7,901
81465	7,8429
81466	7,901
81467	7,9153
81468	7,8651
81469	7,9743
81470	8,0592
81471	7,9952
81472	7,9673
81473	8,0457
81474	7,9743
81475	8,0457
81476	8,0592
81477	7,9952
81478	8,1313
81479	8,228
81480	8,1511
81481	8,1247
81482	8,2151
81483	8,1313
81484	8,2151
81485	8,228
81486	8,1511
81487	8,3124
81488	8,4204
81489	8,3313
81490	8,3061
81491	8,4081
81492	8,3124
81493	8,4081
81494	8,4204
81495	8,3313
81496	8,5165
81497	8,6353
81498	8,5345
81499	8,5105
81500	8,6235
81501	8,5165
81502	8,6235
81503	8,6353
81504	8,5345
81505	8,7426
81506	8,872
81507	8,7599
81508	8,7369
81509	8,8607
81510	8,7426
81511	8,8607
81512	8,872
81513	8,7599
81514	8,9902
81515	9,13
81516	9,0068
81517	8,9847
81518	9,1192
81519	8,9902
81520	9,1192
81521	9,13
81522	9,0068
81523	9,2591
81524	9,4095
81525	9,275
81526	9,2538
81527	9,3991
81528	9,2591
81529	9,3991
81530	9,4095
81531	9,275
81532	9,5495
81533	9,7108
81534	9,5648
81535	9,5444
81536	9,7008
81537	9,5495
81538	9,7008
81539	9,7108
81540	9,5648
81541	9,8622
81542	10,035
81543	9,877
81544	9,8572
81545	10,025
81546	9,8622
81547	10,025
81548	10,035
81549	9,877
81550	10,199
81551	10,385
81552	10,213
81553	10,194
81554	10,375
81555	10,199
81556	10,375
81557	10,385
81558	10,213
81559	10,561
81560	10,763
81561	10,576
81562	10,557
81563	10,753
81564	10,561
81565	10,753
81566	10,763
81567	10,576
81568	10,954
81569	11,173
81570	10,969
81571	10,949
81572	11,163
81573	10,954
81574	11,163
81575	11,173
81576	10,969
81577	11,382
81578	11,623
81579	11,399
81580	11,377
81581	11,612
81582	11,382
81583	11,612
81584	11,623
81585	11,399
81586	11,853
81587	12,122
81588	11,872
81589	11,847
81590	12,107
81591	11,853
81592	12,107
81593	12,122
81594	11,872
81595	12,376
81596	12,679
81597	12,4
81598	12,368
81599	12,66
81600	12,376
81601	12,66
81602	12,679
81603	12,4
81604	12,963
81605	13,31
81606	12,995
81607	12,953
81608	13,284
81609	12,963
81610	13,284
81611	13,31
81612	12,995
81613	13,631
81614	14,03
81615	13,675
81616	13,616
81617	13,995
81618	13,631
81619	13,995
81620	14,03
81621	13,675
81622	14,395
81623	14,859
81624	14,459
81625	14,374
81626	14,81
81627	14,395
81628	14,81
81629	14,859
81630	14,459
81631	15,275
81632	15,814
81633	15,365
81634	15,246
81635	15,749
81636	15,275
81637	15,749
81638	15,814
81639	15,365
81640	16,289
81641	16,41
81642	16,253
81643	16,289
81644	16,41
81645	12,823
81646	12,876
81647	12,808
81648	12,823
81649	12,876
81650	13,633
81651	13,957
81652	13,689
81653	13,618
81654	13,932
81655	13,633
81656	13,932
81657	13,957
81658	13,689
81659	13,381
81660	13,45
81661	13,361
81662	13,381
81663	13,45
81664	13,357
81665	13,403
81666	13,345
81667	13,357
81668	13,403
81669	13,587
81670	13,64
81671	13,574
81672	13,587
81673	13,64
81674	16,501
81675	16,879
81676	16,341
81677	16,601
81678	17,176
81679	16,501
81680	17,176
81681	16,879
81682	16,341
81683	13,804
81684	14,055
81685	14,238
81686	13,872
81687	13,786
81688	14,027
81689	14,21
81690	13,804
81691	14,027
81692	14,21
81693	14,055
81694	14,238
81695	13,872
81696	13,072
81697	13,096
81698	13,067
81699	13,072
81700	13,096
81701	13,544
81702	13,505
81703	13,561
81704	13,544
81705	13,505
81706	17,995
81707	17,863
81708	18,77
81709	18,186
81710	17,937
81711	17,754
81712	18,637
81713	17,995
81714	17,754
81715	18,637
81716	17,863
81717	18,77
81718	18,186
81719	15,809
81720	15,825
81721	15,797
81722	15,809
81723	15,825
81724	15,548
81725	15,547
81726	15,542
81727	15,548
81728	15,547
81729	21,899
81730	21,785
81731	21,722
81732	22,049
81733	22,132
81734	21,899
81735	22,132
81736	21,785
81737	21,722
81738	14,13
81739	14,024
81740	14,167
81741	14,13
81742	14,024
81743	14,001
81744	14,326
81745	14,099
81746	13,975
81747	14,284
81748	14,001
81749	14,284
81750	14,326
81751	14,099
81752	13,901
81753	13,99
81754	13,877
81755	13,901
81756	13,99
81757	14,281
81758	14,732
81759	14,332
81760	14,271
81761	14,723
81762	14,281
81763	14,723
81764	14,732
81765	14,332
81766	14,042
81767	14,317
81768	14,125
81769	14,021
81770	14,282
81771	14,042
81772	14,282
81773	14,317
81774	14,125
81775	17,667
81776	18,27
81777	17,832
81778	17,615
81779	18,148
81780	17,667
81781	18,148
81782	18,27
81783	17,832
81784	15,707
81785	15,691
81786	15,701
81787	15,707
81788	15,691
81789	17,06
81790	17,319
81791	17,176
81792	17,02
81793	17,232
81794	17,06
81795	17,232
81796	17,319
81797	17,176
81798	18,135
81799	18,895
81800	18,334
81801	18,075
81802	18,759
81803	18,135
81804	18,759
81805	18,895
81806	18,334
81807	18,876
81808	19,235
81809	19,09
81810	18,821
81811	19,113
81812	18,876
81813	19,113
81814	19,235
81815	19,09
81816	17,554
81817	17,913
81818	17,105
81819	17,749
81820	18,412
81821	17,554
81822	18,412
81823	17,913
81824	17,105
81825	20,749
81826	20,302
81827	21,005
81828	20,749
81829	20,302
81830	22,089
81831	21,774
81832	22,284
81833	22,089
81834	21,774
81835	15,78
81836	15,386
81837	15,945
81838	15,78
81839	15,386
81840	12,44
81841	12,596
81842	12,1
81843	12,554
81844	12,804
81845	12,44
81846	12,804
81847	12,596
81848	12,1
81849	14,69
81850	14,952
81851	15,103
81852	14,746
81853	14,681
81854	14,943
81855	15,097
81856	14,69
81857	14,943
81858	15,097
81859	14,952
81860	15,103
81861	14,746
81862	15,076
81863	15,47
81864	16,127
81865	14,947
81866	15,123
81867	15,564
81868	16,256
81869	15,076
81870	15,564
81871	16,256
81872	15,47
81873	16,127
81874	14,947
81875	14,929
81876	15,858
81877	14,93
81878	14,938
81879	15,903
81880	14,929
81881	15,903
81882	15,858
81883	14,93
81884	14,557
81885	14,895
81886	14,626
81887	14,542
81888	14,877
81889	14,557
81890	14,877
81891	14,895
81892	14,626
81893	19,418
81894	19,129
81895	19,7
81896	19,343
81897	18,986
81898	19,418
81899	18,986
81900	19,129
81901	19,7
81902	15,778
81903	15,75
81904	15,772
81905	15,778
81906	15,75
81907	16,576
81908	17,073
81909	16,634
81910	16,55
81911	16,999
81912	16,576
81913	16,999
81914	17,073
81915	16,634
81916	19,563
81917	19,572
81918	19,832
81919	19,494
81920	19,428
81921	19,563
81922	19,428
81923	19,572
81924	19,832
81925	12,965
81926	12,603
81927	13,06
81928	12,965
81929	12,603
81930	16,868
81931	17,778
81932	17,795
81933	16,614
81934	16,935
81935	17,913
81936	17,961
81937	16,868
81938	17,913
81939	17,961
81940	17,778
81941	17,795
81942	16,614
81943	14,615
81944	14,704
81945	14,6
81946	14,615
81947	14,704
81948	15,213
81949	15,243
81950	15,214
81951	15,213
81952	15,243
81953	15,996
81954	15,867
81955	16,045
81956	15,996
81957	15,867
81958	16,942
81959	17,851
81960	16,687
81961	17,009
81962	17,986
81963	16,942
81964	17,986
81965	17,851
81966	16,687
81967	14,899
81968	15,263
81969	14,965
81970	14,889
81971	15,263
81972	14,899
81973	15,263
81974	15,263
81975	14,965
81976	15,171
81977	15,217
81978	15,167
81979	15,171
81980	15,217
81981	17,358
81982	17,049
81983	17,438
81984	17,358
81985	17,049
81986	16,743
81987	16,746
81988	16,634
81989	16,791
81990	16,83
81991	16,743
81992	16,83
81993	16,746
81994	16,634
81995	15,22
81996	15,565
81997	15,263
81998	15,216
81999	15,573
82000	15,22
82001	15,573
82002	15,565
82003	15,263
82004	18,763
82005	19,377
82006	19,009
82007	18,693
82008	19,231
82009	18,763
82010	19,231
82011	19,377
82012	19,009
82013	17,503
82014	17,648
82015	17,455
82016	17,503
82017	17,648
82018	19,527
82019	19,816
82020	19,45
82021	19,527
82022	19,816
82023	18,334
82024	18,294
82025	18,102
82026	18,42
82027	18,53
82028	18,334
82029	18,53
82030	18,294
82031	18,102
82032	18,768
82033	18,016
82034	19,068
82035	18,768
82036	18,016
82037	24,522
82038	24,095
82039	23,576
82040	24,965
82041	24,903
82042	24,522
82043	24,903
82044	24,095
82045	23,576
82046	18,858
82047	19,34
82048	18,543
82049	18,928
82050	19,453
82051	18,858
82052	19,453
82053	19,34
82054	18,543
82055	18,937
82056	19,947
82057	18,536
82058	19,039
82059	20,152
82060	18,937
82061	20,152
82062	19,947
82063	18,536
82064	15,572
82065	15,599
82066	15,575
82067	15,572
82068	15,599
82069	17,323
82070	19,285
82071	17,062
82072	17,405
82073	19,473
82074	17,323
82075	19,473
82076	19,285
82077	17,062
82078	18,932
82079	19,498
82080	18,602
82081	19,003
82082	19,604
82083	18,932
82084	19,604
82085	19,498
82086	18,602
82087	16,835
82088	16,783
82089	16,866
82090	16,835
82091	16,783
82092	18,716
82093	18,752
82094	18,702
82095	18,716
82096	18,752
82097	19,348
82098	19,39
82099	19,333
82100	19,348
82101	19,39
82102	16,885
82103	16,814
82104	16,922
82105	16,885
82106	16,814
82107	15,928
82108	15,936
82109	15,939
82110	15,928
82111	15,936
82112	18,492
82113	17,989
82114	18,642
82115	18,492
82116	17,989
82117	16,123
82118	15,583
82119	16,667
82120	15,98
82121	15,303
82122	16,123
82123	15,303
82124	15,583
82125	16,667
82126	16,764
82127	16,53
82128	17,706
82129	16,546
82130	16,131
82131	16,764
82132	16,131
82133	16,53
82134	17,706
82135	17,961
82136	18,31
82137	17,865
82138	17,961
82139	18,31
82140	8,6179
82141	8,3543
82142	8,7436
82143	8,5966
82144	8,2982
82145	8,6179
82146	8,2982
82147	8,3543
82148	8,7436
82149	7,4653
82150	7,373
82151	7,5917
82152	7,4449
82153	7,3159
82154	7,4653
82155	7,3159
82156	7,373
82157	7,5917
82158	5,9259
82159	6,0359
82160	6,0001
82161	5,9214
82162	6,0059
82163	5,9259
82164	6,0059
82165	6,0359
82166	6,0001
82167	5,781
82168	5,9305
82169	5,8365
82170	5,7859
82171	5,9078
82172	5,781
82173	5,9078
82174	5,9305
82175	5,8365
82176	6,0178
82177	6,1296
82178	6,0673
82179	6,025
82180	6,1092
82181	6,0178
82182	6,1092
82183	6,1296
82184	6,0673
82185	8,1292
82186	7,9051
82187	8,2432
82188	8,1126
82189	7,8507
82190	8,1292
82191	7,8507
82192	7,9051
82193	8,2432
82194	9,0908
82195	8,7873
82196	9,2061
82197	9,0679
82198	8,7372
82199	9,0908
82200	8,7372
82201	8,7873
82202	9,2061
82203	24,554
82204	23,369
82205	24,922
82206	24,554
82207	23,369
82208	17,879
82209	19,149
82210	17,035
82211	17,863
82212	18,939
82213	17,879
82214	18,939
82215	19,149
82216	17,035
82217	18,971
82218	19,355
82219	19,09
82220	18,935
82221	19,247
82222	18,971
82223	19,247
82224	19,355
82225	19,09
82226	19,826
82227	20,025
82228	20,296
82229	20,13
82230	19,751
82231	19,846
82232	20,11
82233	19,826
82234	19,846
82235	20,11
82236	20,025
82237	20,296
82238	20,13
82239	20,296
82240	20,43
82241	20,725
82242	20,186
82243	20,201
82244	20,296
82245	20,201
82246	20,43
82247	20,725
82248	20,522
82249	20,548
82250	20,832
82251	20,989
82252	20,398
82253	20,301
82254	20,53
82255	20,522
82256	20,301
82257	20,53
82258	20,548
82259	20,832
82260	20,989
82261	20,468
82262	20,628
82263	20,91
82264	20,343
82265	20,359
82266	20,468
82267	20,359
82268	20,628
82269	20,91
82270	20,658
82271	20,537
82272	21,049
82273	21,215
82274	20,513
82275	20,263
82276	20,724
82277	20,658
82278	20,263
82279	20,724
82280	20,537
82281	21,049
82282	21,215
82283	20,616
82284	20,53
82285	21,144
82286	20,476
82287	20,273
82288	20,616
82289	20,273
82290	20,53
82291	21,144
82292	20,48
82293	20,343
82294	20,687
82295	20,964
82296	20,357
82297	20,128
82298	20,433
82299	20,48
82300	20,128
82301	20,433
82302	20,343
82303	20,687
82304	20,964
82305	20,127
82306	20,044
82307	20,49
82308	20,034
82309	19,872
82310	20,127
82311	19,872
82312	20,044
82313	20,49
82314	19,071
82315	19,434
82316	19,227
82317	19,028
82318	19,314
82319	19,071
82320	19,314
82321	19,434
82322	19,227
82323	19,919
82324	20,456
82325	20,242
82326	19,838
82327	20,236
82328	19,919
82329	20,236
82330	20,456
82331	20,242
82332	12,497
82333	12,636
82334	12,345
82335	12,543
82336	12,681
82337	12,497
82338	12,681
82339	12,636
82340	12,345
82341	12,827
82342	13,098
82343	12,832
82344	12,828
82345	13,047
82346	12,827
82347	13,047
82348	13,098
82349	12,832
82350	13,338
82351	13,734
82352	13,516
82353	13,29
82354	13,587
82355	13,338
82356	13,587
82357	13,734
82358	13,516
82359	14,024
82360	14,474
82361	14,365
82362	13,93
82363	14,243
82364	14,024
82365	14,243
82366	14,474
82367	14,365
82368	14,771
82369	15,126
82370	15,249
82371	14,639
82372	14,835
82373	14,771
82374	14,835
82375	15,126
82376	15,249
82377	15,318
82378	15,733
82379	15,892
82380	15,162
82381	15,402
82382	15,318
82383	15,402
82384	15,733
82385	15,892
82386	15,978
82387	16,252
82388	16,623
82389	15,804
82390	15,9
82391	15,978
82392	15,9
82393	16,252
82394	16,623
82395	16,379
82396	16,524
82397	17,052
82398	16,2
82399	16,178
82400	16,379
82401	16,178
82402	16,524
82403	17,052
82404	16,618
82405	16,689
82406	17,277
82407	16,445
82408	16,367
82409	16,618
82410	16,367
82411	16,689
82412	17,277
82413	16,803
82414	16,797
82415	17,426
82416	16,642
82417	16,494
82418	16,803
82419	16,494
82420	16,797
82421	17,426
82422	16,896
82423	17,03
82424	17,504
82425	16,741
82426	16,739
82427	16,896
82428	16,739
82429	17,03
82430	17,504
82431	17,102
82432	16,852
82433	17,623
82434	16,959
82435	16,556
82436	17,102
82437	16,556
82438	16,852
82439	17,623
82440	16,551
82441	16,589
82442	17,189
82443	16,391
82444	16,269
82445	16,551
82446	16,269
82447	16,589
82448	17,189
82449	16,655
82450	16,674
82451	17,344
82452	16,482
82453	16,346
82454	16,655
82455	16,346
82456	16,674
82457	17,344
82458	16,581
82459	16,549
82460	17,156
82461	16,422
82462	16,219
82463	16,581
82464	16,219
82465	16,549
82466	17,156
82467	16,452
82468	16,305
82469	17,122
82470	16,272
82471	15,943
82472	16,452
82473	15,943
82474	16,305
82475	17,122
82476	16,072
82477	15,753
82478	16,783
82479	15,885
82480	15,413
82481	16,072
82482	15,413
82483	15,753
82484	16,783
82485	15,261
82486	14,793
82487	15,805
82488	15,11
82489	14,521
82490	15,261
82491	14,521
82492	14,793
82493	15,805
82494	14,13
82495	14,14
82496	14,561
82497	14,013
82498	13,92
82499	14,13
82500	13,92
82501	14,14
82502	14,561
82503	14,
82504	14,358
82505	13,899
82506	14,
82507	14,358
82508	12,705
82509	12,918
82510	12,549
82511	12,751
82512	12,958
82513	12,705
82514	12,958
82515	12,918
82516	12,549
82517	13,181
82518	13,2
82519	13,178
82520	13,181
82521	13,2
82522	18,909
82523	19,318
82524	19,021
82525	18,874
82526	19,216
82527	18,909
82528	19,216
82529	19,318
82530	19,021
82531	19,818
82532	20,005
82533	20,102
82534	19,747
82535	19,832
82536	19,818
82537	19,832
82538	20,005
82539	20,102
82540	20,238
82541	20,38
82542	20,701
82543	20,659
82544	20,131
82545	20,151
82546	20,442
82547	20,238
82548	20,151
82549	20,442
82550	20,38
82551	20,701
82552	20,659
82553	20,504
82554	20,54
82555	20,983
82556	20,377
82557	20,29
82558	20,504
82559	20,29
82560	20,54
82561	20,983
82562	20,487
82563	20,593
82564	20,931
82565	20,36
82566	20,328
82567	20,487
82568	20,328
82569	20,593
82570	20,931
82571	20,624
82572	20,574
82573	21,155
82574	20,483
82575	20,305
82576	20,624
82577	20,305
82578	20,574
82579	21,155
82580	20,576
82581	20,529
82582	20,905
82583	21,077
82584	20,44
82585	20,273
82586	20,589
82587	20,576
82588	20,273
82589	20,589
82590	20,529
82591	20,905
82592	21,077
82593	20,44
82594	20,34
82595	20,918
82596	20,315
82597	20,12
82598	20,44
82599	20,12
82600	20,34
82601	20,918
82602	20,238
82603	19,958
82604	20,533
82605	20,63
82606	20,139
82607	19,794
82608	20,296
82609	20,238
82610	19,794
82611	20,296
82612	19,958
82613	20,533
82614	20,63
82615	18,906
82616	19,261
82617	19,02
82618	18,87
82619	19,16
82620	18,906
82621	19,16
82622	19,261
82623	19,02
82624	19,7
82625	19,976
82626	19,632
82627	19,7
82628	19,976
82629	8,9208
82630	8,7278
82631	8,9676
82632	8,9075
82633	8,688
82634	8,9208
82635	8,688
82636	8,7278
82637	8,9676
82638	8,5386
82639	8,3364
82640	8,6509
82641	8,5115
82642	8,2751
82643	8,5386
82644	8,2751
82645	8,3364
82646	8,6509
82647	8,1191
82648	7,9238
82649	8,261
82650	8,0847
82651	7,8512
82652	8,1191
82653	7,8512
82654	7,9238
82655	8,261
82656	7,6976
82657	7,4935
82658	7,8467
82659	7,6594
82660	7,4193
82661	7,6976
82662	7,4193
82663	7,4935
82664	7,8467
82665	7,2637
82666	7,1223
82667	7,4046
82668	7,2276
82669	7,0535
82670	7,2637
82671	7,0535
82672	7,1223
82673	7,4046
82674	6,966
82675	6,8208
82676	7,0999
82677	6,9332
82678	6,7585
82679	6,966
82680	6,7585
82681	6,8208
82682	7,0999
82683	6,6629
82684	6,5593
82685	6,7877
82686	6,6333
82687	6,5022
82688	6,6629
82689	6,5022
82690	6,5593
82691	6,7877
82692	6,4432
82693	6,3525
82694	6,5629
82695	6,4156
82696	6,2998
82697	6,4432
82698	6,2998
82699	6,3525
82700	6,5629
82701	6,2559
82702	6,1955
82703	6,3696
82704	6,2307
82705	6,1461
82706	6,2559
82707	6,1461
82708	6,1955
82709	6,3696
82710	6,1283
82711	6,1026
82712	6,2395
82713	6,1039
82714	6,0545
82715	6,1283
82716	6,0545
82717	6,1026
82718	6,2395
82719	6,0701
82720	6,0788
82721	6,1802
82722	6,0463
82723	6,0301
82724	6,0701
82725	6,0301
82726	6,0788
82727	6,1802
82728	6,079
82729	6,109
82730	6,1901
82731	6,054
82732	6,0603
82733	6,079
82734	6,0603
82735	6,109
82736	6,1901
82737	6,1306
82738	6,1977
82739	6,2419
82740	6,1067
82741	6,1487
82742	6,1306
82743	6,1487
82744	6,1977
82745	6,2419
82746	6,2577
82747	6,3515
82748	6,3723
82749	6,2325
82750	6,299
82751	6,2577
82752	6,299
82753	6,3515
82754	6,3723
82755	6,437
82756	6,5572
82757	6,5568
82758	6,4095
82759	6,5014
82760	6,437
82761	6,5014
82762	6,5572
82763	6,5568
82764	6,6685
82765	6,8266
82766	6,7915
82767	6,6402
82768	6,7657
82769	6,6685
82770	6,7657
82771	6,8266
82772	6,7915
82773	6,9716
82774	7,1513
82775	7,1063
82776	6,939
82777	7,0841
82778	6,9716
82779	7,0841
82780	7,1513
82781	7,1063
82782	7,312
82783	7,5131
82784	7,4536
82785	7,2772
82786	7,4412
82787	7,312
82788	7,4412
82789	7,5131
82790	7,4536
82791	7,6966
82792	7,9134
82793	7,845
82794	7,6595
82795	7,842
82796	7,6966
82797	7,842
82798	7,9134
82799	7,845
82800	8,1117
82801	8,338
82802	8,253
82803	8,0774
82804	8,2769
82805	8,1117
82806	8,2769
82807	8,338
82808	8,253
82809	8,9179
82810	8,7331
82811	8,9667
82812	8,9042
82813	8,6928
82814	8,9179
82815	8,6928
82816	8,7331
82817	8,9667
82818	8,5458
82819	8,6561
82820	8,5186
82821	8,5458
82822	8,6561
82823	21,233
82824	21,995
82825	21,052
82826	21,233
82827	21,995
82828	20,935
82829	21,526
82830	20,797
82831	20,935
82832	21,526
82833	20,02
82834	19,727
82835	20,066
82836	20,02
82837	19,727
82838	21,245
82839	20,808
82840	21,352
82841	21,245
82842	20,808
82843	20,114
82844	19,955
82845	20,177
82846	20,114
82847	19,955
82848	17,241
82849	17,198
82850	17,269
82851	17,241
82852	17,198
82853	16,22
82854	16,206
82855	16,237
82856	16,22
82857	16,206
82858	21,463
82859	21,014
82860	21,569
82861	21,463
82862	21,014
82863	20,304
82864	20,044
82865	20,342
82866	20,304
82867	20,044
82868	20,656
82869	21,112
82870	20,546
82871	20,656
82872	21,112
82873	15,705
82874	15,709
82875	15,716
82876	15,705
82877	15,709
82878	19,997
82879	19,808
82880	20,068
82881	19,997
82882	19,808
82883	20,736
82884	20,893
82885	20,682
82886	20,736
82887	20,893
82888	21,011
82889	21,657
82890	20,861
82891	21,011
82892	21,657
82893	21,077
82894	21,842
82895	20,897
82896	21,077
82897	21,842
82898	20,678
82899	21,266
82900	20,542
82901	20,678
82902	21,266
82903	19,87
82904	20,236
82905	19,794
82906	19,87
82907	20,236
82908	18,87
82909	19,181
82910	18,826
82911	18,87
82912	19,181
82913	23,631
82914	24,018
82915	23,593
82916	23,631
82917	24,018
82918	22,408
82919	21,462
82920	22,618
82921	22,408
82922	21,462
82923	17,473
82924	17,665
82925	17,414
82926	17,473
82927	17,665
82928	14,188
82929	14,346
82930	14,097
82931	14,188
82932	14,346
82933	11,649
82934	11,75
82935	11,605
82936	11,649
82937	11,75
82938	10,132
82939	10,231
82940	10,127
82941	10,132
82942	10,231
82943	11,177
82944	11,297
82945	11,164
82946	11,177
82947	11,297
82948	23,459
82949	24,493
82950	22,266
82951	23,629
82952	24,317
82953	23,459
82954	24,317
82955	24,493
82956	22,266
82957	25,484
82958	23,595
82959	25,147
82960	25,484
82961	23,595
82962	20,287
82963	19,41
82964	20,098
82965	20,287
82966	19,41
82967	17,259
82968	20,701
82969	18,081
82970	19,295
82971	21,263
82972	23,288
82973	23,813
82974	21,918
82975	21,815
82976	20,552
82977	21,043
82978	12,901
82979	10,469
82980	10,471
82981	11,459
82982	11,761
82983	9,7556
82984	10,745
82985	9,8534
82986	14,011
82987	10,809
82988	11,638
82989	11,547
82990	15,053
82991	13,041
82992	14,096
82993	16,137
82994	17,103
82995	18,071
82996	18,469
82997	17,927
82998	22,968
82999	19,12
83000	21,318
83001	25,364
83002	23,682
83003	23,218
83004	23,358
83005	19,08
83006	20,988
83007	19,505
83008	17,89
83009	19,841
83010	20,671
83011	21,16
83012	19,387
83013	21,291
83014	22,4
83015	21,284
83016	21,776
83017	21,862
83018	22,834
83019	21,988
83020	22,041
83021	21,526
83022	22,656
83023	21,876
83024	21,427
83025	21,833
83026	20,508
83027	20,675
83028	22,121
83029	19,183
83030	17,991
83031	19,209
83032	15,338
83033	16,062
83034	16,257
83035	15,412
83036	20,886
83037	22,371
83038	20,693
83039	21,627
83040	19,05
83041	22,046
83042	18,84
83043	20,127
83044	18,762
83045	23,347
83046	19,5
83047	20,666
83048	16,842
83049	16,417
83050	15,752
83051	15,763
83052	18,898
83053	17,103
83054	16,372
83055	16,661
83056	21,72
83057	19,414
83058	18,341
83059	19,449
83060	19,33
83061	23,103
83062	20,467
83063	18,616
83064	18,872
83065	21,378
83066	18,764
83067	21,172
83068	21,481
83069	22,596
83070	21,848
83071	21,001
83072	22,045
83073	21,755
83074	22,746
83075	22,055
83076	22,008
83077	8,8508
83078	8,5284
83079	8,9693
83080	8,6207
83081	8,8879
83082	9,0398
83083	9,3172
83084	8,1315
83085	8,193
83086	8,5
83087	7,7307
83088	8,1193
83089	7,7889
83090	7,3593
83091	7,4315
83092	7,6511
83093	7,0221
83094	7,1251
83095	7,1575
83096	6,743
83097	6,8618
83098	6,8389
83099	6,5323
83100	6,659
83101	6,5343
83102	6,3738
83103	6,2832
83104	6,5032
83105	6,282
83106	6,3966
83107	6,1408
83108	6,2506
83109	6,083
83110	6,3498
83111	6,275
83112	6,3445
83113	6,0959
83114	6,3701
83115	6,196
83116	6,3955
83117	6,5321
83118	6,5026
83119	6,3377
83120	6,7456
83121	6,6623
83122	6,536
83123	7,0161
83124	6,8588
83125	6,8447
83126	7,3271
83127	7,1197
83128	7,2192
83129	7,7084
83130	7,5865
83131	7,4092
83132	8,142
83133	7,7908
83134	8,0444
83135	8,5292
83136	8,571
83137	8,1911
83138	8,8462
83139	8,6064
83140	9,0084
83141	8,8842
83142	9,0315
83143	9,288
83144	19,54
83145	20,451
83146	20,145
83147	20,637
83148	19,001
83149	18,481
83150	19,759
83151	20,977
83152	20,762
83153	21,235
83154	21,094
83155	21,674
83156	21,307
83157	21,269
83158	21,288
83159	21,326
83160	21,833
83161	21,2
83162	21,201
83163	21,035
83164	21,114
83165	21,743
83166	20,525
83167	20,798
83168	19,602
83169	20,22
83170	20,697
83171	18,999
83172	18,379
83173	19,537
83174	12,832
83175	12,03
83176	13,663
83177	14,418
83178	11,22
83179	12,255
83180	13,671
83181	14,723
83182	13,542
83183	14,351
83184	15,81
83185	15,514
83186	14,163
83187	16,677
83188	15,437
83189	16,555
83190	17,311
83191	16,578
83192	18,129
83193	17,445
83194	17,26
83195	18,118
83196	17,597
83197	17,742
83198	17,552
83199	18,083
83200	18,184
83201	17,686
83202	18,216
83203	17,848
83204	17,838
83205	18,54
83206	17,674
83207	18,349
83208	17,768
83209	17,609
83210	18,126
83211	17,933
83212	17,49
83213	17,751
83214	18,041
83215	17,211
83216	17,223
83217	18,007
83218	16,626
83219	17,749
83220	16,506
83221	15,899
83222	15,566
83223	17,073
83224	15,081
83225	16,356
83226	14,594
83227	14,126
83228	13,52
83229	15,495
83230	13,248
83231	12,533
83232	14,623
83233	12,544
83234	11,727
83235	13,962
83236	11,098
83237	12,107
83238	13,373
83239	19,78
83240	20,549
83241	20,294
83242	19,124
83243	18,618
83244	20,076
83245	20,969
83246	20,71
83247	21,262
83248	21,098
83249	21,303
83250	21,312
83251	22,113
83252	21,349
83253	21,349
83254	21,197
83255	21,2
83256	21,082
83257	21,127
83258	20,565
83259	20,845
83260	21,65
83261	19,659
83262	20,241
83263	19,025
83264	18,459
83265	19,699
83266	19,57
83267	15,078
83268	15,895
83269	22,789
83270	22,147
83271	22,213
83272	22,606
83273	9,4723
83274	8,9844
83275	9,3616
83276	8,4741
83277	8,0394
83278	9,0444
83279	6,2638
83280	6,0333
83281	5,7874
83282	5,9183
83283	5,9025
83284	5,2839
83285	5,9862
83286	6,137
83287	5,8732
83288	7,4566
83289	7,965
83290	9,0807
83291	8,5056
83292	9,0341
83293	19,457
83294	18,594
83295	17,553
83296	18,394
83297	18,655
83298	18,055
83299	18,334
83300	16,689
83301	17,41
83302	17,57
83303	17,802
83304	16,096
83305	17,577
83306	19,766
83307	15,626
83308	16,25
83309	16,592
83310	15,279
83311	16,652
83312	15,834
83313	18,208
83314	16,651
83315	18,708
83316	18,646
83317	19,814
83318	21,282
83319	18,298
83320	19,27
83321	18,175
83322	19,659
83323	16,554
83324	17,739
83325	15,682
83326	16,462
83327	17,416
83328	20,858
83329	17,429
83330	15,864
83331	16,335
83332	17,48
83333	15,182
83334	15,979
83335	16,157
83336	15,494
83337	17,319
83338	20,584
83339	16,997
83340	17,357
83341	20,647
83342	17,382
83343	22,599
83344	22,666
83345	22,845
83346	17,214
83347	16,562
83348	17,926
83349	18,474
83350	16,412
83351	17,8
83352	19,959
83353	19,977
83354	19,247
83355	20,775
83356	19,496
83357	17,203
83358	17,492
83359	18,38
83360	17,696
83361	19,506
83362	18,557
83363	18,557
83364	14,991
83365	15,659
83366	14,849
83367	18,224
83368	16,31
83369	15,6
83370	16,379
83371	17,879
83372	16,235
83373	15,735
83374	15,192
83375	14,821
83376	15,075
83377	14,566
83378	14,892
83379	15,744
83380	15,533
83381	17,431
83382	15,31
83383	16,944
83384	16,02
83385	14,859
83386	15,029
83387	14,805
83388	15,627
83389	15,772
83390	14,473
83391	14,851
83392	14,812
83393	14,744
83394	15,69
83395	15,473
83396	12,106
83397	11,55
83398	12,661
83399	13,149
83400	19,588
83401	21,055
83402	19,205
83403	16,56
83404	16,567
83405	16,337
83406	15,827
83407	15,686
83408	15,686
83409	19,11
83410	19,837
83411	20,906
83412	14,435
83413	14,937
83414	14,373
83415	14,788
83416	14,249
83417	14,893
83418	14,406
83419	14,084
83420	14,335
83421	14,731
83422	11,299
83423	11,888
83424	12,78
83425	14,961
83426	14,264
83427	15,387
83428	16,117
83429	21,641
83430	21,34
83431	22,297
83432	21,028
83433	19,315
83434	19,567
83435	20,487
83436	20,57
83437	16,569
83438	15,944
83439	17,693
83440	18,516
83441	20,148
83442	18,492
83443	18,391
83444	17,833
83445	18,222
83446	17,623
83447	16,908
83448	16,851
83449	15,825
83450	15,663
83451	15,56
83452	15,663
83453	18,106
83454	17,408
83455	17,574
83456	14,39
83457	13,92
83458	13,977
83459	14,146
83460	14,04
83461	14,544
83462	14,217
83463	13,807
83464	14,135
83465	13,719
83466	14,184
83467	13,764
83468	14,096
83469	13,463
83470	14,854
83471	13,272
83472	14,38
83473	21,098
83474	22,159
83475	21,41
83476	15,709
83477	15,493
83478	15,599
83479	15,441
83480	16,145
83481	15,903
83482	15,7
83483	15,638
83484	18,224
83485	17,672
83486	12,868
83487	13,062
83488	14,28
83489	13,786
83490	13,764
83491	12,931
83492	13,292
83493	12,65
83494	13,54
83495	13,791
83496	15,487
83497	15,943
83498	17,016
83499	13,631
83500	14,254
83501	13,193
83502	13,63
83503	13,322
83504	14,032
83505	12,954
83506	13,467
83507	13,497
83508	13,452
83509	13,061
83510	13,938
83511	13,456
83512	13,735
83513	13,51
83514	13,067
83515	12,623
83516	13,088
83517	15,961
83518	15,815
83519	17,089
83520	16,994
83521	14,964
83522	14,876
83523	15,834
83524	14,103
83525	14,046
83526	14,848
83527	13,361
83528	13,321
83529	14,007
83530	12,716
83531	12,686
83532	13,284
83533	12,15
83534	12,125
83535	12,657
83536	11,647
83537	11,624
83538	12,106
83539	11,194
83540	11,172
83541	11,615
83542	10,783
83543	10,757
83544	11,173
83545	10,404
83546	10,375
83547	10,77
83548	10,055
83549	10,02
83550	10,401
83551	9,731
83552	9,6889
83553	10,06
83554	9,4303
83555	9,3797
83556	9,7453
83557	9,1516
83558	9,0912
83559	9,4541
83560	8,8945
83561	8,8229
83562	9,1857
83563	8,6588
83564	8,5749
83565	8,9395
83566	8,445
83567	8,3474
83568	8,7158
83569	8,2539
83570	8,1412
83571	8,5151
83572	8,0865
83573	7,9572
83574	8,3382
83575	7,9441
83576	7,7967
83577	8,1865
83578	7,8285
83579	7,661
83580	8,0613
83581	7,7415
83582	7,5519
83583	7,9646
83584	7,6853
83585	7,4714
83586	7,8984
83587	7,6625
83588	7,4219
83589	7,8652
83590	7,6761
83591	7,4059
83592	7,8679
83593	7,7296
83594	7,4269
83595	7,9095
83596	7,8271
83597	7,4884
83598	7,9939
83599	7,9733
83600	7,595
83601	8,1253
83602	8,1741
83603	7,7522
83604	8,3089
83605	8,4367
83606	7,9667
83607	8,551
83608	8,7705
83609	8,2471
83610	8,8594
83611	9,1876
83612	8,6043
83613	9,2443
83614	9,7046
83615	9,0526
83616	9,7197
83617	10,335
83618	9,6111
83619	10,305
83620	10,295
83621	11,101
83622	11,001
83623	11,099
83624	11,121
83625	12,069
83626	11,902
83627	10,302
83628	10,257
83629	10,994
83630	9,6578
83631	9,5594
83632	10,268
83633	9,1349
83634	8,995
83635	9,6786
83636	8,7104
83637	8,5394
83638	9,1975
83639	8,3679
83640	8,1734
83641	8,8057
83642	8,0952
83643	7,8828
83644	8,4892
83645	7,883
83646	7,6566
83647	8,2378
83648	7,724
83649	7,4861
83650	8,0437
83651	7,6122
83652	7,3645
83653	7,9004
83654	7,5425
83655	7,2861
83656	7,8027
83657	7,5108
83658	7,2462
83659	7,7462
83660	7,5134
83661	7,2408
83662	7,7271
83663	7,5473
83664	7,2666
83665	7,742
83666	7,6097
83667	7,3206
83668	7,7881
83669	7,6982
83670	7,4002
83671	7,8628
83672	7,8109
83673	7,5033
83674	7,9641
83675	7,9459
83676	7,628
83677	8,09
83678	8,1018
83679	7,7725
83680	8,239
83681	8,2773
83682	7,9355
83683	8,4099
83684	8,4716
83685	8,1157
83686	8,6017
83687	8,6837
83688	8,3122
83689	8,8135
83690	8,9129
83691	8,5239
83692	9,0449
83693	9,1586
83694	8,75
83695	9,2953
83696	9,42
83697	8,9898
83698	9,5643
83699	9,6958
83700	9,2419
83701	9,8512
83702	9,984
83703	9,505
83704	10,155
83705	10,282
83706	9,7764
83707	10,473
83708	10,584
83709	10,052
83710	10,803
83711	10,883
83712	10,327
83713	11,14
83714	11,17
83715	10,592
83716	11,476
83717	11,429
83718	10,836
83719	11,799
83720	11,644
83721	11,044
83722	12,095
83723	11,794
83724	11,198
83725	12,348
83726	11,284
83727	11,875
83728	12,538
83729	10,485
83730	10,451
83731	11,289
83732	11,174
83733	9,8302
83734	9,7414
83735	10,441
83736	9,2987
83737	9,1677
83738	9,8405
83739	8,8676
83740	8,7046
83741	9,3512
83742	8,5201
83743	8,3332
83744	8,9528
83745	8,2439
83746	8,0389
83747	8,631
83748	8,0295
83749	7,8106
83750	8,3755
83751	7,8697
83752	7,6397
83753	8,1783
83754	7,7584
83755	7,5194
83756	8,0331
83757	7,691
83758	7,4442
83759	7,9348
83760	7,6632
83761	7,4094
83762	7,8789
83763	7,6717
83764	7,4114
83765	7,8619
83766	7,7135
83767	7,4469
83768	7,8804
83769	7,7859
83770	7,5131
83771	7,9318
83772	7,8867
83773	7,6078
83774	8,0135
83775	8,014
83776	7,7289
83777	8,1235
83778	8,1662
83779	7,8747
83780	8,2598
83781	8,3418
83782	8,0436
83783	8,421
83784	8,5397
83785	8,2345
83786	8,6057
83787	8,759
83788	8,4463
83789	8,8129
83790	8,9991
83791	8,6783
83792	9,0419
83793	9,2598
83794	8,9298
83795	9,2924
83796	9,5413
83797	9,2008
83798	9,5644
83799	9,8444
83800	9,4913
83801	9,8586
83802	10,171
83803	9,8021
83804	10,176
83805	10,522
83806	10,134
83807	10,519
83808	10,903
83809	10,491
83810	10,892
83811	11,317
83812	10,874
83813	11,297
83814	11,774
83815	11,291
83816	11,744
83817	12,281
83818	11,746
83819	12,239
83820	12,852
83821	12,25
83822	12,796
83823	13,503
83824	12,815
83825	13,43
83826	14,252
83827	13,455
83828	14,16
83829	15,118
83830	14,184
83831	15,009
83832	15,015
83833	16,118
83834	16,003
83835	11,794
83836	11,284
83837	11,871
83838	12,522
83839	11,643
83840	11,197
83841	12,343
83842	11,428
83843	11,043
83844	12,094
83845	11,169
83846	10,835
83847	11,798
83848	10,882
83849	10,592
83850	11,475
83851	10,583
83852	10,326
83853	11,139
83854	10,281
83855	10,052
83856	10,802
83857	9,983
83858	9,7755
83859	10,472
83860	9,6948
83861	9,5041
83862	10,154
83863	9,419
83864	9,241
83865	9,8501
83866	9,1576
83867	8,9888
83868	9,5632
83869	8,9119
83870	8,7491
83871	9,2942
83872	8,6827
83873	8,5229
83874	9,0438
83875	8,4706
83876	8,3112
83877	8,8125
83878	8,2764
83879	8,1148
83880	8,6007
83881	8,1009
83882	7,9347
83883	8,409
83884	7,9451
83885	7,7717
83886	8,2382
83887	7,8102
83888	7,6273
83889	8,0893
83890	7,6976
83891	7,5027
83892	7,9634
83893	7,6092
83894	7,3997
83895	7,8623
83896	7,547
83897	7,3201
83898	7,7877
83899	7,5133
83900	7,2663
83901	7,7418
83902	7,5109
83903	7,2407
83904	7,7271
83905	7,5428
83906	7,2463
83907	7,7464
83908	7,6128
83909	7,2865
83910	7,8032
83911	7,725
83912	7,3652
83913	7,9012
83914	7,8844
83915	7,4872
83916	8,0449
83917	8,097
83918	7,6581
83919	8,2394
83920	8,3702
83921	7,8848
83922	8,4913
83923	8,7134
83924	8,176
83925	8,8084
83926	9,1387
83927	8,5427
83928	9,2009
83929	9,6626
83930	8,9993
83931	9,6828
83932	10,308
83933	9,5646
83934	10,273
83935	10,264
83936	11,106
83937	11,001
83938	13,991
83939	14,519
83940	15,551
83941	13,562
83942	13,65
83943	13,367
83944	13,699
83945	13,459
83946	13,347
83947	13,151
83948	13,263
83949	13,237
83950	12,897
83951	12,982
83952	11,908
83953	11,799
83954	12,551
83955	13,06
83956	12,792
83957	13,088
83958	13,554
83959	13,564
83960	13,191
83961	13,134
83962	17,356
83963	17,379
83964	18,444
83965	18,228
83966	18,102
83967	18,274
83968	19,306
83969	18,861
83970	15,986
83971	15,696
83972	16,101
83973	16,551
83974	12,2
83975	11,999
83976	12,87
83977	12,509
83978	12,528
83979	12,908
83980	13,181
83981	12,96
83982	12,54
83983	12,832
83984	13,477
83985	13,041
83986	13,179
83987	12,74
83988	13,251
83989	12,576
83990	12,927
83991	15,549
83992	16,229
83993	15,728
83994	15,939
83995	16,413
83996	15,544
83997	15,849
83998	12,5
83999	12,985
84000	12,617
84001	12,217
84002	13,043
84003	12,504
84004	13,113
84005	12,618
84006	12,309
84007	12,043
84008	12,642
84009	12,37
84010	19,375
84011	19,093
84012	18,733
84013	17,015
84014	17,181
84015	17,701
84016	15,241
84017	15,243
84018	14,926
84019	14,824
84020	14,88
84021	14,648
84022	14,755
84023	15,032
84024	14,69
84025	15,059
84026	12,302
84027	12,025
84028	12,539
84029	12,309
84030	11,604
84031	11,161
84032	11,292
84033	11,861
84034	12,803
84035	12,061
84036	12,293
84037	10,789
84038	10,855
84039	11,45
84040	11,268
84041	11,748
84042	12,076
84043	11,447
84044	11,685
84045	12,316
84046	11,922
84047	12,048
84048	12,223
84049	12,206
84050	12,58
84051	12,357
84052	12,353
84053	12,717
84054	11,376
84055	11,557
84056	12,003
84057	11,759
84058	14,39
84059	14,546
84060	15,251
84061	14,907
84062	13,652
84063	13,772
84064	14,126
84065	13,012
84066	13,105
84067	13,447
84068	12,449
84069	12,52
84070	12,85
84071	11,948
84072	12,003
84073	12,32
84074	11,498
84075	11,539
84076	11,843
84077	11,09
84078	11,12
84079	11,412
84080	10,717
84081	10,737
84082	11,02
84083	10,376
84084	10,387
84085	10,66
84086	10,063
84087	10,064
84088	10,331
84089	9,7766
84090	9,7684
84091	10,029
84092	9,5151
84093	9,4969
84094	9,7522
84095	9,2782
84096	9,2494
84097	9,5008
84098	9,0662
84099	9,0259
84100	9,2746
84101	8,8797
84102	8,8267
84103	9,0739
84104	8,72
84105	8,6529
84106	8,8998
84107	8,5884
84108	8,5057
84109	8,7537
84110	8,4868
84111	8,3868
84112	8,6372
84113	8,4173
84114	8,2979
84115	8,5525
84116	8,3826
84117	8,2415
84118	8,502
84119	8,3852
84120	8,22
84121	8,4883
84122	8,4283
84123	8,2364
84124	8,5145
84125	8,5154
84126	8,2938
84127	8,5838
84128	8,6504
84129	8,3961
84130	8,6999
84131	8,8376
84132	8,5472
84133	8,8667
84134	9,0823
84135	8,7522
84136	9,089
84137	9,3907
84138	9,0169
84139	9,3721
84140	9,7712
84141	9,3486
84142	9,7229
84143	10,235
84144	9,7571
84145	10,15
84146	10,256
84147	10,659
84148	10,218
84149	10,232
84150	10,777
84151	10,654
84152	9,7522
84153	9,7295
84154	10,142
84155	9,3684
84156	9,3168
84157	9,7134
84158	9,0558
84159	8,9798
84160	9,3606
84161	8,8062
84162	8,7089
84163	9,0746
84164	8,6132
84165	8,4967
84166	8,8489
84167	8,4716
84168	8,3374
84169	8,678
84170	8,3771
84171	8,226
84172	8,5572
84173	8,3258
84174	8,1583
84175	8,4826
84176	8,3142
84177	8,1306
84178	8,4507
84179	8,3395
84180	8,1398
84181	8,4582
84182	8,3989
84183	8,1829
84184	8,5025
84185	8,4902
84186	8,2576
84187	8,581
84188	8,6114
84189	8,3617
84190	8,6916
84191	8,761
84192	8,4933
84193	8,8325
84194	8,9376
84195	8,6511
84196	9,0024
84197	9,1404
84198	8,8339
84199	9,2002
84200	9,3689
84201	9,0409
84202	9,4253
84203	9,6227
84204	9,2716
84205	9,6773
84206	9,902
84207	9,5257
84208	9,9564
84209	10,207
84210	9,8033
84211	10,263
84212	10,538
84213	10,104
84214	10,597
84215	10,895
84216	10,429
84217	10,961
84218	11,279
84219	10,776
84220	11,354
84221	11,689
84222	11,146
84223	11,777
84224	12,123
84225	11,536
84226	12,232
84227	12,58
84228	11,945
84229	12,718
84230	13,057
84231	12,366
84232	13,235
84233	12,793
84234	13,544
84235	13,782
84236	10,357
84237	10,382
84238	10,936
84239	10,798
84240	9,8799
84241	9,8695
84242	10,267
84243	9,4866
84244	9,448
84245	9,8273
84246	9,1652
84247	9,1034
84248	9,4639
84249	8,9072
84250	8,8255
84251	9,1677
84252	8,7061
84253	8,6069
84254	8,9318
84255	8,5569
84256	8,4418
84257	8,7507
84258	8,4551
84259	8,3253
84260	8,62
84261	8,3969
84262	8,2532
84263	8,5356
84264	8,3789
84265	8,2219
84266	8,4939
84267	8,398
84268	8,2282
84269	8,4917
84270	8,4515
84271	8,2692
84272	8,5261
84273	8,537
84274	8,3424
84275	8,5945
84276	8,6523
84277	8,4455
84278	8,6944
84279	8,7955
84280	8,5766
84281	8,8238
84282	8,965
84283	8,734
84284	8,9809
84285	9,1597
84286	8,9164
84287	9,1641
84288	9,3785
84289	9,1227
84290	9,3724
84291	9,6211
84292	9,3522
84293	9,6051
84294	9,8875
84295	9,6046
84296	9,8618
84297	10,178
84298	9,8803
84299	10,143
84300	10,495
84301	10,18
84302	10,449
84303	10,84
84304	10,506
84305	10,782
84306	11,216
84307	10,86
84308	11,145
84309	11,628
84310	11,246
84311	11,542
84312	12,083
84313	11,669
84314	11,977
84315	12,59
84316	12,138
84317	12,458
84318	13,16
84319	12,661
84320	12,994
84321	13,808
84322	13,252
84323	13,597
84324	14,554
84325	13,928
84326	14,284
84327	14,711
84328	15,425
84329	15,074
84330	13,543
84331	13,212
84332	14,028
84333	14,351
84334	13,055
84335	12,792
84336	13,78
84337	12,579
84338	12,365
84339	13,234
84340	12,122
84341	11,943
84342	12,716
84343	11,687
84344	11,535
84345	12,23
84346	11,278
84347	11,145
84348	11,776
84349	10,894
84350	10,775
84351	11,352
84352	10,537
84353	10,427
84354	10,959
84355	10,206
84356	10,103
84357	10,596
84358	9,9009
84359	9,8022
84360	10,262
84361	9,6216
84362	9,5246
84363	9,9552
84364	9,3678
84365	9,2705
84366	9,6762
84367	9,1394
84368	9,0399
84369	9,4242
84370	8,9367
84371	8,8329
84372	9,1992
84373	8,7601
84374	8,6502
84375	9,0015
84376	8,6107
84377	8,4925
84378	8,8317
84379	8,4896
84380	8,361
84381	8,6909
84382	8,3985
84383	8,2571
84384	8,5805
84385	8,3393
84386	8,1826
84387	8,5021
84388	8,3142
84389	8,1396
84390	8,4581
84391	8,326
84392	8,1307
84393	8,4507
84394	8,3776
84395	8,1586
84396	8,4829
84397	8,4724
84398	8,2265
84399	8,5578
84400	8,6144
84401	8,3383
84402	8,6789
84403	8,8078
84404	8,498
84405	8,8503
84406	9,0579
84407	8,7106
84408	9,0765
84409	9,371
84410	8,9821
84411	9,3629
84412	9,7555
84413	9,3196
84414	9,7164
84415	10,223
84416	9,7331
84417	10,146
84418	10,665
84419	10,236
84420	10,789
84421	14,89
84422	15,116
84423	14,804
84424	14,436
84425	14,569
84426	12,609
84427	12,405
84428	12,134
84429	12,699
84430	12,447
84431	12,464
84432	12,203
84433	12,148
84434	12,264
84435	12,449
84436	11,898
84437	11,972
84438	12,308
84439	11,623
84440	11,838
84441	11,408
84442	12,104
84443	11,801
84444	11,445
84445	11,689
84446	12,004
84447	11,74
84448	11,532
84449	11,838
84450	12,209
84451	11,768
84452	16,669
84453	16,051
84454	16,204
84455	17,006
84456	16,202
84457	16,049
84458	16,668
84459	11,841
84460	11,852
84461	11,563
84462	11,584
84463	11,964
84464	11,754
84465	11,781
84466	11,699
84467	11,539
84468	11,886
84469	12,103
84470	11,731
84471	10,973
84472	10,583
84473	11,376
84474	11,672
84475	11,946
84476	11,578
84477	10,958
84478	10,821
84479	11,152
84480	16,395
84481	17,366
84482	16,906
84483	16,942
84484	16,537
84485	16,918
84486	17,512
84487	11,738
84488	11,719
84489	11,355
84490	11,453
84491	11,281
84492	11,74
84493	11,396
84494	11,613
84495	11,341
84496	12,308
84497	12,073
84498	11,828
84499	10,829
84500	11,171
84501	11,108
84502	10,913
84503	11,187
84504	10,992
84505	11,234
84506	11,223
84507	15,752
84508	15,336
84509	15,196
84510	16,83
84511	16,937
84512	16,481
84513	17,376
84514	17,617
84515	17,459
84516	17,007
84517	16,951
84518	16,475
84519	17,419
84520	16,79
84521	11,311
84522	11,347
84523	11,038
84524	11,169
84525	11,038
84526	11,384
84527	11,177
84528	11,266
84529	11,598
84530	11,018
84531	11,267
84532	11,144
84533	11,408
84534	11,015
84535	11,549
84536	11,667
84537	11,939
84538	11,385
84539	11,548
84540	11,04
84541	11,157
84542	10,867
84543	15,512
84544	15,985
84545	17,183
84546	16,332
84547	16,669
84548	16,048
84549	15,988
84550	15,66
84551	10,89
84552	10,986
84553	11,338
84554	11,148
84555	10,765
84556	11,241
84557	10,866
84558	11,235
84559	10,716
84560	10,859
84561	10,524
84562	10,722
84563	10,73
84564	15,946
84565	15,647
84566	11,011
84567	10,988
84568	10,756
84569	10,76
84570	10,869
84571	11,003
84572	10,876
84573	10,74
84574	10,565
84575	10,9
84576	10,692
84577	10,411
84578	10,645
84579	10,304
84580	10,744
84581	10,666
84582	11,094
84583	10,975
84584	13,179
84585	13,119
84586	13,401
84587	13,474
84588	10,447
84589	10,606
84590	10,576
84591	10,391
84592	10,542
84593	10,746
84594	10,503
84595	10,034
84596	10,282
84597	10,457
84598	10,162
84599	10,076
84600	10,504
84601	10,165
84602	10,695
84603	10,738
84604	10,406
84605	10,491
84606	10,284
84607	10,118
84608	10,296
84609	16,28
84610	15,494
84611	15,757
84612	15,24
84613	14,887
84614	15,178
84615	12,891
84616	13,184
84617	12,884
84618	10,499
84619	10,303
84620	10,303
84621	10,431
84622	10,12
84623	10,231
84624	10,241
84625	10,3
84626	10,095
84627	10,502
84628	10,411
84629	10,007
84630	10,125
84631	10,467
84632	10,16
84633	10,478
84634	10,171
84635	10,798
84636	10,434
84637	10,346
84638	10,524
84639	10,267
84640	10,086
84641	10,354
84642	10,016
84643	10,424
84644	12,936
84645	12,734
84646	13,203
84647	12,951
84648	12,828
84649	13,005
84650	12,729
84651	10,041
84652	10,298
84653	10,229
84654	9,978
84655	9,671
84656	9,8887
84657	9,7724
84658	9,8703
84659	10,111
84660	9,8249
84661	9,8262
84662	9,7659
84663	10,14
84664	12,83
84665	12,999
84666	12,574
84667	12,714
84668	12,544
84669	12,611
84670	10,106
84671	10,01
84672	10,015
84673	9,8894
84674	9,8597
84675	9,8793
84676	9,667
84677	9,6813
84678	9,7845
84679	10,046
84680	9,7619
84681	9,587
84682	9,8771
84683	9,625
84684	10,093
84685	10,479
84686	10,237
84687	10,286
84688	10,125
84689	10,213
84690	9,8667
84691	9,9814
84692	10,28
84693	9,9529
84694	9,8971
84695	10,076
84696	9,5234
84697	9,8815
84698	9,5887
84699	13,829
84700	13,742
84701	13,506
84702	14,159
84703	10,1
84704	9,7782
84705	9,911
84706	9,7452
84707	9,7839
84708	9,7087
84709	9,5541
84710	9,3647
84711	9,4384
84712	9,4161
84713	9,6003
84714	9,6896
84715	9,3572
84716	13,539
84717	14,189
84718	13,817
84719	13,925
84720	14,342
84721	14,549
84722	14,038
84723	9,4556
84724	9,6842
84725	9,621
84726	9,447
84727	9,4788
84728	9,7853
84729	9,8581
84730	9,5497
84731	9,4473
84732	9,5572
84733	9,6658
84734	9,3851
84735	9,2953
84736	9,2509
84737	9,5306
84738	9,8695
84739	9,8234
84740	9,6047
84741	9,616
84742	9,8776
84743	9,919
84744	9,7612
84745	9,3421
84746	9,1291
84747	9,4061
84748	9,0657
84749	9,5589
84750	9,633
84751	9,2775
84752	9,4897
84753	9,1629
84754	9,2147
84755	11,377
84756	11,554
84757	11,764
84758	11,548
84759	11,012
84760	11,179
84761	11,172
84762	10,669
84763	10,827
84764	10,817
84765	10,349
84766	10,499
84767	10,483
84768	10,053
84769	10,195
84770	10,172
84771	9,7816
84772	9,9153
84773	9,8835
84774	9,5367
84775	9,6615
84776	9,6208
84777	9,3205
84778	9,4351
84779	9,3855
84780	9,1353
84781	9,2383
84782	9,1801
84783	8,9841
84784	9,0734
84785	9,0076
84786	8,8698
84787	8,9434
84788	8,8711
84789	8,7958
84790	8,8511
84791	8,774
84792	8,7655
84793	8,7999
84794	8,7197
84795	8,782
84796	8,7929
84797	8,7115
84798	8,8486
84799	8,8335
84800	8,7527
84801	8,9681
84802	8,9247
84803	8,8462
84804	9,143
84805	9,0695
84806	8,9943
84807	9,3758
84808	9,2706
84809	9,1994
84810	9,5306
84811	9,6684
84812	9,463
84813	9,2499
84814	9,3054
84815	9,3618
84816	9,4695
84817	9,0891
84818	9,1726
84819	9,1153
84820	8,9851
84821	9,0407
84822	8,9835
84823	8,9357
84824	8,9635
84825	8,9081
84826	8,9384
84827	8,9386
84828	8,887
84829	8,9904
84830	8,9632
84831	8,9177
84832	9,0893
84833	9,0347
84834	8,9976
84835	9,2323
84836	9,1503
84837	9,1241
84838	9,417
84839	9,3076
84840	9,2945
84841	9,6413
84842	9,5045
84843	9,5063
84844	9,9036
84845	9,7393
84846	9,7575
84847	10,203
84848	10,01
84849	10,047
84850	10,538
84851	10,317
84852	10,372
84853	10,91
84854	10,66
84855	10,734
84856	11,318
84857	11,038
84858	11,133
84859	11,766
84860	11,454
84861	11,569
84862	12,254
84863	11,909
84864	12,044
84865	12,407
84866	12,788
84867	12,562
84868	9,0228
84869	9,1315
84870	9,2134
84871	9,0576
84872	8,8864
84873	8,9705
84874	8,893
84875	8,8017
84876	8,862
84877	8,7819
84878	8,7663
84879	8,8032
84880	8,7219
84881	8,7773
84882	8,7914
84883	8,7105
84884	8,8315
84885	8,8235
84886	8,7448
84887	8,9259
84888	8,8963
84889	8,8217
84890	9,0573
84891	9,007
84892	8,9379
84893	9,2228
84894	9,1524
84895	9,0903
84896	9,4195
84897	9,3299
84898	9,2758
84899	9,6449
84900	9,537
84901	9,4915
84902	9,8969
84903	9,7715
84904	9,7348
84905	10,174
84906	10,032
84907	10,003
84908	10,474
84909	10,316
84910	10,296
84911	10,796
84912	10,624
84913	10,61
84914	11,14
84915	10,954
84916	10,945
84917	11,505
84918	11,307
84919	11,301
84920	11,683
84921	11,892
84922	11,676
84923	12,787
84924	12,95
84925	13,371
84926	13,124
84927	12,253
84928	12,405
84929	12,56
84930	11,764
84931	11,907
84932	12,042
84933	11,316
84934	11,452
84935	11,567
84936	10,908
84937	11,037
84938	11,131
84939	10,536
84940	10,658
84941	10,733
84942	10,201
84943	10,316
84944	10,371
84945	9,9022
84946	10,009
84947	10,045
84948	9,6401
84949	9,738
84950	9,7562
84951	9,4159
84952	9,5034
84953	9,5051
84954	9,2313
84955	9,3067
84956	9,2934
84957	9,0886
84958	9,1495
84959	9,1233
84960	8,99
84961	9,0341
84962	8,997
84963	8,9382
84964	8,9629
84965	8,9174
84966	8,9359
84967	8,9386
84968	8,8869
84969	8,9856
84970	8,9639
84971	8,9084
84972	9,09
84973	9,0414
84974	8,9842
84975	9,2512
84976	9,1737
84977	9,1164
84978	9,4713
84979	9,3633
84980	9,3069
84981	9,6126
84982	9,7521
84983	12,133
84984	12,358
84985	12,551
84986	12,294
84987	9,2715
84988	9,4842
84989	9,2826
84990	9,1138
84991	9,0809
84992	9,3595
84993	8,959
84994	9,1521
84995	8,891
84996	9,2354
84997	9,2585
84998	9,4939
84999	9,5454
85000	9,3108
85001	8,9307
85002	9,1866
85003	8,8619
85004	13,361
85005	13,547
85006	13,802
85007	13,168
85008	13,475
85009	13,213
85010	13,591
85011	13,063
85012	13,693
85013	13,308
85014	11,772
85015	11,91
85016	11,66
85017	12,047
85018	11,943
85019	11,731
85020	11,887
85021	9,4242
85022	9,4554
85023	9,302
85024	9,282
85025	9,1214
85026	9,3997
85027	9,196
85028	8,8742
85029	9,1095
85030	9,1769
85031	8,9207
85032	8,8878
85033	9,1664
85034	8,9152
85035	8,7735
85036	8,7028
85037	9,052
85038	9,2324
85039	8,9847
85040	9,0466
85041	8,761
85042	8,9966
85043	8,6827
85044	9,3833
85045	9,1631
85046	9,1952
85047	13,172
85048	13,55
85049	12,972
85050	11,51
85051	11,895
85052	11,616
85053	11,506
85054	11,661
85055	11,783
85056	11,401
85057	9,2434
85058	9,0505
85059	9,0971
85060	12,841
85061	12,328
85062	12,619
85063	12,882
85064	12,525
85065	11,24
85066	11,615
85067	11,334
85068	9,1291
85069	9,1322
85070	8,9817
85071	8,9958
85072	9,0485
85073	8,7916
85074	8,86
85075	8,6203
85076	8,8305
85077	8,6421
85078	8,7114
85079	8,4798
85080	8,7618
85081	8,5131
85082	8,8903
85083	8,675
85084	8,932
85085	8,7442
85086	8,9273
85087	8,9029
85088	9,081
85089	9,1411
85090	8,7503
85091	8,7332
85092	8,9734
85093	8,5614
85094	8,5461
85095	8,7882
85096	8,3715
85097	8,3528
85098	8,5967
85099	8,525
85100	8,8534
85101	8,599
85102	8,6869
85103	8,7677
85104	8,8936
85105	8,9451
85106	9,121
85107	9,242
85108	9,2312
85109	9,0551
85110	8,9627
85111	8,9882
85112	9,2241
85113	9,1408
85114	8,8394
85115	8,5288
85116	8,6142
85117	10,904
85118	11,12
85119	11,272
85120	11,028
85121	10,553
85122	10,762
85123	10,667
85124	10,22
85125	10,422
85126	10,322
85127	9,9079
85128	10,103
85129	9,9963
85130	9,619
85131	9,8068
85132	9,6916
85133	9,3559
85134	9,535
85135	9,4109
85136	9,1217
85137	9,2906
85138	9,1574
85139	8,9199
85140	9,0765
85141	8,9348
85142	8,7542
85143	8,8962
85144	8,7469
85145	8,6284
85146	8,7532
85147	8,5977
85148	8,5464
85149	8,6511
85150	8,4911
85151	8,5118
85152	8,5937
85153	8,4312
85154	8,5278
85155	8,5844
85156	8,4213
85157	8,5971
85158	8,6262
85159	8,4642
85160	8,7217
85161	8,7217
85162	8,5622
85163	8,8728
85164	8,7164
85165	8,764
85166	8,8726
85167	8,8668
85168	8,7188
85169	8,7191
85170	8,7985
85171	8,645
85172	8,7304
85173	8,7806
85174	8,6291
85175	8,7959
85176	8,8168
85177	8,6695
85178	8,9127
85179	8,9046
85180	8,7639
85181	9,0782
85182	9,0412
85183	8,9094
85184	9,2892
85185	9,2238
85186	9,103
85187	9,5431
85188	9,4497
85189	9,3415
85190	9,8374
85191	9,7164
85192	9,6221
85193	10,17
85194	10,022
85195	9,9423
85196	10,539
85197	10,365
85198	10,3
85199	10,945
85200	10,744
85201	10,693
85202	11,386
85203	11,159
85204	11,122
85205	11,864
85206	11,611
85207	11,585
85208	12,084
85209	12,101
85210	12,381
85211	8,5482
85212	8,6559
85213	8,6365
85214	8,4948
85215	8,512
85216	8,5947
85217	8,4319
85218	8,5256
85219	8,5838
85220	8,4208
85221	8,5861
85222	8,6203
85223	8,459
85224	8,6903
85225	8,7012
85226	8,5435
85227	8,8346
85228	8,8232
85229	8,6707
85230	9,0154
85231	8,9827
85232	8,8371
85233	9,2292
85234	9,1764
85235	9,0387
85236	9,4724
85237	9,4008
85238	9,2718
85239	9,7421
85240	9,6531
85241	9,533
85242	10,035
85243	9,9305
85244	9,8189
85245	10,35
85246	10,231
85247	10,127
85248	10,683
85249	10,551
85250	10,454
85251	11,034
85252	10,891
85253	10,798
85254	11,249
85255	11,399
85256	11,155
85257	11,863
85258	12,083
85259	12,099
85260	12,379
85261	11,385
85262	11,609
85263	11,583
85264	10,943
85265	11,157
85266	11,12
85267	10,538
85268	10,742
85269	10,691
85270	10,168
85271	10,363
85272	10,298
85273	9,8359
85274	10,02
85275	9,9406
85276	9,5417
85277	9,7149
85278	9,6206
85279	9,288
85280	9,4484
85281	9,3401
85282	9,0771
85283	9,2227
85284	9,1018
85285	8,9119
85286	9,0403
85287	8,9084
85288	8,7953
85289	8,904
85290	8,7632
85291	8,7302
85292	8,8165
85293	8,6691
85294	8,7192
85295	8,7806
85296	8,6291
85297	8,7645
85298	8,7988
85299	8,6453
85300	8,8733
85301	8,8677
85302	8,7195
85303	8,9507
85304	9,1707
85305	9,1948
85306	9,0077
85307	8,4673
85308	8,6692
85309	8,4988
85310	8,6646
85311	8,1902
85312	8,1636
85313	8,4093
85314	8,6092
85315	8,4047
85316	8,4997
85317	8,4661
85318	8,668
85319	8,6632
85320	8,4978
85321	11,81
85322	12,33
85323	12,002
85324	12,226
85325	12,397
85326	12,056
85327	12,597
85328	12,068
85329	12,41
85330	11,888
85331	12,131
85332	12,305
85333	11,786
85334	11,729
85335	12,359
85336	12,523
85337	12,022
85338	11,808
85339	11,997
85340	11,454
85341	11,308
85342	11,19
85343	11,566
85344	11,132
85345	10,866
85346	10,961
85347	8,5333
85348	8,4525
85349	8,6863
85350	8,7634
85351	8,4179
85352	8,6031
85353	8,4124
85354	8,2586
85355	8,2886
85356	8,4583
85357	8,0258
85358	7,9875
85359	8,2349
85360	8,5806
85361	8,8269
85362	8,6609
85363	8,8943
85364	8,7284
85365	8,7907
85366	8,9473
85367	8,8178
85368	8,8147
85369	8,2877
85370	8,4569
85371	8,2574
85372	8,6771
85373	8,7638
85374	8,613
85375	8,8109
85376	8,7555
85377	8,7416
85378	8,635
85379	8,661
85380	8,558
85381	8,4767
85382	8,6511
85383	8,7118
85384	8,5466
85385	8,7215
85386	8,6016
85387	8,8791
85388	8,6749
85389	8,7571
85390	8,3163
85391	8,6157
85392	8,4049
85393	8,2376
85394	8,3818
85395	8,1657
85396	8,429
85397	8,269
85398	8,2344
85399	8,0544
85400	8,0769
85401	8,2517
85402	7,8848
85403	7,8322
85404	8,0808
85405	8,8539
85406	8,8707
85407	8,9991
85408	8,9692
85409	8,4077
85410	8,6214
85411	8,4971
85412	8,3985
85413	8,2253
85414	8,3262
85415	8,2995
85416	8,492
85417	8,5729
85418	8,328
85419	8,1773
85420	8,1143
85421	8,3589
85422	8,4824
85423	8,4368
85424	7,7777
85425	7,9107
85426	7,9623
85427	7,7258
85428	9,9318
85429	10,207
85430	10,302
85431	10,015
85432	8,0361
85433	8,1195
85434	7,8495
85435	8,0379
85436	8,0301
85437	7,871
85438	7,8645
85439	7,8743
85440	8,0552
85441	7,6976
85442	7,6905
85443	7,878
85444	7,5333
85445	7,7274
85446	7,5603
85447	8,2047
85448	8,0224
85449	8,2916
85450	8,1228
85451	7,7035
85452	7,9522
85453	7,7719
85454	8,39
85455	8,5083
85456	8,5645
85457	8,4719
85458	8,8403
85459	8,7246
85460	8,7481
85461	8,1271
85462	7,9637
85463	8,0743
85464	8,2075
85465	8,0227
85466	7,6778
85467	7,8449
85468	7,6072
85469	9,9922
85470	10,167
85471	9,9131
85472	10,261
85473	8,2745
85474	8,1522
85475	8,2569
85476	7,7471
85477	7,8917
85478	7,998
85479	7,8644
85480	9,7267
85481	10,08
85482	9,8047
85483	9,6531
85484	9,8461
85485	9,5803
85486	8,3753
85487	8,4238
85488	8,5013
85489	8,2796
85490	7,8511
85491	7,6856
85492	7,6777
85493	7,5317
85494	7,3906
85495	7,3864
85496	7,5105
85497	7,6407
85498	7,6256
85499	8,5645
85500	8,5504
85501	8,6453
85502	8,563
85503	7,7609
85504	7,5241
85505	7,6124
85506	7,3854
85507	7,3898
85508	7,5307
85509	7,5321
85510	10,885
85511	11,042
85512	10,581
85513	10,7
85514	7,2756
85515	7,4077
85516	7,2562
85517	10,713
85518	10,393
85519	10,871
85520	10,513
85521	9,4739
85522	9,7374
85523	9,3874
85524	8,483
85525	8,5181
85526	8,4102
85527	8,4671
85528	8,4484
85529	8,2575
85530	8,3506
85531	7,7195
85532	7,6186
85533	7,7707
85534	7,8646
85535	7,6075
85536	7,4842
85537	7,5572
85538	7,4223
85539	7,7018
85540	7,8122
85541	7,9297
85542	7,8359
85543	7,2541
85544	7,4231
85545	7,3218
85546	7,3661
85547	7,4117
85548	7,2993
85549	7,4024
85550	7,6997
85551	7,8105
85552	7,9289
85553	7,8339
85554	7,207
85555	7,3205
85556	7,1606
85557	7,4218
85558	7,3063
85559	7,2659
85560	7,607
85561	7,5565
85562	7,4839
85563	7,1152
85564	7,1607
85565	7,2155
85566	9,6002
85567	9,4616
85568	9,2035
85569	9,2034
85570	7,5858
85571	7,8243
85572	7,6969
85573	7,4859
85574	7,5335
85575	7,3965
85576	7,515
85577	7,6313
85578	7,5726
85579	7,4437
85580	7,7522
85581	7,8215
85582	7,6871
85583	7,5993
85584	7,0735
85585	7,0593
85586	7,1496
85587	7,1654
85588	7,013
85589	7,0341
85590	7,0995
85591	8,4909
85592	8,4631
85593	8,4557
85594	8,4619
85595	8,4096
85596	8,3467
85597	8,4435
85598	8,4058
85599	7,4843
85600	7,5793
85601	7,6122
85602	7,1809
85603	7,2757
85604	7,1111
85605	8,4311
85606	8,7308
85607	8,6766
85608	8,4706
85609	8,1638
85610	8,3955
85611	8,1825
85612	7,9339
85613	8,1472
85614	7,9333
85615	7,7486
85616	7,9397
85617	7,7263
85618	7,6129
85619	7,778
85620	7,569
85621	7,6674
85622	7,5316
85623	7,4624
85624	7,7527
85625	7,8219
85626	7,6873
85627	7,5996
85628	7,8815
85629	7,9213
85630	7,6936
85631	8,0702
85632	8,0813
85633	7,8506
85634	8,3143
85635	8,2981
85636	8,0666
85637	8,6084
85638	8,5667
85639	8,3367
85640	8,9503
85641	8,8818
85642	8,6558
85643	9,3335
85644	9,2427
85645	9,0195
85646	9,6365
85647	9,7446
85648	9,4222
85649	7,5696
85650	7,5142
85651	7,6361
85652	7,4336
85653	7,6788
85654	7,7209
85655	7,5126
85656	7,838
85657	7,8567
85658	7,6453
85659	8,0428
85660	8,039
85661	7,8279
85662	8,2879
85663	8,2633
85664	8,0549
85665	8,5651
85666	8,5245
85667	8,321
85668	8,8123
85669	8,8719
85670	8,6187
85671	8,9432
85672	9,2358
85673	9,316
85674	9,0078
85675	8,6051
85676	8,8793
85677	8,6551
85678	8,312
85679	8,5643
85680	8,3369
85681	8,069
85682	8,2967
85683	8,0654
85684	7,8805
85685	8,0802
85686	7,8496
85687	7,9205
85688	7,6929
85689	7,0411
85690	6,9992
85691	7,1162
85692	7,5821
85693	7,4879
85694	7,6166
85695	8,9877
85696	9,0529
85697	8,7855
85698	7,6057
85699	7,41
85700	8,1869
85701	8,276
85702	8,1201
85703	8,2294
85704	7,3645
85705	7,4707
85706	7,0782
85707	7,0122
85708	6,991
85709	7,049
85710	6,9821
85711	7,1081
85712	7,2754
85713	7,2311
85714	7,1664
85715	7,1154
85716	6,9506
85717	6,9457
85718	7,022
85719	7,1733
85720	7,2334
85721	7,3506
85722	7,2962
85723	7,9396
85724	7,876
85725	8,0586
85726	8,018
85727	7,3711
85728	7,2913
85729	7,409
85730	7,2689
85731	7,102
85732	7,1895
85733	8,7898
85734	8,4918
85735	8,8599
85736	8,5496
85737	7,1565
85738	7,0887
85739	7,2353
85740	7,1759
85741	7,4769
85742	7,4458
85743	7,3307
85744	7,2826
85745	7,1355
85746	7,0721
85747	7,0083
85748	6,8964
85749	6,9849
85750	6,9294
85751	7,1387
85752	7,029
85753	7,071
85754	7,1464
85755	7,2604
85756	7,242
85757	8,0063
85758	8,2591
85759	8,3064
85760	8,0396
85761	7,7402
85762	7,9684
85763	7,7606
85764	7,5212
85765	7,7224
85766	7,5219
85767	7,5229
85768	7,351
85769	7,3421
85770	7,4802
85771	7,3345
85772	7,4491
85773	7,2877
85774	7,1947
85775	7,2501
85776	7,093
85777	7,2905
85778	7,321
85779	7,1565
85780	7,4424
85781	7,4482
85782	7,2781
85783	7,645
85784	7,6286
85785	7,4551
85786	7,8963
85787	7,8559
85788	7,6853
85789	8,128
85790	8,1891
85791	7,9589
85792	8,2531
85793	8,3231
85794	8,0214
85795	8,1197
85796	7,0509
85797	7,02
85798	6,9776
85799	6,9475
85800	6,9545
85801	6,9295
85802	7,0321
85803	7,0071
85804	6,938
85805	7,0013
85806	6,9277
85807	7,1283
85808	7,0291
85809	7,1108
85810	7,9795
85811	8,0354
85812	7,7258
85813	7,8209
85814	6,8852
85815	6,8684
85816	6,8631
85817	6,8406
85818	19,509
85819	20,353
85820	20,147
85821	18,218
85822	19,637
85823	16,958
85824	17,684
85825	18,59
85826	15,545
85827	16,486
85828	16,63
85829	13,823
85830	15,016
85831	14,361
85832	12,01
85833	13,35
85834	12,13
85835	10,307
85836	11,68
85837	10,135
85838	8,8509
85839	10,163
85840	8,4844
85841	7,6772
85842	8,8868
85843	7,187
85844	6,7691
85845	7,8627
85846	6,2055
85847	6,0881
85848	7,0671
85849	5,4861
85850	5,5907
85851	6,464
85852	4,9746
85853	5,2374
85854	6,0162
85855	4,6232
85856	4,9954
85857	5,691
85858	4,3934
85859	4,8393
85860	5,4621
85861	4,2553
85862	4,7497
85863	5,3088
85864	4,1866
85865	4,7122
85866	5,2155
85867	4,1708
85868	4,7161
85869	5,1705
85870	4,1961
85871	4,7536
85872	5,1649
85873	4,2538
85874	4,8187
85875	5,1921
85876	4,3377
85877	4,907
85878	5,2468
85879	4,443
85880	5,0148
85881	5,3252
85882	4,5664
85883	5,1394
85884	5,4238
85885	4,7049
85886	5,2782
85887	5,5399
85888	4,8564
85889	5,4291
85890	5,6712
85891	5,0188
85892	5,59
85893	5,8156
85894	5,1903
85895	5,759
85896	5,9709
85897	5,3688
85898	5,934
85899	6,1353
85900	5,5525
85901	6,1129
85902	6,3066
85903	5,7392
85904	6,2933
85905	6,483
85906	5,9266
85907	6,4732
85908	6,6623
85909	6,1122
85910	6,6499
85911	6,8424
85912	6,2933
85913	6,8211
85914	7,0212
85915	6,4672
85916	6,9846
85917	7,1966
85918	6,6309
85919	7,1383
85920	7,3666
85921	6,7817
85922	7,2806
85923	7,5295
85924	6,9171
85925	7,4108
85926	7,6839
85927	7,0357
85928	7,5295
85929	7,8289
85930	7,1369
85931	7,6387
85932	7,9644
85933	7,2224
85934	7,7427
85935	8,091
85936	7,2967
85937	7,848
85938	8,2106
85939	7,3678
85940	7,9639
85941	8,3264
85942	7,4485
85943	8,102
85944	8,4437
85945	7,5561
85946	8,2743
85947	8,5702
85948	7,7119
85949	8,488
85950	8,7151
85951	7,937
85952	8,7352
85953	8,8839
85954	8,2444
85955	8,9799
85956	9,0664
85957	8,6255
85958	9,1546
85959	9,2237
85960	9,0336
85961	9,1833
85962	9,2871
85963	9,3785
85964	9,0362
85965	9,2078
85966	9,5341
85967	8,8553
85968	9,0224
85969	9,3985
85970	8,6638
85971	8,8595
85972	8,2866
85973	8,2647
85974	7,8369
85975	7,837
85976	7,474
85977	7,4946
85978	7,1773
85979	7,2313
85980	6,9388
85981	7,0142
85982	6,7454
85983	6,839
85984	6,5973
85985	6,6964
85986	6,4938
85987	6,5894
85988	6,4309
85989	6,5178
85990	6,4097
85991	6,4811
85992	6,4307
85993	6,4809
85994	6,4938
85995	6,5177
85996	6,5984
85997	6,5898
85998	6,7447
85999	6,696
86000	6,933
86001	6,8366
86002	7,1718
86003	7,01
86004	7,4709
86005	7,2285
86006	7,8364
86007	7,4941
86008	8,2726
86009	7,8325
86010	8,647
86011	8,2497
86012	8,8458
86013	8,846
86014	9,0344
86015	9,017
86016	9,3979
86017	9,1821
86018	9,2066
86019	9,5324
86020	9,1546
86021	9,2873
86022	9,3786
86023	8,9796
86024	9,2234
86025	9,0333
86026	8,7351
86027	9,0661
86028	8,6254
86029	8,4879
86030	8,8838
86031	8,2442
86032	8,2744
86033	8,7148
86034	7,937
86035	8,1021
86036	8,5703
86037	7,7119
86038	7,9641
86039	8,4439
86040	7,5563
86041	7,8483
86042	8,3268
86043	7,4487
86044	7,7431
86045	8,211
86046	7,3681
86047	7,6392
86048	8,0915
86049	7,297
86050	7,53
86051	7,9649
86052	7,2228
86053	7,4113
86054	7,8295
86055	7,1373
86056	7,2811
86057	7,6845
86058	7,0362
86059	7,1389
86060	7,5302
86061	6,9177
86062	6,9853
86063	7,3673
86064	6,7823
86065	6,8219
86066	7,1974
86067	6,6316
86068	6,6507
86069	7,022
86070	6,468
86071	6,474
86072	6,8433
86073	6,2942
86074	6,2942
86075	6,6632
86076	6,1131
86077	6,1138
86078	6,4839
86079	5,9275
86080	5,9349
86081	6,3075
86082	5,7401
86083	5,76
86084	6,1362
86085	5,5535
86086	5,591
86087	5,9718
86088	5,3698
86089	5,43
86090	5,8165
86091	5,1913
86092	5,2791
86093	5,6721
86094	5,0199
86095	5,1402
86096	5,5407
86097	4,8574
86098	5,0156
86099	5,4245
86100	4,7059
86101	4,9077
86102	5,3258
86103	4,5672
86104	4,8193
86105	5,2473
86106	4,4438
86107	4,754
86108	5,1924
86109	4,3383
86110	4,7163
86111	5,165
86112	4,2543
86113	4,712
86114	5,1703
86115	4,1964
86116	4,7491
86117	5,215
86118	4,1708
86119	4,8383
86120	5,3078
86121	4,1862
86122	4,9937
86123	5,4605
86124	4,2544
86125	5,2347
86126	5,6886
86127	4,3918
86128	5,5867
86129	6,0127
86130	4,6205
86131	6,0824
86132	6,4591
86133	4,9704
86134	6,7611
86135	7,0604
86136	5,48
86137	7,6663
86138	7,8537
86139	6,1968
86140	8,8365
86141	8,8747
86142	7,1748
86143	10,288
86144	10,148
86145	8,4678
86146	11,99
86147	11,661
86148	10,113
86149	13,819
86150	13,35
86151	12,104
86152	15,562
86153	15,052
86154	14,347
86155	16,953
86156	16,547
86157	16,613
86158	18,205
86159	17,79
86160	18,535
86161	19,523
86162	19,628
86163	20,367
86164	20,147
86165	20,74
86166	20,728
86167	20,957
86168	21,155
86169	21,07
86170	21,46
86171	21,127
86172	21,575
86173	20,999
86174	21,504
86175	20,755
86176	21,183
86177	20,365
86178	20,741
86179	19,506
86180	20,159
86181	18,211
86182	19,629
86183	16,973
86184	17,721
86185	18,585
86186	15,596
86187	16,545
86188	16,659
86189	13,887
86190	15,082
86191	14,423
86192	12,07
86193	13,42
86194	12,191
86195	10,374
86196	11,739
86197	10,203
86198	8,9215
86199	10,228
86200	8,5542
86201	7,7486
86202	8,9544
86203	7,2558
86204	6,841
86205	7,932
86206	6,2728
86207	6,1617
86208	7,1385
86209	5,553
86210	5,668
86211	6,539
86212	5,0432
86213	5,3209
86214	6,0968
86215	4,6962
86216	5,0876
86217	5,7797
86218	4,4735
86219	4,9429
86220	5,5611
86221	4,3453
86222	4,8673
86223	5,4205
86224	4,2894
86225	4,8468
86226	5,3426
86227	4,2894
86228	4,8709
86229	5,3156
86230	4,3336
86231	4,9318
86232	5,331
86233	4,4135
86234	5,0242
86235	5,3825
86236	4,5232
86237	5,1438
86238	5,4653
86239	4,6586
86240	5,2877
86241	5,5757
86242	4,8165
86243	5,4537
86244	5,7111
86245	4,9949
86246	5,6401
86247	5,8694
86248	5,1922
86249	5,8455
86250	6,0488
86251	5,4072
86252	6,0687
86253	6,248
86254	5,6391
86255	6,3089
86256	6,4658
86257	5,8871
86258	6,565
86259	6,7011
86260	6,1503
86261	6,8361
86262	6,953
86263	6,4281
86264	7,121
86265	7,2203
86266	6,7194
86267	7,4187
86268	7,502
86269	7,0232
86270	7,7275
86271	7,7968
86272	7,3382
86273	8,0455
86274	8,1033
86275	7,6627
86276	8,3705
86277	8,4198
86278	7,9944
86279	8,6995
86280	8,744
86281	8,3305
86282	9,0287
86283	9,0735
86284	8,6671
86285	9,3533
86286	9,4052
86287	8,9994
86288	9,6672
86289	9,7353
86290	9,3207
86291	9,9633
86292	10,059
86293	9,6228
86294	10,233
86295	10,372
86296	9,895
86297	10,466
86298	10,669
86299	10,124
86300	10,652
86301	10,942
86302	10,294
86303	10,781
86304	11,186
86305	10,388
86306	10,842
86307	11,394
86308	10,387
86309	10,828
86310	11,553
86311	10,275
86312	10,729
86313	11,645
86314	10,046
86315	10,541
86316	11,644
86317	9,7072
86318	10,276
86319	11,523
86320	9,2933
86321	9,9919
86322	11,285
86323	8,8786
86324	9,7887
86325	11,02
86326	8,5717
86327	9,8587
86328	10,898
86329	8,4787
86330	10,413
86331	8,5557
86332	11,217
86333	9,0676
86334	12,018
86335	12,868
86336	9,9482
86337	12,927
86338	11,086
86339	14,078
86340	12,476
86341	15,31
86342	14,094
86343	16,429
86344	15,714
86345	17,393
86346	17,231
86347	18,155
86348	18,589
86349	18,618
86350	19,512
86351	18,94
86352	20,162
86353	18,858
86354	20,412
86355	18,511
86356	20,125
86357	18,005
86358	19,469
86359	17,305
86360	18,47
86361	16,421
86362	17,185
86363	15,374
86364	15,707
86365	14,204
86366	14,126
86367	13,002
86368	12,528
86369	11,907
86370	11,06
86371	11,002
86372	9,8437
86373	10,277
86374	8,9503
86375	9,824
86376	8,5321
86377	9,771
86378	10,837
86379	8,4668
86380	9,9787
86381	10,971
86382	8,5634
86383	10,257
86384	11,248
86385	8,8575
86386	10,52
86387	11,498
86388	9,2601
86389	10,713
86390	11,637
86391	9,6691
86392	10,82
86393	11,65
86394	10,011
86395	10,845
86396	11,569
86397	10,25
86398	10,796
86399	11,422
86400	10,376
86401	10,68
86402	11,225
86403	10,394
86404	10,508
86405	10,992
86406	10,318
86407	10,288
86408	10,729
86409	10,166
86410	10,031
86411	10,443
86412	9,9525
86413	9,7468
86414	10,139
86415	9,6946
86416	9,4429
86417	9,8241
86418	9,405
86419	9,127
86420	9,5016
86421	9,0942
86422	8,805
86423	9,1764
86424	8,7709
86425	8,4819
86426	8,8522
86427	8,4416
86428	8,1615
86429	8,5322
86430	8,1114
86431	7,8468
86432	8,2189
86433	7,7842
86434	7,5402
86435	7,9145
86436	7,4631
86437	7,2437
86438	7,6206
86439	7,1503
86440	6,9588
86441	7,3389
86442	6,8476
86443	6,6867
86444	7,0704
86445	6,5564
86446	6,4286
86447	6,8164
86448	6,2779
86449	6,1854
86450	6,5778
86451	6,0129
86452	5,958
86453	6,3556
86454	5,7623
86455	5,7473
86456	6,1508
86457	5,5267
86458	5,5543
86459	5,9644
86460	5,3069
86461	5,3801
86462	5,7976
86463	5,1037
86464	5,2262
86465	5,6517
86466	4,918
86467	5,0942
86468	5,5287
86469	4,7511
86470	4,9867
86471	5,4306
86472	4,6046
86473	4,9067
86474	5,3603
86475	4,4808
86476	4,8586
86477	5,3217
86478	4,3829
86479	4,8481
86480	5,3195
86481	4,3154
86482	4,8833
86483	5,3606
86484	4,2846
86485	4,9749
86486	5,4537
86487	4,2993
86488	5,1377
86489	5,6108
86490	4,3718
86491	5,3911
86492	5,8476
86493	4,5188
86494	5,7607
86495	6,1849
86496	4,7629
86497	6,2789
86498	6,6488
86499	5,1342
86500	6,9835
86501	7,2712
86502	5,6708
86503	7,9148
86504	8,0867
86505	6,4185
86506	9,1052
86507	9,1275
86508	7,4282
86509	10,564
86510	10,401
86511	8,7474
86512	12,247
86513	11,905
86514	10,406
86515	14,037
86516	13,577
86517	12,385
86518	15,709
86519	15,211
86520	14,591
86521	17,028
86522	16,652
86523	16,776
86524	18,235
86525	17,777
86526	18,623
86527	19,522
86528	19,653
86529	20,335
86530	20,149
86531	20,721
86532	20,708
86533	20,967
86534	21,156
86535	21,068
86536	21,45
86537	21,098
86538	21,55
86539	20,981
86540	21,474
86541	20,733
86542	21,155
86543	20,715
86544	22,867
86545	22,716
86546	24,157
86547	22,795
86548	22,697
86549	22,424
86550	22,676
86551	21,722
86552	22,747
86553	22,919
86554	22,395
86555	23,001
86556	24,253
86557	23,065
86558	22,215
86559	26,822
86560	22,899
86561	21,391
86562	28,716
86563	24,224
86564	29,515
86565	24,778
86566	30,972
86567	23,687
86568	22,258
86569	21,596
86570	28,517
86571	22,068
86572	26,437
86573	19,025
86574	19,781
86575	22,642
86576	16,577
86577	16,937
86578	19,069
86579	14,941
86580	15,217
86581	15,98
86582	14,498
86583	14,599
86584	14,322
86585	15,117
86586	14,698
86587	14,401
86588	16,612
86589	15,443
86590	16,122
86591	18,426
86592	18,961
86593	21,196
86594	18,485
86595	18,105
86596	21,951
86597	23,43
86598	20,995
86599	26,101
86600	25,007
86601	22,449
86602	21,696
86603	28,633
86604	24,552
86605	31,141
86606	23,61
86607	20,843
86608	29,739
86609	23,369
86610	29,327
86611	21,627
86612	21,65
86613	26,261
86614	14,6
86615	15,576
86616	14,869
86617	14,983
86618	14,682
86619	14,549
86620	14,134
86621	15,787
86622	14,989
86623	15,069
86624	17,839
86625	17,437
86626	20,717
86627	17,93
86628	20,824
86629	23,375
86630	20,587
86631	24,733
86632	24,266
86633	27,97
86634	23,357
86635	21,98
86636	21,646
86637	29,602
86638	23,221
86639	20,348
86640	20,374
86641	29,307
86642	23,811
86643	21,856
86644	30,053
86645	23,076
86646	22,163
86647	28,153
86648	22,582
86649	21,992
86650	25,017
86651	22,821
86652	23,164
86653	22,692
86654	22,789
86655	22,048
86656	22,606
86657	22,594
86658	22,071
86659	22,794
86660	21,945
86661	23,009
86662	21,713
86663	22,836
86664	25,151
86665	25,029
86666	22,884
86667	21,603
86668	21,583
86669	30,361
86670	25,402
86671	23,065
86672	30,637
86673	23,464
86674	22,287
86675	28,173
86676	20,716
86677	20,468
86678	24,626
86679	18,24
86680	17,86
86681	20,949
86682	24,781
86683	21,973
86684	20,842
86685	30,27
86686	26,533
86687	22,292
86688	34,006
86689	28,351
86690	22,842
86691	24,615
86692	34,005
86693	28,6
86694	27,685
86695	33,389
86696	25,814
86697	25,585
86698	25,726
86699	28,434
86700	22,676
86701	24,204
86702	23,282
86703	23,738
86704	19,171
86705	19,421
86706	17,874
86707	16,282
86708	16,652
86709	17,228
86710	15,388
86711	16,038
86712	15,684
86713	20,659
86714	17,587
86715	24,431
86716	22,617
86717	21,274
86718	26,594
86719	26,23
86720	27,973
86721	24,487
86722	25,307
86723	30,095
86724	26,863
86725	25,305
86726	34,069
86727	24,752
86728	21,471
86729	33,5
86730	22,554
86731	21,195
86732	32,196
86733	19,811
86734	19,323
86735	20,086
86736	26,854
86737	18,416
86738	18,665
86739	20,367
86740	18,519
86741	17,952
86742	16,552
86743	17,076
86744	17,9
86745	16,972
86746	14,707
86747	17,94
86748	18,349
86749	15,437
86750	19,593
86751	18,788
86752	18,538
86753	24,295
86754	18,835
86755	20,518
86756	15,658
86757	16,129
86758	25,933
86759	20,245
86760	16,834
86761	18,745
86762	26,219
86763	18,854
86764	19,54
86765	24,983
86766	14,499
86767	19,507
86768	11,725
86769	11,953
86770	15,365
86771	9,2414
86772	9,9113
86773	11,704
86774	6,1217
86775	7,6421
86776	8,1256
86777	4,3474
86778	5,1721
86779	3,4346
86780	4,2846
86781	5,1395
86782	4,7859
86783	4,5721
86784	5,0079
86785	4,455
86786	4,6243
86787	3,2231
86788	2,9755
86789	7,3984
86790	6,1376
86791	6,0765
86792	10,143
86793	8,3877
86794	9,6
86795	12,981
86796	10,546
86797	13,411
86798	15,619
86799	17,521
86800	18,695
86801	14,469
86802	15,599
86803	21,366
86804	21,982
86805	17,647
86806	18,618
86807	25,56
86808	20,311
86809	22,457
86810	29,087
86811	24,992
86812	23,045
86813	21,598
86814	28,67
86815	25,855
86816	22,408
86817	26,954
86818	26,166
86819	26,315
86820	26,97
86821	23,837
86822	23,669
86823	25,364
86824	27,595
86825	24,727
86826	28,071
86827	24,859
86828	23,674
86829	28,975
86830	28,016
86831	12,031
86832	13,172
86833	12,237
86834	13,323
86835	12,488
86836	13,627
86837	12,615
86838	13,772
86839	12,573
86840	13,687
86841	15,351
86842	12,398
86843	13,409
86844	12,145
86845	13,036
86846	11,852
86847	12,624
86848	12,124
86849	13,391
86850	11,539
86851	12,208
86852	12,309
86853	13,487
86854	11,216
86855	11,801
86856	12,53
86857	13,697
86858	10,888
86859	11,408
86860	12,626
86861	13,78
86862	10,557
86863	11,028
86864	12,559
86865	13,66
86866	10,223
86867	10,659
86868	12,369
86869	13,369
86870	9,89
86871	10,301
86872	12,103
86873	12,98
86874	9,5587
86875	9,9525
86876	11,8
86877	12,558
86878	9,2315
86879	9,6134
86880	11,479
86881	12,134
86882	8,9105
86883	9,2842
86884	11,149
86885	11,722
86886	8,5975
86887	8,9657
86888	10,813
86889	11,324
86890	8,2942
86891	8,6588
86892	10,474
86893	10,939
86894	8,0021
86895	8,3645
86896	10,134
86897	10,566
86898	7,7226
86899	8,0836
86900	9,7947
86901	10,204
86902	7,4568
86903	7,8171
86904	9,4579
86905	9,8509
86906	7,2058
86907	7,5661
86908	9,126
86909	9,5081
86910	6,9706
86911	7,3313
86912	8,8012
86913	9,1759
86914	6,7524
86915	7,1139
86916	8,4853
86917	8,8551
86918	6,5521
86919	6,9149
86920	8,1802
86921	8,5466
86922	6,3708
86923	6,7353
86924	7,8872
86925	8,2516
86926	6,2099
86927	6,5765
86928	7,6078
86929	7,971
86930	6,0708
86931	6,4398
86932	7,3432
86933	7,7059
86934	5,9553
86935	6,327
86936	7,0945
86937	7,4571
86938	5,8656
86939	6,2402
86940	6,8627
86941	7,2258
86942	5,8044
86943	6,1818
86944	6,6491
86945	7,0131
86946	5,7751
86947	6,155
86948	6,4546
86949	6,8199
86950	5,7824
86951	6,1636
86952	6,2807
86953	6,6477
86954	5,832
86955	6,2126
86956	6,1287
86957	6,4978
86958	5,9316
86959	6,3084
86960	6,0005
86961	6,372
86962	6,0912
86963	6,4594
86964	5,898
86965	6,2721
86966	6,3241
86967	6,6763
86968	5,8239
86969	6,2007
86970	6,6475
86971	6,9732
86972	5,7817
86973	6,1608
86974	7,083
86975	7,3678
86976	5,7755
86977	6,1561
86978	7,6571
86979	7,8827
86980	5,8112
86981	6,1915
86982	8,3992
86983	8,5438
86984	5,8961
86985	6,2733
86986	9,337
86987	9,3792
86988	6,04
86989	6,4094
86990	10,479
86991	10,402
86992	6,2559
86993	6,6106
86994	11,819
86995	11,603
86996	6,5609
86997	6,8906
86998	13,335
86999	12,996
87000	6,9766
87001	7,2673
87002	14,863
87003	14,56
87004	7,5301
87005	7,7632
87006	16,241
87007	16,121
87008	8,252
87009	8,4054
87010	17,431
87011	17,42
87012	9,1727
87013	9,2231
87014	10,314
87015	10,243
87016	11,668
87017	11,475
87018	13,187
87019	12,918
87020	14,726
87021	14,47
87022	16,121
87023	15,976
87024	17,311
87025	17,296
87026	18,516
87027	17,229
87028	16,049
87029	17,176
87030	14,653
87031	15,862
87032	13,118
87033	14,385
87034	11,611
87035	12,858
87036	10,251
87037	11,421
87038	9,1073
87039	10,184
87040	17,401
87041	18,725
87042	8,1836
87043	9,1615
87044	16,13
87045	17,406
87046	7,4577
87047	8,3399
87048	14,695
87049	15,954
87050	6,8987
87051	7,6925
87052	13,119
87053	14,419
87054	6,4755
87055	7,1895
87056	11,594
87057	12,851
87058	6,1609
87059	6,804
87060	10,238
87061	11,407
87062	5,9333
87063	6,5133
87064	9,0969
87065	10,173
87066	5,7753
87067	6,2994
87068	8,1757
87069	9,1527
87070	5,674
87071	6,1483
87072	7,4518
87073	8,3332
87074	5,6192
87075	6,0495
87076	6,8943
87077	7,6873
87078	5,6033
87079	5,9944
87080	6,4723
87081	7,1857
87082	5,6202
87083	5,9765
87084	6,1587
87085	6,8012
87086	5,6653
87087	5,9908
87088	5,9317
87089	6,5112
87090	5,7347
87091	6,033
87092	5,7743
87093	6,2979
87094	5,8253
87095	6,0997
87096	5,6734
87097	6,1474
87098	5,9343
87099	6,1879
87100	5,6189
87101	6,0489
87102	6,0595
87103	6,2951
87104	5,6033
87105	5,9941
87106	6,1985
87107	6,4191
87108	5,6205
87109	5,9765
87110	6,3495
87111	6,5578
87112	5,6657
87113	5,991
87114	6,5104
87115	6,7093
87116	5,7353
87117	6,0334
87118	6,6795
87119	6,8719
87120	5,8259
87121	6,1002
87122	6,8547
87123	7,0437
87124	5,9351
87125	6,1885
87126	7,0343
87127	7,2231
87128	6,0602
87129	6,2958
87130	7,2164
87131	7,4084
87132	6,1993
87133	6,4198
87134	7,3992
87135	7,5981
87136	6,3503
87137	6,5586
87138	7,5809
87139	7,7905
87140	6,5113
87141	6,7102
87142	7,7599
87143	7,9841
87144	6,6804
87145	6,8727
87146	7,9346
87147	8,1772
87148	6,8556
87149	7,0446
87150	8,1036
87151	8,3679
87152	7,0352
87153	7,224
87154	8,2652
87155	8,554
87156	7,2172
87157	7,4093
87158	8,4179
87159	8,7327
87160	7,4
87161	7,5989
87162	8,5601
87163	8,9002
87164	7,5817
87165	7,7913
87166	8,6901
87167	9,0521
87168	7,7606
87169	7,9849
87170	8,8071
87171	9,183
87172	7,9353
87173	8,1779
87174	8,9124
87175	9,2887
87176	8,1042
87177	8,3686
87178	9,011
87179	9,3687
87180	8,2658
87181	8,5546
87182	9,111
87183	9,4296
87184	8,4185
87185	8,7333
87186	9,2157
87187	9,4879
87188	8,5606
87189	8,9008
87190	9,3109
87191	9,5596
87192	8,6905
87193	9,0526
87194	9,3533
87195	9,6326
87196	8,8074
87197	9,1835
87198	9,3004
87199	9,6757
87200	8,9126
87201	9,2891
87202	9,1736
87203	9,6289
87204	9,0109
87205	9,3685
87206	9,5271
87207	9,1108
87208	9,4301
87209	9,2155
87210	9,4854
87211	9,3105
87212	9,5609
87213	9,3531
87214	9,6261
87215	9,2999
87216	9,6716
87217	9,1696
87218	9,6321
87219	9,5046
87220	15,946
87221	15,315
87222	16,929
87223	18,3
87224	14,78
87225	16,541
87226	14,431
87227	16,103
87228	18,289
87229	14,459
87230	15,94
87231	17,827
87232	17,96
87233	14,711
87234	17,445
87235	18,113
87236	14,912
87237	17,261
87238	14,849
87239	16,288
87240	14,529
87241	15,848
87242	14,054
87243	15,216
87244	13,522
87245	14,53
87246	12,987
87247	13,855
87248	18,098
87249	12,476
87250	13,223
87251	17,817
87252	11,999
87253	12,647
87254	11,554
87255	12,123
87256	11,137
87257	11,647
87258	10,744
87259	11,208
87260	16,064
87261	16,749
87262	10,371
87263	10,8
87264	15,238
87265	16,949
87266	10,014
87267	10,419
87268	14,797
87269	16,645
87270	9,6731
87271	10,059
87272	14,749
87273	16,677
87274	9,3462
87275	9,7175
87276	14,871
87277	16,558
87278	9,0334
87279	9,3941
87280	14,948
87281	16,372
87282	8,735
87283	9,0875
87284	14,819
87285	16,176
87286	8,4513
87287	8,7974
87288	14,476
87289	15,744
87290	8,1829
87291	8,5238
87292	13,987
87293	15,128
87294	7,9306
87295	8,2673
87296	13,442
87297	14,435
87298	7,6952
87299	8,0282
87300	12,899
87301	13,751
87302	7,4776
87303	7,8074
87304	12,384
87305	13,116
87306	7,2788
87307	7,6058
87308	11,904
87309	12,539
87310	7,0999
87311	7,4244
87312	11,457
87313	12,016
87314	6,9422
87315	7,2644
87316	11,038
87317	11,539
87318	6,8071
87319	7,1272
87320	10,643
87321	11,1
87322	6,6963
87323	7,0144
87324	10,267
87325	10,692
87326	6,6119
87327	6,928
87328	9,9082
87329	10,31
87330	6,5561
87331	6,87
87332	9,5649
87333	9,9486
87334	6,532
87335	6,8433
87336	9,2363
87337	9,6068
87338	6,543
87339	6,8509
87340	8,9225
87341	9,283
87342	6,5936
87343	6,8968
87344	8,6238
87345	8,9765
87346	6,6893
87347	6,9858
87348	8,3406
87349	8,6871
87350	6,8371
87351	7,1237
87352	8,0737
87353	8,4151
87354	7,0462
87355	7,3182
87356	7,8238
87357	8,161
87358	7,328
87359	7,5788
87360	7,5919
87361	7,9254
87362	7,6973
87363	7,9179
87364	7,3789
87365	7,7092
87366	8,1728
87367	8,351
87368	7,186
87369	7,5134
87370	8,7767
87371	8,8979
87372	7,0145
87373	7,3393
87374	9,5343
87375	9,5824
87376	6,8658
87377	7,1881
87378	10,46
87379	10,431
87380	6,7416
87381	7,0615
87382	11,549
87383	11,437
87384	6,6437
87385	6,9614
87386	12,809
87387	12,598
87388	6,5747
87389	6,8899
87390	14,259
87391	13,931
87392	6,5372
87393	6,8497
87394	15,853
87395	15,484
87396	6,5348
87397	6,8438
87398	17,303
87399	17,446
87400	6,5718
87401	6,8762
87402	19,967
87403	6,6536
87404	6,9514
87405	6,7871
87406	7,0755
87407	20,679
87408	6,9813
87409	7,2557
87410	7,2474
87411	7,5015
87412	7,6003
87413	7,8252
87414	8,0586
87415	8,2423
87416	8,645
87417	8,7727
87418	9,3859
87419	9,4405
87420	10,307
87421	10,273
87422	11,426
87423	11,289
87424	12,757
87425	12,522
87426	20,418
87427	14,243
87428	14,014
87429	15,761
87430	17,16
87431	17,
87432	18,593
87433	18,412
87434	15,634
87435	17,244
87436	19,601
87437	19,848
87438	14,167
87439	15,604
87440	12,699
87441	13,947
87442	11,375
87443	12,497
87444	10,253
87445	11,255
87446	9,3276
87447	10,224
87448	8,5816
87449	9,3863
87450	7,9885
87451	8,7125
87452	7,5219
87453	8,1746
87454	7,159
87455	7,7485
87456	6,8811
87457	7,4143
87458	6,6734
87459	7,1563
87460	19,967
87461	6,5242
87462	6,9622
87463	18,658
87464	6,4246
87465	6,8224
87466	17,233
87467	6,3674
87468	6,7292
87469	15,718
87470	6,3468
87471	6,6767
87472	14,194
87473	6,3583
87474	6,6598
87475	12,695
87476	13,959
87477	6,3979
87478	6,6744
87479	11,363
87480	12,475
87481	6,4624
87482	6,7169
87483	10,243
87484	11,236
87485	6,5491
87486	6,7846
87487	9,32
87488	10,216
87489	6,6555
87490	6,8747
87491	8,5758
87492	9,3797
87493	6,7794
87494	6,9851
87495	7,9839
87496	8,7073
87497	6,919
87498	7,1137
87499	7,5184
87500	8,1706
87501	7,0724
87502	7,2588
87503	7,1564
87504	7,7454
87505	7,238
87506	7,4187
87507	6,8792
87508	7,4119
87509	7,4141
87510	7,592
87511	6,672
87512	7,1545
87513	7,5994
87514	7,7774
87515	6,5233
87516	6,9609
87517	7,7925
87518	7,9734
87519	6,4241
87520	6,8215
87521	7,9918
87522	8,1791
87523	6,3671
87524	6,7287
87525	8,1961
87526	8,3931
87527	6,3468
87528	6,6765
87529	8,4037
87530	8,6141
87531	6,3585
87532	6,6598
87533	8,6127
87534	8,8404
87535	6,3982
87536	6,6746
87537	8,8205
87538	9,0695
87539	6,4629
87540	6,7173
87541	9,0235
87542	9,2981
87543	6,5497
87544	6,7851
87545	9,2169
87546	9,5213
87547	6,6561
87548	6,8753
87549	9,3939
87550	9,732
87551	6,7802
87552	6,9858
87553	9,5462
87554	9,9209
87555	6,9198
87556	7,1145
87557	9,6652
87558	10,077
87559	7,0732
87560	7,2596
87561	9,7447
87562	10,187
87563	7,2388
87564	7,4196
87565	9,7861
87566	10,245
87567	7,415
87568	7,5929
87569	9,8051
87570	10,258
87571	7,6003
87572	7,7782
87573	9,8308
87574	10,254
87575	7,7933
87576	7,9743
87577	9,88
87578	10,295
87579	7,9927
87580	8,18
87581	9,9473
87582	10,418
87583	8,1969
87584	8,394
87585	9,9802
87586	10,617
87587	8,4045
87588	8,615
87589	9,9467
87590	10,861
87591	8,6135
87592	8,8412
87593	9,7815
87594	10,823
87595	8,8212
87596	9,0703
87597	9,0242
87598	9,2989
87599	9,2175
87600	9,522
87601	9,3945
87602	9,7327
87603	9,5468
87604	9,9216
87605	7,4783
87606	7,9444
87607	9,6658
87608	10,077
87609	7,0125
87610	6,7018
87611	9,7448
87612	10,188
87613	6,6125
87614	9,7867
87615	10,246
87616	6,4294
87617	9,8033
87618	10,256
87619	9,8298
87620	10,265
87621	5,5126
87622	9,8751
87623	10,306
87624	9,9374
87625	10,468
87626	5,6264
87627	9,9795
87628	10,634
87629	9,9428
87630	10,84
87631	6,323
87632	5,9211
87633	9,7291
87634	6,6366
87635	6,1243
87636	9,4512
87637	10,452
87638	7,0365
87639	6,6443
87640	7,6525
87641	7,9871
87642	18,164
87643	18,949
87644	18,327
87645	17,869
87646	14,886
87647	17,612
87648	17,306
87649	19,157
87650	16,557
87651	18,065
87652	15,714
87653	16,976
87654	14,882
87655	15,952
87656	14,107
87657	13,407
87658	12,783
87659	12,226
87660	11,726
87661	11,272
87662	10,856
87663	10,47
87664	10,109
87665	9,7714
87666	9,4536
87667	9,1547
87668	8,8741
87669	8,6118
87670	8,3678
87671	8,1428
87672	7,9374
87673	7,7527
87674	7,5897
87675	7,4497
87676	7,3345
87677	7,2457
87678	7,1856
87679	7,1565
87680	7,1616
87681	7,2042
87682	7,2887
87683	7,4203
87684	7,6052
87685	7,8516
87686	8,1698
87687	8,5728
87688	9,0775
87689	9,7053
87690	10,481
87691	11,413
87692	11,321
87693	12,495
87694	12,351
87695	13,734
87696	13,593
87697	15,17
87698	15,014
87699	17,094
87700	20,07
87701	18,575
87702	22,322
87703	28,425
87704	27,605
87705	19,914
87706	18,347
87707	18,526
87708	18,488
87709	18,064
87710	20,199
87711	17,613
87712	19,384
87713	17,12
87714	18,725
87715	16,417
87716	17,831
87717	15,596
87718	16,83
87719	14,763
87720	13,984
87721	13,284
87722	12,662
87723	12,108
87724	11,61
87725	11,158
87726	10,742
87727	10,357
87728	9,9968
87729	9,6592
87730	9,3421
87731	9,0443
87732	8,7656
87733	8,5058
87734	8,2653
87735	8,0449
87736	7,8453
87737	7,6677
87738	7,5134
87739	7,3839
87740	7,2811
87741	7,207
87742	7,1642
87743	7,1555
87744	7,1845
87745	7,2553
87746	7,3731
87747	7,5442
87748	7,7765
87749	8,0801
87750	8,4682
87751	8,9575
87752	9,5693
87753	10,33
87754	11,259
87755	11,138
87756	12,392
87757	12,191
87758	13,792
87759	13,486
87760	15,184
87761	13,753
87762	15,135
87763	12,355
87764	11,212
87765	12,16
87766	10,278
87767	9,513
87768	8,8956
87769	8,3991
87770	8,0023
87771	7,6883
87772	7,4441
87773	7,2594
87774	7,1261
87775	7,0378
87776	6,9891
87777	6,9755
87778	6,9933
87779	7,0393
87780	7,1107
87781	7,2052
87782	7,3206
87783	7,4552
87784	7,6071
87785	7,7751
87786	7,9579
87787	8,1543
87788	8,3632
87789	8,5838
87790	8,8147
87791	9,0544
87792	9,3009
87793	9,5509
87794	9,7995
87795	10,04
87796	10,262
87797	10,454
87798	10,6
87799	10,689
87800	10,714
87801	10,716
87802	11,306
87803	10,74
87804	10,895
87805	11,147
87806	12,021
87807	11,433
87808	12,606
87809	8,7465
87810	7,2129
87811	6,2366
87812	5,7647
87813	5,3709
87814	5,6572
87815	5,2197
87816	5,0001
87817	5,4932
87818	4,8746
87819	3,6102
87820	5,2779
87821	5,9696
87822	7,2607
87823	8,8344
87824	11,643
87825	11,441
87826	13,143
87827	11,069
87828	12,396
87829	10,83
87830	11,767
87831	10,717
87832	11,41
87833	10,705
87834	11,314
87835	10,716
87836	11,303
87837	10,687
87838	10,599
87839	10,453
87840	10,261
87841	10,039
87842	9,7987
87843	9,55
87844	9,3
87845	9,0535
87846	8,8138
87847	8,5829
87848	8,3623
87849	8,1534
87850	7,957
87851	7,7743
87852	7,6063
87853	7,4544
87854	7,32
87855	7,2046
87856	7,1102
87857	7,0389
87858	6,993
87859	6,9754
87860	6,9893
87861	7,0383
87862	7,1269
87863	7,2606
87864	7,4457
87865	7,6905
87866	8,0051
87867	8,4028
87868	8,9002
87869	9,5189
87870	10,285
87871	11,23
87872	11,129
87873	12,385
87874	12,202
87875	13,76
87876	13,518
87877	15,403
87878	15,116
87879	17,22
87880	17,245
87881	18,794
87882	18,169
87883	16,973
87884	18,845
87885	14,884
87886	16,506
87887	13,339
87888	14,551
87889	12,101
87890	11,911
87891	12,628
87892	12,004
87893	12,709
87894	12,338
87895	13,118
87896	13,054
87897	13,909
87898	13,963
87899	15,226
87900	16,259
87901	17,096
87902	14,885
87903	13,288
87904	12,069
87905	12,966
87906	11,858
87907	18,292
87908	18,332
87909	19,488
87910	19,761
87911	20,544
87912	21,244
87913	21,566
87914	22,54
87915	23,734
87916	21,95
87917	21,374
87918	19,977
87919	21,918
87920	18,536
87921	20,076
87922	17,256
87923	17,166
87924	12,26
87925	12,067
87926	13,456
87927	13,182
87928	14,886
87929	14,607
87930	16,531
87931	12,986
87932	12,637
87933	13,455
87934	16,266
87935	18,171
87936	19,211
87937	21,629
87938	23,368
87939	23,228
87940	15,796
87941	17,333
87942	14,339
87943	15,588
87944	19,757
87945	19,402
87946	13,816
87947	13,53
87948	14,645
87949	13,302
87950	13,094
87951	12,802
87952	13,615
87953	12,47
87954	13,213
87955	12,11
87956	11,737
87957	11,365
87958	11,
87959	10,649
87960	10,314
87961	9,9989
87962	9,7038
87963	9,4296
87964	9,1766
87965	8,9451
87966	8,7353
87967	8,5478
87968	8,3834
87969	8,2431
87970	8,1282
87971	8,0405
87972	7,9818
87973	7,9545
87974	7,9613
87975	8,0052
87976	8,0897
87977	8,2189
87978	8,3973
87979	8,6307
87980	8,9257
87981	9,2911
87982	9,739
87983	10,285
87984	10,956
87985	10,835
87986	11,794
87987	11,595
87988	12,818
87989	12,562
87990	14,097
87991	13,716
87992	15,241
87993	22,155
87994	21,484
87995	17,099
87996	18,022
87997	15,929
87998	16,718
87999	14,944
88000	15,629
88001	14,107
88002	13,39
88003	12,767
88004	12,22
88005	11,732
88006	11,294
88007	10,895
88008	10,53
88009	10,195
88010	9,8851
88011	9,5997
88012	9,3374
88013	9,0974
88014	8,8799
88015	8,6854
88016	8,5147
88017	8,3689
88018	8,2495
88019	8,1584
88020	8,0975
88021	8,0691
88022	8,076
88023	8,1211
88024	8,208
88025	8,3404
88026	8,523
88027	8,7613
88028	9,0622
88029	9,4345
88030	9,8905
88031	10,448
88032	11,126
88033	11,006
88034	11,949
88035	11,753
88036	12,988
88037	12,678
88038	13,883
88039	12,751
88040	13,633
88041	11,756
88042	12,47
88043	10,968
88044	11,569
88045	10,316
88046	9,7736
88047	9,3311
88048	8,972
88049	8,6843
88050	8,4594
88051	8,2905
88052	8,172
88053	8,0995
88054	8,0689
88055	8,0769
88056	8,1202
88057	8,1964
88058	8,303
88059	8,438
88060	8,5997
88061	8,7867
88062	8,9979
88063	9,2326
88064	9,4907
88065	9,7723
88066	10,078
88067	10,411
88068	10,772
88069	11,167
88070	11,602
88071	12,084
88072	12,625
88073	13,241
88074	13,949
88075	14,776
88076	15,752
88077	15,453
88078	16,913
88079	16,531
88080	18,3
88081	17,836
88082	19,888
88083	19,412
88084	21,238
88085	18,4
88086	16,194
88087	17,995
88088	15,507
88089	10,963
88090	11,603
88091	10,291
88092	10,849
88093	9,7428
88094	9,2943
88095	8,9282
88096	8,6326
88097	8,3988
88098	8,2199
88099	8,0904
88100	8,0056
88101	7,9614
88102	7,9544
88103	7,9815
88104	8,04
88105	8,1277
88106	8,2424
88107	8,3826
88108	8,5469
88109	8,7343
88110	8,9441
88111	9,1756
88112	9,4285
88113	9,7027
88114	9,9978
88115	10,313
88116	10,647
88117	10,999
88118	11,364
88119	11,736
88120	12,109
88121	12,468
88122	12,798
88123	13,073
88124	13,606
88125	13,281
88126	13,948
88127	13,427
88128	14,206
88129	13,819
88130	14,527
88131	14,677
88132	15,158
88133	16,04
88134	18,345
88135	18,452
88136	16,801
88137	19,409
88138	17,744
88139	18,557
88140	17,659
88141	19,067
88142	15,344
88143	16,311
88144	14,192
88145	13,349
88146	14,585
88147	12,278
88148	16,048
88149	14,869
88150	15,612
88151	16,642
88152	24,817
88153	12,006
88154	16,271
88155	15,819
88156	17,51
88157	16,905
88158	19,031
88159	20,887
88160	23,018
88161	21,822
88162	17,344
88163	15,014
88164	16,142
88165	13,465
88166	14,296
88167	12,348
88168	13,025
88169	11,483
88170	12,06
88171	14,488
88172	14,928
88173	14,881
88174	15,314
88175	15,867
88176	18,851
88177	17,238
88178	28,002
88179	13,57
88180	15,135
88181	14,423
88182	21,705
88183	17,699
88184	16,458
88185	17,085
88186	15,995
88187	11,629
88188	11,435
88189	12,477
88190	13,153
88191	17,515
88192	16,695
88193	17,452
88194	18,914
88195	14,033
88196	14,933
88197	14,352
88198	11,467
88199	11,261
88200	12,357
88201	12,016
88202	13,46
88203	13,039
88204	14,412
88205	19,221
88206	14,
88207	13,984
88208	14,968
88209	22,082
88210	20,511
88211	16,661
88212	17,081
88213	15,672
88214	14,825
88215	14,09
88216	14,49
88217	13,445
88218	13,824
88219	12,872
88220	13,231
88221	12,36
88222	12,697
88223	11,897
88224	12,214
88225	11,477
88226	11,774
88227	11,093
88228	11,371
88229	10,74
88230	11,002
88231	10,416
88232	10,662
88233	10,119
88234	10,349
88235	9,847
88236	10,061
88237	9,5997
88238	9,7987
88239	9,377
88240	9,561
88241	9,1795
88242	9,3483
88243	9,0082
88244	9,1616
88245	8,8645
88246	9,0021
88247	8,75
88248	8,8715
88249	8,6668
88250	8,7718
88251	8,6173
88252	8,7053
88253	8,6039
88254	8,6744
88255	8,6296
88256	8,6819
88257	8,6974
88258	8,7309
88259	8,8107
88260	8,8245
88261	8,9732
88262	8,9662
88263	9,1891
88264	9,1598
88265	9,463
88266	9,4095
88267	9,801
88268	9,7203
88269	10,211
88270	10,098
88271	10,703
88272	10,552
88273	11,291
88274	11,092
88275	11,733
88276	13,473
88277	15,419
88278	13,846
88279	14,573
88280	12,727
88281	12,372
88282	10,103
88283	10,445
88284	9,7047
88285	10,005
88286	9,3782
88287	9,64
88288	9,1159
88289	9,3425
88290	8,9119
88291	9,1064
88292	8,7615
88293	8,927
88294	8,6604
88295	8,7999
88296	8,6051
88297	8,7214
88298	8,5923
88299	8,6882
88300	8,6189
88301	8,6971
88302	8,6824
88303	8,7454
88304	8,7805
88305	8,8306
88306	8,9111
88307	8,9504
88308	9,0728
88309	9,1032
88310	9,2643
88311	9,2876
88312	9,4848
88313	9,5025
88314	9,734
88315	9,7474
88316	10,012
88317	10,022
88318	10,319
88319	10,327
88320	10,656
88321	10,663
88322	11,023
88323	11,031
88324	11,423
88325	11,433
88326	11,857
88327	11,871
88328	12,326
88329	12,348
88330	12,834
88331	12,866
88332	13,381
88333	13,43
88334	13,97
88335	14,044
88336	14,601
88337	14,715
88338	15,266
88339	15,443
88340	16,218
88341	19,095
88342	17,695
88343	18,394
88344	15,535
88345	16,172
88346	14,098
88347	14,727
88348	13,607
88349	12,957
88350	11,817
88351	12,323
88352	11,131
88353	11,55
88354	10,569
88355	10,935
88356	10,098
88357	10,427
88358	9,7005
88359	9,9901
88360	9,3752
88361	9,6244
88362	9,1146
88363	9,3265
88364	8,9128
88365	9,0905
88366	8,765
88367	8,9114
88368	8,6668
88369	8,7848
88370	8,6147
88371	8,7068
88372	8,605
88373	8,674
88374	8,6347
88375	8,683
88376	8,7008
88377	8,7307
88378	8,8008
88379	8,8143
88380	8,9322
88381	8,9312
88382	9,0932
88383	9,0792
88384	9,2821
88385	9,2563
88386	9,4976
88387	9,461
88388	9,7389
88389	9,6922
88390	10,006
88391	9,9491
88392	10,299
88393	10,232
88394	10,618
88395	10,541
88396	10,967
88397	10,877
88398	11,348
88399	11,243
88400	11,764
88401	11,643
88402	12,223
88403	12,079
88404	12,73
88405	12,558
88406	13,297
88407	13,088
88408	13,936
88409	13,677
88410	14,664
88411	14,338
88412	15,503
88413	15,086
88414	16,49
88415	16,935
88416	17,651
88417	18,077
88418	17,834
88419	15,68
88420	16,751
88421	12,682
88422	13,628
88423	11,8
88424	12,254
88425	11,133
88426	10,573
88427	10,099
88428	10,442
88429	9,702
88430	10,002
88431	9,3761
88432	9,6375
88433	9,1143
88434	9,3406
88435	8,9107
88436	9,105
88437	8,7606
88438	8,9259
88439	8,6599
88440	8,7992
88441	8,6049
88442	8,7211
88443	8,5923
88444	8,6881
88445	8,6192
88446	8,6973
88447	8,6829
88448	8,7458
88449	8,7811
88450	8,8311
88451	8,9119
88452	8,9512
88453	9,0737
88454	9,1041
88455	9,2653
88456	9,2886
88457	9,4859
88458	9,5036
88459	9,7352
88460	9,7486
88461	10,013
88462	10,023
88463	10,32
88464	10,328
88465	10,657
88466	10,665
88467	11,025
88468	11,033
88469	11,425
88470	11,435
88471	11,858
88472	11,873
88473	12,328
88474	12,349
88475	12,835
88476	12,867
88477	13,382
88478	13,431
88479	13,971
88480	14,046
88481	14,602
88482	14,716
88483	15,267
88484	15,444
88485	15,982
88486	16,22
88487	16,727
88488	17,061
88489	17,938
88490	16,018
88491	16,988
88492	14,634
88493	15,337
88494	14,638
88495	12,557
88496	10,342
88497	10,638
88498	9,9355
88499	10,192
88500	9,5998
88501	9,8201
88502	9,3288
88503	9,5151
88504	9,1175
88505	9,2723
88506	8,9616
88507	9,0875
88508	8,8572
88509	8,9571
88510	8,8011
88511	8,8775
88512	8,7899
88513	8,8457
88514	8,8209
88515	8,8585
88516	8,8912
88517	8,9132
88518	8,9987
88519	9,0073
88520	9,1413
88521	9,1387
88522	9,3174
88523	9,3053
88524	9,5258
88525	9,5058
88526	9,7657
88527	9,7392
88528	10,037
88529	10,005
88530	10,34
88531	10,303
88532	10,674
88533	10,634
88534	11,043
88535	10,999
88536	11,446
88537	11,399
88538	11,887
88539	11,838
88540	12,369
88541	12,317
88542	12,896
88543	12,842
88544	13,472
88545	13,419
88546	14,106
88547	14,054
88548	14,805
88549	14,757
88550	15,576
88551	15,539
88552	16,419
88553	16,411
88554	17,319
88555	17,368
88556	18,176
88557	18,375
88558	18,997
88559	19,629
88560	20,102
88561	14,223
88562	13,397
88563	16,805
88564	17,027
88565	15,333
88566	19,301
88567	18,627
88568	18,524
88569	17,509
88570	16,774
88571	14,239
88572	14,561
88573	13,622
88574	13,94
88575	13,064
88576	13,373
88577	12,558
88578	12,854
88579	12,096
88580	12,378
88581	11,673
88582	11,939
88583	11,285
88584	11,535
88585	10,926
88586	11,161
88587	10,596
88588	10,816
88589	10,292
88590	10,496
88591	10,014
88592	10,202
88593	9,7603
88594	9,933
88595	9,5319
88596	9,6887
88597	9,3294
88598	9,4699
88599	9,154
88600	9,2777
88601	9,0072
88602	9,1137
88603	8,8909
88604	8,9797
88605	8,8074
88606	8,8779
88607	8,7591
88608	8,8107
88609	8,7488
88610	8,781
88611	8,7795
88612	8,7915
88613	8,8541
88614	8,8453
88615	8,9761
88616	8,9456
88617	9,1488
88618	9,0957
88619	9,3762
88620	9,299
88621	9,6626
88622	9,5594
88623	10,013
88624	9,8809
88625	10,434
88626	10,269
88627	10,935
88628	10,73
88629	11,527
88630	11,275
88631	12,233
88632	11,913
88633	13,102
88634	12,676
88635	14,766
88636	13,69
88637	14,222
88638	12,41
88639	12,878
88640	13,355
88641	18,132
88642	16,353
88643	16,671
88644	14,777
88645	15,101
88646	14,093
88647	14,421
88648	13,479
88649	13,8
88650	12,925
88651	13,235
88652	12,422
88653	12,718
88654	11,963
88655	12,244
88656	11,543
88657	11,808
88658	11,157
88659	11,406
88660	10,802
88661	11,035
88662	10,476
88663	10,693
88664	10,176
88665	10,377
88666	9,903
88667	10,087
88668	9,6556
88669	9,8236
88670	9,4346
88671	9,5859
88672	9,241
88673	9,3752
88674	9,0763
88675	9,1929
88676	8,9424
88677	9,0409
88678	8,8413
88679	8,9211
88680	8,7757
88681	8,8362
88682	8,7484
88683	8,7889
88684	8,7623
88685	8,7822
88686	8,8207
88687	8,8192
88688	8,927
88689	8,9032
88690	9,0848
88691	9,0378
88692	9,298
88693	9,2264
88694	9,5711
88695	9,4731
88696	9,9091
88697	9,7819
88698	10,314
88699	10,158
88700	10,787
88701	10,598
88702	11,346
88703	12,046
88704	12,741
88705	12,373
88706	19,453
88707	20,191
88708	20,551
88709	20,698
88710	18,307
88711	19,431
88712	17,328
88713	18,375
88714	16,42
88715	15,577
88716	16,412
88717	14,806
88718	15,54
88719	14,108
88720	14,758
88721	13,474
88722	14,055
88723	12,897
88724	13,42
88725	12,371
88726	12,844
88727	11,889
88728	12,319
88729	11,448
88730	11,839
88731	11,044
88732	11,401
88733	10,676
88734	11,
88735	10,341
88736	10,635
88737	10,038
88738	10,304
88739	9,7669
88740	10,006
88741	9,5269
88742	9,7404
88743	9,3184
88744	9,5069
88745	9,1422
88746	9,3063
88747	8,9994
88748	9,1395
88749	8,8918
88750	9,008
88751	8,8212
88752	8,9137
88753	8,79
88754	8,8587
88755	8,8009
88756	8,8456
88757	8,8567
88758	8,8772
88759	8,9607
88760	8,9564
88761	9,1162
88762	9,0865
88763	9,3271
88764	9,2708
88765	9,5976
88766	9,5131
88767	9,9327
88768	9,8176
88769	10,339
88770	10,189
88771	10,631
88772	16,137
88773	15,707
88774	15,376
88775	16,444
88776	14,05
88777	14,512
88778	13,055
88779	12,242
88780	12,636
88781	11,555
88782	11,898
88783	10,973
88784	10,482
88785	10,733
88786	10,071
88787	10,287
88788	9,7299
88789	9,9115
88790	9,4533
88791	9,6021
88792	9,2373
88793	9,3551
88794	9,0782
88795	9,1671
88796	8,9727
88797	9,0352
88798	8,9177
88799	8,9562
88800	8,9102
88801	8,9272
88802	8,9473
88803	8,9454
88804	9,0263
88805	9,0081
88806	9,1449
88807	9,1125
88808	9,3009
88809	9,2565
88810	9,4927
88811	9,4381
88812	9,719
88813	9,6556
88814	9,979
88815	9,9079
88816	10,272
88817	10,195
88818	10,6
88819	10,515
88820	10,961
88821	10,871
88822	11,359
88823	11,263
88824	11,796
88825	11,693
88826	12,275
88827	12,164
88828	12,799
88829	12,679
88830	13,376
88831	13,246
88832	14,013
88833	13,87
88834	14,72
88835	14,562
88836	15,511
88837	15,334
88838	16,399
88839	17,393
88840	18,466
88841	19,447
88842	21,603
88843	20,852
88844	12,886
88845	13,169
88846	14,961
88847	15,574
88848	14,56
88849	14,116
88850	16,312
88851	14,274
88852	14,524
88853	13,701
88854	13,961
88855	13,171
88856	13,431
88857	12,681
88858	12,227
88859	12,473
88860	11,806
88861	12,041
88862	11,416
88863	11,638
88864	11,054
88865	11,262
88866	10,718
88867	10,912
88868	10,408
88869	10,587
88870	10,122
88871	10,286
88872	9,8614
88873	10,01
88874	9,626
88875	9,7577
88876	9,4168
88877	9,5315
88878	9,2355
88879	9,3324
88880	9,0837
88881	9,1622
88882	8,9636
88883	9,023
88884	8,8777
88885	8,9174
88886	8,8287
88887	8,848
88888	8,8194
88889	8,8176
88890	8,8529
88891	8,8294
88892	8,9322
88893	8,8862
88894	9,0605
88895	8,9913
88896	9,2411
88897	9,1476
88898	9,4772
88899	9,3583
88900	9,7727
88901	9,6263
88902	10,131
88903	9,9552
88904	10,559
88905	10,349
88906	11,063
88907	10,812
88908	11,654
88909	11,358
88910	12,346
88911	11,992
88912	12,73
88913	13,908
88914	14,447
88915	18,113
88916	17,464
88917	17,593
88918	17,368
88919	16,857
88920	16,843
88921	16,124
88922	16,242
88923	15,422
88924	15,619
88925	14,758
88926	14,997
88927	14,14
88928	14,399
88929	13,566
88930	13,832
88931	13,036
88932	13,301
88933	12,547
88934	12,804
88935	12,094
88936	12,341
88937	11,675
88938	11,91
88939	11,287
88940	11,508
88941	10,928
88942	11,135
88943	10,595
88944	10,787
88945	10,289
88946	10,465
88947	10,008
88948	10,168
88949	9,7535
88950	9,8969
88951	9,5254
88952	9,6515
88953	9,3254
88954	9,4335
88955	9,1551
88956	9,2444
88957	9,0167
88958	9,0866
88959	8,9125
88960	8,9622
88961	8,8454
88962	8,8743
88963	8,8183
88964	8,8256
88965	8,8344
88966	8,8193
88967	8,8968
88968	8,8587
88969	9,009
88970	8,947
88971	9,1742
88972	9,0874
88973	9,3962
88974	9,2832
88975	9,6785
88976	9,5377
88977	10,025
88978	9,8543
88979	10,436
88980	10,237
88981	10,68
88982	12,503
88983	16,01
88984	12,162
88985	11,528
88986	12,547
88987	10,956
88988	10,475
88989	10,068
88990	9,7277
88991	9,909
88992	9,4516
88993	9,6001
88994	9,236
88995	9,3536
88996	9,0773
88997	9,1661
88998	8,9722
88999	9,0345
89000	8,9175
89001	8,9559
89002	8,9103
89003	8,9272
89004	8,9476
89005	8,9457
89006	9,0269
89007	9,0086
89008	9,1456
89009	9,1132
89010	9,3018
89011	9,2574
89012	9,4938
89013	9,4391
89014	9,7202
89015	9,6567
89016	9,9803
89017	9,9092
89018	10,274
89019	10,196
89020	10,601
89021	10,517
89022	10,963
89023	10,873
89024	11,361
89025	11,264
89026	11,798
89027	11,694
89028	12,276
89029	12,165
89030	12,801
89031	12,681
89032	13,378
89033	13,248
89034	14,014
89035	13,872
89036	14,722
89037	14,564
89038	15,512
89039	16,401
89040	17,172
89041	19,55
89042	19,352
89043	20,553
89044	20,47
89045	21,383
89046	21,418
89047	16,494
89048	21,436
89049	21,678
89050	21,728
89051	21,584
89052	15,81
89053	17,262
89054	13,82
89055	13,318
89056	12,278
89057	11,895
89058	10,531
89059	10,742
89060	10,121
89061	9,7773
89062	9,9239
89063	9,4976
89064	9,2789
89065	9,1182
89066	9,013
89067	8,9604
89068	8,9576
89069	9,0019
89070	9,0905
89071	9,2211
89072	9,3914
89073	9,5994
89074	9,8439
89075	10,124
89076	10,439
89077	10,789
89078	11,176
89079	11,601
89080	12,066
89081	12,576
89082	13,135
89083	13,752
89084	13,547
89085	14,434
89086	14,205
89087	15,194
89088	14,935
89089	15,75
89090	20,516
89091	20,14
89092	21,764
89093	22,644
89094	22,167
89095	21,968
89096	14,272
89097	13,982
89098	21,978
89099	12,833
89100	13,029
89101	13,517
89102	13,154
89103	13,565
89104	15,075
89105	15,524
89106	14,07
89107	14,568
89108	12,366
89109	12,712
89110	11,687
89111	11,099
89112	11,348
89113	10,595
89114	10,809
89115	10,167
89116	10,349
89117	9,8032
89118	9,9539
89119	9,5017
89120	9,6208
89121	9,2592
89122	9,3474
89123	9,0728
89124	8,9399
89125	8,8574
89126	8,8225
89127	8,8322
89128	8,8835
89129	8,9732
89130	9,0985
89131	9,2567
89132	9,4453
89133	9,6622
89134	9,9056
89135	10,174
89136	10,467
89137	10,783
89138	11,123
89139	11,488
89140	11,877
89141	12,292
89142	12,082
89143	12,505
89144	13,7
89145	13,421
89146	14,221
89147	13,91
89148	14,761
89149	14,415
89150	15,306
89151	14,924
89152	15,82
89153	15,415
89154	16,261
89155	15,844
89156	16,168
89157	12,395
89158	9,7751
89159	9,9214
89160	9,4959
89161	9,6106
89162	9,2776
89163	9,1173
89164	9,0125
89165	8,9602
89166	8,9577
89167	9,0023
89168	9,0912
89169	9,222
89170	9,3924
89171	9,6006
89172	9,8452
89173	10,125
89174	10,44
89175	10,791
89176	11,177
89177	11,602
89178	12,068
89179	12,578
89180	13,137
89181	12,951
89182	13,753
89183	13,549
89184	14,435
89185	14,207
89186	14,937
89187	18,06
89188	17,671
89189	19,185
89190	18,779
89191	20,332
89192	19,916
89193	21,393
89194	21,042
89195	21,994
89196	16,695
89197	15,863
89198	16,246
89199	15,807
89200	15,682
89201	15,228
89202	14,946
89203	15,064
89204	15,113
89205	14,69
89206	11,478
89207	11,752
89208	10,948
89209	11,196
89210	10,474
89211	10,693
89212	10,059
89213	10,241
89214	9,7072
89215	9,8519
89216	9,4186
89217	9,1903
89218	9,0195
89219	8,9031
89220	8,8381
89221	8,8214
89222	8,8497
89223	8,9198
89224	9,0286
89225	9,173
89226	9,3503
89227	9,558
89228	9,7941
89229	10,057
89230	10,345
89231	10,658
89232	10,996
89233	11,359
89234	11,747
89235	12,162
89236	11,953
89237	12,604
89238	12,377
89239	13,075
89240	12,825
89241	13,574
89242	13,298
89243	14,1
89244	13,792
89245	14,647
89246	14,302
89247	15,204
89248	14,819
89249	15,746
89250	15,327
89251	16,235
89252	15,788
89253	16,617
89254	16,379
89255	13,129
89256	15,003
89257	15,119
89258	14,149
89259	14,529
89260	13,336
89261	13,589
89262	13,845
89263	13,89
89264	15,006
89265	15,225
89266	16,282
89267	16,208
89268	17,076
89269	13,675
89270	13,119
89271	13,574
89272	14,953
89273	14,965
89274	22,409
89275	15,207
89276	15,348
89277	12,919
89278	12,496
89279	13,395
89280	11,05
89281	11,254
89282	10,556
89283	10,738
89284	10,13
89285	9,7653
89286	9,4603
89287	9,2775
89288	12,3
89289	12,07
89290	12,728
89291	12,483
89292	13,175
89293	12,914
89294	13,638
89295	13,361
89296	14,111
89297	13,814
89298	14,585
89299	14,268
89300	15,04
89301	14,716
89302	15,444
89303	15,14
89304	15,755
89305	15,485
89306	15,943
89307	15,972
89308	15,832
89309	11,451
89310	11,934
89311	12,205
89312	12,217
89313	14,545
89314	14,178
89315	15,919
89316	15,592
89317	15,759
89318	15,374
89319	15,399
89320	14,949
89321	14,481
89322	14,602
89323	14,001
89324	14,162
89325	13,522
89326	13,701
89327	13,053
89328	13,24
89329	12,603
89330	12,791
89331	12,172
89332	10,026
89333	9,7886
89334	10,453
89335	10,182
89336	10,937
89337	10,643
89338	11,468
89339	11,168
89340	12,078
89341	12,401
89342	12,703
89343	14,327
89344	14,194
89345	14,733
89346	14,418
89347	14,848
89348	14,662
89349	21,697
89350	22,136
89351	20,686
89352	21,197
89353	19,562
89354	20,114
89355	18,43
89356	18,977
89357	17,896
89358	14,724
89359	15,161
89360	14,015
89361	14,419
89362	13,373
89363	13,126
89364	9,7498
89365	9,5552
89366	10,092
89367	9,8658
89368	10,496
89369	10,238
89370	10,954
89371	10,671
89372	22,606
89373	22,754
89374	22,444
89375	19,747
89376	20,429
89377	18,5
89378	19,129
89379	17,386
89380	17,948
89381	16,394
89382	15,51
89383	14,722
89384	15,163
89385	14,013
89386	14,417
89387	13,741
89388	9,8684
89389	10,982
89390	10,68
89391	11,551
89392	11,194
89393	11,797
89394	22,264
89395	16,21
89396	15,882
89397	15,821
89398	15,499
89399	16,995
89400	15,807
89401	15,666
89402	14,918
89403	14,716
89404	14,844
89405	13,412
89406	13,424
89407	13,651
89408	14,208
89409	13,775
89410	10,868
89411	11,075
89412	10,364
89413	10,533
89414	9,9366
89415	10,069
89416	9,576
89417	9,6729
89418	9,2793
89419	9,3469
89420	9,0434
89421	8,8651
89422	8,7431
89423	8,6753
89424	8,6592
89425	8,6918
89426	8,7699
89427	8,89
89428	9,0485
89429	9,242
89430	9,4672
89431	9,7212
89432	10,001
89433	10,306
89434	10,632
89435	10,979
89436	11,345
89437	11,495
89438	12,983
89439	12,712
89440	13,424
89441	13,141
89442	13,867
89443	13,569
89444	14,289
89445	13,982
89446	14,365
89447	15,338
89448	15,106
89449	15,31
89450	14,337
89451	14,157
89452	14,725
89453	13,794
89454	13,365
89455	12,984
89456	14,55
89457	14,613
89458	14,804
89459	15,147
89460	15,093
89461	11,426
89462	11,629
89463	10,883
89464	11,056
89465	10,559
89466	9,7571
89467	9,1644
89468	9,1968
89469	9,0029
89470	9,0056
89471	8,8995
89472	8,8524
89473	8,8595
89474	8,9184
89475	9,0265
89476	9,181
89477	9,3793
89478	9,6189
89479	9,8978
89480	10,214
89481	10,568
89482	10,958
89483	11,385
89484	11,85
89485	12,356
89486	12,905
89487	12,629
89488	13,504
89489	13,204
89490	14,157
89491	13,827
89492	14,873
89493	14,505
89494	18,611
89495	17,96
89496	19,853
89497	19,152
89498	20,404
89499	22,37
89500	10,405
89501	10,551
89502	10,004
89503	10,122
89504	9,6635
89505	9,7545
89506	9,4453
89507	9,002
89508	9,0045
89509	8,899
89510	8,8522
89511	8,8597
89512	8,9189
89513	9,0273
89514	9,182
89515	9,3804
89516	9,6202
89517	9,8992
89518	10,216
89519	10,57
89520	10,96
89521	11,387
89522	11,852
89523	12,358
89524	12,907
89525	12,631
89526	13,206
89527	14,872
89528	14,507
89529	15,653
89530	15,238
89531	16,518
89532	16,043
89533	17,463
89534	18,476
89535	17,879
89536	19,571
89537	18,864
89538	20,685
89539	19,902
89540	21,689
89541	20,759
89542	14,316
89543	13,971
89544	13,99
89545	14,5
89546	14,232
89547	13,453
89548	13,591
89549	13,931
89550	13,54
89551	14,601
89552	15,182
89553	15,256
89554	14,82
89555	14,946
89556	14,405
89557	14,533
89558	13,978
89559	14,112
89560	13,543
89561	13,697
89562	13,105
89563	13,27
89564	12,674
89565	12,257
89566	12,414
89567	11,857
89568	12,011
89569	11,474
89570	11,621
89571	11,108
89572	10,761
89573	10,433
89574	10,125
89575	9,8404
89576	9,5796
89577	9,3453
89578	9,1401
89579	8,9669
89580	8,829
89581	8,7296
89582	8,6721
89583	8,6596
89584	8,6953
89585	8,7817
89586	8,921
89587	8,7695
89588	9,1149
89589	8,9372
89590	9,16
89591	10,935
89592	10,607
89593	11,46
89594	11,095
89595	12,009
89596	11,616
89597	12,527
89598	12,131
89599	14,904
89600	14,341
89601	14,557
89602	12,963
89603	12,603
89604	13,039
89605	12,784
89606	15,022
89607	15,078
89608	14,663
89609	14,246
89610	14,482
89611	13,837
89612	14,006
89613	13,429
89614	13,576
89615	13,15
89616	12,172
89617	12,306
89618	11,778
89619	11,525
89620	8,7786
89621	8,6111
89622	8,9753
89623	8,7818
89624	9,2269
89625	9,007
89626	9,5331
89627	9,2861
89628	9,893
89629	9,6178
89630	10,305
89631	10,
89632	10,761
89633	11,244
89634	11,729
89635	12,19
89636	14,917
89637	13,984
89638	14,206
89639	14,335
89640	13,951
89641	13,979
89642	13,785
89643	12,586
89644	11,848
89645	11,962
89646	11,386
89647	10,26
89648	10,382
89649	9,8652
89650	9,9623
89651	9,5283
89652	9,2491
89653	9,2932
89654	9,0284
89655	9,0432
89656	8,8515
89657	12,938
89658	12,62
89659	13,196
89660	14,888
89661	14,48
89662	15,645
89663	15,195
89664	15,968
89665	18,295
89666	17,711
89667	19,224
89668	18,562
89669	20,004
89670	19,727
89671	18,534
89672	18,144
89673	14,187
89674	14,48
89675	13,537
89676	13,813
89677	12,936
89678	13,192
89679	9,0298
89680	8,8526
89681	9,0448
89682	9,8679
89683	9,6028
89684	10,264
89685	9,9653
89686	10,722
89687	10,386
89688	11,247
89689	10,865
89690	11,843
89691	11,999
89692	13,506
89693	13,1
89694	14,064
89695	14,111
89696	13,689
89697	13,76
89698	13,29
89699	12,874
89700	12,458
89701	12,595
89702	12,051
89703	12,188
89704	11,655
89705	11,791
89706	11,403
89707	9,4363
89708	9,1946
89709	9,7968
89710	9,5188
89711	10,229
89712	9,9126
89713	10,731
89714	10,369
89715	11,305
89716	10,908
89717	11,504
89718	13,356
89719	13,241
89720	12,874
89721	15,03
89722	14,763
89723	14,567
89724	13,588
89725	13,161
89726	13,884
89727	13,574
89728	14,051
89729	13,754
89730	14,088
89731	13,823
89732	14,252
89733	13,812
89734	13,478
89735	12,328
89736	12,442
89737	11,931
89738	12,05
89739	11,541
89740	11,161
89741	11,278
89742	10,792
89743	10,904
89744	10,437
89745	10,54
89746	10,099
89747	10,189
89748	9,7791
89749	9,8572
89750	9,4817
89751	9,5446
89752	9,2097
89753	9,2554
89754	8,9669
89755	8,9934
89756	8,7572
89757	8,7628
89758	8,5849
89759	8,5679
89760	8,4541
89761	8,4133
89762	8,3689
89763	8,3033
89764	8,3332
89765	8,2419
89766	8,3499
89767	8,2324
89768	8,4214
89769	8,2776
89770	8,549
89771	8,3788
89772	8,5366
89773	9,27
89774	9,0184
89775	9,6268
89776	9,3433
89777	10,044
89778	9,7254
89779	10,537
89780	10,17
89781	11,095
89782	10,694
89783	11,617
89784	11,239
89785	12,047
89786	11,537
89787	12,423
89788	11,994
89789	12,619
89790	12,803
89791	13,862
89792	13,418
89793	13,101
89794	14,997
89795	14,89
89796	13,621
89797	13,374
89798	14,258
89799	13,859
89800	13,939
89801	12,407
89802	14,322
89803	14,48
89804	14,699
89805	14,822
89806	14,798
89807	18,003
89808	11,465
89809	11,142
89810	11,05
89811	10,817
89812	12,364
89813	12,702
89814	12,362
89815	14,024
89816	13,795
89817	14,196
89818	14,688
89819	14,396
89820	13,751
89821	13,417
89822	13,113
89823	9,7189
89824	9,3643
89825	9,4378
89826	9,8119
89827	9,0594
89828	8,8065
89829	8,6071
89830	8,4619
89831	8,3711
89832	8,3335
89833	8,2438
89834	8,3093
89835	8,3474
89836	8,4101
89837	8,2702
89838	8,2314
89839	8,5184
89840	8,6685
89841	8,489
89842	8,3573
89843	8,8565
89844	9,0784
89845	8,8704
89846	8,6615
89847	9,3303
89848	9,6085
89849	9,3813
89850	9,1117
89851	9,9098
89852	10,231
89853	9,9905
89854	9,6754
89855	10,57
89856	10,921
89857	10,672
89858	10,324
89859	11,284
89860	11,395
89861	11,027
89862	12,448
89863	12,167
89864	12,868
89865	13,301
89866	12,996
89867	12,57
89868	10,516
89869	11,001
89870	10,623
89871	10,076
89872	10,174
89873	9,7706
89874	9,0791
89875	8,8578
89876	8,8614
89877	9,1117
89878	8,6948
89879	8,5911
89880	8,5333
89881	8,5466
89882	8,5603
89883	8,4428
89884	8,4583
89885	8,6304
89886	8,7542
89887	8,5849
89888	8,4857
89889	8,9289
89890	9,151
89891	8,9403
89892	8,7375
89893	9,4175
89894	9,7252
89895	9,4825
89896	9,1898
89897	10,071
89898	10,454
89899	10,185
89900	9,8152
89901	10,872
89902	11,324
89903	11,028
89904	10,59
89905	11,499
89906	12,886
89907	13,484
89908	13,105
89909	12,537
89910	14,119
89911	14,8
89912	14,378
89913	13,712
89914	15,533
89915	15,81
89916	15,077
89917	16,583
89918	14,786
89919	14,979
89920	14,117
89921	13,477
89922	13,085
89923	11,322
89924	11,498
89925	10,87
89926	10,452
89927	10,588
89928	11,027
89929	10,07
89930	9,7236
89931	9,8135
89932	10,183
89933	9,416
89934	9,1497
89935	9,1884
89936	9,4809
89937	8,9278
89938	8,7534
89939	8,7365
89940	8,9391
89941	8,6298
89942	8,5601
89943	8,4853
89944	8,5841
89945	8,5467
89946	8,5916
89947	8,4586
89948	8,4427
89949	8,6957
89950	8,8591
89951	8,5341
89952	8,863
89953	9,6924
89954	10,079
89955	9,7763
89956	9,4199
89957	10,52
89958	10,187
89959	12,091
89960	11,657
89961	13,429
89962	13,138
89963	13,513
89964	13,223
89965	12,167
89966	11,888
89967	12,266
89968	11,023
89969	10,652
89970	10,292
89971	10,386
89972	10,756
89973	9,948
89974	9,6218
89975	9,6916
89976	10,029
89977	9,3164
89978	9,0363
89979	9,076
89980	9,373
89981	8,7855
89982	8,5687
89983	8,5686
89984	8,8063
89985	8,3907
89986	8,256
89987	8,2092
89988	8,3679
89989	8,169
89990	8,1334
89991	8,0356
89992	8,097
89993	8,1521
89994	8,227
89995	8,0769
89996	8,0282
89997	8,3585
89998	8,3446
89999	8,1825
90000	9,0849
90001	8,83
90002	9,4354
90003	9,8438
90004	9,524
90005	10,319
90006	9,9785
90007	11,915
90008	11,545
90009	10,828
90010	14,575
90011	14,232
90012	14,338
90013	13,405
90014	12,938
90015	13,207
90016	13,409
90017	11,991
90018	13,873
90019	13,527
90020	14,022
90021	13,576
90022	11,488
90023	11,099
90024	12,579
90025	12,155
90026	12,606
90027	13,517
90028	13,251
90029	11,899
90030	13,097
90031	11,368
90032	11,622
90033	13,486
90034	10,353
90035	9,9172
90036	10,016
90037	10,829
90038	10,467
90039	9,5249
90040	9,2443
90041	9,6087
90042	8,1745
90043	8,1344
90044	8,0408
90045	8,1103
90046	8,1473
90047	8,2109
90048	8,0637
90049	8,0258
90050	8,3222
90051	8,4771
90052	8,2868
90053	8,1519
90054	8,6714
90055	8,9007
90056	8,6795
90057	8,4642
90058	9,1606
90059	9,4468
90060	9,2053
90061	8,9281
90062	9,7556
90063	10,083
90064	9,8287
90065	9,5069
90066	10,427
90067	10,78
90068	10,519
90069	11,14
90070	11,241
90071	10,876
90072	12,291
90073	12,007
90074	12,7
90075	12,813
90076	12,399
90077	12,366
90078	11,942
90079	11,999
90080	12,791
90081	12,433
90082	12,747
90083	10,273
90084	9,8618
90085	9,9421
90086	10,712
90087	8,8859
90088	8,6622
90089	8,9131
90090	8,3917
90091	8,3458
90092	8,3599
90093	8,2327
90094	8,2499
90095	8,4326
90096	8,5614
90097	8,3776
90098	8,2758
90099	8,7433
90100	8,9746
90101	8,7453
90102	8,5353
90103	9,2516
90104	9,5706
90105	9,3062
90106	9,0036
90107	9,9282
90108	10,322
90109	10,029
90110	9,6492
90111	10,748
90112	11,207
90113	10,887
90114	10,442
90115	11,696
90116	12,215
90117	11,869
90118	11,367
90119	12,763
90120	13,342
90121	12,957
90122	13,981
90123	14,669
90124	14,229
90125	15,369
90126	16,158
90127	15,687
90128	14,926
90129	16,53
90130	16,068
90131	15,263
90132	14,499
90133	12,734
90134	12,2
90135	12,89
90136	11,692
90137	11,206
90138	11,36
90139	11,855
90140	10,746
90141	10,32
90142	10,44
90143	9,9265
90144	9,569
90145	9,6474
90146	10,027
90147	9,2501
90148	8,9733
90149	9,0021
90150	9,3046
90151	8,7422
90152	8,5605
90153	8,5342
90154	8,744
90155	8,432
90156	8,3596
90157	8,2754
90158	8,3769
90159	8,3459
90160	8,3922
90161	8,2502
90162	8,2326
90163	8,3287
90164	8,6638
90165	9,4967
90166	9,877
90167	9,5762
90168	9,2224
90169	9,975
90170	11,708
90171	11,32
90172	12,875
90173	12,687
90174	12,924
90175	12,952
90176	11,991
90177	11,741
90178	12,335
90179	12,106
90180	10,49
90181	10,122
90182	10,583
90183	9,7724
90184	9,4419
90185	9,5063
90186	9,1307
90187	8,8432
90188	8,8802
90189	9,1839
90190	8,5856
90191	8,363
90192	8,3606
90193	8,6039
90194	8,1806
90195	8,0436
90196	7,9944
90197	8,1556
90198	7,9564
90199	7,9227
90200	7,8224
90201	7,8819
90202	7,9451
90203	8,0247
90204	7,8727
90205	7,8188
90206	8,1611
90207	8,1513
90208	7,9841
90209	8,6404
90210	9,6535
90211	9,3337
90212	11,114
90213	11,511
90214	11,166
90215	10,609
90216	10,76
90217	13,971
90218	13,852
90219	13,624
90220	13,62
90221	13,567
90222	12,605
90223	12,332
90224	12,512
90225	12,677
90226	12,116
90227	12,24
90228	12,943
90229	12,562
90230	10,505
90231	11,557
90232	13,218
90233	10,977
90234	13,182
90235	12,873
90236	11,159
90237	10,791
90238	13,988
90239	12,123
90240	11,745
90241	12,484
90242	10,159
90243	9,7986
90244	11,878
90245	11,496
90246	12,255
90247	13,139
90248	12,859
90249	10,386
90250	13,237
90251	13,041
90252	10,124
90253	9,7023
90254	10,61
90255	10,202
90256	9,3229
90257	8,9826
90258	8,6827
90259	8,4279
90260	8,4527
90261	8,7303
90262	8,2221
90263	8,0685
90264	8,2205
90265	7,9692
90266	7,925
90267	7,8334
90268	7,9082
90269	7,9353
90270	7,9982
90271	7,8492
90272	7,814
90273	8,1108
90274	8,269
90275	8,073
90276	7,9367
90277	8,4684
90278	8,7039
90279	8,4742
90280	8,2538
90281	8,9708
90282	9,2642
90283	9,0126
90284	8,7298
90285	9,5797
90286	9,6472
90287	9,3206
90288	10,617
90289	10,347
90290	10,979
90291	11,349
90292	11,082
90293	10,713
90294	11,73
90295	11,839
90296	12,056
90297	11,607
90298	11,682
90299	12,509
90300	12,142
90301	9,7012
90302	8,9577
90303	9,0066
90304	8,6817
90305	8,4573
90306	8,7092
90307	8,128
90308	8,1401
90309	8,0099
90310	8,0311
90311	8,2131
90312	8,3446
90313	8,1528
90314	8,0509
90315	8,5314
90316	8,7696
90317	8,5277
90318	8,313
90319	9,0549
90320	9,3829
90321	9,1027
90322	8,7926
90323	9,7494
90324	10,151
90325	9,8408
90326	9,4543
90327	10,583
90328	11,05
90329	10,261
90330	11,545
90331	11,712
90332	11,206
90333	12,773
90334	12,685
90335	11,528
90336	11,173
90337	11,67
90338	10,148
90339	10,254
90340	9,7474
90341	9,3811
90342	9,4521
90343	9,8367
90344	9,0533
90345	8,7682
90346	8,791
90347	9,101
90348	8,5302
90349	8,3437
90350	8,312
90351	8,5264
90352	8,2125
90353	8,1399
90354	8,0505
90355	8,152
90356	8,1281
90357	8,1779
90358	8,0315
90359	8,0098
90360	8,1151
90361	8,6836
90362	8,9635
90363	8,4589
90364	9,2952
90365	9,6688
90366	9,3757
90367	9,0213
90368	9,7548
90369	10,935
90370	11,348
90371	10,992
90372	10,585
90373	11,859
90374	11,464
90375	11,718
90376	12,104
90377	11,056
90378	10,679
90379	10,743
90380	11,043
90381	10,394
90382	9,2477
90383	9,3133
90384	8,9318
90385	8,6383
90386	8,3753
90387	8,1485
90388	7,9637
90389	7,8262
90390	7,7408
90391	7,711
90392	7,6119
90393	7,7389
90394	7,8247
90395	7,6749
90396	7,6141
90397	7,9673
90398	7,9665
90399	7,7933
90400	8,459
90401	9,4735
90402	9,1367
90403	11,135
90404	10,799
90405	13,254
90406	13,325
90407	13,016
90408	13,149
90409	12,874
90410	13,197
90411	13,002
90412	11,965
90413	12,724
90414	12,942
90415	12,395
90416	11,905
90417	12,603
90418	12,754
90419	12,478
90420	12,268
90421	12,127
90422	12,376
90423	11,226
90424	12,463
90425	12,111
90426	11,839
90427	12,003
90428	13,01
90429	10,022
90430	10,28
90431	10,651
90432	11,232
90433	11,587
90434	11,574
90435	12,631
90436	10,848
90437	10,485
90438	11,726
90439	11,373
90440	9,5272
90441	12,634
90442	12,836
90443	12,899
90444	12,793
90445	12,798
90446	12,573
90447	12,711
90448	12,642
90449	12,706
90450	12,3
90451	11,407
90452	11,619
90453	11,229
90454	11,014
90455	12,147
90456	12,403
90457	11,788
90458	11,998
90459	11,449
90460	12,08
90461	11,878
90462	11,123
90463	12,02
90464	11,559
90465	11,842
90466	11,652
90467	11,622
90468	11,282
90469	11,499
90470	12,088
90471	11,062
90472	11,012
90473	11,512
90474	10,235
90475	9,9116
90476	8,4952
90477	8,2396
90478	8,2718
90479	8,5481
90480	8,0372
90481	7,7654
90482	7,7154
90483	7,7131
90484	7,7211
90485	7,7813
90486	7,8933
90487	8,0531
90488	8,2558
90489	8,4972
90490	8,7697
90491	9,068
90492	9,388
90493	9,4585
90494	9,1287
90495	10,445
90496	10,167
90497	10,818
90498	10,922
90499	10,545
90500	11,759
90501	11,292
90502	11,364
90503	12,259
90504	11,868
90505	9,4663
90506	8,7518
90507	8,8032
90508	8,4778
90509	8,2502
90510	8,2576
90511	8,5109
90512	8,0759
90513	7,9596
90514	7,9035
90515	8,0531
90516	7,9045
90517	7,9123
90518	7,7857
90519	7,8133
90520	7,9828
90521	8,1143
90522	8,3035
90523	8,5461
90524	8,8372
90525	9,1723
90526	9,5455
90527	9,9525
90528	10,058
90529	11,378
90530	11,542
90531	11,03
90532	11,318
90533	10,833
90534	10,943
90535	11,383
90536	10,375
90537	9,943
90538	10,034
90539	10,475
90540	9,5408
90541	9,1701
90542	9,6213
90543	8,8355
90544	8,5447
90545	8,3023
90546	8,1134
90547	7,9822
90548	7,912
90549	7,9046
90550	7,9601
90551	7,8137
90552	7,7857
90553	7,9043
90554	8,2592
90555	9,0953
90556	9,4583
90557	9,17
90558	8,8237
90559	9,8395
90560	10,238
90561	9,9293
90562	9,5347
90563	10,632
90564	11,006
90565	10,678
90566	10,323
90567	10,729
90568	10,649
90569	12,426
90570	12,677
90571	12,661
90572	12,39
90573	9,8608
90574	10,107
90575	10,449
90576	10,369
90577	10,084
90578	10,205
90579	9,1163
90580	7,5078
90581	7,4131
90582	7,543
90583	7,6366
90584	7,4924
90585	7,7862
90586	7,7986
90587	7,6189
90588	8,2939
90589	9,1847
90590	8,9285
90591	10,911
90592	12,068
90593	12,349
90594	10,898
90595	10,816
90596	11,412
90597	10,426
90598	10,248
90599	10,54
90600	10,201
90601	11,009
90602	10,458
90603	10,267
90604	9,4975
90605	9,2409
90606	10,67
90607	11,364
90608	11,43
90609	11,253
90610	11,258
90611	11,212
90612	11,537
90613	11,277
90614	11,256
90615	9,6022
90616	9,265
90617	9,3428
90618	9,9232
90619	9,6594
90620	8,9316
90621	8,6126
90622	9,0111
90623	8,3205
90624	8,0645
90625	8,1077
90626	7,8709
90627	7,5339
90628	9,199
90629	9,5371
90630	9,2788
90631	8,9432
90632	9,8924
90633	9,9817
90634	9,6204
90635	11,46
90636	10,973
90637	11,093
90638	11,986
90639	11,601
90640	9,254
90641	8,5572
90642	8,6172
90643	8,2846
90644	8,0537
90645	8,0727
90646	8,3273
90647	7,8733
90648	7,7493
90649	7,7059
90650	7,8632
90651	7,6863
90652	7,5708
90653	10,182
90654	10,674
90655	10,352
90656	9,8498
90657	11,197
90658	11,326
90659	10,841
90660	11,008
90661	10,586
90662	10,698
90663	10,971
90664	10,661
90665	10,521
90666	10,136
90667	9,7135
90668	9,7984
90669	10,234
90670	9,395
90671	7,6866
90672	7,7499
90673	7,5708
90674	7,7068
90675	8,2865
90676	8,5681
90677	8,3295
90678	8,0744
90679	8,8919
90680	9,243
90681	8,9699
90682	8,6347
90683	9,6213
90684	10,007
90685	9,7467
90686	9,3411
90687	10,361
90688	10,671
90689	10,386
90690	10,094
90691	9,8468
90692	9,9688
90693	9,7114
90694	9,3634
90695	8,8474
90696	8,8937
90697	8,523
90698	8,2191
90699	8,5728
90700	7,949
90701	7,7218
90702	7,5418
90703	7,4125
90704	7,3735
90705	7,3375
90706	7,2345
90707	7,4687
90708	7,3332
90709	7,6259
90710	7,6546
90711	7,4685
90712	8,3644
90713	8,1512
90714	8,6713
90715	8,9829
90716	8,7494
90717	8,4434
90718	11,028
90719	12,083
90720	12,09
90721	10,611
90722	9,5448
90723	10,759
90724	10,69
90725	11,1
90726	11,109
90727	10,846
90728	10,204
90729	9,9475
90730	10,263
90731	9,9465
90732	10,349
90733	10,203
90734	10,025
90735	10,92
90736	10,643
90737	9,104
90738	9,0226
90739	9,2858
90740	9,0503
90741	11,067
90742	10,843
90743	10,983
90744	10,975
90745	10,8
90746	10,772
90747	10,793
90748	10,652
90749	10,555
90750	10,419
90751	10,213
90752	10,58
90753	10,335
90754	10,129
90755	10,09
90756	9,4022
90757	9,0882
90758	9,1688
90759	9,6875
90760	9,4802
90761	8,8477
90762	7,9101
90763	7,9667
90764	7,6929
90765	7,5207
90766	7,53
90767	7,7284
90768	7,3992
90769	7,3327
90770	7,2786
90771	7,3782
90772	7,3234
90773	7,3709
90774	7,4742
90775	7,631
90776	7,8368
90777	8,0853
90778	8,3721
90779	8,6883
90780	8,4356
90781	11,221
90782	10,725
90783	10,893
90784	11,687
90785	11,321
90786	9,3189
90787	9,0762
90788	9,6518
90789	9,4079
90790	8,3833
90791	8,4531
90792	8,1105
90793	7,8764
90794	8,166
90795	7,6893
90796	7,6962
90797	7,4756
90798	7,3751
90799	7,5334
90800	7,6564
90801	7,3943
90802	7,8417
90803	8,085
90804	7,8404
90805	7,6312
90806	8,3812
90807	8,7228
90808	8,4272
90809	8,1068
90810	9,1069
90811	9,5297
90812	9,179
90813	9,9001
90814	9,4813
90815	9,5397
90816	9,9279
90817	9,0862
90818	8,7175
90819	8,7915
90820	9,1586
90821	8,3834
90822	8,0857
90823	8,1161
90824	8,4399
90825	7,8408
90826	7,6555
90827	7,6301
90828	7,8439
90829	7,5328
90830	7,4755
90831	7,3926
90832	7,3752
90833	8,1124
90834	8,3907
90835	8,1697
90836	7,9125
90837	8,7077
90838	9,0645
90839	8,7836
90840	8,4648
90841	9,4664
90842	9,8284
90843	9,6196
90844	9,3071
90845	9,1156
90846	10,113
90847	10,351
90848	8,8939
90849	8,6174
90850	8,6297
90851	8,842
90852	8,3571
90853	7,2019
90854	7,0854
90855	7,3278
90856	7,205
90857	7,4927
90858	7,5399
90859	7,3478
90860	8,228
90861	8,0353
90862	8,5198
90863	8,8158
90864	8,3162
90865	10,489
90866	10,365
90867	10,41
90868	11,11
90869	10,916
90870	10,439
90871	9,5744
90872	8,7621
90873	9,3342
90874	11,712
90875	10,236
90876	9,9613
90877	10,123
90878	10,641
90879	10,407
90880	9,7857
90881	9,9569
90882	9,7632
90883	9,0986
90884	10,559
90885	10,492
90886	10,003
90887	9,9204
90888	10,141
90889	9,784
90890	9,2474
90891	8,9267
90892	9,0146
90893	9,3321
90894	9,5859
90895	8,7056
90896	7,782
90897	7,8535
90898	7,5617
90899	7,383
90900	7,4118
90901	7,6148
90902	7,2526
90903	7,1428
90904	7,2522
90905	8,5072
90906	10,985
90907	10,609
90908	11,327
90909	11,031
90910	9,1662
90911	8,9202
90912	8,2325
90913	8,3155
90914	8,0324
90915	7,5589
90916	7,2869
90917	7,2074
90918	7,2142
90919	7,6254
90920	7,859
90921	7,6217
90922	7,4254
90923	8,1501
90924	8,1966
90925	7,8815
90926	8,8997
90927	9,2222
90928	8,8632
90929	8,5111
90930	8,5783
90931	8,8944
90932	9,218
90933	8,1691
90934	7,8702
90935	7,9236
90936	8,25
90937	7,6289
90938	7,4301
90939	7,6442
90940	7,2853
90941	7,2119
90942	7,3066
90943	7,2678
90944	7,2076
90945	7,9657
90946	8,2401
90947	8,0361
90948	7,7795
90949	8,5371
90950	8,8301
90951	8,6158
90952	8,3194
90953	9,4637
90954	9,4867
90955	9,2709
90956	9,0755
90957	8,5793
90958	8,3681
90959	7,7938
90960	7,8854
90961	8,0875
90962	7,5437
90963	7,3432
90964	7,3479
90965	7,6084
90966	7,1897
90967	7,081
90968	7,0609
90969	7,1857
90970	7,0284
90971	6,9722
90972	6,9886
90973	7,2207
90974	7,113
90975	7,3914
90976	7,6055
90977	7,4579
90978	7,2628
90979	7,8528
90980	8,1221
90981	7,9485
90982	7,6902
90983	8,2213
90984	10,316
90985	10,242
90986	11,291
90987	10,116
90988	10,127
90989	9,5232
90990	9,462
90991	9,7333
90992	10,497
90993	10,301
90994	10,152
90995	9,6957
90996	9,6027
90997	9,8011
90998	9,5034
90999	9,5602
91000	9,0974
91001	8,7919
91002	9,3905
91003	8,4934
91004	8,2069
91005	8,3031
91006	8,5889
91007	7,9352
91008	7,6841
91009	8,0301
91010	7,4621
91011	7,2775
91012	7,3272
91013	7,1383
91014	7,0423
91015	7,1606
91016	7,0493
91017	6,9683
91018	7,1392
91019	7,2888
91020	7,1425
91021	7,0249
91022	7,4944
91023	7,7463
91024	7,5846
91025	7,3252
91026	7,8617
91027	10,98
91028	10,773
91029	10,241
91030	10,151
91031	8,3989
91032	8,113
91033	8,6935
91034	7,93
91035	7,4562
91036	7,1611
91037	7,1285
91038	7,0748
91039	7,1457
91040	7,1619
91041	7,2602
91042	7,0682
91043	7,4201
91044	7,6432
91045	7,425
91046	7,2452
91047	7,9266
91048	8,2525
91049	7,6728
91050	8,5881
91051	8,6086
91052	8,3094
91053	8,313
91054	8,3297
91055	7,9994
91056	7,694
91057	7,8024
91058	8,0994
91059	7,444
91060	7,2632
91061	7,274
91062	7,5133
91063	7,1587
91064	7,127
91065	7,0697
91066	7,1289
91067	7,1627
91068	7,2582
91069	7,409
91070	7,6088
91071	7,4577
91072	7,2787
91073	7,8468
91074	8,1129
91075	7,932
91076	7,6795
91077	8,3963
91078	8,4842
91079	9,2943
91080	9,4996
91081	9,3585
91082	9,1178
91083	7,4149
91084	7,1932
91085	7,1752
91086	7,6989
91087	7,0538
91088	6,9631
91089	6,949
91090	7,0458
91091	6,9265
91092	6,8961
91093	6,897
91094	7,1517
91095	7,06
91096	7,3266
91097	7,5405
91098	7,2161
91099	7,7844
91100	8,0468
91101	8,3158
91102	8,4118
91103	8,1537
91104	10,057
91105	10,889
91106	10,169
91107	10,682
91108	9,1487
91109	9,3711
91110	10,028
91111	9,5904
91112	7,9589
91113	10,121
91114	8,1145
91115	10,674
91116	10,497
91117	10,527
91118	10,345
91119	9,8865
91120	9,8788
91121	9,6782
91122	9,7437
91123	9,9144
91124	9,7097
91125	9,8925
91126	9,4552
91127	9,4064
91128	9,3276
91129	9,4975
91130	9,3398
91131	9,6458
91132	9,6351
91133	9,4167
91134	9,8888
91135	9,7565
91136	9,5984
91137	8,3978
91138	8,1257
91139	8,23
91140	8,496
91141	7,9699
91142	7,2075
91143	7,2767
91144	7,0612
91145	6,9645
91146	6,9788
91147	7,1048
91148	6,921
91149	6,9378
91150	6,9049
91151	7,0215
91152	7,0318
91153	6,9285
91154	9,9939
91155	9,8333
91156	7,8604
91157	7,392
91158	7,0543
91159	7,0089
91160	6,9855
91161	7,069
91162	6,9644
91163	7,2517
91164	7,4567
91165	7,2714
91166	7,1073
91167	7,5248
91168	7,6193
91169	7,8992
91170	7,3436
91171	7,1342
91172	7,1304
91173	7,032
91174	6,9702
91175	7,0146
91176	7,3238
91177	7,5257
91178	7,394
91179	7,2122
91180	7,7627
91181	7,8618
91182	7,6145
91183	8,5533
91184	8,3851
91185	9,1828
91186	8,9904
91187	6,9397
91188	6,879
91189	6,8702
91190	6,9321
91191	6,8618
91192	6,86
91193	6,8431
91194	7,1218
91195	7,0466
91196	7,2069
91197	8,2495
91198	8,348
91199	8,492
91200	8,1109
91201	9,7012
91202	9,4003
91203	9,3917
91204	8,7751
91205	9,1814
91206	9,0026
91207	9,4029
91208	6,8655
91209	9,3765
91210	9,2054
91211	8,8026
91212	8,6317
91213	10,118
91214	9,9796
91215	9,7964
91216	9,1029
91217	9,2521
91218	8,813
91219	8,5776
91220	8,6553
91221	9,017
91222	8,8649
91223	8,3278
91224	8,074
91225	8,1836
91226	7,9386
91227	7,1721
91228	7,2643
91229	7,0202
91230	6,9159
91231	6,9523
91232	7,0814
91233	6,8708
91234	9,594
91235	7,7106
91236	7,4786
91237	7,5802
91238	7,8205
91239	7,3651
91240	6,9941
91241	6,9347
91242	6,9415
91243	7,0358
91244	6,9053
91245	7,005
91246	6,9433
91247	6,9403
91248	6,9095
91249	6,9315
91250	6,9455
91251	7,28
91252	7,4813
91253	7,3689
91254	7,1864
91255	7,7125
91256	7,9616
91257	7,8217
91258	7,5835
91259	8,216
91260	8,4637
91261	8,3161
91262	8,0692
91263	8,8674
91264	6,8899
91265	6,87
91266	6,8384
91267	6,8316
91268	6,8428
91269	6,8291
91270	6,9894
91271	7,13
91272	7,3085
91273	7,5163
91274	7,427
91275	7,7423
91276	7,977
91277	7,8651
91278	7,6417
91279	8,2096
91280	8,31
91281	8,4288
91282	8,0936
91283	9,6654
91284	9,5784
91285	9,4269
91286	8,8357
91287	8,5724
91288	6,8329
91289	6,9056
91290	6,876
91291	9,612
91292	9,5009
91293	9,3495
91294	9,177
91295	9,0349
91296	8,6968
91297	8,5457
91298	9,7294
91299	9,0963
91300	8,8967
91301	9,3752
91302	9,1357
91303	9,274
91304	9,4194
91305	9,2764
91306	9,109
91307	9,5555
91308	8,914
91309	9,0406
91310	8,7066
91311	8,5744
91312	8,8816
91313	8,7545
91314	8,0482
91315	8,1617
91316	7,811
91317	7,5816
91318	7,7082
91319	7,9373
91320	7,3695
91321	7,1708
91322	7,2781
91323	7,4897
91324	7,0128
91325	7,0928
91326	8,1749
91327	7,9307
91328	8,0494
91329	8,2803
91330	7,6898
91331	7,4664
91332	6,9772
91333	6,9057
91334	6,9384
91335	7,0409
91336	6,8917
91337	6,8928
91338	6,8889
91339	6,9085
91340	6,9449
91341	7,2742
91342	7,4709
91343	7,3759
91344	7,1973
91345	7,6925
91346	7,9292
91347	8,1692
91348	8,3984
91349	8,0467
91350	8,9142
91351	7,5515
91352	7,479
91353	7,7643
91354	7,9817
91355	7,8905
91356	7,6822
91357	8,1943
91358	8,2931
91359	8,0999
91360	9,5848
91361	8,9611
91362	9,5655
91363	9,4688
91364	9,311
91365	9,193
91366	8,6343
91367	6,8555
91368	7,1954
91369	9,1663
91370	9,3747
91371	9,0232
91372	8,9032
91373	6,8903
91374	8,9346
91375	8,7746
91376	9,1325
91377	8,9659
91378	9,1455
91379	8,8559
91380	8,7825
91381	8,7665
91382	8,6928
91383	8,6804
91384	8,6218
91385	8,5171
91386	8,7745
91387	8,665
91388	8,051
91389	8,1644
91390	7,8343
91391	7,6166
91392	7,7636
91393	7,9665
91394	7,3961
91395	7,294
91396	7,5859
91397	7,466
91398	8,1548
91399	8,0541
91400	8,3696
91401	8,2646
91402	7,1251
91403	7,2172
91404	6,9966
91405	6,9169
91406	6,9649
91407	7,067
91408	6,9218
91409	7,2993
91410	7,4118
91411	7,2225
91412	8,0534
91413	7,4241
91414	7,6094
91415	7,5432
91416	7,3804
91417	7,8083
91418	8,0086
91419	7,7451
91420	8,1989
91421	8,3752
91422	8,2947
91423	8,1277
91424	9,2732
91425	9,2317
91426	9,1096
91427	8,6903
91428	7,6204
91429	7,7348
91430	7,722
91431	7,6778
91432	7,4994
91433	9,0099
91434	9,1235
91435	8,8874
91436	8,7907
91437	7,1557
91438	7,0311
91439	8,8063
91440	8,9573
91441	8,6896
91442	8,5653
91443	8,4606
91444	8,633
91445	8,541
91446	8,4485
91447	8,583
91448	8,662
91449	8,6312
91450	8,8689
91451	8,8573
91452	8,56
91453	8,4194
91454	8,6801
91455	8,5952
91456	8,2576
91457	8,0801
91458	8,3465
91459	7,8962
91460	7,8491
91461	8,0132
91462	8,1638
91463	7,9589
91464	8,0857
91465	8,3552
91466	8,2644
91467	7,7455
91468	7,5371
91469	7,6956
91470	7,8907
91471	7,3347
91472	7,5407
91473	7,7501
91474	7,9594
91475	7,8926
91476	7,6994
91477	8,1583
91478	8,3352
91479	8,2578
91480	8,0862
91481	7,8385
91482	8,2235
91483	8,3678
91484	8,3097
91485	8,1746
91486	8,7576
91487	8,7293
91488	8,6892
91489	9,0817
91490	8,5257
91491	8,4323
91492	8,6543
91493	8,5737
91494	8,4918
91495	8,4086
91496	7,3621
91497	8,4898
91498	8,427
91499	8,5436
91500	8,5152
91501	8,6039
91502	8,5436
91503	8,3623
91504	7,9665
91505	7,9798
91506	8,052
91507	8,1864
91508	8,0171
91509	8,1356
91510	8,3412
91511	8,2784
91512	7,84
91513	7,8409
91514	7,9633
91515	8,1861
91516	8,3316
91517	8,2786
91518	8,019
91519	8,1365
91520	8,1338
91521	8,1606
91522	8,2607
91523	8,3689
91524	8,3349
91525	8,2291
91526	8,66
91527	8,6482
91528	8,6028
91529	8,5425
91530	8,53
91531	8,5908
91532	8,4926
91533	8,4992
91534	8,4522
91535	8,4204
91536	8,4193
91537	8,461
91538	8,5006
91539	8,4728
91540	8,3158
91541	8,3932
91542	8,5004
91543	8,4794
91544	8,5136
91545	7,9644
91546	8,4605
91547	8,4046
91548	8,5084
91549	8,5696
91550	8,2279
91551	8,3229
91552	8,2294
91553	8,3516
91554	8,3243
91555	8,0815
91556	8,3033
91557	8,3863
91558	8,3808
91559	8,441
91560	8,4267
91561	8,456
91562	8,4715
91563	8,4526
91564	8,4866
91565	8,414
91566	8,435
91567	8,4211
91568	8,448
91569	8,4676
91570	8,4607
91571	8,3867
91572	8,382
91573	8,4555
91574	8,4486
91575	8,4417
91576	8,4322
91577	8,4275
91578	8,4338
91579	8,1632
91580	10,214
91581	6,8285
91582	6,9721
91583	1,5153
91584	13,08
91585	13,08
91586	12,747
91587	12,717
91588	13,134
91589	13,486
91590	13,179
91591	3,6102
91592	3,2231
91593	3,4346
91594	1,5153
91595	14,822
91596	14,699
91597	14,804
91598	14,844
91599	16,995
91600	17,076
91601	18,627
91602	17,696
91603	6,9721
91604	6,9218
91605	6,9449
91606	7,0083
91607	7,0311
91608	6,9649
91609	6,8285
91610	6,8329
91611	6,8384
91612	6,8431
91613	6,8555
91614	6,8291
91615	10,214
91616	10,458
91617	10,107
91618	10,394
91619	9,9688
91620	10,205
91621	8,1632
91622	8,0875
91623	8,3681
91624	8,3571
91625	7,9589
91626	8,1197
91627	16,749
91628	17,817
91629	16,555
91630	15,81
91631	17,515
91632	19,402
91633	18,171
91634	21,583
91635	8,4417
91636	8,4211
91637	8,4267
91638	9,0817
91639	9,1096
91640	9,2317
91641	7,3621
91642	7,294
91643	7,242
91644	9,9569
91645	10,123
91646	10,213
91647	24,817
91648	23,734
91649	27,685
91650	7,8992
91651	8,1145
91652	8,0994
91653	8,4338
91654	8,4715
91655	8,4619
91656	11,574
91657	11,232
91658	11,622
91659	11,898
91660	12,754
91661	12,702
91662	13,101
91663	12,58
91664	8,5696
91665	8,5908
91666	8,6482
91667	8,661
91668	11,537
91669	11,499
91670	11,699
91671	22,264
91672	21,968
91673	21,678
91674	23,669
91675	13,129
91676	13,169
91677	13,51
91678	5,4932
91679	5,6571
91680	5,8732
91681	18,327
91682	17,57
91683	17,927
91684	8,4275
91685	8,4322
91686	8,4486
91687	8,4607
91688	8,4557
91689	8,382
91690	8,4058
91691	8,4555
91692	8,4676
91693	8,435
91694	8,461
91695	8,3867
91696	8,448
91697	8,414
91698	8,456
91699	8,3243
91700	8,3229
91701	8,4866
91702	8,4992
91703	8,3808
91704	8,3932
91705	8,4526
91706	8,3516
91707	8,4046
91708	8,5084
91709	8,53
91710	8,0815
91711	7,9644
91712	7,9633
91713	8,5136
91714	8,5004
91715	8,4435
91716	8,441
91717	8,4728
91718	8,4631
91719	8,3863
91720	8,4204
91721	8,3033
91722	8,3158
91723	8,2291
91724	8,1606
91725	8,2294
91726	8,3349
91727	8,2294
91728	8,2279
91729	8,1365
91730	8,1356
91731	8,2786
91732	8,2784
91733	8,3467
91734	8,4605
91735	8,5436
91736	8,3316
91737	8,4086
91738	8,019
91739	7,8409
91740	7,8926
91741	8,4794
91742	8,5737
91743	8,563
91744	8,3412
91745	8,4323
91746	8,4096
91747	8,6543
91748	8,662
91749	8,7665
91750	8,6453
91751	8,7481
91752	8,5006
91753	8,4909
91754	8,5504
91755	8,4193
91756	8,3623
91757	8,4522
91758	8,5152
91759	8,4926
91760	8,4671
91761	8,3689
91762	8,427
91763	8,5425
91764	8,5436
91765	8,6028
91766	8,66
91767	8,6039
91768	8,6892
91769	8,7293
91770	8,2607
91771	8,1338
91772	8,1746
91773	8,3097
91774	8,052
91775	7,9798
91776	8,018
91777	8,1861
91778	8,0862
91779	8,2578
91780	7,84
91781	8,0171
91782	7,8907
91783	7,6994
91784	7,6956
91785	8,1864
91786	8,2644
91787	8,0857
91788	7,9665
91789	8,0132
91790	8,1201
91791	7,8385
91792	7,8491
91793	8,3465
91794	8,276
91795	8,4102
91796	8,5952
91797	8,5181
91798	8,4898
91799	8,583
91800	8,5645
91801	8,4918
91802	8,6016
91803	8,635
91804	8,3678
91805	8,4485
91806	7,4994
91807	7,3804
91808	7,466
91809	8,3352
91810	8,4368
91811	8,5257
91812	8,6312
91813	8,3552
91814	8,4606
91815	8,9573
91816	9,1235
91817	8,9692
91818	8,7576
91819	8,6801
91820	8,7907
91821	8,8573
91822	8,7416
91823	8,2235
91824	8,1277
91825	8,0586
91826	8,2947
91827	7,6778
91828	7,722
91829	7,7451
91830	7,876
91831	8,1583
91832	7,9594
91833	8,0534
91834	8,2569
91835	7,7501
91836	7,5407
91837	7,6166
91838	7,8359
91839	7,3347
91840	7,1557
91841	7,2225
91842	7,2172
91843	7,5371
91844	7,4118
91845	7,409
91846	7,7455
91847	7,9589
91848	7,8339
91849	7,6122
91850	8,1638
91851	8,2646
91852	8,0541
91853	7,8962
91854	8,0801
91855	7,9665
91856	7,7348
91857	7,7636
91858	8,2576
91859	8,4194
91860	8,3506
91861	8,1644
91862	8,1869
91863	8,56
91864	8,665
91865	8,5171
91866	8,483
91867	8,8689
91868	8,8559
91869	8,7215
91870	8,7555
91871	8,8874
91872	9,0099
91873	8,9958
91874	8,5653
91875	8,6896
91876	8,7246
91877	8,541
91878	8,633
91879	8,6804
91880	8,3752
91881	8,4719
91882	8,6903
91883	8,6928
91884	8,5645
91885	8,3696
91886	8,4971
91887	8,8063
91888	8,7746
91889	8,6214
91890	8,9659
91891	8,8403
91892	7,067
91893	7,0721
91894	8,7745
91895	8,9032
91896	9,2732
91897	9,1325
91898	9,3747
91899	9,1455
91900	9,0232
91901	9,1663
91902	7,6204
91903	7,5432
91904	7,5859
91905	8,6343
91906	8,8147
91907	8,7907
91908	9,193
91909	9,0406
91910	8,9991
91911	9,311
91912	9,4688
91913	8,1989
91914	8,0086
91915	8,0999
91916	8,2931
91917	7,8083
91918	7,6094
91919	7,6822
91920	7,8905
91921	7,9396
91922	7,4241
91923	7,2604
91924	7,2962
91925	7,479
91926	8,0467
91927	7,9297
91928	8,1522
91929	7,2993
91930	7,1973
91931	7,1355
91932	7,3759
91933	7,4879
91934	6,9169
91935	6,8903
91936	6,8889
91937	6,9966
91938	7,1251
91939	7,0409
91940	6,9384
91941	7,1895
91942	7,2913
91943	8,1548
91944	8,2803
91945	8,0494
91946	7,9289
91947	7,3961
91948	7,6166
91949	7,4897
91950	7,1954
91951	7,2781
91952	7,8343
91953	8,051
91954	7,9373
91955	7,7082
91956	8,1617
91957	8,2575
91958	8,6218
91959	8,7545
91960	8,5744
91961	8,4484
91962	8,7825
91963	8,8178
91964	8,914
91965	8,8707
91966	8,9611
91967	8,8109
91968	8,9817
91969	9,2764
91970	9,1322
91971	9,282
91972	8,9346
91973	9,1357
91974	8,8967
91975	8,7118
91976	8,3984
91977	8,5457
91978	8,4824
91979	8,613
91980	6,9085
91981	6,8928
91982	6,9095
91983	8,8816
91984	9,0349
91985	9,5655
91986	9,3752
91987	9,7294
91988	9,612
91989	9,177
91990	9,3495
91991	9,302
91992	9,5848
91993	9,5009
91994	9,6654
91995	9,4554
91996	7,0928
91997	7,0321
91998	7,1464
91999	6,876
92000	6,87
92001	6,9295
92002	8,5724
92003	8,4288
92004	8,5083
92005	9,4269
92006	9,2521
92007	9,5784
92008	9,7612
92009	8,9142
92010	9,109
92011	9,0971
92012	9,5555
92013	9,7087
92014	8,1943
92015	7,9817
92016	8,0936
92017	8,31
92018	8,39
92019	7,7643
92020	7,5515
92021	7,6417
92022	7,8651
92023	7,427
92024	7,3506
92025	8,6968
92026	8,8674
92027	8,7638
92028	8,1692
92029	7,9292
92030	8,0692
92031	8,3161
92032	8,2745
92033	7,6925
92034	7,4709
92035	7,5835
92036	7,5821
92037	7,8217
92038	7,8122
92039	7,2742
92040	7,1864
92041	7,1081
92042	7,3689
92043	6,9455
92044	6,9821
92045	6,8917
92046	6,9057
92047	6,9053
92048	6,9315
92049	6,9277
92050	6,9772
92051	7,0358
92052	7,102
92053	6,9415
92054	7,4664
92055	7,3651
92056	7,2689
92057	7,3711
92058	7,6898
92059	7,9307
92060	7,8205
92061	7,8105
92062	7,5802
92063	7,5793
92064	8,1749
92065	8,3262
92066	8,4077
92067	8,0743
92068	7,0128
92069	7,1708
92070	7,0814
92071	6,9056
92072	6,9523
92073	6,9545
92074	7,3695
92075	7,5816
92076	7,4707
92077	7,2643
92078	7,811
92079	8,0482
92080	7,9386
92081	7,6969
92082	8,1836
92083	8,2796
92084	8,7066
92085	8,8649
92086	8,6553
92087	8,5013
92088	9,1029
92089	8,9473
92090	9,4194
92091	9,594
92092	9,4242
92093	9,274
92094	9,1291
92095	9,2826
92096	9,447
92097	9,0963
92098	9,3108
92099	8,8357
92100	9,0466
92101	10,118
92102	9,919
92103	9,9814
92104	8,4637
92105	8,6317
92106	9,017
92107	9,2054
92108	9,3765
92109	9,5984
92110	9,7964
92111	9,5454
92112	9,8667
92113	6,8428
92114	6,8708
92115	6,8316
92116	6,8655
92117	6,8702
92118	8,492
92119	8,7284
92120	8,6609
92121	9,0026
92122	8,8943
92123	8,8269
92124	9,0551
92125	9,4029
92126	9,1814
92127	9,3917
92128	9,2312
92129	8,7751
92130	8,5729
92131	8,6511
92132	9,4003
92133	9,3398
92134	9,242
92135	9,7012
92136	9,4975
92137	9,7565
92138	9,7839
92139	9,8894
92140	8,2096
92141	7,977
92142	8,1109
92143	8,348
92144	7,7423
92145	7,5163
92146	7,6256
92147	7,8644
92148	7,3085
92149	7,13
92150	7,2069
92151	7,2334
92152	7,4024
92153	6,9894
92154	6,8899
92155	6,9475
92156	6,9294
92157	7,0466
92158	7,071
92159	6,8406
92160	6,86
92161	8,8026
92162	8,9904
92163	9,0505
92164	8,216
92165	7,9616
92166	8,1228
92167	8,3851
92168	7,7125
92169	7,4813
92170	7,6145
92171	7,8618
92172	7,28
92173	7,2122
92174	7,1162
92175	7,394
92176	6,9403
92177	6,991
92178	6,9992
92179	6,9433
92180	7,005
92181	7,0146
92182	6,9702
92183	7,1304
92184	7,1073
92185	7,0013
92186	6,9347
92187	6,9644
92188	6,938
92189	6,9941
92190	7,069
92191	7,1111
92192	6,9855
92193	7,4786
92194	7,392
92195	7,2757
92196	7,7106
92197	7,8604
92198	7,9637
92199	7,6124
92200	9,8333
92201	9,621
92202	9,7452
92203	6,9159
92204	6,9049
92205	6,8631
92206	7,0202
92207	7,1721
92208	7,1048
92209	6,9788
92210	7,2767
92211	7,3645
92212	8,074
92213	7,9699
92214	7,8243
92215	8,3278
92216	8,5776
92217	8,496
92218	8,4238
92219	8,23
92220	8,813
92221	9,0077
92222	8,7571
92223	9,3276
92224	9,1408
92225	9,9796
92226	9,7437
92227	10,057
92228	9,9144
92229	10,242
92230	10,076
92231	10,345
92232	10,497
92233	10,286
92234	8,5533
92235	8,7442
92236	9,4167
92237	9,1948
92238	6,9321
92239	6,9285
92240	6,8684
92241	9,3711
92242	9,616
92243	9,625
92244	9,1487
92245	8,9451
92246	8,6935
92247	8,9202
92248	8,9847
92249	9,5602
92250	9,6047
92251	10,028
92252	9,8011
92253	9,8776
92254	9,8888
92255	10,121
92256	10,127
92257	10,015
92258	8,2495
92259	8,1537
92260	7,998
92261	8,4118
92262	7,1218
92263	7,2161
92264	7,2993
92265	7,06
92266	6,9849
92267	6,8618
92268	6,879
92269	6,897
92270	6,8961
92271	6,8964
92272	6,9397
92273	7,0318
92274	7,0458
92275	6,949
92276	9,1828
92277	9,1178
92278	8,932
92279	9,4552
92280	9,3585
92281	9,2434
92282	8,4842
92283	8,2916
92284	7,7627
92285	7,5257
92286	7,6795
92287	7,932
92288	8,0224
92289	7,3238
92290	7,2787
92291	7,1654
92292	7,4577
92293	7,032
92294	7,1342
92295	7,1289
92296	7,0697
92297	7,0122
92298	7,3436
92299	7,6193
92300	7,5248
92301	7,5133
92302	7,2714
92303	7,274
92304	7,8024
92305	7,8209
92306	7,4567
92307	7,6728
92308	7,7258
92309	7,2517
92310	7,2452
92311	7,1108
92312	7,425
92313	7,0089
92314	7,0682
92315	7,0291
92316	7,0543
92317	7,1457
92318	7,1606
92319	7,0748
92320	7,4562
92321	7,3205
92322	7,5241
92323	7,93
92324	7,7609
92325	8,0227
92326	9,9939
92327	9,8925
92328	10,152
92329	10,151
92330	9,911
92331	10,01
92332	7,0215
92333	6,9378
92334	7,0249
92335	7,1752
92336	7,1425
92337	6,921
92338	6,9645
92339	6,9776
92340	6,9683
92341	6,8852
92342	7,0612
92343	7,2075
92344	7,1606
92345	7,0423
92346	7,3272
92347	7,3965
92348	8,1257
92349	8,0301
92350	7,8646
92351	8,3978
92352	8,5889
92353	8,6749
92354	8,3031
92355	9,6351
92356	9,8788
92357	9,6458
92358	9,8865
92359	9,5859
92360	9,7857
92361	9,9613
92362	9,3905
92363	9,4064
92364	9,5034
92365	9,2241
92366	9,6027
92367	9,7097
92368	9,5904
92369	9,4842
92370	9,7782
92371	9,6842
92372	9,978
92373	9,6782
92374	9,7333
92375	9,462
92376	9,4939
92377	10,169
92378	10,116
92379	10,527
92380	10,213
92381	10,491
92382	10,674
92383	10,773
92384	10,682
92385	10,889
92386	8,3297
92387	8,3094
92388	8,0354
92389	9,218
92390	9,2222
92391	9,5744
92392	9,5397
92393	10,241
92394	10,106
92395	10,303
92396	7,6989
92397	7,8617
92398	7,8854
92399	9,4996
92400	9,6813
92401	10,141
92402	10,407
92403	10,237
92404	9,0986
92405	9,3342
92406	10,641
92407	10,916
92408	10,479
92409	10,236
92410	10,41
92411	10,489
92412	10,98
92413	11,291
92414	11,11
92415	10,316
92416	10,125
92417	10,406
92418	8,3158
92419	8,0468
92420	8,2213
92421	8,5806
92422	8,4997
92423	7,7844
92424	7,5405
92425	7,6902
92426	7,6407
92427	7,9485
92428	7,8917
92429	7,3266
92430	7,1517
92431	7,2628
92432	7,4579
92433	7,4117
92434	7,113
92435	7,022
92436	6,9265
92437	6,9631
92438	6,9886
92439	6,9722
92440	6,9457
92441	7,0538
92442	7,1932
92443	7,1857
92444	7,0609
92445	7,4149
92446	7,5846
92447	7,6084
92448	7,3252
92449	7,3479
92450	9,2943
92451	9,0755
92452	9,2709
92453	9,4867
92454	8,3963
92455	8,1129
92456	8,3194
92457	8,2047
92458	8,6158
92459	8,675
92460	7,8468
92461	7,6088
92462	7,7795
92463	8,0361
92464	7,409
92465	7,2582
92466	7,3864
92467	7,5603
92468	7,1627
92469	7,127
92470	7,2076
92471	7,0782
92472	7,2678
92473	7,1496
92474	7,1587
92475	7,2632
92476	7,2826
92477	7,2119
92478	7,444
92479	7,694
92480	7,6442
92481	7,4301
92482	7,9994
92483	8,313
92484	8,25
92485	7,9236
92486	8,6086
92487	8,5783
92488	8,5881
92489	8,2525
92490	8,5496
92491	8,8944
92492	8,8997
92493	7,9266
92494	7,6432
92495	7,8815
92496	8,1966
92497	7,9795
92498	7,4201
92499	7,2602
92500	7,4254
92501	7,6217
92502	7,1619
92503	7,1285
92504	7,2142
92505	7,1283
92506	7,2877
92507	7,1611
92508	7,2659
92509	7,2562
92510	7,2074
92511	7,5589
92512	7,4077
92513	7,6072
92514	8,113
92515	8,0324
92516	7,8449
92517	8,3989
92518	8,492
92519	8,6142
92520	8,3155
92521	8,2075
92522	10,301
92523	10,391
92524	11,031
92525	10,738
92526	7,7463
92527	8,0214
92528	7,9589
92529	7,4944
92530	7,2888
92531	7,4551
92532	7,6853
92533	7,1392
92534	7,0493
92535	7,1565
92536	7,2781
92537	7,02
92538	7,093
92539	7,1382
92540	7,2775
92541	7,2522
92542	7,1428
92543	7,0509
92544	7,4621
92545	7,6841
92546	7,6148
92547	7,5335
92548	7,4118
92549	7,9352
92550	8,2069
92551	8,1195
92552	7,8535
92553	7,7707
92554	8,4934
92555	8,7919
92556	8,7056
92557	8,4049
92558	9,0974
92559	9,3321
92560	9,1707
92561	9,0146
92562	8,8791
92563	9,6957
92564	9,784
92565	9,9204
92566	10,497
92567	10,559
92568	10,843
92569	10,76
92570	10,492
92571	10,229
92572	9,5232
92573	9,7632
92574	9,8971
92575	9,1662
92576	9,4079
92577	9,2324
92578	10,365
92579	10,303
92580	11,327
92581	11,712
92582	11,548
92583	10,609
92584	10,439
92585	8,1221
92586	8,3162
92587	8,4047
92588	7,8528
92589	7,6055
92590	7,7719
92591	8,0353
92592	7,3914
92593	7,2207
92594	7,3478
92595	7,5399
92596	7,205
92597	7,0995
92598	7,0284
92599	7,081
92600	7,1154
92601	7,0854
92602	7,0341
92603	7,1897
92604	7,3432
92605	7,3421
92606	7,2019
92607	7,5437
92608	7,7938
92609	7,7606
92610	7,5219
92611	8,0396
92612	8,5793
92613	8,5072
92614	8,7621
92615	8,842
92616	8,6297
92617	8,3231
92618	8,8301
92619	9,1156
92620	8,8903
92621	9,4637
92622	9,3071
92623	9,6196
92624	9,667
92625	8,5371
92626	8,2401
92627	8,4648
92628	8,7836
92629	7,9657
92630	7,9125
92631	7,7274
92632	8,1697
92633	7,3066
92634	7,2853
92635	7,3752
92636	7,4223
92637	7,3906
92638	7,3926
92639	7,3307
92640	7,6289
92641	7,8702
92642	7,8439
92643	7,6301
92644	7,4458
92645	8,1691
92646	8,5111
92647	8,4399
92648	8,1161
92649	8,8632
92650	9,1586
92651	8,7915
92652	9,179
92653	8,8599
92654	8,1501
92655	7,859
92656	8,1068
92657	8,4272
92658	8,4918
92659	7,6254
92660	7,6312
92661	7,4491
92662	7,8404
92663	7,2869
92664	7,3943
92665	7,3345
92666	7,3751
92667	7,3063
92668	7,6962
92669	7,5321
92670	7,7258
92671	8,2325
92672	8,166
92673	7,9623
92674	8,4531
92675	8,5288
92676	9,0762
92677	8,8394
92678	10,985
92679	11,321
92680	10,893
92681	10,695
92682	8,4356
92683	8,2531
92684	8,1891
92685	7,2526
92686	7,383
92687	7,3782
92688	7,2786
92689	7,1759
92690	7,5617
92691	7,782
92692	7,7284
92693	7,53
92694	7,9667
92695	8,0361
92696	8,9267
92697	8,8477
92698	8,6157
92699	9,2474
92700	9,4802
92701	9,1688
92702	10,003
92703	10,09
92704	9,8234
92705	10,267
92706	10,772
92707	10,576
92708	10,756
92709	10,351
92710	10,643
92711	10,298
92712	8,8158
92713	9,0503
92714	8,8936
92715	10,113
92716	9,8284
92717	10,094
92718	9,8793
92719	9,6518
92720	9,9465
92721	9,9529
92722	9,6875
92723	9,9475
92724	10,129
92725	9,8695
92726	9,8771
92727	10,171
92728	10,846
92729	10,524
92730	10,335
92731	11,687
92732	12,09
92733	12,083
92734	11,067
92735	11,256
92736	10,988
92737	9,2858
92738	9,5448
92739	9,587
92740	8,6883
92741	9,0226
92742	8,9432
92743	9,9279
92744	9,5297
92745	10,025
92746	9,8498
92747	10,725
92748	10,263
92749	10,611
92750	10,28
92751	11,109
92752	11,385
92753	10,555
92754	10,69
92755	10,58
92756	10,759
92757	10,816
92758	8,5198
92759	8,228
92760	8,4434
92761	8,7494
92762	8,6092
92763	8,1512
92764	7,9522
92765	7,4927
92766	7,3278
92767	7,4685
92768	7,6546
92769	7,7035
92770	7,3332
92771	7,2155
92772	7,2345
92773	7,1664
92774	7,1607
92775	7,3735
92776	7,351
92777	7,2311
92778	8,6174
92779	8,5728
92780	8,3064
92781	8,8939
92782	9,104
92783	9,2034
92784	8,8937
92785	10,386
92786	10,1
92787	9,4664
92788	9,0645
92789	9,3411
92790	9,7467
92791	8,7077
92792	8,3907
92793	8,6347
92794	8,9699
92795	8,1124
92796	8,0744
92797	7,878
92798	8,3295
92799	7,7068
92800	7,5572
92801	7,5317
92802	7,6905
92803	7,4755
92804	7,5708
92805	7,4842
92806	7,5328
92807	7,6555
92808	7,4769
92809	7,6929
92810	7,5993
92811	7,8408
92812	8,0857
92813	8,0654
92814	7,8496
92815	8,3834
92816	8,7175
92817	8,6551
92818	8,3369
92819	9,0862
92820	9,4813
92821	9,395
92822	9,0078
92823	9,9001
92824	10,203
92825	10,349
92826	10,234
92827	9,7984
92828	9,1069
92829	8,7228
92830	8,7898
92831	9,0195
92832	9,4222
92833	8,3812
92834	8,085
92835	8,3367
92836	8,6558
92837	7,8417
92838	7,6564
92839	7,8506
92840	8,0666
92841	7,5334
92842	7,4756
92843	7,5996
92844	7,4802
92845	7,6936
92846	7,5708
92847	7,4839
92848	7,6893
92849	7,8764
92850	7,8632
92851	7,7059
92852	7,5565
92853	7,5307
92854	8,1105
92855	8,3833
92856	8,3273
92857	8,0727
92858	7,9107
92859	8,6172
92860	8,6827
92861	9,3189
92862	9,5887
92863	9,254
92864	8,9966
92865	11,221
92866	11,601
92867	11,093
92868	8,3721
92869	8,0853
92870	8,128
92871	8,321
92872	8,6187
92873	7,8368
92874	7,631
92875	7,6286
92876	7,8279
92877	7,8559
92878	8,0549
92879	7,4742
92880	7,3709
92881	7,321
92882	7,5126
92883	7,4482
92884	7,6453
92885	7,3234
92886	7,3327
92887	7,2353
92888	7,41
92889	7,2501
92890	7,4336
92891	7,3992
92892	7,5207
92893	7,5339
92894	7,4437
92895	7,6929
92896	7,9101
92897	7,8709
92898	7,6777
92899	8,1077
92900	8,1657
92901	9,0882
92902	9,0111
92903	8,7634
92904	9,4022
92905	9,6594
92906	9,3428
92907	10,346
92908	10,434
92909	10,419
92910	10,67
92911	10,204
92912	10,503
92913	10,652
92914	10,499
92915	10,74
92916	10,793
92917	10,8
92918	10,606
92919	10,975
92920	10,876
92921	10,983
92922	11,028
92923	11,1
92924	11,212
92925	10,92
92926	11,281
92927	8,9829
92928	9,2409
92929	9,3634
92930	9,2788
92931	10,671
92932	11,009
92933	10,521
92934	10,352
92935	10,661
92936	10,698
92937	10,201
92938	9,8815
92939	9,9232
92940	10,248
92941	11,412
92942	10,975
92943	11,253
92944	11,003
92945	11,169
92946	11,012
92947	10,869
92948	11,038
92949	9,4975
92950	9,7619
92951	9,8249
92952	10,973
92953	10,54
92954	10,911
92955	11,986
92956	12,39
92957	12,661
92958	10,426
92959	10,28
92960	10,046
92961	10,111
92962	12,677
92963	12,376
92964	11,939
92965	11,277
92966	11,258
92967	11,011
92968	8,6713
92969	8,3644
92970	8,599
92971	8,9285
92972	8,2939
92973	8,0808
92974	7,6259
92975	7,4687
92976	7,6189
92977	7,7986
92978	7,8322
92979	7,4924
92980	7,3661
92981	7,3375
92982	7,4125
92983	7,2754
92984	7,4624
92985	7,4131
92986	7,3218
92987	7,5418
92988	7,7218
92989	7,5229
92990	7,7263
92991	7,569
92992	7,949
92993	8,2191
92994	7,9684
92995	8,1825
92996	7,7224
92997	7,9333
92998	8,523
92999	8,8474
93000	8,7855
93001	8,2591
93002	8,4706
93003	9,1163
93004	9,2035
93005	9,7114
93006	9,6204
93007	9,4616
93008	9,8468
93009	9,9817
93010	10,084
93011	9,8608
93012	9,6002
93013	10,361
93014	10,007
93015	10,323
93016	10,678
93017	9,6213
93018	9,243
93019	9,5347
93020	9,9293
93021	8,8919
93022	8,5681
93023	8,8237
93024	9,17
93025	8,2865
93026	8,2592
93027	8,0552
93028	8,5131
93029	7,7499
93030	7,9043
93031	7,8743
93032	7,6866
93033	7,7857
93034	7,6871
93035	7,8137
93036	7,6075
93037	9,7135
93038	9,6213
93039	9,316
93040	10,136
93041	10,586
93042	10,475
93043	10,034
93044	10,971
93045	10,841
93046	11,008
93047	11,326
93048	11,383
93049	10,943
93050	12,349
93051	12,068
93052	12,426
93053	12,088
93054	11,197
93055	10,674
93056	11,03
93057	11,542
93058	11,729
93059	10,182
93060	10,058
93061	9,7446
93062	10,513
93063	7,6863
93064	7,7493
93065	7,8133
93066	7,607
93067	7,7857
93068	7,6873
93069	7,8733
93070	8,0537
93071	8,0531
93072	7,9035
93073	8,2846
93074	8,5572
93075	8,5109
93076	8,2576
93077	8,8032
93078	8,8619
93079	9,4663
93080	9,1866
93081	9,5234
93082	11,46
93083	11,868
93084	11,364
93085	9,8924
93086	9,5371
93087	9,8047
93088	10,267
93089	10,167
93090	9,199
93091	9,1287
93092	8,8719
93093	9,4585
93094	7,7131
93095	7,5726
93096	7,6856
93097	8,0645
93098	8,0372
93099	7,8511
93100	8,3205
93101	8,6126
93102	8,5481
93103	8,3818
93104	8,2718
93105	8,9316
93106	9,265
93107	9,196
93108	8,6863
93109	8,86
93110	9,6022
93111	9,9116
93112	9,5497
93113	11,453
93114	11,584
93115	11,43
93116	11,622
93117	11,347
93118	11,364
93119	11,563
93120	11,652
93121	10,898
93122	11,014
93123	10,746
93124	9,1847
93125	9,5272
93126	10,369
93127	10,649
93128	10,545
93129	10,449
93130	10,729
93131	10,743
93132	11,006
93133	11,373
93134	11,355
93135	10,485
93136	10,14
93137	10,235
93138	10,651
93139	10,542
93140	10,799
93141	10,76
93142	10,478
93143	11,512
93144	12,127
93145	11,905
93146	11,667
93147	11,062
93148	11,123
93149	12,403
93150	12,642
93151	11,726
93152	12,111
93153	11,719
93154	11,292
93155	10,848
93156	11,226
93157	9,1367
93158	8,8534
93159	8,459
93160	8,2349
93161	8,525
93162	7,7862
93163	7,6366
93164	7,7933
93165	7,9665
93166	7,9875
93167	7,543
93168	7,5078
93169	7,6141
93170	7,4231
93171	7,6749
93172	7,6119
93173	7,5316
93174	9,3133
93175	9,0529
93176	9,3874
93177	9,7374
93178	10,015
93179	12,259
93180	12,631
93181	12,874
93182	13,149
93183	13,576
93184	13,207
93185	12,711
93186	12,463
93187	12,859
93188	10,922
93189	11,043
93190	11,965
93191	11,718
93192	11,839
93193	11,566
93194	10,632
93195	10,238
93196	10,585
93197	10,992
93198	9,8395
93199	9,4583
93200	9,7548
93201	10,165
93202	9,0953
93203	9,0213
93204	8,7618
93205	9,3757
93206	8,4589
93207	8,2517
93208	8,4798
93209	7,9601
93210	8,1151
93211	8,0769
93212	7,9046
93213	7,912
93214	8,0098
93215	8,0315
93216	7,9822
93217	8,1134
93218	8,152
93219	7,9205
93220	8,0505
93221	7,8215
93222	8,3023
93223	8,5447
93224	8,5264
93225	8,2967
93226	8,312
93227	8,0802
93228	8,8355
93229	9,1701
93230	9,101
93231	8,8793
93232	8,791
93233	8,5643
93234	9,5408
93235	9,943
93236	9,8367
93237	9,4521
93238	9,2358
93239	10,375
93240	10,833
93241	10,7
93242	10,254
93243	11,318
93244	11,67
93245	11,786
93246	11,173
93247	12,634
93248	12,685
93249	12,305
93250	12,841
93251	11,378
93252	11,206
93253	10,871
93254	11,712
93255	11,888
93256	9,9525
93257	10,261
93258	10,393
93259	9,5455
93260	9,1723
93261	9,4543
93262	9,2427
93263	9,8408
93264	9,6365
93265	8,8372
93266	8,5461
93267	8,7926
93268	8,5667
93269	9,1027
93270	8,8818
93271	8,3035
93272	8,1143
93273	8,313
93274	8,0813
93275	8,5277
93276	8,2981
93277	7,9828
93278	7,9123
93279	8,0509
93280	7,8219
93281	8,1528
93282	7,9213
93283	7,9045
93284	7,9596
93285	8,0311
93286	8,0099
93287	8,0759
93288	8,2502
93289	8,2574
93290	8,1143
93291	8,4778
93292	8,7518
93293	8,7092
93294	8,4573
93295	9,0066
93296	9,0657
93297	9,7012
93298	9,4061
93299	9,7659
93300	11,759
93301	12,142
93302	11,682
93303	10,818
93304	10,445
93305	10,713
93306	11,082
93307	11,19
93308	10,347
93309	10,08
93310	9,388
93311	9,068
93312	9,3206
93313	9,6472
93314	9,7267
93315	8,7697
93316	8,4972
93317	8,7298
93318	8,5245
93319	9,0126
93320	8,8123
93321	8,2558
93322	8,0531
93323	8,2538
93324	8,039
93325	8,4742
93326	8,2633
93327	7,8933
93328	7,7813
93329	7,9367
93330	7,7209
93331	8,073
93332	7,8567
93333	7,7211
93334	7,7154
93335	7,814
93336	7,6057
93337	7,8492
93338	7,6361
93339	7,7654
93340	7,9082
93341	7,871
93342	7,8334
93343	7,6313
93344	8,2396
93345	8,2205
93346	8,0301
93347	8,4952
93348	8,7303
93349	8,7916
93350	8,4527
93351	10,202
93352	9,8581
93353	11,135
93354	11,496
93355	11,094
93356	11,282
93357	11,341
93358	12,147
93359	11,738
93360	11,852
93361	11,559
93362	11,311
93363	11,842
93364	11,781
93365	12,02
93366	11,841
93367	12,134
93368	11,878
93369	11,613
93370	11,754
93371	12,08
93372	12,3
93373	11,964
93374	11,449
93375	11,229
93376	11,396
93377	11,998
93378	12,268
93379	11,788
93380	11,619
93381	12,003
93382	11,74
93383	12,203
93384	12,573
93385	12,309
93386	11,407
93387	11,148
93388	11,587
93389	11,839
93390	12,706
93391	12,478
93392	12,405
93393	12,899
93394	12,942
93395	13,218
93396	12,798
93397	13,01
93398	12,793
93399	13,002
93400	12,836
93401	13,041
93402	12,539
93403	12,609
93404	13,151
93405	12,773
93406	12,41
93407	12,972
93408	10,022
93409	9,4735
93410	9,7986
93411	9,7845
93412	11,348
93413	11,745
93414	10,791
93415	10,424
93416	13,016
93417	12,509
93418	12,873
93419	11,338
93420	11,828
93421	10,61
93422	10,977
93423	10,986
93424	10,386
93425	10,609
93426	13,197
93427	13,139
93428	13,409
93429	12,255
93430	12,073
93431	13,325
93432	13,182
93433	13,567
93434	12,123
93435	12,562
93436	11,607
93437	11,159
93438	11,557
93439	12,603
93440	12,938
93441	12,724
93442	12,464
93443	12,395
93444	13,097
93445	11,878
93446	12,206
93447	12,952
93448	13,251
93449	12,104
93450	12,24
93451	12,332
93452	13,237
93453	13,367
93454	13,254
93455	13,62
93456	13,624
93457	11,166
93458	10,798
93459	9,3337
93460	9,052
93461	8,6404
93462	8,4093
93463	8,7028
93464	7,9673
93465	7,8247
93466	7,9841
93467	8,1513
93468	8,1636
93469	7,7389
93470	7,711
93471	7,8188
93472	7,8727
93473	7,7408
93474	7,8262
93475	7,8819
93476	7,6674
93477	7,8224
93478	7,9637
93479	8,1485
93480	8,1556
93481	7,9397
93482	7,9944
93483	7,778
93484	8,3753
93485	8,6383
93486	8,6039
93487	8,3955
93488	8,3606
93489	8,1472
93490	8,9318
93491	9,2477
93492	9,1839
93493	8,9877
93494	8,8802
93495	8,6766
93496	9,5063
93497	9,5803
93498	10,679
93499	10,583
93500	10,302
93501	11,056
93502	11,464
93503	11,308
93504	11,334
93505	10,961
93506	11,859
93507	12,106
93508	11,741
93509	10,935
93510	10,504
93511	10,866
93512	11,32
93513	9,6688
93514	9,975
93515	10,076
93516	9,2952
93517	8,9635
93518	9,2224
93519	9,5762
93520	8,6836
93521	8,6638
93522	8,4583
93523	8,7114
93524	8,9152
93525	8,1779
93526	8,3287
93527	8,2886
93528	8,1281
93529	8,1399
93530	8,2326
93531	8,2502
93532	8,2125
93533	8,3437
93534	8,3769
93535	8,2754
93536	8,5302
93537	8,7682
93538	8,744
93539	8,5342
93540	9,0533
93541	9,3811
93542	9,3046
93543	9,0021
93544	9,7474
93545	10,148
93546	10,027
93547	9,6474
93548	10,44
93549	10,581
93550	11,528
93551	11,855
93552	12,022
93553	11,36
93554	11,042
93555	12,89
93556	12,523
93557	13,063
93558	12,957
93559	12,597
93560	13,168
93561	11,545
93562	11,05
93563	11,367
93564	11,869
93565	12,056
93566	10,583
93567	10,151
93568	10,442
93569	10,887
93570	10,713
93571	9,7494
93572	9,3829
93573	9,6492
93574	10,029
93575	9,0549
93576	8,7696
93577	9,0036
93578	9,3062
93579	8,5314
93580	8,3446
93581	8,5353
93582	8,7453
93583	8,2131
93584	8,1401
93585	8,2758
93586	8,3776
93587	8,128
93588	8,2499
93589	8,1773
93590	8,2327
93591	8,6817
93592	8,9577
93593	8,9131
93594	8,6622
93595	8,4569
93596	9,2147
93597	9,2775
93598	9,9421
93599	9,633
93600	10,016
93601	12,056
93602	12,433
93603	11,999
93604	11,73
93605	11,349
93606	11,454
93607	11,616
93608	12,116
93609	12,007
93610	10,979
93611	10,617
93612	10,876
93613	11,241
93614	10,519
93615	10,261
93616	9,5797
93617	9,2642
93618	9,5069
93619	9,8287
93620	9,9131
93621	8,9708
93622	8,7039
93623	8,9281
93624	9,2053
93625	8,4684
93626	8,269
93627	8,4642
93628	8,6795
93629	8,1108
93630	7,9982
93631	8,1519
93632	8,2868
93633	7,9353
93634	7,925
93635	8,0258
93636	8,0637
93637	7,9692
93638	8,0685
93639	8,1103
93640	8,0408
93641	8,2221
93642	8,4279
93643	8,4124
93644	8,0379
93645	8,2344
93646	8,6827
93647	8,9826
93648	8,9207
93649	8,6421
93650	9,3229
93651	9,7023
93652	9,6087
93653	9,3997
93654	9,2443
93655	9,0485
93656	10,124
93657	10,467
93658	10,016
93659	9,7853
93660	13,527
93661	13,347
93662	10,159
93663	10,505
93664	10,817
93665	12,943
93666	13,374
93667	12,484
93668	12,677
93669	12,447
93670	11,511
93671	11,899
93672	9,6535
93673	9,9785
93674	12,687
93675	12,606
93676	12,308
93677	11,708
93678	12,155
93679	13,988
93680	13,55
93681	13,591
93682	14,038
93683	14,499
93684	14,229
93685	13,802
93686	10,712
93687	11,099
93688	12,791
93689	13,191
93690	10,829
93691	11,368
93692	11,177
93693	13,517
93694	13,795
93695	13,459
93696	11,942
93697	11,488
93698	11,962
93699	10,828
93700	10,319
93701	10,694
93702	12,579
93703	13,1
93704	12,512
93705	12,399
93706	12,924
93707	12,875
93708	13,138
93709	12,605
93710	12,813
93711	12,884
93712	12,335
93713	12,611
93714	13,852
93715	13,979
93716	13,564
93717	13,971
93718	14,022
93719	14,338
93720	14,232
93721	11,114
93722	11,05
93723	11,545
93724	9,524
93725	9,2354
93726	8,83
93727	8,5967
93728	8,891
93729	8,1611
93730	8,0247
93731	8,1825
93732	8,3446
93733	8,3528
93734	7,9451
93735	7,9227
93736	8,0282
93737	8,0769
93738	7,9564
93739	8,0436
93740	8,097
93741	8,0356
93742	8,1806
93743	8,363
93744	8,3679
93745	8,2092
93746	8,5856
93747	8,8432
93748	8,8063
93749	8,5686
93750	9,1307
93751	9,4419
93752	9,373
93753	9,076
93754	9,7724
93755	10,122
93756	10,029
93757	9,8461
93758	9,6916
93759	10,49
93760	10,756
93761	10,866
93762	10,386
93763	10,207
93764	11,991
93765	12,266
93766	11,888
93767	11,615
93768	13,223
93769	12,699
93770	12,982
93771	11,657
93772	11,241
93773	9,877
93774	10,187
93775	10,304
93776	9,4967
93777	9,4199
93778	9,1664
93779	9,7763
93780	8,863
93781	8,6646
93782	8,8878
93783	8,3922
93784	8,5341
93785	8,4988
93786	8,3459
93787	8,3596
93788	8,4427
93789	8,4586
93790	8,432
93791	8,5605
93792	8,5841
93793	8,4853
93794	8,7422
93795	8,9733
93796	8,9391
93797	8,7365
93798	9,2501
93799	9,569
93800	9,4809
93801	9,1884
93802	9,9265
93803	10,32
93804	10,183
93805	9,8135
93806	10,746
93807	11,206
93808	11,027
93809	10,885
93810	10,588
93811	11,692
93812	12,2
93813	11,997
93814	11,498
93815	12,734
93816	13,085
93817	13,308
93818	12,359
93819	12,525
93820	15,263
93821	16,068
93822	15,687
93823	15,757
93824	14,926
93825	14,979
93826	14,549
93827	16,53
93828	16,158
93829	16,669
93830	16,951
93831	16,583
93832	15,369
93833	14,669
93834	15,077
93835	15,81
93836	13,981
93837	13,342
93838	13,712
93839	13,547
93840	14,378
93841	12,763
93842	12,215
93843	12,537
93844	12,397
93845	13,105
93846	11,696
93847	11,207
93848	11,499
93849	12,002
93850	10,748
93851	10,322
93852	10,59
93853	11,028
93854	9,9282
93855	9,5706
93856	9,8152
93857	10,185
93858	9,2516
93859	8,9746
93860	9,1898
93861	9,4825
93862	8,7433
93863	8,5614
93864	8,7375
93865	8,9403
93866	8,4326
93867	8,3599
93868	8,4857
93869	8,5849
93870	8,3458
93871	8,3917
93872	8,4583
93873	8,4428
93874	8,5333
93875	8,328
93876	8,4978
93877	8,8859
93878	9,1117
93879	9,1629
93880	8,8614
93881	8,6632
93882	9,8618
93883	9,7706
93884	9,4897
93885	9,5589
93886	10,273
93887	10,623
93888	10,354
93889	10,174
93890	12,366
93891	12,353
93892	12,7
93893	12,291
93894	12,57
93895	12,996
93896	13,113
93897	12,167
93898	11,895
93899	11,14
93900	10,78
93901	11,027
93902	11,395
93903	11,51
93904	10,427
93905	10,083
93906	10,324
93907	10,167
93908	10,672
93909	9,7556
93910	9,4468
93911	9,6754
93912	9,9905
93913	9,1606
93914	8,9007
93915	9,1117
93916	9,3813
93917	8,6714
93918	8,4771
93919	8,6615
93920	8,8704
93921	8,3222
93922	8,2109
93923	8,3573
93924	8,489
93925	8,1473
93926	8,1344
93927	8,2314
93928	8,2702
93929	8,1745
93930	8,3093
93931	8,269
93932	8,2438
93933	9,5249
93934	9,9172
93935	9,8119
93936	9,4378
93937	9,1769
93938	10,353
93939	10,692
93940	10,231
93941	13,785
93942	13,951
93943	13,554
93944	11,991
93945	11,731
93946	13,405
93947	13,418
93948	13,862
93949	11,915
93950	12,364
93951	12,223
93952	13,513
93953	13,823
93954	12,803
93955	12,449
93956	12,897
93957	12,091
93958	12,618
93959	11,001
93960	11,386
93961	13,301
93962	13,417
93963	13,751
93964	13,576
93965	14,396
93966	14,096
93967	13,873
93968	13,939
93969	13,65
93970	14,196
93971	14,024
93972	13,699
93973	12,362
93974	12,619
93975	12,264
93976	13,859
93977	13,621
93978	13,562
93979	13,764
93980	14,575
93981	14,688
93982	14,89
93983	14,763
93984	14,335
93985	11,142
93986	11,239
93987	11,465
93988	11,994
93989	9,8438
93990	10,17
93991	9,4354
93992	9,0849
93993	9,3433
93994	9,1521
93995	9,7254
93996	9,0184
93997	8,7882
93998	8,3585
93999	8,227
94000	8,3788
94001	8,5366
94002	8,5461
94003	8,1521
94004	8,1334
94005	8,2324
94006	8,2776
94007	8,169
94008	8,256
94009	8,3033
94010	8,2419
94011	8,3907
94012	8,5687
94013	8,5679
94014	8,4133
94015	8,7855
94016	9,0363
94017	8,9934
94018	8,7628
94019	9,3164
94020	9,6218
94021	9,5446
94022	9,2554
94023	9,948
94024	10,292
94025	10,189
94026	9,8572
94027	10,652
94028	11,023
94029	10,904
94030	10,54
94031	11,278
94032	11,132
94033	11,401
94034	12,167
94035	12,442
94036	12,544
94037	12,05
94038	11,783
94039	13,429
94040	13,754
94041	13,574
94042	13,237
94043	11,999
94044	11,549
94045	10,52
94046	10,079
94047	10,386
94048	10,865
94049	10,645
94050	11,015
94051	9,6924
94052	9,6028
94053	9,3595
94054	9,9653
94055	8,8591
94056	9,0448
94057	9,0809
94058	8,6957
94059	8,5916
94060	8,7195
94061	8,8526
94062	8,6692
94063	8,5467
94064	8,5601
94065	8,6291
94066	8,6453
94067	8,6298
94068	8,7534
94069	8,7632
94070	8,6691
94071	8,9278
94072	9,1497
94073	9,1018
94074	8,9084
94075	9,416
94076	9,7236
94077	9,6206
94078	9,3401
94079	10,07
94080	10,452
94081	10,298
94082	9,9406
94083	10,87
94084	11,322
94085	11,12
94086	10,691
94087	11,808
94088	11,583
94089	13,477
94090	13,192
94091	12,882
94092	14,117
94093	14,786
94094	14,48
94095	14,342
94096	13,813
94097	13,693
94098	15,178
94099	15,494
94100	16,28
94101	16,79
94102	17,007
94103	15,533
94104	14,8
94105	15,195
94106	15,968
94107	16,332
94108	14,119
94109	13,484
94110	13,817
94111	14,48
94112	12,886
94113	12,62
94114	12,33
94115	13,196
94116	11,324
94117	11,81
94118	11,585
94119	10,872
94120	10,454
94121	10,693
94122	11,122
94123	10,071
94124	9,7252
94125	9,9423
94126	10,3
94127	9,4175
94128	9,151
94129	9,3415
94130	9,6221
94131	8,9289
94132	8,7542
94133	8,9094
94134	9,103
94135	8,6304
94136	8,5603
94137	8,6695
94138	8,7639
94139	8,5466
94140	8,5911
94141	8,645
94142	8,6291
94143	8,6948
94144	8,8578
94145	8,8515
94146	8,668
94147	8,7188
94148	9,0791
94149	9,2932
94150	9,3572
94151	9,0432
94152	10,076
94153	9,9623
94154	9,6896
94155	10,516
94156	10,382
94157	10,859
94158	12,868
94159	12,448
94160	12,714
94161	13,15
94162	12,306
94163	12,047
94164	11,284
94165	10,921
94166	11,155
94167	11,525
94168	11,66
94169	10,57
94170	10,231
94171	10,454
94172	10,798
94173	9,9098
94174	9,6085
94175	9,8189
94176	10,127
94177	9,3303
94178	9,0784
94179	9,2718
94180	9,533
94181	8,8565
94182	8,6685
94183	8,8371
94184	9,0387
94185	8,5184
94186	8,4101
94187	8,5435
94188	8,6707
94189	8,3474
94190	8,3335
94191	8,4208
94192	8,459
94193	8,3711
94194	8,4619
94195	8,4948
94196	8,4319
94197	8,6071
94198	8,8065
94199	8,7818
94200	8,6031
94201	8,6111
94202	8,429
94203	9,0594
94204	9,3643
94205	9,2861
94206	9,1095
94207	9,007
94208	8,8305
94209	9,7189
94210	10,
94211	10,12
94212	9,6178
94213	13,478
94214	13,184
94215	13,812
94216	14,252
94217	14,111
94218	14,006
94219	18,003
94220	17,711
94221	17,183
94222	17,459
94223	14,798
94224	14,744
94225	14,48
94226	14,258
94227	14,613
94228	14,322
94229	14,088
94230	12,407
94231	12,784
94232	12,103
94233	12,423
94234	12,874
94235	11,537
94236	18,144
94237	18,562
94238	18,733
94239	14,997
94240	14,917
94241	14,599
94242	14,904
94243	14,965
94244	14,549
94245	14,557
94246	12,19
94247	12,603
94248	14,206
94249	13,506
94250	13,984
94251	15,03
94252	15,682
94253	15,217
94254	13,241
94255	13,719
94256	14,567
94257	14,184
94258	14,135
94259	13,161
94260	13,039
94261	12,047
94262	12,54
94263	11,617
94264	12,048
94265	11,095
94266	11,504
94267	10,537
94268	10,908
94269	10,044
94270	10,369
94271	9,6268
94272	9,9126
94273	9,27
94274	9,5188
94275	9,1946
94276	8,9734
94277	8,549
94278	8,7164
94279	8,7332
94280	8,4214
94281	8,5622
94282	8,3499
94283	8,4642
94284	8,3332
94285	8,4213
94286	8,3689
94287	8,4312
94288	8,4541
94289	8,4911
94290	8,5849
94291	8,5977
94292	8,7572
94293	8,7469
94294	8,9669
94295	8,9348
94296	9,2097
94297	9,1574
94298	9,4817
94299	9,4109
94300	9,7791
94301	9,6916
94302	10,099
94303	9,9963
94304	10,437
94305	10,322
94306	10,792
94307	10,667
94308	11,161
94309	11,028
94310	11,541
94311	11,403
94312	11,931
94313	11,791
94314	11,661
94315	12,328
94316	12,188
94317	12,595
94318	12,729
94319	13,76
94320	13,474
94321	14,482
94322	14,569
94323	14,648
94324	13,356
94325	13,54
94326	13,807
94327	14,051
94328	14,341
94329	13,884
94330	14,232
94331	13,588
94332	13,99
94333	13,591
94334	13,263
94335	14,601
94336	15,093
94337	15,119
94338	14,812
94339	14,725
94340	15,225
94341	12,96
94342	11,305
94343	11,922
94344	11,685
94345	10,731
94346	11,075
94347	10,229
94348	10,533
94349	9,7968
94350	10,069
94351	9,4363
94352	9,6729
94353	9,3469
94354	9,1411
94355	11,655
94356	11,495
94357	11,272
94358	12,051
94359	11,887
94360	12,458
94361	12,294
94362	12,874
94363	12,712
94364	13,29
94365	13,141
94366	13,005
94367	13,689
94368	13,569
94369	13,401
94370	14,064
94371	13,982
94372	14,365
94373	14,436
94374	15,078
94375	15,106
94376	14,804
94377	14,88
94378	13,775
94379	13,113
94380	11,843
94381	12,293
94382	12,504
94383	11,247
94384	11,629
94385	11,408
94386	10,722
94387	11,056
94388	10,264
94389	10,559
94390	9,8679
94391	10,125
94392	9,7571
94393	9,5306
94394	9,0298
94395	9,1968
94396	9,2509
94397	9,0056
94398	8,8677
94399	12,936
94400	12,629
94401	12,379
94402	12,619
94403	13,537
94404	13,204
94405	14,187
94406	13,827
94407	14,505
94408	14,887
94409	18,534
94410	17,96
94411	17,419
94412	17,617
94413	19,727
94414	19,152
94415	19,093
94416	20,004
94417	20,759
94418	20,404
94419	19,224
94420	19,902
94421	19,375
94422	18,295
94423	18,864
94424	17,879
94425	17,376
94426	15,645
94427	16,043
94428	16,481
94429	14,888
94430	15,238
94431	14,507
94432	14,189
94433	12,938
94434	13,206
94435	13,539
94436	12,631
94437	12,381
94438	9,0284
94439	9,0045
94440	8,8668
94441	9,2491
94442	9,1952
94443	9,5283
94444	9,4453
94445	9,8652
94446	9,7545
94447	9,6003
94448	10,26
94449	10,122
94450	10,551
94451	10,716
94452	11,848
94453	11,235
94454	11,578
94455	12,586
94456	12,217
94457	12,357
94458	13,365
94459	12,927
94460	13,041
94461	13,794
94462	14,157
94463	13,477
94464	14,337
94465	14,55
94466	14,208
94467	15,147
94468	14,698
94469	14,851
94470	11,729
94471	12,131
94472	11,886
94473	11,244
94474	11,616
94475	11,384
94476	10,761
94477	11,095
94478	10,9
94479	10,305
94480	10,607
94481	10,431
94482	9,893
94483	10,162
94484	9,5331
94485	9,7724
94486	9,2269
94487	9,4384
94488	8,9753
94489	9,16
94490	8,7786
94491	8,9372
94492	8,7695
94493	8,6365
94494	11,778
94495	11,621
94496	11,399
94497	12,172
94498	12,011
94499	11,91
94500	12,414
94501	12,574
94502	13,429
94503	13,27
94504	12,999
94505	13,837
94506	13,697
94507	14,246
94508	14,112
94509	14,663
94510	14,533
94511	15,022
94512	14,946
94513	14,824
94514	15,256
94515	15,31
94516	12,963
94517	13,453
94518	13,424
94519	12,527
94520	12,984
94521	14,5
94522	14,716
94523	14,918
94524	15,113
94525	14,869
94526	12,009
94527	12,496
94528	11,46
94529	11,838
94530	10,935
94531	11,254
94532	10,738
94533	10,457
94534	9,1149
94535	9,2775
94536	9,3647
94537	8,921
94538	9,0576
94539	8,7817
94540	8,893
94541	8,6953
94542	8,6559
94543	8,7819
94544	8,6596
94545	8,5947
94546	8,7219
94547	8,6721
94548	8,5838
94549	8,7105
94550	8,7296
94551	8,6203
94552	8,7448
94553	8,829
94554	8,7012
94555	8,8217
94556	8,9669
94557	8,8232
94558	8,9379
94559	9,1401
94560	8,9827
94561	9,0903
94562	9,3453
94563	9,1764
94564	9,2758
94565	9,5796
94566	9,4008
94567	9,4915
94568	9,8404
94569	9,6531
94570	9,7348
94571	10,125
94572	9,9305
94573	10,003
94574	10,433
94575	10,231
94576	10,296
94577	10,761
94578	10,551
94579	10,61
94580	11,108
94581	10,891
94582	10,945
94583	11,474
94584	11,249
94585	11,301
94586	11,857
94587	11,676
94588	12,257
94589	12,07
94590	12,674
94591	12,483
94592	13,105
94593	12,914
94594	12,83
94595	13,543
94596	13,361
94597	13,978
94598	13,814
94599	14,405
94600	14,268
94601	14,82
94602	14,716
94603	15,182
94604	15,14
94605	15,485
94606	15,441
94607	15,832
94608	15,599
94609	15,663
94610	15,686
94611	13,931
94612	14,529
94613	14,217
94614	13,589
94615	13,181
94616	13,971
94617	13,977
94618	14,316
94619	14,662
94620	14,418
94621	21,689
94622	22,37
94623	22,136
94624	20,685
94625	21,197
94626	21,41
94627	19,571
94628	20,114
94629	18,476
94630	18,977
94631	17,463
94632	17,896
94633	16,518
94634	16,937
94635	16,906
94636	15,653
94637	15,985
94638	14,872
94639	15,161
94640	14,419
94641	14,159
94642	12,907
94643	13,126
94644	13,506
94645	12,358
94646	12,562
94647	11,852
94648	12,101
94649	12,044
94650	11,387
94651	11,611
94652	11,569
94653	10,96
94654	11,159
94655	11,133
94656	10,57
94657	10,744
94658	10,734
94659	10,216
94660	10,365
94661	10,372
94662	9,8992
94663	10,022
94664	10,047
94665	9,6202
94666	9,7164
94667	9,7575
94668	9,3804
94669	9,4497
94670	9,5063
94671	9,182
94672	9,2238
94673	9,2945
94674	9,0273
94675	9,0412
94676	9,1241
94677	8,9189
94678	8,9046
94679	8,9976
94680	8,8597
94681	8,8168
94682	8,9177
94683	8,8522
94684	8,7806
94685	8,887
94686	8,899
94687	8,7985
94688	8,9081
94689	9,002
94690	8,8726
94691	8,9835
94692	9,1631
94693	9,1153
94694	9,6635
94695	9,5552
94696	9,3833
94697	10,004
94698	9,8658
94699	10,405
94700	10,238
94701	10,671
94702	10,867
94703	22,754
94704	22,159
94705	22,845
94706	19,853
94707	20,429
94708	21,098
94709	18,611
94710	19,129
94711	17,948
94712	17,512
94713	14,873
94714	15,163
94715	15,24
94716	15,66
94717	14,157
94718	14,417
94719	13,504
94720	13,741
94721	12,905
94722	13,124
94723	12,356
94724	12,56
94725	11,85
94726	12,099
94727	12,042
94728	11,385
94729	11,609
94730	11,567
94731	10,958
94732	11,157
94733	11,131
94734	10,568
94735	10,742
94736	10,733
94737	10,214
94738	10,363
94739	10,371
94740	9,8978
94741	10,02
94742	10,045
94743	9,6189
94744	9,7149
94745	9,7562
94746	9,3793
94747	9,4484
94748	9,5051
94749	9,181
94750	9,2227
94751	9,2934
94752	9,0265
94753	9,0403
94754	9,1233
94755	8,9184
94756	8,904
94757	8,997
94758	8,8595
94759	8,8165
94760	8,9174
94761	8,8524
94762	8,7806
94763	8,8869
94764	8,8995
94765	8,7988
94766	8,9084
94767	9,0029
94768	8,8733
94769	8,9842
94770	9,1644
94771	9,1164
94772	9,3069
94773	9,3851
94774	9,8684
94775	9,6658
94776	10,007
94777	10,883
94778	10,68
94779	10,411
94780	11,426
94781	11,194
94782	11,797
94783	12,061
94784	13,651
94785	13,318
94786	12,803
94787	13,043
94788	15,443
94789	15,763
94790	14,953
94791	14,892
94792	13,412
94793	13,395
94794	12,919
94795	14,178
94796	13,675
94797	14,545
94798	15,338
94799	15,638
94800	15,493
94801	15,56
94802	15,399
94803	15,059
94804	14,289
94805	14,602
94806	14,69
94807	13,867
94808	14,162
94809	13,424
94810	13,701
94811	12,983
94812	13,24
94813	12,791
94814	12,551
94815	11,345
94816	11,731
94817	11,548
94818	10,979
94819	11,12
94820	11,172
94821	10,632
94822	10,762
94823	10,817
94824	10,306
94825	10,422
94826	10,483
94827	10,001
94828	10,103
94829	10,172
94830	9,7212
94831	9,8068
94832	9,8835
94833	9,4672
94834	9,535
94835	9,6208
94836	9,242
94837	9,2906
94838	9,3855
94839	9,0485
94840	9,0765
94841	9,1801
94842	8,89
94843	8,8962
94844	9,0076
94845	8,7699
94846	8,7532
94847	8,8711
94848	8,6918
94849	8,6511
94850	8,774
94851	8,6592
94852	8,5937
94853	8,7197
94854	8,6753
94855	8,5844
94856	8,7115
94857	8,7431
94858	8,6262
94859	8,7527
94860	8,8651
94861	8,7217
94862	8,8462
94863	9,0434
94864	8,8728
94865	8,9943
94866	9,2793
94867	9,081
94868	9,1994
94869	9,576
94870	9,463
94871	9,9366
94872	9,7886
94873	10,364
94874	10,182
94875	10,868
94876	10,643
94877	11,168
94878	11,447
94879	12,703
94880	12,401
94881	12,316
94882	12,076
94883	14,194
94884	14,566
94885	13,89
94886	13,92
94887	12,205
94888	11,934
94889	12,395
94890	14,848
94891	15,666
94892	15,759
94893	15,663
94894	15,686
94895	15,807
94896	15,499
94897	15,882
94898	15,972
94899	16,208
94900	15,827
94901	15,821
94902	16,21
94903	16,038
94904	17,89
94905	15,592
94906	15,207
94907	16,282
94908	22,444
94909	22,409
94910	22,606
94911	11,551
94912	11,895
94913	12,217
94914	10,982
94915	11,267
94916	10,742
94917	10,502
94918	9,9239
94919	9,7521
94920	10,095
94921	14,013
94922	13,547
94923	13,371
94924	14,722
94925	14,205
94926	15,51
94927	14,935
94928	16,394
94929	15,75
94930	15,988
94931	17,386
94932	16,918
94933	16,668
94934	18,5
94935	17,701
94936	19,747
94937	18,861
94938	20,14
94939	21,028
94940	22,606
94941	23,837
94942	22,666
94943	21,815
94944	22,644
94945	22,297
94946	10,954
94947	11,451
94948	11,157
94949	11,223
94950	10,496
94951	10,73
94952	10,092
94953	10,296
94954	9,7498
94955	9,9214
94956	9,6106
94957	9,4695
94958	13,373
94959	12,951
94960	12,788
94961	14,015
94962	13,549
94963	13,742
94964	14,724
94965	14,207
94966	14,937
94967	15,512
94968	18,43
94969	17,671
94970	17,366
94971	19,562
94972	18,779
94973	20,686
94974	19,916
94975	21,697
94976	21,042
94977	21,994
94978	22,599
94979	14,733
94980	15,064
94981	14,946
94982	14,39
94983	14,327
94984	14,512
94985	13,938
94986	14,821
94987	14,69
94988	13,82
94989	13,336
94990	12,908
94991	13,088
94992	12,078
94993	12,37
94994	12,792
94995	11,468
94996	11,752
94997	11,748
94998	10,937
94999	11,196
95000	10,453
95001	10,693
95002	10,026
95003	10,241
95004	9,8519
95005	9,6684
95006	12,172
95007	11,953
95008	11,943
95009	11,764
95010	12,603
95011	12,377
95012	12,358
95013	13,053
95014	12,825
95015	13,522
95016	13,298
95017	14,001
95018	13,792
95019	14,481
95020	14,302
95021	14,949
95022	14,819
95023	15,374
95024	15,327
95025	15,032
95026	15,788
95027	15,7
95028	15,919
95029	16,246
95030	16,379
95031	15,903
95032	15,825
95033	15,006
95034	14,568
95035	11,946
95036	12,576
95037	11,672
95038	11,768
95039	15,943
95040	16,337
95041	15,755
95042	16,168
95043	15,709
95044	15,444
95045	15,844
95046	15,04
95047	15,415
95048	14,585
95049	14,924
95050	14,111
95051	14,415
95052	13,638
95053	13,91
95054	13,175
95055	13,421
95056	12,728
95057	12,951
95058	12,3
95059	12,505
95060	12,082
95061	11,892
95062	9,4603
95063	9,3474
95064	9,2134
95065	9,7653
95066	9,6208
95067	9,5541
95068	10,13
95069	9,9539
95070	9,8887
95071	10,556
95072	10,349
95073	10,282
95074	11,05
95075	10,809
95076	11,348
95077	11,623
95078	13,574
95079	13,845
95080	13,119
95081	12,712
95082	12,308
95083	15,863
95084	15,388
95085	16,282
95086	15,348
95087	21,978
95088	22,167
95089	14,989
95090	15,412
95091	13,565
95092	13,982
95093	14,07
95094	13,517
95095	13,251
95096	16,567
95097	15,807
95098	15,524
95099	14,272
95100	14,373
95101	14,149
95102	13,791
95103	15,003
95104	14,731
95105	15,494
95106	15,752
95107	12,833
95108	12,642
95109	13,06
95110	16,617
95111	16,695
95112	17,368
95113	16,235
95114	16,843
95115	16,145
95116	15,746
95117	16,242
95118	15,204
95119	15,619
95120	14,647
95121	14,997
95122	14,1
95123	14,399
95124	13,574
95125	13,832
95126	13,075
95127	13,301
95128	12,604
95129	12,804
95130	12,162
95131	12,341
95132	11,747
95133	11,91
95134	11,359
95135	11,508
95136	11,554
95137	10,996
95138	11,135
95139	11,179
95140	10,658
95141	10,787
95142	10,827
95143	10,345
95144	10,465
95145	10,499
95146	10,057
95147	10,168
95148	10,195
95149	9,7941
95150	9,8969
95151	9,9153
95152	9,558
95153	9,6515
95154	9,6615
95155	9,3503
95156	9,4335
95157	9,4351
95158	9,173
95159	9,2444
95160	9,2383
95161	9,0286
95162	9,0866
95163	9,0734
95164	8,9198
95165	8,9622
95166	8,9434
95167	8,8497
95168	8,8743
95169	8,8511
95170	8,8214
95171	8,8256
95172	8,7999
95173	8,8381
95174	8,8193
95175	8,7929
95176	8,9031
95177	8,8587
95178	8,8335
95179	9,0195
95180	8,947
95181	8,9247
95182	9,1903
95183	9,0874
95184	9,0695
95185	9,4186
95186	9,2832
95187	9,2706
95188	9,7072
95189	9,5377
95190	9,5306
95191	10,059
95192	9,8543
95193	10,474
95194	10,237
95195	10,948
95196	10,68
95197	11,478
95198	11,187
95199	11,74
95200	12,043
95201	16,01
95202	15,075
95203	15,192
95204	15,228
95205	15,81
95206	15,707
95207	14,937
95208	16,937
95209	16,661
95210	17,464
95211	21,393
95212	21,418
95213	22,213
95214	20,332
95215	20,47
95216	19,185
95217	19,352
95218	18,06
95219	18,228
95220	17,172
95221	17,006
95222	14,435
95223	14,564
95224	15,196
95225	13,753
95226	13,872
95227	13,137
95228	13,248
95229	12,578
95230	12,681
95231	12,068
95232	12,165
95233	12,407
95234	11,602
95235	11,694
95236	11,909
95237	11,177
95238	11,264
95239	11,454
95240	10,791
95241	10,873
95242	11,038
95243	10,44
95244	10,517
95245	10,66
95246	10,125
95247	10,196
95248	10,317
95249	9,8452
95250	9,9092
95251	10,01
95252	9,6006
95253	9,6567
95254	9,7393
95255	9,3924
95256	9,4391
95257	9,5045
95258	9,222
95259	9,2574
95260	9,3076
95261	9,0912
95262	9,1132
95263	9,1503
95264	9,0023
95265	9,0086
95266	9,0347
95267	8,9577
95268	8,9457
95269	8,9632
95270	8,9602
95271	8,9272
95272	8,9386
95273	9,0125
95274	8,9559
95275	8,9635
95276	9,1173
95277	9,0345
95278	9,0407
95279	9,2776
95280	9,1661
95281	9,1726
95282	9,4959
95283	9,3536
95284	9,3618
95285	9,7751
95286	9,6001
95287	9,909
95288	10,118
95289	13,029
95290	12,547
95291	12,209
95292	12,74
95293	16,261
95294	16,851
95295	16,56
95296	15,82
95297	16,312
95298	15,306
95299	15,728
95300	14,761
95301	15,116
95302	14,221
95303	14,524
95304	13,7
95305	13,961
95306	13,431
95307	13,203
95308	12,292
95309	12,473
95310	12,734
95311	11,877
95312	12,041
95313	11,488
95314	11,638
95315	11,683
95316	11,123
95317	11,262
95318	11,307
95319	10,783
95320	10,912
95321	10,954
95322	10,467
95323	10,587
95324	10,624
95325	10,174
95326	10,286
95327	10,316
95328	9,9056
95329	10,01
95330	10,032
95331	9,6622
95332	9,7577
95333	9,7715
95334	9,4453
95335	9,5315
95336	9,537
95337	9,2567
95338	9,3324
95339	9,3299
95340	9,0985
95341	9,1622
95342	9,1524
95343	8,9732
95344	9,023
95345	9,007
95346	8,8835
95347	8,9174
95348	8,8963
95349	8,8322
95350	8,848
95351	8,8235
95352	8,8225
95353	8,8176
95354	8,7914
95355	8,8574
95356	8,8294
95357	8,8032
95358	8,9399
95359	8,8862
95360	8,862
95361	9,0728
95362	8,9913
95363	8,9705
95364	9,2592
95365	9,1476
95366	9,1315
95367	9,5017
95368	9,3583
95369	9,8032
95370	9,6263
95371	10,167
95372	9,9552
95373	10,595
95374	10,349
95375	11,099
95376	10,812
95377	11,687
95378	11,358
95379	12,366
95380	11,992
95381	11,972
95382	13,154
95383	12,73
95384	15,075
95385	14,447
95386	15,574
95387	16,372
95388	14,116
95389	13,63
95390	13,908
95391	13,355
95392	12,503
95393	12,886
95394	21,584
95395	21,383
95396	22,147
95397	14,56
95398	14,849
95399	21,728
95400	21,764
95401	21,603
95402	21,918
95403	20,516
95404	20,57
95405	21,34
95406	19,447
95407	19,306
95408	15,194
95409	15,334
95410	16,049
95411	14,434
95412	14,562
95413	13,752
95414	13,87
95415	13,135
95416	13,246
95417	12,576
95418	12,679
95419	12,95
95420	12,066
95421	12,164
95422	12,405
95423	11,601
95424	11,693
95425	11,907
95426	11,176
95427	11,263
95428	11,452
95429	10,789
95430	10,871
95431	11,037
95432	10,439
95433	10,515
95434	10,658
95435	10,124
95436	10,195
95437	10,316
95438	9,8439
95439	9,9079
95440	10,009
95441	9,5994
95442	9,6556
95443	9,738
95444	9,3914
95445	9,4381
95446	9,5034
95447	9,2211
95448	9,2565
95449	9,3067
95450	9,0905
95451	9,1125
95452	9,1495
95453	9,0019
95454	9,0081
95455	9,0341
95456	8,9576
95457	8,9454
95458	8,9629
95459	8,9604
95460	8,9272
95461	8,9386
95462	9,013
95463	8,9562
95464	8,9639
95465	9,1182
95466	9,0352
95467	9,0414
95468	9,2789
95469	9,1671
95470	9,1737
95471	9,4976
95472	9,3551
95473	9,3633
95474	9,7773
95475	9,6021
95476	9,6126
95477	10,121
95478	9,9115
95479	10,531
95480	10,287
95481	10,3
95482	10,733
95483	11,018
95484	12,278
95485	11,898
95486	11,598
95487	12,636
95488	12,617
95489	13,061
95490	12,985
95491	13,452
95492	16,137
95493	17,86
95494	15,576
95495	17,262
95496	21,436
95497	20,698
95498	20,852
95499	24,727
95500	16,494
95501	18,105
95502	16,157
95503	16,417
95504	17,027
95505	15,772
95506	15,979
95507	20,553
95508	20,551
95509	19,55
95510	19,431
95511	18,375
95512	18,444
95513	16,401
95514	16,412
95515	17,379
95516	15,512
95517	15,54
95518	16,204
95519	14,722
95520	14,758
95521	15,336
95522	14,014
95523	14,055
95524	13,378
95525	13,42
95526	12,801
95527	12,844
95528	12,276
95529	12,319
95530	11,798
95531	11,839
95532	11,361
95533	11,401
95534	10,963
95535	11,
95536	10,601
95537	10,635
95538	10,274
95539	10,304
95540	9,9803
95541	10,006
95542	9,7202
95543	9,7404
95544	9,4938
95545	9,5069
95546	9,3018
95547	9,3063
95548	9,1456
95549	9,1395
95550	9,0269
95551	9,008
95552	8,9476
95553	8,9137
95554	8,9103
95555	8,8587
95556	8,9175
95557	8,8456
95558	8,9722
95559	8,8772
95560	9,0773
95561	8,9564
95562	9,236
95563	9,0865
95564	9,4516
95565	9,2708
95566	9,7277
95567	9,5131
95568	10,068
95569	9,8176
95570	10,475
95571	10,189
95572	10,284
95573	10,956
95574	10,631
95575	10,722
95576	11,528
95577	11,234
95578	11,152
95579	12,162
95580	12,878
95581	12,41
95582	11,838
95583	11,759
95584	16,444
95585	17,834
95586	17,93
95587	16,257
95588	12,373
95589	12,004
95590	12,309
95591	10,436
95592	10,598
95593	10,913
95594	10,025
95595	10,158
95596	9,6785
95597	9,7819
95598	9,3962
95599	9,4731
95600	9,1742
95601	9,2264
95602	9,009
95603	9,0378
95604	8,8968
95605	8,9032
95606	8,8344
95607	8,8192
95608	8,8183
95609	8,7822
95610	8,8454
95611	8,7889
95612	8,9125
95613	8,8362
95614	9,0167
95615	8,9211
95616	9,1551
95617	9,0409
95618	9,3254
95619	9,1929
95620	9,5254
95621	9,3752
95622	9,7535
95623	9,5859
95624	10,008
95625	9,8236
95626	10,289
95627	10,087
95628	10,595
95629	10,377
95630	10,928
95631	10,693
95632	11,287
95633	11,035
95634	11,675
95635	11,406
95636	12,094
95637	11,808
95638	12,547
95639	12,244
95640	13,036
95641	12,718
95642	13,566
95643	13,235
95644	14,14
95645	13,8
95646	14,758
95647	14,421
95648	15,422
95649	15,101
95650	16,124
95651	15,849
95652	16,857
95653	16,671
95654	17,593
95655	17,574
95656	18,113
95657	18,557
95658	17,874
95659	19,387
95660	14,961
95661	14,222
95662	12,346
95663	12,676
95664	13,193
95665	11,654
95666	11,913
95667	11,063
95668	11,275
95669	10,559
95670	10,73
95671	10,131
95672	10,269
95673	9,7727
95674	9,8809
95675	9,4772
95676	9,5594
95677	9,2411
95678	9,299
95679	9,0605
95680	9,0957
95681	8,9322
95682	8,9456
95683	8,8529
95684	8,8453
95685	8,8194
95686	8,7915
95687	8,8287
95688	8,781
95689	8,8777
95690	8,8107
95691	8,9636
95692	8,8779
95693	9,0837
95694	8,9797
95695	9,2355
95696	9,1137
95697	9,4168
95698	9,2777
95699	9,626
95700	9,4699
95701	9,8614
95702	9,6887
95703	10,122
95704	9,933
95705	10,408
95706	10,202
95707	10,718
95708	10,496
95709	11,054
95710	10,816
95711	11,416
95712	11,161
95713	11,806
95714	11,535
95715	12,227
95716	11,939
95717	12,681
95718	12,378
95719	13,171
95720	12,854
95721	12,936
95722	13,701
95723	13,373
95724	14,274
95725	13,94
95726	14,561
95727	14,89
95728	16,774
95729	16,229
95730	16,908
95731	14,766
95732	15,279
95733	16,353
95734	15,337
95735	12,741
95736	13,397
95737	20,191
95738	23,674
95739	19,295
95740	20,102
95741	20,487
95742	21,043
95743	18,466
95744	18,375
95745	19,567
95746	17,393
95747	17,368
95748	18,274
95749	16,399
95750	16,41
95751	17,181
95752	15,511
95753	15,539
95754	16,202
95755	14,72
95756	14,757
95757	14,013
95758	14,054
95759	13,376
95760	13,419
95761	12,799
95762	12,842
95763	12,275
95764	12,317
95765	11,796
95766	11,838
95767	11,359
95768	11,399
95769	10,961
95770	10,999
95771	10,6
95772	10,634
95773	10,272
95774	10,303
95775	9,979
95776	10,005
95777	9,719
95778	9,7392
95779	9,4927
95780	9,5058
95781	9,3009
95782	9,3053
95783	9,1449
95784	9,1387
95785	9,0263
95786	9,0073
95787	8,9473
95788	8,9132
95789	8,9102
95790	8,8585
95791	8,9177
95792	8,8457
95793	8,9727
95794	8,8775
95795	9,0782
95796	8,9571
95797	9,2373
95798	9,0875
95799	9,4533
95800	9,2723
95801	9,7299
95802	9,5151
95803	10,071
95804	9,8201
95805	10,482
95806	10,192
95807	10,973
95808	10,638
95809	11,555
95810	11,266
95811	11,171
95812	12,242
95813	11,801
95814	13,055
95815	12,557
95816	14,05
95817	13,497
95818	13,467
95819	15,376
95820	14,638
95821	15,735
95822	16,462
95823	16,751
95824	15,659
95825	10,339
95826	10,442
95827	10,821
95828	9,9327
95829	10,002
95830	9,5976
95831	9,6375
95832	9,3271
95833	9,3406
95834	9,1162
95835	9,105
95836	8,9607
95837	8,9259
95838	8,8567
95839	8,7992
95840	8,8009
95841	8,7211
95842	8,79
95843	8,6881
95844	8,8212
95845	8,6973
95846	8,8918
95847	8,7458
95848	8,9994
95849	8,8311
95850	9,1422
95851	8,9512
95852	9,3184
95853	9,1041
95854	9,5269
95855	9,2886
95856	9,7669
95857	9,5036
95858	10,038
95859	9,7486
95860	10,341
95861	10,023
95862	10,676
95863	10,328
95864	11,044
95865	10,665
95866	11,448
95867	11,033
95868	11,889
95869	11,435
95870	12,371
95871	11,873
95872	12,897
95873	12,349
95874	13,474
95875	12,867
95876	14,108
95877	13,431
95878	14,806
95879	14,046
95880	15,577
95881	14,716
95882	16,42
95883	15,444
95884	17,328
95885	16,22
95886	17,356
95887	18,307
95888	17,061
95889	19,453
95890	17,938
95891	18,914
95892	12,046
95893	12,323
95894	12,957
95895	11,346
95896	11,55
95897	11,689
95898	10,787
95899	10,935
95900	11,108
95901	10,314
95902	10,427
95903	9,9091
95904	9,9901
95905	9,5711
95906	9,6244
95907	9,298
95908	9,3265
95909	9,0848
95910	9,0905
95911	8,927
95912	8,9114
95913	8,8207
95914	8,7848
95915	8,7623
95916	8,7068
95917	8,7484
95918	8,674
95919	8,7757
95920	8,683
95921	8,8413
95922	8,7307
95923	8,9424
95924	8,8143
95925	9,0763
95926	8,9312
95927	9,241
95928	9,0792
95929	9,4346
95930	9,2563
95931	9,6556
95932	9,461
95933	9,903
95934	9,6922
95935	10,176
95936	9,9491
95937	10,476
95938	10,232
95939	10,802
95940	10,541
95941	11,157
95942	10,877
95943	11,543
95944	11,243
95945	11,963
95946	11,643
95947	12,422
95948	12,079
95949	12,925
95950	12,558
95951	13,479
95952	13,088
95953	14,093
95954	13,677
95955	14,777
95956	14,338
95957	15,086
95958	15,544
95959	16,935
95960	16,413
95961	17,408
95962	18,132
95963	16,988
95964	17,103
95965	19,781
95966	19,449
95967	13,69
95968	13,088
95969	12,254
95970	12,003
95971	12,623
95972	14,634
95973	13,628
95974	15,68
95975	14,254
95976	14,893
95977	13,102
95978	13,473
95979	13,631
95980	14,249
95981	12,233
95982	12,509
95983	11,527
95984	11,733
95985	10,935
95986	11,092
95987	10,434
95988	10,552
95989	10,013
95990	10,098
95991	9,6626
95992	9,7203
95993	9,3762
95994	9,4095
95995	9,1488
95996	9,1598
95997	8,9761
95998	8,9662
95999	8,8541
96000	8,8245
96001	8,7795
96002	8,7309
96003	8,7488
96004	8,6819
96005	8,7591
96006	8,6744
96007	8,8074
96008	8,7053
96009	8,8909
96010	8,7718
96011	9,0072
96012	8,8715
96013	9,154
96014	9,0021
96015	9,3294
96016	9,1616
96017	9,5319
96018	9,3483
96019	9,7603
96020	9,561
96021	10,014
96022	9,7987
96023	10,292
96024	10,061
96025	10,596
96026	10,349
96027	10,926
96028	10,662
96029	11,285
96030	11,002
96031	11,673
96032	11,371
96033	12,096
96034	11,774
96035	12,558
96036	12,214
96037	13,064
96038	12,697
96039	13,622
96040	13,231
96041	14,239
96042	13,824
96043	14,49
96044	14,926
96045	17,509
96046	17,081
96047	16,551
96048	18,524
96049	17,623
96050	18,222
96051	19,301
96052	18,38
96053	19,496
96054	20,511
96055	19,505
96056	15,333
96057	14,223
96058	14,727
96059	14,544
96060	16,805
96061	16,172
96062	15,627
96063	18,394
96064	18,485
96065	13,607
96066	13,735
96067	19,629
96068	19,095
96069	22,408
96070	20,552
96071	18,997
96072	18,474
96073	18,176
96074	17,693
96075	19,315
96076	17,319
96077	17,016
96078	16,419
96079	16,218
96080	15,576
96081	15,443
96082	14,805
96083	14,715
96084	14,106
96085	14,044
96086	13,472
96087	13,43
96088	12,896
96089	12,866
96090	12,369
96091	12,348
96092	11,887
96093	11,871
96094	11,446
96095	11,433
96096	11,043
96097	11,031
96098	10,674
96099	10,663
96100	10,34
96101	10,327
96102	10,037
96103	10,022
96104	9,7657
96105	9,7474
96106	9,5258
96107	9,5025
96108	9,3174
96109	9,2876
96110	9,1413
96111	9,1032
96112	8,9987
96113	8,9504
96114	8,8912
96115	8,8306
96116	8,8209
96117	8,7454
96118	8,7899
96119	8,6971
96120	8,8011
96121	8,6882
96122	8,8572
96123	8,7214
96124	8,9616
96125	8,7999
96126	9,1175
96127	8,927
96128	9,3288
96129	9,1064
96130	9,5998
96131	9,3425
96132	9,9355
96133	9,64
96134	10,342
96135	10,005
96136	10,445
96137	10,829
96138	12,372
96139	12,104
96140	12,954
96141	14,573
96142	14,032
96143	15,682
96144	16,018
96145	14,968
96146	16,642
96147	18,341
96148	16,727
96149	17,452
96150	16,117
96151	15,982
96152	15,551
96153	15,267
96154	14,933
96155	14,602
96156	14,352
96157	13,971
96158	13,782
96159	13,382
96160	13,235
96161	12,835
96162	12,718
96163	12,328
96164	12,232
96165	11,858
96166	11,777
96167	11,425
96168	11,354
96169	11,025
96170	10,961
96171	10,657
96172	10,597
96173	10,32
96174	10,263
96175	10,013
96176	9,9564
96177	9,7352
96178	9,6773
96179	9,4859
96180	9,4253
96181	9,2653
96182	9,2002
96183	9,0737
96184	9,0024
96185	8,9119
96186	8,8325
96187	8,7811
96188	8,6916
96189	8,6829
96190	8,581
96191	8,6192
96192	8,5025
96193	8,5923
96194	8,4582
96195	8,6049
96196	8,4507
96197	8,6599
96198	8,4826
96199	8,7606
96200	8,5572
96201	8,9107
96202	8,678
96203	9,1143
96204	8,8489
96205	9,3761
96206	9,0746
96207	9,702
96208	9,3606
96209	10,099
96210	9,7134
96211	10,573
96212	10,142
96213	11,133
96214	10,958
96215	10,654
96216	11,8
96217	11,261
96218	11,557
96219	12,682
96220	12,016
96221	13,984
96222	13,039
96223	13,067
96224	18,077
96225	18,24
96226	16,592
96227	17,651
96228	16,651
96229	16,25
96230	20,587
96231	17,739
96232	19,209
96233	19,221
96234	20,468
96235	21,822
96236	23,282
96237	20,906
96238	21,16
96239	16,49
96240	16,905
96241	17,672
96242	15,503
96243	15,819
96244	15,939
96245	14,664
96246	14,907
96247	13,936
96248	14,126
96249	13,297
96250	13,447
96251	12,73
96252	12,85
96253	12,223
96254	12,32
96255	11,764
96256	11,843
96257	11,348
96258	11,412
96259	10,967
96260	11,02
96261	10,618
96262	10,66
96263	10,299
96264	10,331
96265	10,006
96266	10,029
96267	9,7389
96268	9,7522
96269	9,4976
96270	9,5008
96271	9,2821
96272	9,2746
96273	9,0932
96274	9,0739
96275	8,9322
96276	8,8998
96277	8,8008
96278	8,7537
96279	8,7008
96280	8,6372
96281	8,6347
96282	8,5525
96283	8,605
96284	8,502
96285	8,6147
96286	8,4883
96287	8,6668
96288	8,5145
96289	8,765
96290	8,5838
96291	8,9128
96292	8,6999
96293	9,1146
96294	8,8667
96295	9,3752
96296	9,089
96297	9,7005
96298	9,3721
96299	10,098
96300	9,7229
96301	10,569
96302	10,15
96303	11,131
96304	10,659
96305	11,817
96306	11,268
96307	12,006
96308	12,65
96309	14,098
96310	13,292
96311	15,535
96312	14,585
96313	17,695
96314	16,311
96315	19,067
96316	20,995
96317	17,238
96318	21,598
96319	17,926
96320	15,266
96321	14,928
96322	15,943
96323	14,601
96324	14,351
96325	13,97
96326	13,78
96327	13,381
96328	13,234
96329	12,834
96330	12,716
96331	12,326
96332	12,23
96333	11,857
96334	11,776
96335	11,423
96336	11,352
96337	11,023
96338	10,959
96339	10,656
96340	10,596
96341	10,319
96342	10,262
96343	10,012
96344	9,9552
96345	9,734
96346	9,6762
96347	9,4848
96348	9,4242
96349	9,2643
96350	9,1992
96351	9,0728
96352	9,0015
96353	8,9111
96354	8,8317
96355	8,7805
96356	8,6909
96357	8,6824
96358	8,5805
96359	8,6189
96360	8,5021
96361	8,5923
96362	8,4581
96363	8,6051
96364	8,4507
96365	8,6604
96366	8,4829
96367	8,7615
96368	8,5578
96369	8,9119
96370	8,6789
96371	9,1159
96372	8,8503
96373	9,3782
96374	9,0765
96375	9,7047
96376	9,3629
96377	10,103
96378	9,7164
96379	10,583
96380	10,146
96381	12,727
96382	12,06
96383	11,861
96384	13,846
96385	13,025
96386	13,322
96387	15,419
96388	14,296
96389	16,142
96390	16,554
96391	17,991
96392	14,
96393	13,153
96394	12,87
96395	11,291
96396	11,435
96397	11,999
96398	10,703
96399	10,798
96400	10,211
96401	10,267
96402	9,801
96403	9,8273
96404	9,463
96405	9,4639
96406	9,1891
96407	9,1677
96408	8,9732
96409	8,9318
96410	8,8107
96411	8,7507
96412	8,6974
96413	8,62
96414	8,6296
96415	8,5356
96416	8,6039
96417	8,4939
96418	8,6173
96419	8,4917
96420	8,6668
96421	8,5261
96422	8,75
96423	8,5945
96424	8,8645
96425	8,6944
96426	9,0082
96427	8,8238
96428	9,1795
96429	8,9809
96430	9,377
96431	9,1641
96432	9,5997
96433	9,3724
96434	9,847
96435	9,6051
96436	10,119
96437	9,8618
96438	10,416
96439	10,143
96440	10,74
96441	10,449
96442	11,093
96443	10,782
96444	11,477
96445	11,145
96446	11,897
96447	11,542
96448	12,36
96449	11,977
96450	12,872
96451	12,458
96452	13,445
96453	12,994
96454	14,09
96455	13,597
96456	14,825
96457	14,284
96458	15,672
96459	15,074
96460	15,243
96461	16,661
96462	15,995
96463	16,101
96464	17,085
96465	17,833
96466	22,082
96467	21,705
96468	20,775
96469	22,617
96470	20,988
96471	23,358
96472	14,412
96473	15,612
96474	14,423
96475	14,788
96476	15,6
96477	19,757
96478	22,287
96479	18,208
96480	13,46
96481	14,869
96482	13,716
96483	12,357
96484	12,562
96485	11,467
96486	11,595
96487	10,835
96488	10,777
96489	14,033
96490	13,213
96491	13,544
96492	13,615
96493	14,519
96494	16,695
96495	18,081
96496	14,645
96497	15,387
96498	15,895
96499	15,135
96500	15,588
96501	16,31
96502	12,477
96503	13,57
96504	12,678
96505	11,629
96506	11,753
96507	12,2
96508	11,006
96509	10,936
96510	16,458
96511	15,629
96512	15,425
96513	17,699
96514	16,718
96515	18,022
96516	18,391
96517	19,205
96518	21,484
96519	21,055
96520	23,218
96521	13,883
96522	18,851
96523	18,345
96524	23,045
96525	22,457
96526	28,002
96527	15,867
96528	15,158
96529	15,314
96530	14,527
96531	16,562
96532	14,881
96533	14,206
96534	15,944
96535	14,488
96536	13,948
96537	15,487
96538	13,606
96539	14,028
96540	11,483
96541	10,849
96542	10,789
96543	11,292
96544	12,348
96545	11,603
96546	13,465
96547	12,551
96548	15,014
96549	13,786
96550	17,344
96551	15,507
96552	17,995
96553	21,646
96554	19,183
96555	23,018
96556	23,228
96557	24,204
96558	25,726
96559	20,887
96560	21,238
96561	19,031
96562	19,412
96563	19,837
96564	17,51
96565	17,836
96566	18,224
96567	16,271
96568	16,531
96569	15,453
96570	15,251
96571	12,278
96572	11,569
96573	11,45
96574	23,368
96575	22,54
96576	25,585
96577	16,048
96578	17,744
96579	16,801
96580	15,241
96581	13,349
96582	12,47
96583	12,931
96584	14,192
96585	15,344
96586	13,764
96587	13,633
96588	14,859
96589	17,659
96590	16,02
96591	18,557
96592	21,696
96593	19,409
96594	16,944
96595	17,48
96596	18,452
96597	21,596
96598	19,414
96599	22,449
96600	20,666
96601	17,333
96602	19,211
96603	16,04
96604	15,226
96605	20,311
96606	18,618
96607	14,677
96608	13,909
96609	13,819
96610	13,118
96611	13,427
96612	12,709
96613	13,281
96614	12,628
96615	13,073
96616	12,522
96617	12,798
96618	12,343
96619	12,468
96620	13,212
96621	12,094
96622	12,109
96623	12,792
96624	11,798
96625	11,736
96626	12,365
96627	11,475
96628	11,364
96629	11,943
96630	11,139
96631	10,999
96632	11,535
96633	10,802
96634	10,647
96635	11,145
96636	10,472
96637	10,313
96638	10,775
96639	10,154
96640	9,9978
96641	10,427
96642	9,8501
96643	9,7027
96644	10,103
96645	9,5632
96646	9,4285
96647	9,8022
96648	9,2942
96649	9,1756
96650	9,5246
96651	9,0438
96652	8,9441
96653	9,2705
96654	8,8125
96655	8,7343
96656	9,0399
96657	8,6007
96658	8,5469
96659	8,8329
96660	8,409
96661	8,3826
96662	8,6502
96663	8,2382
96664	8,2424
96665	8,4925
96666	8,0893
96667	8,1277
96668	8,361
96669	7,9634
96670	8,04
96671	8,2571
96672	7,8623
96673	7,9815
96674	8,1826
96675	7,7877
96676	7,9544
96677	8,1396
96678	7,7418
96679	7,9614
96680	8,1307
96681	7,7271
96682	8,0056
96683	8,1586
96684	7,7464
96685	8,0904
96686	8,2265
96687	7,8032
96688	8,2199
96689	8,3383
96690	7,9012
96691	8,3988
96692	8,498
96693	8,0449
96694	8,6326
96695	8,7106
96696	8,2394
96697	8,9282
96698	8,9821
96699	8,4913
96700	9,2943
96701	9,3196
96702	8,8084
96703	9,7428
96704	9,7331
96705	9,2009
96706	10,291
96707	10,236
96708	9,6828
96709	10,963
96710	10,273
96711	11,799
96712	11,001
96713	16,194
96714	14,551
96715	14,28
96716	18,4
96717	16,506
96718	18,845
96719	21,98
96720	19,888
96721	21,629
96722	19,761
96723	18,3
96724	18,332
96725	16,913
96726	16,994
96727	15,752
96728	15,834
96729	14,776
96730	14,848
96731	13,949
96732	14,546
96733	14,007
96734	13,241
96735	13,772
96736	13,284
96737	12,625
96738	13,105
96739	12,657
96740	12,084
96741	12,52
96742	12,106
96743	11,602
96744	12,003
96745	11,615
96746	11,167
96747	11,539
96748	11,173
96749	10,772
96750	11,12
96751	10,77
96752	10,411
96753	10,737
96754	10,401
96755	10,078
96756	10,387
96757	10,06
96758	9,7723
96759	10,064
96760	9,7453
96761	9,4907
96762	9,7684
96763	9,4541
96764	9,2326
96765	9,4969
96766	9,1857
96767	8,9979
96768	9,2494
96769	8,9395
96770	8,7867
96771	9,0259
96772	8,7158
96773	8,5997
96774	8,8267
96775	8,5151
96776	8,438
96777	8,6529
96778	8,3382
96779	8,303
96780	8,5057
96781	8,1865
96782	8,1964
96783	8,3868
96784	8,0613
96785	8,1202
96786	8,2979
96787	7,9646
96788	8,0769
96789	8,2415
96790	7,8984
96791	8,0689
96792	8,22
96793	7,8652
96794	8,0995
96795	8,2364
96796	7,8679
96797	8,172
96798	8,2938
96799	7,9095
96800	8,2905
96801	8,3961
96802	7,9939
96803	8,4594
96804	8,5472
96805	8,1253
96806	8,6843
96807	8,7522
96808	8,3089
96809	8,972
96810	9,0169
96811	8,551
96812	9,3311
96813	9,3486
96814	8,8594
96815	9,7736
96816	9,7571
96817	9,2443
96818	10,316
96819	10,256
96820	9,7197
96821	10,968
96822	10,855
96823	10,305
96824	11,756
96825	11,001
96826	12,751
96827	11,858
96828	12,966
96829	14,084
96830	12,988
96831	14,339
96832	13,182
96833	11,949
96834	12,067
96835	11,126
96836	11,174
96837	10,448
96838	10,441
96839	9,8905
96840	10,382
96841	9,8405
96842	9,4345
96843	9,8695
96844	9,3512
96845	9,0622
96846	9,448
96847	8,9528
96848	8,7613
96849	9,1034
96850	8,631
96851	8,523
96852	8,8255
96853	8,3755
96854	8,3404
96855	8,6069
96856	8,1783
96857	8,208
96858	8,4418
96859	8,0331
96860	8,1211
96861	8,3253
96862	7,9348
96863	8,076
96864	8,2532
96865	7,8789
96866	8,0691
96867	8,2219
96868	7,8619
96869	8,0974
96870	8,2282
96871	7,8804
96872	8,1584
96873	8,2692
96874	7,9318
96875	8,2495
96876	8,3424
96877	8,0135
96878	8,3689
96879	8,4455
96880	8,1235
96881	8,5147
96882	8,5766
96883	8,2598
96884	8,6854
96885	8,734
96886	8,421
96887	8,8799
96888	8,9164
96889	8,6057
96890	9,0974
96891	9,1227
96892	8,8129
96893	9,3374
96894	9,3522
96895	9,0419
96896	9,5997
96897	9,6046
96898	9,2924
96899	9,8851
96900	9,8803
96901	9,5644
96902	10,195
96903	10,18
96904	9,8586
96905	10,53
96906	10,506
96907	10,176
96908	10,895
96909	10,86
96910	10,519
96911	11,294
96912	11,246
96913	10,892
96914	11,732
96915	11,669
96916	11,297
96917	12,22
96918	12,138
96919	11,744
96920	12,767
96921	12,661
96922	12,239
96923	13,39
96924	13,252
96925	12,796
96926	14,107
96927	13,928
96928	13,43
96929	14,944
96930	14,711
96931	14,16
96932	15,929
96933	15,009
96934	17,099
96935	16,003
96936	17,166
96937	18,492
96938	22,155
96939	20,076
96940	20,148
96941	21,918
96942	25,307
96943	23,682
96944	14,097
96945	15,796
96946	14,38
96947	12,818
96948	12,986
96949	11,794
96950	11,902
96951	10,956
96952	10,994
96953	10,285
96954	10,268
96955	9,739
96956	10,232
96957	9,6786
96958	9,2911
96959	9,7295
96960	9,1975
96961	8,9257
96962	9,3168
96963	8,8057
96964	8,6307
96965	8,9798
96966	8,4892
96967	8,3973
96968	8,7089
96969	8,2378
96970	8,2189
96971	8,4967
96972	8,0437
96973	8,0897
96974	8,3374
96975	7,9004
96976	8,0052
96977	8,226
96978	7,8027
96979	7,9613
96980	8,1583
96981	7,7462
96982	7,9545
96983	8,1306
96984	7,7271
96985	7,9818
96986	8,1398
96987	7,742
96988	8,0405
96989	8,1829
96990	7,7881
96991	8,1282
96992	8,2576
96993	7,8628
96994	8,2431
96995	8,3617
96996	7,9641
96997	8,3834
96998	8,4933
96999	8,09
97000	8,5478
97001	8,6511
97002	8,239
97003	8,7353
97004	8,8339
97005	8,4099
97006	8,9451
97007	9,0409
97008	8,6017
97009	9,1766
97010	9,2716
97011	8,8135
97012	9,4296
97013	9,5257
97014	9,0449
97015	9,7038
97016	9,8033
97017	9,2953
97018	9,9989
97019	10,104
97020	9,5643
97021	10,314
97022	10,429
97023	9,8512
97024	10,649
97025	10,776
97026	10,155
97027	11,
97028	11,146
97029	10,473
97030	11,365
97031	11,536
97032	10,803
97033	11,737
97034	11,945
97035	11,14
97036	12,11
97037	12,366
97038	11,476
97039	12,47
97040	12,793
97041	11,799
97042	12,802
97043	12,095
97044	13,094
97045	12,348
97046	13,302
97047	13,991
97048	12,538
97049	13,53
97050	12,637
97051	14,264
97052	13,816
97053	12,78
97054	16,129
97055	13,149
97056	15,078
97057	19,54
97058	18,745
97059	16,137
97060	23,065
97061	18,224
97062	16,266
97063	14,607
97064	16,259
97065	18,616
97066	21,244
97067	22,258
97068	20,467
97069	16,531
97070	18,169
97071	13,455
97072	12,606
97073	16,834
97074	14,096
97075	12,021
97076	15,658
97077	12,661
97078	11,306
97079	11,875
97080	11,888
97081	12,16
97082	12,069
97083	13,272
97084	14,886
97085	15,014
97086	16,235
97087	13,456
97088	13,593
97089	12,26
97090	12,351
97091	11,321
97092	11,289
97093	17,256
97094	15,952
97095	16,118
97096	18,536
97097	16,976
97098	18,516
97099	19,977
97100	18,065
97101	21,374
97102	19,157
97103	21,95
97104	24,487
97105	19,959
97106	25,305
97107	19,766
97108	21,318
97109	21,566
97110	20,199
97111	24,615
97112	20,544
97113	19,384
97114	19,488
97115	18,725
97116	18,292
97117	17,831
97118	16,83
97119	17,089
97120	12,069
97121	11,138
97122	11,101
97123	13,288
97124	12,191
97125	14,885
97126	13,486
97127	14,406
97128	17,096
97129	15,184
97130	16,335
97131	20,843
97132	17,431
97133	19,5
97134	15,135
97135	14,854
97136	16,997
97137	13,963
97138	13,143
97139	17,647
97140	15,599
97141	13,054
97142	12,396
97143	12,338
97144	11,767
97145	12,004
97146	11,41
97147	11,911
97148	11,314
97149	11,303
97150	11,871
97151	12,101
97152	11,129
97153	11,908
97154	11,106
97155	13,339
97156	12,202
97157	13,062
97158	14,884
97159	13,518
97160	16,973
97161	15,116
97162	17,245
97163	20,374
97164	18,575
97165	21,603
97166	17,879
97167	18,794
97168	19,914
97169	18,593
97170	21,856
97171	17,22
97172	17,244
97173	20,348
97174	15,403
97175	15,604
97176	13,76
97177	13,947
97178	12,385
97179	12,497
97180	11,23
97181	11,255
97182	10,285
97183	10,224
97184	9,5189
97185	9,3863
97186	10,264
97187	8,9002
97188	8,7125
97189	9,5646
97190	8,4028
97191	8,1746
97192	8,9993
97193	8,0051
97194	7,7485
97195	8,5427
97196	7,6905
97197	7,4143
97198	8,176
97199	7,4457
97200	7,1563
97201	7,8848
97202	7,2606
97203	6,9622
97204	7,6581
97205	7,1269
97206	6,8224
97207	7,4872
97208	7,0383
97209	6,7292
97210	7,3652
97211	6,9893
97212	6,6767
97213	7,2865
97214	6,9754
97215	6,6598
97216	7,2463
97217	6,993
97218	6,6744
97219	7,2407
97220	7,0389
97221	6,7169
97222	7,2663
97223	7,1102
97224	6,7846
97225	7,3201
97226	7,2046
97227	6,8747
97228	7,3997
97229	7,32
97230	6,9851
97231	7,5027
97232	7,4544
97233	7,1137
97234	7,6273
97235	7,6063
97236	7,2588
97237	7,7717
97238	7,7743
97239	7,4187
97240	7,9347
97241	7,957
97242	7,592
97243	8,1148
97244	8,1534
97245	7,7774
97246	8,3112
97247	8,3623
97248	7,9734
97249	8,5229
97250	8,5829
97251	8,1791
97252	8,7491
97253	8,8138
97254	8,3931
97255	8,9888
97256	9,0535
97257	8,6141
97258	9,241
97259	9,3
97260	8,8404
97261	9,5041
97262	9,55
97263	9,0695
97264	9,7755
97265	9,7987
97266	9,2981
97267	10,052
97268	10,039
97269	9,5213
97270	10,326
97271	10,261
97272	9,732
97273	10,592
97274	10,453
97275	9,9209
97276	10,835
97277	10,599
97278	10,077
97279	11,043
97280	10,687
97281	10,187
97282	11,197
97283	10,716
97284	10,245
97285	11,284
97286	10,705
97287	10,258
97288	10,717
97289	10,254
97290	10,83
97291	10,295
97292	11,069
97293	10,418
97294	11,441
97295	10,617
97296	11,643
97297	10,861
97298	10,823
97299	14,469
97300	11,459
97301	8,8344
97302	10,546
97303	9,0444
97304	9,3616
97305	10,471
97306	7,2607
97307	7,9444
97308	8,3877
97309	5,9696
97310	6,4294
97311	6,7018
97312	6,1376
97313	5,2779
97314	4,6243
97315	5,7874
97316	4,8746
97317	5,5126
97318	4,455
97319	5,0001
97320	4,5721
97321	5,2839
97322	5,2197
97323	5,6264
97324	5,3709
97325	4,7859
97326	5,7647
97327	5,9211
97328	6,2366
97329	6,1243
97330	5,1395
97331	7,2129
97332	6,6443
97333	5,1721
97334	8,7465
97335	7,9871
97336	7,6525
97337	7,6421
97338	9,9113
97339	9,0341
97340	9,8534
97341	10,452
97342	11,953
97343	11,547
97344	10,744
97345	11,433
97346	10,84
97347	13,041
97348	11,638
97349	11,147
97350	10,634
97351	10,895
97352	10,468
97353	10,74
97354	10,306
97355	11,55
97356	10,716
97357	10,265
97358	11,299
97359	10,714
97360	10,256
97361	10,689
97362	10,246
97363	11,284
97364	10,6
97365	10,188
97366	11,198
97367	10,454
97368	10,077
97369	11,044
97370	10,262
97371	9,9216
97372	10,836
97373	10,04
97374	9,7327
97375	10,592
97376	9,7995
97377	9,522
97378	10,327
97379	9,5509
97380	9,2989
97381	10,052
97382	9,3009
97383	9,0703
97384	9,7764
97385	9,0544
97386	8,8412
97387	9,505
97388	8,8147
97389	8,615
97390	9,2419
97391	8,5838
97392	8,394
97393	8,9898
97394	8,3632
97395	8,18
97396	8,75
97397	8,1543
97398	7,9743
97399	8,5239
97400	7,9579
97401	7,7782
97402	8,3122
97403	7,7751
97404	7,5929
97405	8,1157
97406	7,6071
97407	7,4196
97408	7,9355
97409	7,4552
97410	7,2596
97411	7,7725
97412	7,3206
97413	7,1145
97414	7,628
97415	7,2052
97416	6,9858
97417	7,5033
97418	7,1107
97419	6,8753
97420	7,4002
97421	7,0393
97422	6,7851
97423	7,3206
97424	6,9933
97425	6,7173
97426	7,2666
97427	6,9755
97428	6,6746
97429	7,2408
97430	6,9891
97431	6,6598
97432	7,2462
97433	7,0378
97434	6,6765
97435	7,2861
97436	7,1261
97437	6,7287
97438	7,3645
97439	7,2594
97440	6,8215
97441	7,4861
97442	7,4441
97443	6,9609
97444	7,6566
97445	7,6883
97446	7,1545
97447	7,8828
97448	8,0023
97449	7,4119
97450	8,1734
97451	8,3991
97452	7,7454
97453	8,5394
97454	8,8956
97455	8,1706
97456	8,995
97457	9,513
97458	8,7073
97459	9,5594
97460	10,278
97461	9,3797
97462	10,257
97463	11,212
97464	10,216
97465	11,121
97466	12,355
97467	11,236
97468	13,753
97469	12,475
97470	13,463
97471	13,959
97472	15,473
97473	19,848
97474	21,65
97475	20,127
97476	13,792
97477	14,014
97478	15,533
97479	12,392
97480	12,522
97481	11,259
97482	11,289
97483	10,33
97484	10,273
97485	9,5693
97486	9,4405
97487	10,295
97488	8,9575
97489	8,7727
97490	9,6111
97491	8,4682
97492	8,2423
97493	9,0526
97494	8,0801
97495	7,8252
97496	8,6043
97497	7,7765
97498	7,5015
97499	8,2471
97500	7,5442
97501	7,2557
97502	7,9667
97503	7,3731
97504	7,0755
97505	7,7522
97506	7,2553
97507	6,9514
97508	7,595
97509	7,1845
97510	6,8762
97511	7,4884
97512	7,1555
97513	6,8438
97514	7,4269
97515	7,1642
97516	6,8497
97517	7,4059
97518	7,207
97519	6,8899
97520	7,4219
97521	7,2811
97522	6,9614
97523	7,4714
97524	7,3839
97525	7,0615
97526	7,5519
97527	7,5134
97528	7,1881
97529	7,661
97530	7,6677
97531	7,3393
97532	7,7967
97533	7,8453
97534	7,5134
97535	7,9572
97536	8,0449
97537	7,7092
97538	8,1412
97539	8,2653
97540	7,9254
97541	8,3474
97542	8,5058
97543	8,161
97544	8,5749
97545	8,7656
97546	8,4151
97547	8,8229
97548	9,0443
97549	8,6871
97550	9,0912
97551	9,3421
97552	8,9765
97553	9,3797
97554	9,6592
97555	9,283
97556	9,6889
97557	9,9968
97558	9,6068
97559	10,02
97560	10,357
97561	9,9486
97562	10,375
97563	10,742
97564	10,31
97565	10,757
97566	11,158
97567	10,692
97568	11,172
97569	11,61
97570	11,1
97571	11,624
97572	12,108
97573	11,539
97574	12,125
97575	12,662
97576	12,016
97577	12,686
97578	13,284
97579	12,539
97580	13,321
97581	13,984
97582	13,116
97583	14,046
97584	14,763
97585	13,751
97586	14,876
97587	15,596
97588	14,435
97589	15,815
97590	16,417
97591	15,128
97592	17,12
97593	15,744
97594	17,613
97595	16,176
97596	18,064
97597	16,372
97598	18,488
97599	16,558
97600	18,526
97601	16,677
97602	22,842
97603	18,347
97604	16,645
97605	22,292
97606	16,949
97607	20,842
97608	18,394
97609	22,163
97610	19,659
97611	20,675
97612	22,322
97613	22,836
97614	21,282
97615	27,605
97616	20,07
97617	19,967
97618	22,884
97619	28,425
97620	17,094
97621	17,446
97622	15,17
97623	15,484
97624	16,379
97625	13,734
97626	13,931
97627	12,495
97628	12,598
97629	11,413
97630	11,437
97631	10,481
97632	10,431
97633	9,7053
97634	9,5824
97635	10,451
97636	9,0775
97637	8,8979
97638	9,7414
97639	8,5728
97640	8,351
97641	9,1677
97642	8,1698
97643	7,9179
97644	8,7046
97645	7,8516
97646	7,5788
97647	8,3332
97648	7,6052
97649	7,3182
97650	8,0389
97651	7,4203
97652	7,1237
97653	7,8106
97654	7,2887
97655	6,9858
97656	7,6397
97657	7,2042
97658	6,8968
97659	7,5194
97660	7,1616
97661	6,8509
97662	7,4442
97663	7,1565
97664	6,8433
97665	7,4094
97666	7,1856
97667	6,87
97668	7,4114
97669	7,2457
97670	6,928
97671	7,4469
97672	7,3345
97673	7,0144
97674	7,5131
97675	7,4497
97676	7,1272
97677	7,6078
97678	7,5897
97679	7,2644
97680	7,7289
97681	7,7527
97682	7,4244
97683	7,8747
97684	7,9374
97685	7,6058
97686	8,0436
97687	8,1428
97688	7,8074
97689	8,2345
97690	8,3678
97691	8,0282
97692	8,4463
97693	8,6118
97694	8,2673
97695	8,6783
97696	8,8741
97697	8,5238
97698	8,9298
97699	9,1547
97700	8,7974
97701	9,2008
97702	9,4536
97703	9,0875
97704	9,4913
97705	9,7714
97706	9,3941
97707	9,8021
97708	10,109
97709	9,7175
97710	10,134
97711	10,47
97712	10,059
97713	10,491
97714	10,856
97715	10,419
97716	10,874
97717	11,272
97718	10,8
97719	11,291
97720	11,726
97721	11,208
97722	11,746
97723	12,226
97724	11,647
97725	12,25
97726	12,783
97727	12,123
97728	12,815
97729	13,407
97730	12,647
97731	13,455
97732	14,107
97733	13,223
97734	14,184
97735	14,882
97736	13,855
97737	15,015
97738	15,714
97739	14,53
97740	16,557
97741	15,216
97742	17,306
97743	15,848
97744	16,288
97745	17,8
97746	17,612
97747	15,94
97748	17,577
97749	19,12
97750	17,869
97751	16,103
97752	21,471
97753	18,113
97754	17,96
97755	16,972
97756	17,952
97757	14,886
97758	18,164
97759	16,541
97760	21,195
97761	18,949
97762	20,086
97763	18,469
97764	18,3
97765	18,665
97766	16,929
97767	19,323
97768	18,071
97769	8,5056
97770	7,965
97771	8,0444
97772	7,0365
97773	7,4566
97774	7,2192
97775	9,4512
97776	9,0807
97777	9,0084
97778	9,7556
97779	6,6366
97780	6,8447
97781	9,7291
97782	9,288
97783	6,323
97784	6,536
97785	9,9428
97786	9,5046
97787	10,809
97788	6,137
97789	6,3377
97790	9,9795
97791	9,6321
97792	9,9374
97793	9,6716
97794	5,9862
97795	5,9025
97796	6,0959
97797	9,8751
97798	9,6261
97799	9,8298
97800	9,5609
97801	5,9183
97802	6,0333
97803	6,1408
97804	9,8033
97805	9,4854
97806	9,7867
97807	9,4301
97808	6,6125
97809	6,2638
97810	6,5343
97811	9,7448
97812	9,3685
97813	7,0125
97814	6,839
97815	9,6658
97816	9,2891
97817	7,4783
97818	7,1575
97819	9,5468
97820	9,1835
97821	8,0394
97822	7,6511
97823	9,3945
97824	9,0526
97825	9,2175
97826	8,9008
97827	8,4741
97828	8,9844
97829	8,5
97830	9,0242
97831	8,7333
97832	8,8212
97833	8,5546
97834	9,7815
97835	9,4723
97836	9,3172
97837	10,469
97838	8,6135
97839	8,3686
97840	9,9467
97841	9,5271
97842	8,4045
97843	8,1779
97844	9,9802
97845	9,6289
97846	8,1969
97847	7,9849
97848	9,9473
97849	9,6757
97850	7,9927
97851	7,7913
97852	9,88
97853	9,6326
97854	7,7933
97855	7,5989
97856	9,8308
97857	9,5596
97858	7,6003
97859	7,4093
97860	9,8051
97861	9,4879
97862	7,415
97863	7,224
97864	9,7861
97865	9,4296
97866	7,2388
97867	7,0446
97868	9,7447
97869	9,3687
97870	7,0732
97871	6,8727
97872	9,6652
97873	9,2887
97874	6,9198
97875	6,7102
97876	9,5462
97877	9,183
97878	6,7802
97879	6,5586
97880	9,3939
97881	9,0521
97882	6,6561
97883	6,4198
97884	9,2169
97885	8,9002
97886	6,5497
97887	6,2958
97888	9,0235
97889	8,7327
97890	6,4629
97891	6,1885
97892	8,8205
97893	8,554
97894	6,3982
97895	6,1002
97896	8,6127
97897	8,3679
97898	6,3585
97899	6,0334
97900	8,4037
97901	8,1772
97902	6,3468
97903	5,991
97904	8,1961
97905	7,9841
97906	6,3671
97907	5,9765
97908	7,9918
97909	7,7905
97910	6,4241
97911	5,9941
97912	7,7925
97913	7,5981
97914	6,5233
97915	6,0489
97916	7,5994
97917	7,4084
97918	6,672
97919	6,1474
97920	7,4141
97921	7,2231
97922	6,8792
97923	6,2979
97924	7,238
97925	7,0437
97926	7,1564
97927	6,5112
97928	7,0724
97929	6,8719
97930	7,5184
97931	6,8012
97932	6,919
97933	6,7093
97934	7,9839
97935	7,1857
97936	6,7794
97937	6,5578
97938	8,5758
97939	7,6873
97940	6,6555
97941	6,4191
97942	9,32
97943	8,3332
97944	6,5491
97945	6,2951
97946	10,243
97947	9,1527
97948	6,4624
97949	6,1879
97950	11,363
97951	10,173
97952	6,3979
97953	6,0997
97954	12,695
97955	11,407
97956	6,3583
97957	6,033
97958	14,194
97959	12,851
97960	6,3468
97961	5,9908
97962	15,718
97963	14,419
97964	15,69
97965	6,3674
97966	5,9765
97967	17,233
97968	15,954
97969	17,382
97970	6,4246
97971	5,9944
97972	18,658
97973	17,406
97974	18,764
97975	6,5242
97976	6,0495
97977	19,967
97978	18,725
97979	21,391
97980	6,6734
97981	6,1483
97982	22,215
97983	20,076
97984	21,001
97985	6,8811
97986	6,2994
97987	7,159
97988	6,5133
97989	7,5219
97990	6,804
97991	7,9885
97992	7,1895
97993	22,919
97994	22,113
97995	22,008
97996	21,848
97997	8,5816
97998	7,6925
97999	9,3276
98000	8,3399
98001	10,253
98002	9,1615
98003	11,375
98004	10,184
98005	22,697
98006	21,65
98007	22,055
98008	21,627
98009	12,699
98010	11,421
98011	14,167
98012	12,858
98013	19,601
98014	21,627
98015	19,699
98016	20,693
98017	15,634
98018	14,385
98019	18,412
98020	18,516
98021	17,
98022	15,862
98023	17,16
98024	17,296
98025	18,84
98026	17,176
98027	18,175
98028	15,761
98029	15,976
98030	17,429
98031	14,243
98032	14,47
98033	15,744
98034	20,418
98035	19,27
98036	19,537
98037	20,508
98038	12,757
98039	12,918
98040	21,992
98041	20,697
98042	21,427
98043	11,426
98044	11,475
98045	10,307
98046	10,243
98047	9,3859
98048	9,2231
98049	8,645
98050	8,4054
98051	22,789
98052	21,743
98053	21,833
98054	21,876
98055	22,041
98056	8,0586
98057	7,7632
98058	7,6003
98059	7,2673
98060	22,594
98061	21,674
98062	21,988
98063	21,776
98064	7,2474
98065	6,8906
98066	6,9813
98067	6,6106
98068	20,679
98069	21,945
98070	20,637
98071	21,284
98072	6,7871
98073	6,4094
98074	21,713
98075	19,814
98076	19,759
98077	6,6536
98078	6,2733
98079	6,5718
98080	6,1915
98081	17,303
98082	17,42
98083	18,646
98084	6,5348
98085	6,1561
98086	15,853
98087	16,121
98088	6,5372
98089	6,1608
98090	14,259
98091	14,56
98092	6,5747
98093	6,2007
98094	12,809
98095	12,996
98096	6,6437
98097	6,2721
98098	11,549
98099	11,603
98100	6,7416
98101	6,372
98102	10,46
98103	10,402
98104	6,8658
98105	6,4978
98106	9,5343
98107	9,3792
98108	7,0145
98109	6,6477
98110	8,7767
98111	8,5438
98112	7,186
98113	6,8199
98114	8,1728
98115	7,8827
98116	7,3789
98117	7,0131
98118	7,6973
98119	7,3678
98120	7,5919
98121	7,2258
98122	7,328
98123	6,9732
98124	7,8238
98125	7,4571
98126	7,0462
98127	6,6763
98128	8,0737
98129	7,7059
98130	6,8371
98131	6,4594
98132	8,3406
98133	7,971
98134	6,6893
98135	6,3084
98136	8,6238
98137	8,2516
98138	6,5936
98139	6,2126
98140	8,9225
98141	8,5466
98142	6,543
98143	6,1636
98144	9,2363
98145	8,8551
98146	6,532
98147	6,155
98148	9,5649
98149	9,1759
98150	6,5561
98151	6,1818
98152	9,9082
98153	9,5081
98154	6,6119
98155	6,2402
98156	10,267
98157	9,8509
98158	6,6963
98159	6,327
98160	10,643
98161	10,204
98162	6,8071
98163	6,4398
98164	11,038
98165	10,566
98166	6,9422
98167	6,5765
98168	11,457
98169	10,939
98170	7,0999
98171	6,7353
98172	11,904
98173	11,324
98174	7,2788
98175	6,9149
98176	12,384
98177	11,722
98178	7,4776
98179	7,1139
98180	12,899
98181	12,134
98182	7,6952
98183	7,3313
98184	13,442
98185	12,558
98186	7,9306
98187	7,5661
98188	13,987
98189	12,98
98190	8,1829
98191	7,8171
98192	14,476
98193	13,369
98194	8,4513
98195	8,0836
98196	14,819
98197	13,66
98198	8,735
98199	8,3645
98200	14,948
98201	13,78
98202	9,0334
98203	8,6588
98204	14,871
98205	13,697
98206	9,3462
98207	8,9657
98208	14,749
98209	13,487
98210	9,6731
98211	9,2842
98212	14,797
98213	13,391
98214	10,014
98215	9,6134
98216	15,238
98217	13,671
98218	10,371
98219	9,9525
98220	16,064
98221	14,418
98222	10,744
98223	10,301
98224	15,351
98225	17,553
98226	11,137
98227	10,659
98228	11,554
98229	11,028
98230	11,999
98231	11,408
98232	12,476
98233	11,801
98234	18,098
98235	18,788
98236	18,594
98237	18,129
98238	12,987
98239	12,208
98240	17,261
98241	18,349
98242	18,184
98243	18,118
98244	13,522
98245	12,624
98246	14,054
98247	13,036
98248	14,529
98249	13,409
98250	14,849
98251	13,687
98252	14,912
98253	13,772
98254	17,445
98255	17,9
98256	17,768
98257	17,848
98258	14,711
98259	13,627
98260	16,412
98261	17,827
98262	17,933
98263	14,459
98264	13,323
98265	16,096
98266	18,289
98267	18,041
98268	14,431
98269	13,172
98270	18,519
98271	18,334
98272	18,007
98273	14,78
98274	13,373
98275	15,315
98276	13,962
98277	17,41
98278	18,055
98279	17,073
98280	15,946
98281	14,623
98282	16,689
98283	15,495
98284	17,103
98285	9,1696
98286	9,017
98287	9,0315
98288	9,2999
98289	9,2066
98290	9,3531
98291	9,2873
98292	9,3105
98293	9,2234
98294	9,2155
98295	9,0661
98296	9,1108
98297	8,8838
98298	9,0109
98299	8,7148
98300	9,1736
98301	9,0224
98302	9,0398
98303	8,9126
98304	8,5703
98305	9,3004
98306	9,2078
98307	8,8074
98308	8,4439
98309	9,3533
98310	9,2871
98311	8,6905
98312	8,3268
98313	9,3109
98314	9,2237
98315	8,5606
98316	8,211
98317	9,2157
98318	9,0664
98319	8,4185
98320	8,0915
98321	9,111
98322	8,8839
98323	8,2658
98324	7,9649
98325	9,011
98326	8,7151
98327	8,1042
98328	7,8295
98329	8,9124
98330	8,5702
98331	7,9353
98332	7,6845
98333	8,8071
98334	8,4437
98335	7,7606
98336	7,5302
98337	8,6901
98338	8,3264
98339	7,5817
98340	7,3673
98341	8,5601
98342	8,2106
98343	7,4
98344	7,1974
98345	8,4179
98346	8,091
98347	7,2172
98348	7,022
98349	8,2652
98350	7,9644
98351	7,0352
98352	6,8433
98353	8,1036
98354	7,8289
98355	6,8556
98356	6,6632
98357	7,9346
98358	7,6839
98359	6,6804
98360	6,4839
98361	7,7599
98362	7,5295
98363	6,5113
98364	6,3075
98365	7,5809
98366	7,3666
98367	6,3503
98368	6,1362
98369	7,3992
98370	7,1966
98371	6,1993
98372	5,9718
98373	7,2164
98374	7,0212
98375	6,0602
98376	5,8165
98377	7,0343
98378	6,8424
98379	5,9351
98380	5,6721
98381	6,8547
98382	6,6623
98383	5,8259
98384	5,5407
98385	6,6795
98386	6,483
98387	5,7353
98388	5,4245
98389	6,5104
98390	6,3066
98391	5,6657
98392	5,3258
98393	6,3495
98394	6,1353
98395	5,6205
98396	5,2473
98397	6,1985
98398	5,9709
98399	5,6033
98400	5,1924
98401	6,0595
98402	5,8156
98403	5,6189
98404	5,165
98405	5,9343
98406	5,6712
98407	5,6734
98408	5,1703
98409	5,8253
98410	5,5399
98411	5,7743
98412	5,215
98413	5,7347
98414	5,4238
98415	5,9317
98416	5,3078
98417	5,6653
98418	5,3252
98419	6,1587
98420	5,4605
98421	5,6202
98422	5,2468
98423	6,4723
98424	5,6886
98425	5,6033
98426	5,1921
98427	6,8943
98428	6,0127
98429	5,6192
98430	5,1649
98431	7,4518
98432	6,4591
98433	5,674
98434	5,1705
98435	8,1757
98436	7,0604
98437	5,7753
98438	5,2155
98439	9,0969
98440	7,8537
98441	5,9333
98442	5,3088
98443	10,238
98444	8,8747
98445	6,1609
98446	5,4621
98447	11,594
98448	10,148
98449	6,4755
98450	5,691
98451	13,119
98452	11,661
98453	6,8987
98454	6,0162
98455	14,695
98456	13,35
98457	7,4577
98458	6,464
98459	16,13
98460	15,052
98461	8,1836
98462	7,0671
98463	17,401
98464	16,547
98465	9,1073
98466	7,8627
98467	17,79
98468	18,618
98469	10,251
98470	8,8868
98471	11,611
98472	10,163
98473	13,118
98474	11,68
98475	14,653
98476	13,35
98477	16,049
98478	15,016
98479	17,229
98480	16,486
98481	17,684
98482	18,298
98483	18,379
98484	17,311
98485	17,721
98486	18,459
98487	16,121
98488	16,545
98489	14,726
98490	15,082
98491	13,187
98492	13,42
98493	11,668
98494	11,739
98495	10,314
98496	10,228
98497	9,1727
98498	8,9544
98499	17,431
98500	17,777
98501	18,708
98502	18,481
98503	8,252
98504	7,932
98505	16,241
98506	16,652
98507	7,5301
98508	7,1385
98509	14,863
98510	15,211
98511	6,9766
98512	6,539
98513	13,335
98514	13,577
98515	6,5609
98516	6,0968
98517	11,819
98518	11,905
98519	6,2559
98520	5,7797
98521	10,479
98522	10,401
98523	6,04
98524	5,5611
98525	9,337
98526	9,1275
98527	5,8961
98528	5,4205
98529	8,3992
98530	8,0867
98531	5,8112
98532	5,3426
98533	7,6571
98534	7,2712
98535	5,7755
98536	5,3156
98537	7,083
98538	6,6488
98539	5,7817
98540	5,331
98541	6,6475
98542	6,1849
98543	5,8239
98544	5,3825
98545	6,3241
98546	5,8476
98547	5,898
98548	5,4653
98549	6,0912
98550	5,6108
98551	6,0005
98552	5,5757
98553	5,9316
98554	5,4537
98555	6,1287
98556	5,7111
98557	5,832
98558	5,3606
98559	6,2807
98560	5,8694
98561	5,7824
98562	5,3195
98563	6,4546
98564	6,0488
98565	5,7751
98566	5,3217
98567	6,6491
98568	6,248
98569	5,8044
98570	5,3603
98571	6,8627
98572	6,4658
98573	5,8656
98574	5,4306
98575	7,0945
98576	6,7011
98577	5,9553
98578	5,5287
98579	7,3432
98580	6,953
98581	6,0708
98582	5,6517
98583	7,6078
98584	7,2203
98585	6,2099
98586	5,7976
98587	7,8872
98588	7,502
98589	6,3708
98590	5,9644
98591	8,1802
98592	7,7968
98593	6,5521
98594	6,1508
98595	8,4853
98596	8,1033
98597	6,7524
98598	6,3556
98599	8,8012
98600	8,4198
98601	6,9706
98602	6,5778
98603	9,126
98604	8,744
98605	7,2058
98606	6,8164
98607	9,4579
98608	9,0735
98609	7,4568
98610	7,0704
98611	9,7947
98612	9,4052
98613	7,7226
98614	7,3389
98615	10,134
98616	9,7353
98617	8,0021
98618	7,6206
98619	10,474
98620	10,059
98621	8,2942
98622	7,9145
98623	10,813
98624	10,372
98625	8,5975
98626	8,2189
98627	11,149
98628	10,669
98629	8,9105
98630	8,5322
98631	11,479
98632	10,942
98633	9,2315
98634	8,8522
98635	11,8
98636	11,186
98637	9,5587
98638	9,1764
98639	12,103
98640	11,394
98641	9,89
98642	9,5016
98643	12,369
98644	11,553
98645	10,223
98646	9,8241
98647	12,559
98648	11,645
98649	10,557
98650	10,139
98651	12,626
98652	11,644
98653	10,888
98654	10,443
98655	12,53
98656	11,523
98657	11,216
98658	10,729
98659	12,309
98660	11,285
98661	11,539
98662	10,992
98663	12,124
98664	11,02
98665	11,852
98666	11,225
98667	10,898
98668	12,255
98669	12,145
98670	11,422
98671	12,398
98672	11,569
98673	12,573
98674	11,65
98675	12,868
98676	14,351
98677	13,663
98678	12,615
98679	11,637
98680	12,488
98681	11,498
98682	12,237
98683	11,248
98684	12,031
98685	10,971
98686	10,837
98687	12,107
98688	24,859
98689	20,518
98690	19,57
98691	20,701
98692	28,016
98693	27,595
98694	28,975
98695	26,97
98696	28,071
98697	26,166
98698	25,364
98699	25,855
98700	23,813
98701	26,315
98702	24,992
98703	23,288
98704	26,954
98705	28,67
98706	21,982
98707	29,087
98708	18,695
98709	25,56
98710	15,619
98711	21,366
98712	12,981
98713	12,901
98714	17,521
98715	10,143
98716	13,411
98717	7,3984
98718	9,6
98719	5,0079
98720	6,0765
98721	2,9755
98722	4,3474
98723	6,1217
98724	4,2846
98725	9,2414
98726	8,1256
98727	11,725
98728	11,704
98729	14,499
98730	11,761
98731	15,365
98732	18,854
98733	15,053
98734	14,011
98735	19,507
98736	20,245
98737	24,983
98738	18,835
98739	26,219
98740	25,933
98741	19,593
98742	21,973
98743	19,457
98744	24,295
98745	17,94
98746	18,538
98747	17,076
98748	15,437
98749	14,707
98750	18,416
98751	16,552
98752	19,811
98753	18,655
98754	20,367
98755	22,554
98756	26,854
98757	24,752
98758	32,196
98759	26,863
98760	22,968
98761	33,5
98762	27,973
98763	34,069
98764	26,594
98765	30,095
98766	24,431
98767	25,364
98768	26,23
98769	20,659
98770	21,274
98771	17,228
98772	19,08
98773	17,587
98774	15,684
98775	19,171
98776	16,652
98777	22,676
98778	20,671
98779	19,421
98780	25,814
98781	23,738
98782	28,6
98783	28,434
98784	28,351
98785	33,389
98786	26,533
98787	34,005
98788	24,781
98789	34,006
98790	30,27
98791	20,716
98792	20,949
98793	23,464
98794	24,626
98795	25,402
98796	28,173
98797	25,029
98798	30,637
98799	30,361
98800	22,794
98801	25,151
98802	22,606
98803	22,4
98804	23,009
98805	22,692
98806	22,834
98807	22,071
98808	22,821
98809	22,048
98810	22,582
98811	22,656
98812	23,164
98813	23,076
98814	21,833
98815	25,017
98816	23,811
98817	28,153
98818	23,221
98819	30,053
98820	23,357
98821	29,307
98822	24,266
98823	29,602
98824	23,375
98825	22,121
98826	27,97
98827	20,717
98828	24,733
98829	17,839
98830	20,824
98831	15,787
98832	16,062
98833	17,437
98834	14,682
98835	15,069
98836	14,6
98837	14,134
98838	14,983
98839	23,369
98840	22,716
98841	26,261
98842	23,61
98843	22,046
98844	29,327
98845	24,552
98846	20,858
98847	29,739
98848	25,007
98849	23,347
98850	31,141
98851	23,43
98852	28,633
98853	21,196
98854	26,101
98855	18,426
98856	21,951
98857	16,612
98858	16,842
98859	18,961
98860	15,117
98861	16,122
98862	14,498
98863	14,401
98864	14,941
98865	14,322
98866	16,577
98867	15,98
98868	19,025
98869	19,069
98870	22,068
98871	18,898
98872	22,642
98873	23,687
98874	21,72
98875	26,437
98876	24,778
98877	28,517
98878	24,224
98879	23,103
98880	30,972
98881	22,899
98882	20,647
98883	20,584
98884	29,515
98885	23,065
98886	21,378
98887	28,716
98888	23,001
98889	26,822
98890	22,747
98891	22,596
98892	24,253
98893	22,676
98894	22,395
98895	22,795
98896	22,746
98897	21,722
98898	22,867
98899	22,424
98900	22,371
98901	24,157
98902	20,733
98903	20,353
98904	20,798
98905	20,715
98906	20,981
98907	21,114
98908	21,155
98909	21,098
98910	21,201
98911	21,474
98912	21,068
98913	21,326
98914	21,55
98915	20,967
98916	21,269
98917	21,45
98918	20,721
98919	21,094
98920	21,156
98921	20,335
98922	20,762
98923	20,708
98924	19,522
98925	20,145
98926	20,149
98927	18,235
98928	19,001
98929	19,653
98930	17,028
98931	18,623
98932	15,709
98933	16,776
98934	14,037
98935	14,591
98936	12,247
98937	12,385
98938	10,564
98939	10,406
98940	9,1052
98941	8,7474
98942	7,9148
98943	7,4282
98944	6,9835
98945	6,4185
98946	6,2789
98947	5,6708
98948	5,7607
98949	5,1342
98950	5,3911
98951	4,7629
98952	5,1377
98953	4,5188
98954	4,9749
98955	4,3718
98956	4,8833
98957	4,2993
98958	4,8481
98959	4,2846
98960	4,8586
98961	4,3154
98962	4,9067
98963	4,3829
98964	4,9867
98965	4,4808
98966	5,0942
98967	4,6046
98968	5,2262
98969	4,7511
98970	5,3801
98971	4,918
98972	5,5543
98973	5,1037
98974	5,7473
98975	5,3069
98976	5,958
98977	5,5267
98978	6,1854
98979	5,7623
98980	6,4286
98981	6,0129
98982	6,6867
98983	6,2779
98984	6,9588
98985	6,5564
98986	7,2437
98987	6,8476
98988	7,5402
98989	7,1503
98990	7,8468
98991	7,4631
98992	8,1615
98993	7,7842
98994	8,4819
98995	8,1114
98996	8,805
98997	8,4416
98998	9,127
98999	8,7709
99000	9,4429
99001	9,0942
99002	9,7468
99003	9,405
99004	10,031
99005	9,6946
99006	10,288
99007	9,9525
99008	10,508
99009	10,166
99010	10,68
99011	10,318
99012	10,796
99013	10,394
99014	10,845
99015	10,376
99016	10,82
99017	10,25
99018	10,713
99019	10,011
99020	10,52
99021	9,6691
99022	10,257
99023	9,2601
99024	9,9787
99025	8,8575
99026	9,771
99027	8,5634
99028	9,824
99029	8,4668
99030	10,277
99031	11,098
99032	8,5321
99033	11,002
99034	11,727
99035	8,9503
99036	11,907
99037	12,533
99038	9,8437
99039	13,002
99040	13,52
99041	11,06
99042	14,204
99043	14,594
99044	12,528
99045	15,374
99046	15,566
99047	14,126
99048	16,421
99049	16,506
99050	15,707
99051	17,305
99052	17,223
99053	17,185
99054	18,005
99055	17,751
99056	18,47
99057	18,511
99058	18,126
99059	19,469
99060	18,858
99061	18,349
99062	20,125
99063	18,94
99064	18,54
99065	20,412
99066	18,618
99067	18,216
99068	20,162
99069	18,155
99070	18,083
99071	19,512
99072	17,393
99073	17,742
99074	18,589
99075	16,429
99076	17,26
99077	17,231
99078	15,31
99079	16,578
99080	15,714
99081	14,078
99082	15,437
99083	14,094
99084	12,927
99085	14,163
99086	12,476
99087	12,018
99088	13,542
99089	11,086
99090	11,217
99091	9,9482
99092	10,413
99093	12,03
99094	9,0676
99095	9,8587
99096	11,22
99097	8,5557
99098	9,7887
99099	8,4787
99100	9,9919
99101	8,5717
99102	10,276
99103	8,8786
99104	10,541
99105	9,2933
99106	10,729
99107	9,7072
99108	10,828
99109	10,046
99110	10,842
99111	10,275
99112	10,781
99113	10,387
99114	10,652
99115	10,388
99116	10,466
99117	10,294
99118	10,233
99119	10,124
99120	9,9633
99121	9,895
99122	9,6672
99123	9,6228
99124	9,3533
99125	9,3207
99126	9,0287
99127	8,9994
99128	8,6995
99129	8,6671
99130	8,3705
99131	8,3305
99132	8,0455
99133	7,9944
99134	7,7275
99135	7,6627
99136	7,4187
99137	7,3382
99138	7,121
99139	7,0232
99140	6,8361
99141	6,7194
99142	6,565
99143	6,4281
99144	6,3089
99145	6,1503
99146	6,0687
99147	5,8871
99148	5,8455
99149	5,6391
99150	5,6401
99151	5,4072
99152	5,4537
99153	5,1922
99154	5,2877
99155	4,9949
99156	5,1438
99157	4,8165
99158	5,0242
99159	4,6586
99160	4,9318
99161	4,5232
99162	4,8709
99163	4,4135
99164	4,8468
99165	4,3336
99166	4,8673
99167	4,2894
99168	4,9429
99169	4,2894
99170	5,0876
99171	4,3453
99172	5,3209
99173	4,4735
99174	5,668
99175	4,6962
99176	6,1617
99177	5,0432
99178	6,841
99179	5,553
99180	7,7486
99181	6,2728
99182	8,9215
99183	7,2558
99184	10,374
99185	8,5542
99186	12,07
99187	10,203
99188	13,887
99189	12,191
99190	15,596
99191	14,423
99192	16,973
99193	16,659
99194	18,211
99195	18,585
99196	19,506
99197	19,025
99198	19,629
99199	20,365
99200	20,241
99201	20,159
99202	20,755
99203	20,845
99204	20,741
99205	20,999
99206	21,127
99207	21,183
99208	21,127
99209	21,2
99210	21,504
99211	21,07
99212	21,349
99213	21,575
99214	20,957
99215	21,312
99216	21,46
99217	20,74
99218	21,098
99219	21,155
99220	20,367
99221	20,71
99222	20,728
99223	19,523
99224	20,294
99225	20,147
99226	18,205
99227	19,124
99228	19,628
99229	16,953
99230	18,535
99231	15,562
99232	16,613
99233	13,819
99234	14,347
99235	11,99
99236	12,104
99237	10,288
99238	10,113
99239	8,8365
99240	8,4678
99241	7,6663
99242	7,1748
99243	6,7611
99244	6,1968
99245	6,0824
99246	5,48
99247	5,5867
99248	4,9704
99249	5,2347
99250	4,6205
99251	4,9937
99252	4,3918
99253	4,8383
99254	4,2544
99255	4,7491
99256	4,1862
99257	4,712
99258	4,1708
99259	4,7163
99260	4,1964
99261	4,754
99262	4,2543
99263	4,8193
99264	4,3383
99265	4,9077
99266	4,4438
99267	5,0156
99268	4,5672
99269	5,1402
99270	4,7059
99271	5,2791
99272	4,8574
99273	5,43
99274	5,0199
99275	5,591
99276	5,1913
99277	5,76
99278	5,3698
99279	5,935
99280	5,5535
99281	6,1138
99282	5,7401
99283	6,2942
99284	5,9275
99285	6,474
99286	6,1131
99287	6,6507
99288	6,2942
99289	6,8219
99290	6,468
99291	6,9853
99292	6,6316
99293	7,1389
99294	6,7823
99295	7,2811
99296	6,9177
99297	7,4113
99298	7,0362
99299	7,53
99300	7,1373
99301	7,6392
99302	7,2228
99303	7,7431
99304	7,297
99305	7,8483
99306	7,3681
99307	7,9641
99308	7,4487
99309	8,1021
99310	7,5563
99311	8,2744
99312	7,7119
99313	8,4879
99314	7,937
99315	8,7351
99316	8,2442
99317	8,9796
99318	8,6254
99319	9,1546
99320	9,0333
99321	9,1821
99322	9,3786
99323	9,0344
99324	9,5324
99325	8,8458
99326	9,3979
99327	8,647
99328	8,8842
99329	8,846
99330	8,2726
99331	8,6064
99332	8,2497
99333	7,8364
99334	8,1911
99335	7,8325
99336	7,4709
99337	7,7908
99338	7,4941
99339	7,1718
99340	7,4092
99341	7,2285
99342	6,933
99343	7,1197
99344	7,01
99345	6,7447
99346	6,8588
99347	6,8366
99348	6,5984
99349	6,6623
99350	6,696
99351	6,4938
99352	6,5026
99353	6,5898
99354	6,4307
99355	6,3955
99356	6,5177
99357	6,4097
99358	6,3445
99359	6,4809
99360	6,4309
99361	6,3498
99362	6,4811
99363	6,4938
99364	6,3966
99365	6,5178
99366	6,5973
99367	6,5032
99368	6,5894
99369	6,7454
99370	6,659
99371	6,6964
99372	6,9388
99373	6,8618
99374	6,839
99375	7,1773
99376	7,1251
99377	7,0142
99378	7,474
99379	7,4315
99380	7,2313
99381	7,8369
99382	7,7889
99383	7,4946
99384	8,2866
99385	8,193
99386	7,837
99387	8,6638
99388	8,6207
99389	8,2647
99390	8,8553
99391	8,8879
99392	8,8595
99393	9,0362
99394	9,3985
99395	9,1833
99396	9,5341
99397	9,1546
99398	9,3785
99399	8,9799
99400	9,0336
99401	8,7352
99402	8,6255
99403	8,488
99404	8,2444
99405	8,2743
99406	7,937
99407	8,102
99408	7,7119
99409	7,9639
99410	7,5561
99411	7,848
99412	7,4485
99413	7,7427
99414	7,3678
99415	7,6387
99416	7,2967
99417	7,5295
99418	7,2224
99419	7,4108
99420	7,1369
99421	7,2806
99422	7,0357
99423	7,1383
99424	6,9171
99425	6,9846
99426	6,7817
99427	6,8211
99428	6,6309
99429	6,6499
99430	6,4672
99431	6,4732
99432	6,2933
99433	6,2933
99434	6,1122
99435	6,1129
99436	5,9266
99437	5,934
99438	5,7392
99439	5,759
99440	5,5525
99441	5,59
99442	5,3688
99443	5,4291
99444	5,1903
99445	5,2782
99446	5,0188
99447	5,1394
99448	4,8564
99449	5,0148
99450	4,7049
99451	4,907
99452	4,5664
99453	4,8187
99454	4,443
99455	4,7536
99456	4,3377
99457	4,7161
99458	4,2538
99459	4,7122
99460	4,1961
99461	4,7497
99462	4,1708
99463	4,8393
99464	4,1866
99465	4,9954
99466	4,2553
99467	5,2374
99468	4,3934
99469	5,5907
99470	4,6232
99471	6,0881
99472	4,9746
99473	6,7691
99474	5,4861
99475	7,6772
99476	6,2055
99477	8,8509
99478	7,187
99479	10,307
99480	8,4844
99481	12,01
99482	10,135
99483	13,823
99484	12,13
99485	15,545
99486	14,361
99487	16,958
99488	16,63
99489	18,218
99490	18,59
99491	19,509
99492	18,999
99493	19,637
99494	20,22
99495	20,147
99496	7,0071
99497	7,029
99498	7,0887
99499	7,8963
99500	7,645
99501	7,4424
99502	7,2905
99503	7,1947
99504	7,1565
99505	7,5212
99506	7,7402
99507	8,0063
99508	7,1387
99509	7,1733
99510	6,9506
99511	7,049
99512	7,1809
99513	7,4843
99514	7,013
99515	7,0411
99516	7,0593
99517	7,4859
99518	7,5858
99519	7,5142
99520	7,515
99521	8,7308
99522	7,7018
99523	7,0735
99524	7,8805
99525	7,7522
99526	8,069
99527	8,312
99528	8,6051
99529	8,9432
99530	8,5651
99531	8,2878
99532	8,0428
99533	7,838
99534	7,6788
99535	7,5696
99536	9,3335
99537	8,9503
99538	8,6084
99539	8,3143
99540	8,0702
99541	7,8815
99542	7,7527
99543	7,6129
99544	7,7486
99545	7,9339
99546	8,1638
99547	8,4311
99548	7,207
99549	7,6997
99550	7,1152
99551	7,6186
99552	7,7195
99553	9,4739
99554	7,2541
99555	7,4218
99556	7,3898
99557	7,2756
99558	7,5105
99559	8,3753
99560	9,6531
99561	7,3854
99562	7,6778
99563	7,7471
99564	7,5333
99565	7,8495
99566	9,9318
99567	9,9922
99568	8,3589
99569	7,7777
99570	8,1271
99571	8,2995
99572	8,2253
99573	8,8539
99574	7,8848
99575	7,6976
99576	7,8645
99577	8,0544
99578	8,2376
99579	8,3163
99580	8,5466
99581	8,2877
99582	8,3985
99583	8,4767
99584	8,558
99585	8,0258
99586	8,2586
99587	8,4179
99588	8,4525
99589	8,5333
99590	8,9507
99591	8,6771
99592	8,4661
99593	8,9882
99594	8,9627
99595	8,7677
99596	8,1902
99597	8,4673
99598	8,6203
99599	11,24
99600	12,083
99601	12,328
99602	12,131
99603	12,068
99604	12,226
99605	12,084
99606	8,6869
99607	8,3715
99608	8,7645
99609	8,7192
99610	8,7302
99611	8,7953
99612	8,9119
99613	9,0771
99614	9,288
99615	9,5417
99616	9,8359
99617	10,168
99618	10,538
99619	10,943
99620	11,385
99621	11,863
99622	11,034
99623	10,683
99624	10,35
99625	10,035
99626	9,7421
99627	9,4724
99628	9,2292
99629	9,0154
99630	8,8346
99631	8,6903
99632	8,5861
99633	8,5256
99634	8,512
99635	8,5482
99636	11,864
99637	11,386
99638	10,945
99639	10,539
99640	10,17
99641	9,8374
99642	9,5431
99643	9,2892
99644	9,0782
99645	8,9127
99646	8,7959
99647	8,7304
99648	8,7191
99649	8,764
99650	8,7217
99651	8,9029
99652	8,5971
99653	8,5278
99654	8,5118
99655	8,5464
99656	8,6284
99657	8,7542
99658	8,9199
99659	9,1217
99660	9,3559
99661	9,619
99662	9,9079
99663	10,22
99664	10,553
99665	10,904
99666	8,761
99667	9,121
99668	8,7735
99669	8,5614
99670	8,7503
99671	8,9273
99672	8,8742
99673	9,1214
99674	11,506
99675	13,172
99676	13,213
99677	9,2715
99678	11,772
99679	13,361
99680	9,3054
99681	8,9307
99682	9,2585
99683	8,959
99684	9,1138
99685	9,4788
99686	12,133
99687	13,475
99688	13,925
99689	9,1291
99690	9,2953
99691	9,4556
99692	9,4713
99693	9,5572
99694	9,2512
99695	9,09
99696	8,9856
99697	8,9359
99698	8,9382
99699	8,99
99700	9,0886
99701	9,2313
99702	9,4159
99703	9,6401
99704	9,9022
99705	10,201
99706	10,536
99707	10,908
99708	11,316
99709	11,764
99710	12,253
99711	12,787
99712	11,505
99713	11,14
99714	10,796
99715	10,474
99716	10,174
99717	9,8969
99718	9,6449
99719	9,4195
99720	9,2228
99721	9,0573
99722	8,9259
99723	8,8315
99724	8,7773
99725	8,7663
99726	8,8017
99727	8,8864
99728	9,0228
99729	12,254
99730	11,766
99731	11,318
99732	10,91
99733	10,538
99734	10,203
99735	9,9036
99736	9,6413
99737	9,417
99738	9,2323
99739	9,0893
99740	8,9904
99741	8,9384
99742	8,9357
99743	8,9851
99744	9,0891
99745	9,2499
99746	9,3758
99747	9,143
99748	8,9681
99749	8,8486
99750	8,782
99751	8,7655
99752	8,7958
99753	8,8698
99754	8,9841
99755	9,1353
99756	9,3205
99757	9,5367
99758	9,7816
99759	10,053
99760	10,349
99761	10,669
99762	11,012
99763	11,377
99764	9,4161
99765	9,3421
99766	10,093
99767	9,4473
99768	13,829
99769	9,671
99770	9,8597
99771	10,041
99772	9,8262
99773	9,8703
99774	12,828
99775	12,891
99776	10,086
99777	10,16
99778	10,034
99779	13,119
99780	10,666
99781	10,467
99782	10,744
99783	10,241
99784	10,565
99785	10,447
99786	13,179
99787	15,647
99788	15,946
99789	10,524
99790	10,411
99791	10,89
99792	10,765
99793	11,038
99794	16,048
99795	16,475
99796	10,992
99797	11,04
99798	11,144
99799	16,537
99800	16,83
99801	15,752
99802	16,395
99803	11,376
99804	11,539
99805	16,942
99806	16,051
99807	11,532
99808	11,445
99809	10,973
99810	11,408
99811	12,148
99812	16,669
99813	11,376
99814	10,665
99815	11,161
99816	12,025
99817	17,015
99818	11,604
99819	12,302
99820	14,755
99821	15,241
99822	15,549
99823	10,223
99824	9,7555
99825	9,371
99826	9,0579
99827	8,8078
99828	8,6144
99829	8,4724
99830	8,3776
99831	8,326
99832	8,3142
99833	8,3393
99834	8,3985
99835	8,4896
99836	8,6107
99837	8,7601
99838	8,9367
99839	9,1394
99840	9,3678
99841	9,6216
99842	9,9009
99843	10,206
99844	10,537
99845	10,894
99846	11,278
99847	11,687
99848	12,122
99849	12,579
99850	13,055
99851	13,543
99852	14,554
99853	13,808
99854	13,16
99855	12,59
99856	12,083
99857	11,628
99858	11,216
99859	10,84
99860	10,495
99861	10,178
99862	9,8875
99863	9,6211
99864	9,3785
99865	9,1597
99866	8,965
99867	8,7955
99868	8,6523
99869	8,537
99870	8,4515
99871	8,398
99872	8,3789
99873	8,3969
99874	8,4551
99875	8,5569
99876	8,7061
99877	8,9072
99878	9,1652
99879	9,4866
99880	9,8799
99881	10,357
99882	13,057
99883	12,58
99884	12,123
99885	11,689
99886	11,279
99887	10,895
99888	10,538
99889	10,207
99890	9,902
99891	9,6227
99892	9,3689
99893	9,1404
99894	8,9376
99895	8,761
99896	8,6114
99897	8,4902
99898	8,3989
99899	8,3395
99900	8,3142
99901	8,3258
99902	8,3771
99903	8,4716
99904	8,6132
99905	8,8062
99906	9,0558
99907	9,3684
99908	9,7522
99909	10,218
99910	10,235
99911	10,789
99912	9,7712
99913	9,3907
99914	9,0823
99915	8,8376
99916	8,6504
99917	8,5154
99918	8,4283
99919	8,3852
99920	8,3826
99921	8,4173
99922	8,4868
99923	8,5884
99924	8,72
99925	8,8797
99926	9,0662
99927	9,2782
99928	9,5151
99929	9,7766
99930	10,063
99931	10,376
99932	10,717
99933	11,09
99934	11,498
99935	11,948
99936	12,449
99937	13,012
99938	13,652
99939	14,39
99940	12,832
99941	12,528
99942	12,5
99943	15,696
99944	18,102
99945	15,986
99946	13,456
99947	13,54
99948	12,868
99949	14,961
99950	10,308
99951	9,6626
99952	9,1387
99953	8,7134
99954	8,3702
99955	8,097
99956	7,8844
99957	7,725
99958	7,6128
99959	7,5428
99960	7,5109
99961	7,5133
99962	7,547
99963	7,6092
99964	7,6976
99965	7,8102
99966	7,9451
99967	8,1009
99968	8,2764
99969	8,4706
99970	8,6827
99971	8,9119
99972	9,1576
99973	9,419
99974	9,6948
99975	9,983
99976	10,281
99977	10,583
99978	10,882
99979	11,169
99980	11,428
99981	11,643
99982	11,794
99983	15,118
99984	14,252
99985	13,503
99986	12,852
99987	12,281
99988	11,774
99989	11,317
99990	10,903
99991	10,522
99992	10,171
99993	9,8444
99994	9,5413
99995	9,2598
99996	8,9991
99997	8,759
99998	8,5397
99999	8,3418
100000	8,1662
100001	8,014
100002	7,8867
100003	7,7859
100004	7,7135
100005	7,6717
100006	7,6632
100007	7,691
100008	7,7584
100009	7,8697
100010	8,0295
100011	8,2439
100012	8,5201
100013	8,8676
100014	9,2987
100015	9,8302
100016	10,485
100017	11,794
100018	11,644
100019	11,429
100020	11,17
100021	10,883
100022	10,584
100023	10,282
100024	9,984
100025	9,6958
100026	9,42
100027	9,1586
100028	8,9129
100029	8,6837
100030	8,4716
100031	8,2773
100032	8,1018
100033	7,9459
100034	7,8109
100035	7,6982
100036	7,6097
100037	7,5473
100038	7,5134
100039	7,5108
100040	7,5425
100041	7,6122
100042	7,724
100043	7,883
100044	8,0952
100045	8,3679
100046	8,7104
100047	9,1349
100048	9,6578
100049	10,302
100050	11,099
100051	10,335
100052	9,7046
100053	9,1876
100054	8,7705
100055	8,4367
100056	8,1741
100057	7,9733
100058	7,8271
100059	7,7296
100060	7,6761
100061	7,6625
100062	7,6853
100063	7,7415
100064	7,8285
100065	7,9441
100066	8,0865
100067	8,2539
100068	8,445
100069	8,6588
100070	8,8945
100071	9,1516
100072	9,4303
100073	9,731
100074	10,055
100075	10,404
100076	10,783
100077	11,194
100078	11,647
100079	12,15
100080	12,716
100081	13,361
100082	14,103
100083	14,964
100084	15,961
100085	14,04
100086	16,569
100087	14,146
100088	14,335
100089	18,106
100090	19,11
100091	21,641
100092	14,473
100093	14,805
100094	14,435
100095	18,557
100096	17,492
100097	19,247
100098	19,588
100099	17,214
100100	12,106
100101	15,029
100102	15,182
100103	15,31
100104	15,864
100105	15,834
100106	14,991
100107	19,506
100108	17,203
100109	19,977
100110	17,357
100111	17,319
100112	17,416
100113	15,338
100114	16,652
100115	15,626
100116	19,841
100117	17,802
100118	22,789
100119	18,872
100120	19,33
100121	18,762
100122	19,05
100123	16,356
100124	17,749
100125	8,571
100126	7,5865
100127	6,196
100128	6,083
100129	6,2832
100130	8,1193
100131	8,9693
100132	17,259
100133	19,659
100134	20,565
100135	20,886
100136	21,082
100137	21,197
100138	21,755
100139	21,349
100140	21,303
100141	22,045
100142	21,262
100143	20,969
100144	21,481
100145	20,549
100146	19,78
100147	21,172
100148	12,544
100149	13,248
100150	14,126
100151	15,081
100152	15,899
100153	16,626
100154	17,211
100155	17,49
100156	17,609
100157	17,674
100158	17,838
100159	17,686
100160	17,552
100161	17,597
100162	17,445
100163	17,311
100164	16,677
100165	15,514
100166	14,723
100167	12,832
100168	19,602
100169	20,525
100170	21,035
100171	21,526
100172	21,2
100173	21,288
100174	21,307
100175	21,235
100176	21,862
100177	20,977
100178	20,451
100179	21,291
100180	19,54
100181	8,8462
100182	8,5292
100183	8,142
100184	7,7084
100185	7,3271
100186	7,0161
100187	6,7456
100188	6,5321
100189	6,3701
100190	6,275
100191	6,2506
100192	6,282
100193	6,3738
100194	6,5323
100195	6,743
100196	7,0221
100197	7,3593
100198	7,7307
100199	8,1315
100200	8,5284
100201	8,8508
100202	21,263
100203	18,476
100204	20,029
100205	19,908
100206	15,805
100207	17,394
100208	13,042
100209	14,474
100210	10,561
100211	11,703
100212	8,5279
100213	9,3708
100214	6,9574
100215	7,5474
100216	5,7954
100217	6,1916
100218	4,966
100219	5,2216
100220	4,3943
100221	4,5508
100222	4,0168
100223	4,1041
100224	3,7829
100225	3,8218
100226	3,6542
100227	3,659
100228	3,6026
100229	3,583
100230	3,6077
100231	3,5702
100232	3,6552
100233	3,6043
100234	3,7348
100235	3,6735
100236	3,8395
100237	3,7698
100238	3,9642
100239	3,8876
100240	4,1052
100241	4,0228
100242	4,2598
100243	4,1724
100244	4,4257
100245	4,3342
100246	4,6012
100247	4,5062
100248	4,7844
100249	4,6868
100250	4,9735
100251	4,8742
100252	5,1668
100253	5,0667
100254	5,3621
100255	5,2623
100256	5,5572
100257	5,4589
100258	5,7494
100259	5,6542
100260	5,936
100261	5,8452
100262	6,1138
100263	6,0292
100264	6,2796
100265	6,2027
100266	6,43
100267	6,3625
100268	6,5621
100269	6,5051
100270	6,6733
100271	6,6276
100272	6,7624
100273	6,7277
100274	6,8302
100275	6,8048
100276	6,8806
100277	6,8608
100278	6,922
100279	6,9012
100280	6,9686
100281	6,9373
100282	7,0415
100283	6,9868
100284	7,1682
100285	7,0757
100286	7,3802
100287	7,2367
100288	7,7056
100289	7,5044
100290	8,1555
100291	7,9054
100292	8,7061
100293	8,4392
100294	9,2798
100295	9,0561
100296	9,7349
100297	9,6402
100298	9,8921
100299	10,005
100300	9,4258
100301	9,9414
100302	7,2585
100303	7,1746
100304	7,2483
100305	7,447
100306	7,2974
100307	7,8745
100308	7,6227
100309	8,4272
100310	8,1444
100311	8,9828
100312	8,732
100313	9,4505
100314	9,2669
100315	9,7848
100316	9,679
100317	9,9751
100318	9,9424
100319	10,032
100320	10,061
100321	9,977
100322	10,053
100323	9,8324
100324	9,9429
100325	9,6203
100326	9,7551
100327	9,3592
100328	9,5102
100329	9,0642
100330	9,2253
100331	8,7472
100332	8,9138
100333	8,4173
100334	8,586
100335	8,0814
100336	8,2498
100337	7,7447
100338	7,911
100339	7,4112
100340	7,5739
100341	7,0837
100342	7,2418
100343	6,7645
100344	6,9173
100345	6,4552
100346	6,6021
100347	6,1571
100348	6,2977
100349	5,8711
100350	6,005
100351	5,5981
100352	5,725
100353	5,3387
100354	5,4583
100355	5,0933
100356	5,2054
100357	4,8626
100358	4,9668
100359	4,6471
100360	4,743
100361	4,4477
100362	4,5347
100363	4,2654
100364	4,3426
100365	4,1018
100366	4,168
100367	3,9592
100368	4,0127
100369	3,8411
100370	3,8793
100371	3,7525
100372	3,7716
100373	3,7007
100374	3,6955
100375	3,6962
100376	3,6591
100377	3,754
100378	3,6747
100379	3,895
100380	3,7594
100381	4,1479
100382	3,9373
100383	4,5513
100384	4,2419
100385	5,1551
100386	4,7184
100387	6,0209
100388	5,4255
100389	7,2193
100390	6,4354
100391	8,8179
100392	7,8296
100393	10,861
100394	9,6774
100395	13,32
100396	12,011
100397	16,021
100398	14,739
100399	18,588
100400	17,573
100401	20,057
100402	19,956
100403	9,8918
100404	9,4227
100405	9,9417
100406	9,7342
100407	10,004
100408	9,2795
100409	9,6398
100410	8,7059
100411	9,0559
100412	8,1554
100413	8,4391
100414	7,7055
100415	7,9054
100416	7,3802
100417	7,5044
100418	7,1683
100419	7,2367
100420	7,0416
100421	7,0758
100422	6,9688
100423	6,987
100424	6,9222
100425	6,9375
100426	6,8809
100427	6,9015
100428	6,8305
100429	6,8611
100430	6,7628
100431	6,8052
100432	6,6738
100433	6,7282
100434	6,5627
100435	6,6281
100436	6,4307
100437	6,5057
100438	6,2803
100439	6,3632
100440	6,1146
100441	6,2035
100442	5,9369
100443	6,03
100444	5,7504
100445	5,8461
100446	5,5582
100447	5,6551
100448	5,3632
100449	5,46
100450	5,1679
100451	5,2634
100452	4,9746
100453	5,0677
100454	4,7855
100455	4,8753
100456	4,6023
100457	4,6879
100458	4,4268
100459	4,5073
100460	4,2608
100461	4,3352
100462	4,1062
100463	4,1734
100464	3,9652
100465	4,0238
100466	3,8404
100467	3,8885
100468	3,7355
100469	3,7706
100470	3,6557
100471	3,6741
100472	3,6079
100473	3,6047
100474	3,6023
100475	3,5703
100476	3,6534
100477	3,5826
100478	3,7812
100479	3,6579
100480	4,0139
100481	3,8197
100482	4,3897
100483	4,1006
100484	4,9588
100485	4,5452
100486	5,7849
100487	5,2132
100488	6,9423
100489	6,1791
100490	8,5072
100491	7,5296
100492	10,533
100493	9,3468
100494	13,009
100495	11,671
100496	15,766
100497	14,439
100498	18,421
100499	17,351
100500	19,974
100501	19,843
100502	18,49
100503	20,026
100504	19,902
100505	15,85
100506	17,427
100507	13,105
100508	14,532
100509	10,633
100510	11,774
100511	8,6012
100512	9,446
100513	7,0276
100514	7,6201
100515	5,8614
100516	6,2589
100517	5,0287
100518	5,2843
100519	4,4562
100520	4,6109
100521	4,0808
100522	4,1645
100523	3,8521
100524	3,8859
100525	3,7318
100526	3,73
100527	3,6918
100528	3,6641
100529	3,7116
100530	3,6645
100531	3,7769
100532	3,7148
100533	3,8779
100534	3,8035
100535	4,0075
100536	3,9228
100537	4,1611
100538	4,0672
100539	4,3355
100540	4,2333
100541	4,5287
100542	4,4186
100543	4,7392
100544	4,6215
100545	4,966
100546	4,8409
100547	5,2083
100548	5,0761
100549	5,4656
100550	5,3264
100551	5,7372
100552	5,5914
100553	6,0226
100554	5,8705
100555	6,3211
100556	6,163
100557	6,6317
100558	6,4682
100559	6,9532
100560	6,7851
100561	7,284
100562	7,1124
100563	7,6222
100564	7,4483
100565	7,9647
100566	7,7906
100567	8,308
100568	8,1359
100569	8,6471
100570	8,4803
100571	8,9751
100572	8,8179
100573	9,2832
100574	9,1413
100575	9,5597
100576	9,4404
100577	9,7894
100578	9,7017
100579	9,9536
100580	9,9083
100581	10,03
100582	10,039
100583	9,9936
100584	10,068
100585	9,8221
100586	9,9712
100587	9,5016
100588	9,7254
100589	9,0391
100590	9,3238
100591	8,478
100592	8,789
100593	7,91
100594	8,19
100595	7,4634
100596	7,6481
100597	7,2609
100598	7,3043
100599	7,1754
100600	7,2464
100601	20,209
100602	20,384
100603	20,439
100604	20,1
100605	21,057
100606	20,689
100607	21,558
100608	21,28
100609	21,83
100610	21,679
100611	21,819
100612	21,83
100613	21,533
100614	21,653
100615	21,043
100616	21,263
100617	20,414
100618	20,675
100619	20,175
100620	20,342
100621	20,07
100622	7,2101
100623	7,0882
100624	7,8484
100625	7,2819
100626	9,1255
100627	8,3425
100628	10,775
100629	9,8363
100630	12,668
100631	11,647
100632	14,666
100633	13,621
100634	16,633
100635	15,634
100636	18,421
100637	17,542
100638	19,893
100639	19,198
100640	20,96
100641	20,475
100642	21,532
100643	21,323
100644	21,521
100645	21,603
100646	20,968
100647	21,313
100648	19,902
100649	20,486
100650	18,421
100651	19,203
100652	16,618
100653	17,536
100654	14,651
100655	15,607
100656	12,66
100657	13,622
100658	10,758
100659	11,626
100660	9,1185
100661	9,8274
100662	7,849
100663	8,3358
100664	7,2156
100665	7,092
100666	7,2877
100667	20,199
100668	20,384
100669	20,415
100670	20,079
100671	21,026
100672	20,662
100673	21,521
100674	21,242
100675	21,796
100676	21,644
100677	21,793
100678	21,792
100679	21,517
100680	21,638
100681	21,036
100682	21,242
100683	20,435
100684	20,683
100685	20,214
100686	20,393
100687	20,099
100688	8,4783
100689	8,9666
100690	7,8017
100691	7,9586
100692	7,4638
100693	7,5504
100694	7,2185
100695	7,2725
100696	7,0309
100697	7,0687
100698	6,8782
100699	6,9073
100700	6,7519
100701	6,7694
100702	6,6518
100703	6,6584
100704	6,5775
100705	6,5699
100706	6,5322
100707	6,51
100708	6,517
100709	6,4788
100710	6,5325
100711	6,4794
100712	6,5783
100713	6,5102
100714	6,653
100715	6,5711
100716	6,7528
100717	6,6595
100718	6,8793
100719	6,77
100720	7,0322
100721	6,9085
100722	7,2214
100723	7,0704
100724	7,4674
100725	7,2762
100726	7,8066
100727	7,5541
100728	8,4846
100729	8,9728
100730	7,9647
100731	21,038
100732	21,124
100733	19,129
100734	23,433
100735	20,748
100736	27,443
100737	24,983
100738	31,598
100739	30,317
100740	34,385
100741	34,617
100742	35,547
100743	36,642
100744	34,16
100745	36,678
100746	30,831
100747	33,447
100748	26,864
100749	29,63
100750	22,467
100751	25,096
100752	18,451
100753	20,715
100754	15,416
100755	16,908
100756	14,279
100757	14,599
100758	15,491
100759	14,645
100760	18,523
100761	17,007
100762	22,412
100763	20,751
100764	26,758
100765	24,947
100766	30,828
100767	29,589
100768	34,204
100769	33,493
100770	35,587
100771	36,716
100772	34,667
100773	36,687
100774	31,77
100775	35,011
100776	27,343
100777	30,165
100778	23,523
100779	20,932
100780	25,031
100781	14,589
100782	14,584
100783	14,3
100784	16,796
100785	15,562
100786	20,381
100787	18,702
100788	24,636
100789	22,823
100790	28,928
100791	27,364
100792	32,627
100793	31,687
100794	34,876
100795	35,245
100796	35,343
100797	36,651
100798	33,65
100799	36,39
100800	29,68
100801	32,97
100802	25,218
100803	27,441
100804	22,134
100805	22,698
100806	20,976
100807	19,823
100808	22,234
100809	19,829
100810	25,52
100811	22,965
100812	29,641
100813	27,695
100814	33,027
100815	32,686
100816	34,969
100817	35,513
100818	35,161
100819	36,957
100820	32,762
100821	35,413
100822	28,93
100823	31,689
100824	24,687
100825	27,361
100826	20,458
100827	22,943
100828	16,779
100829	15,55
100830	18,724
100831	38,539
100832	40,609
100833	42,193
100834	33,512
100835	37,977
100836	26,688
100837	30,62
100838	20,602
100839	23,108
100840	16,917
100841	17,939
100842	15,741
100843	16,122
100844	15,652
100845	16,12
100846	16,059
100847	16,094
100848	18,237
100849	16,573
100850	23,216
100851	19,945
100852	29,864
100853	26,551
100854	36,328
100855	34,19
100856	40,045
100857	40,712
100858	40,094
100859	43,044
100860	35,8
100861	41,181
100862	28,182
100863	34,303
100864	20,162
100865	24,476
100866	15,475
100867	17,125
100868	13,771
100869	13,288
100870	14,225
100871	12,656
100872	17,576
100873	14,64
100874	24,536
100875	20,873
100876	32,576
100877	30,078
100878	38,707
100879	42,981
100880	38,409
100881	25,554
100882	30,453
100883	27,903
100884	20,272
100885	23,087
100886	15,185
100887	17,811
100888	10,617
100889	12,966
100890	6,466
100891	8,5887
100892	2,8236
100893	4,5377
100894	1,4337
100895	1,1315
100896	4,6218
100897	2,8097
100898	8,4509
100899	6,5167
100900	12,761
100901	10,638
100902	17,601
100903	15,261
100904	22,703
100905	20,304
100906	27,728
100907	25,259
100908	32,515
100909	29,875
100910	35,439
100911	33,139
100912	36,043
100913	33,379
100914	35,516
100915	31,497
100916	34,434
100917	27,524
100918	33,809
100919	23,771
100920	34,518
100921	22,756
100922	35,657
100923	25,829
100924	35,582
100925	29,674
100926	34,744
100927	32,236
100928	33,415
100929	31,471
100930	32,692
100931	29,544
100932	29,861
100933	31,471
100934	27,671
100935	29,304
100936	30,622
100937	32,692
100938	26,467
100939	28,998
100940	32,236
100941	20,76
100942	24,248
100943	29,674
100944	14,374
100945	16,76
100946	25,829
100947	12,506
100948	10,511
100949	22,756
100950	17,548
100951	13,034
100952	23,771
100953	23,958
100954	20,611
100955	27,524
100956	28,452
100957	27,114
100958	31,497
100959	30,193
100960	30,581
100961	33,379
100962	29,233
100963	31,182
100964	33,139
100965	26,005
100966	28,86
100967	29,875
100968	21,617
100969	24,599
100970	25,259
100971	16,956
100972	19,872
100973	20,304
100974	12,4
100975	14,992
100976	15,261
100977	8,2495
100978	10,47
100979	10,638
100980	4,5182
100981	6,4179
100982	6,5167
100983	1,3192
100984	2,7517
100985	2,8097
100986	2,7211
100987	1,0162
100988	1,1315
100989	6,3177
100990	4,4628
100991	4,5377
100992	10,339
100993	8,4584
100994	8,5887
100995	14,682
100996	12,747
100997	12,966
100998	19,489
100999	17,464
101000	17,811
101001	22,597
101002	24,149
101003	23,087
101004	29,424
101005	29,898
101006	27,747
101007	28,865
101008	30,466
101009	25,752
101010	28,679
101011	19,871
101012	23,743
101013	12,758
101014	16,111
101015	10,259
101016	8,9991
101017	16,096
101018	11,904
101019	23,106
101020	19,949
101021	28,023
101022	26,795
101023	30,096
101024	30,422
101025	29,235
101026	31,216
101027	25,937
101028	28,798
101029	21,583
101030	24,576
101031	16,908
101032	19,85
101033	12,34
101034	14,957
101035	8,2018
101036	10,438
101037	4,4929
101038	6,3956
101039	1,3327
101040	2,7401
101041	2,713
101042	1,0099
101043	6,2814
101044	4,4455
101045	10,286
101046	8,4305
101047	14,633
101048	12,714
101049	19,422
101050	17,439
101051	22,543
101052	24,12
101053	29,424
101054	29,861
101055	27,747
101056	28,865
101057	30,622
101058	25,752
101059	28,998
101060	19,871
101061	24,248
101062	12,758
101063	16,76
101064	10,259
101065	10,511
101066	16,096
101067	13,034
101068	23,106
101069	20,611
101070	28,023
101071	27,114
101072	30,096
101073	30,581
101074	29,235
101075	31,182
101076	25,937
101077	28,86
101078	21,583
101079	24,599
101080	16,908
101081	19,872
101082	12,34
101083	14,992
101084	8,2018
101085	10,47
101086	4,4929
101087	6,4179
101088	1,3327
101089	2,7517
101090	2,713
101091	1,0162
101092	6,2814
101093	4,4628
101094	10,286
101095	8,4584
101096	14,633
101097	12,747
101098	19,422
101099	17,464
101100	22,597
101101	24,12
101102	29,544
101103	27,671
101104	29,304
101105	26,467
101106	20,76
101107	14,374
101108	12,506
101109	17,548
101110	23,958
101111	28,452
101112	30,193
101113	29,233
101114	26,005
101115	21,617
101116	16,956
101117	12,4
101118	8,2495
101119	4,5182
101120	1,3192
101121	2,7211
101122	6,3177
101123	10,339
101124	14,682
101125	19,489
101126	24,149
101127	30,453
101128	33,415
101129	27,018
101130	27,032
101131	27,018
101132	27,903
101133	25,554
101134	20,272
101135	15,185
101136	10,617
101137	6,466
101138	2,8236
101139	1,4337
101140	4,6218
101141	8,4509
101142	12,761
101143	17,601
101144	22,703
101145	27,728
101146	32,515
101147	35,439
101148	36,043
101149	35,516
101150	34,434
101151	33,809
101152	34,518
101153	35,657
101154	35,582
101155	34,744
101156	40,508
101157	44,166
101158	42,981
101159	42,691
101160	33,51
101161	39,164
101162	38,409
101163	24,287
101164	30,1
101165	30,078
101166	16,286
101167	20,125
101168	20,873
101169	12,59
101170	13,44
101171	14,64
101172	12,166
101173	11,507
101174	12,656
101175	13,93
101176	12,086
101177	13,288
101178	19,422
101179	16,085
101180	17,125
101181	28,593
101182	24,155
101183	24,476
101184	37,247
101185	34,727
101186	34,303
101187	42,174
101188	42,214
101189	41,181
101190	42,047
101191	44,338
101192	43,044
101193	37,739
101194	41,822
101195	40,712
101196	30,5
101197	34,85
101198	34,19
101199	23,274
101200	26,724
101201	26,551
101202	18,251
101203	19,878
101204	19,945
101205	16,574
101206	16,732
101207	16,573
101208	16,554
101209	16,665
101210	16,094
101211	16,487
101212	16,78
101213	16,12
101214	17,102
101215	16,494
101216	16,122
101217	20,458
101218	17,901
101219	17,939
101220	26,918
101221	23,057
101222	23,108
101223	34,559
101224	31,023
101225	30,62
101226	38,909
101227	40,317
101228	37,977
101229	40,448
101230	44,22
101231	42,86
101232	33,125
101233	39,072
101234	23,502
101235	29,811
101236	15,086
101237	19,62
101238	11,228
101239	12,785
101240	10,824
101241	10,873
101242	12,616
101243	11,429
101244	18,407
101245	15,491
101246	28,019
101247	23,746
101248	37,025
101249	34,542
101250	42,243
101251	42,192
101252	42,287
101253	44,453
101254	38,009
101255	41,979
101256	30,675
101257	34,985
101258	23,319
101259	26,772
101260	18,298
101261	19,874
101262	16,776
101263	16,784
101264	16,868
101265	16,81
101266	16,762
101267	16,946
101268	17,226
101269	16,599
101270	20,497
101271	17,919
101272	27,036
101273	23,079
101274	34,792
101275	31,121
101276	39,059
101277	40,585
101278	40,448
101279	44,166
101280	42,86
101281	33,125
101282	39,164
101283	23,502
101284	30,1
101285	15,086
101286	20,125
101287	11,228
101288	13,44
101289	10,824
101290	11,507
101291	12,616
101292	12,086
101293	18,407
101294	16,085
101295	28,019
101296	24,155
101297	37,025
101298	34,727
101299	42,243
101300	42,214
101301	42,287
101302	44,338
101303	38,009
101304	41,822
101305	30,675
101306	34,85
101307	23,319
101308	26,724
101309	18,298
101310	19,878
101311	16,776
101312	16,732
101313	16,868
101314	16,665
101315	16,762
101316	16,78
101317	17,226
101318	16,494
101319	20,497
101320	17,901
101321	27,036
101322	23,057
101323	34,792
101324	31,023
101325	38,909
101326	40,585
101327	40,508
101328	42,691
101329	33,51
101330	24,287
101331	16,286
101332	12,59
101333	12,166
101334	13,93
101335	19,422
101336	28,593
101337	37,247
101338	42,174
101339	42,047
101340	37,739
101341	30,5
101342	23,274
101343	18,251
101344	16,574
101345	16,554
101346	16,487
101347	17,102
101348	20,458
101349	26,918
101350	34,559
101351	40,317
101352	40,609
101353	38,707
101354	43,431
101355	43,578
101356	43,431
101357	42,193
101358	38,539
101359	33,512
101360	26,688
101361	20,602
101362	16,917
101363	15,741
101364	15,652
101365	16,059
101366	18,237
101367	23,216
101368	29,864
101369	36,328
101370	40,045
101371	40,094
101372	35,8
101373	28,182
101374	20,162
101375	15,475
101376	13,771
101377	14,225
101378	17,576
101379	24,536
101380	32,576
101381	16,932
101382	15,614
101383	15,55
101384	14,685
101385	20,665
101386	18,853
101387	18,724
101388	24,947
101389	23,108
101390	22,943
101391	29,31
101392	27,579
101393	27,361
101394	33,331
101395	31,986
101396	31,689
101397	35,941
101398	35,806
101399	35,413
101400	35,835
101401	37,429
101402	36,957
101403	33,617
101404	35,92
101405	35,513
101406	29,398
101407	32,691
101408	32,686
101409	24,331
101410	27,135
101411	27,695
101412	20,198
101413	21,797
101414	22,965
101415	18,528
101416	18,15
101417	19,829
101418	20,051
101419	18,131
101420	19,823
101421	24,052
101422	21,5
101423	22,698
101424	29,429
101425	26,913
101426	27,441
101427	34,113
101428	32,951
101429	32,97
101430	36,226
101431	36,728
101432	36,39
101433	35,707
101434	37,158
101435	36,651
101436	33,214
101437	35,656
101438	35,245
101439	29,306
101440	31,989
101441	31,687
101442	24,889
101443	27,578
101444	27,364
101445	20,575
101446	22,986
101447	22,823
101448	16,942
101449	18,82
101450	18,702
101451	15,63
101452	14,692
101453	15,562
101454	16,93
101455	15,603
101456	14,634
101457	20,724
101458	18,873
101459	25,05
101460	23,155
101461	29,427
101462	27,644
101463	33,42
101464	32,051
101465	35,958
101466	35,846
101467	35,734
101468	37,422
101469	33,369
101470	35,833
101471	29,007
101472	32,531
101473	23,756
101474	26,898
101475	19,425
101476	21,447
101477	17,664
101478	17,709
101479	19,279
101480	17,69
101481	23,471
101482	21,149
101483	29,047
101484	26,672
101485	33,871
101486	32,801
101487	36,111
101488	36,638
101489	35,723
101490	37,144
101491	33,304
101492	35,698
101493	29,425
101494	32,053
101495	24,995
101496	27,645
101497	20,635
101498	23,034
101499	16,943
101500	18,841
101501	15,621
101502	14,643
101503	16,93
101504	15,614
101505	14,634
101506	20,724
101507	18,853
101508	25,05
101509	23,108
101510	29,427
101511	27,579
101512	33,42
101513	31,986
101514	35,958
101515	35,806
101516	35,734
101517	37,429
101518	33,369
101519	35,92
101520	29,007
101521	32,691
101522	23,756
101523	27,135
101524	19,425
101525	21,797
101526	17,664
101527	18,15
101528	19,279
101529	18,131
101530	23,471
101531	21,5
101532	29,047
101533	26,913
101534	33,871
101535	32,951
101536	36,111
101537	36,728
101538	35,723
101539	37,158
101540	33,304
101541	35,656
101542	29,425
101543	31,989
101544	24,995
101545	27,578
101546	20,635
101547	22,986
101548	16,943
101549	18,82
101550	15,63
101551	14,643
101552	16,932
101553	14,685
101554	20,665
101555	24,947
101556	29,31
101557	33,331
101558	35,941
101559	35,835
101560	33,617
101561	29,398
101562	24,331
101563	20,198
101564	18,528
101565	20,051
101566	24,052
101567	29,429
101568	34,113
101569	36,226
101570	35,707
101571	33,214
101572	29,306
101573	24,889
101574	20,575
101575	16,942
101576	14,692
101577	14,584
101578	16,779
101579	14,34
101580	14,316
101581	14,34
101582	14,3
101583	14,589
101584	16,796
101585	20,381
101586	24,636
101587	28,928
101588	32,627
101589	34,876
101590	35,343
101591	33,65
101592	29,68
101593	25,218
101594	22,134
101595	20,976
101596	22,234
101597	25,52
101598	29,641
101599	33,027
101600	34,969
101601	35,161
101602	32,762
101603	28,93
101604	24,687
101605	20,458
101606	21,856
101607	19,447
101608	20,932
101609	18,749
101610	26,676
101611	24,162
101612	25,031
101613	31,928
101614	29,934
101615	30,165
101616	35,386
101617	35,19
101618	35,011
101619	36,417
101620	37,134
101621	36,687
101622	34,89
101623	37,141
101624	36,716
101625	31,304
101626	33,856
101627	33,493
101628	27,068
101629	29,838
101630	29,589
101631	22,642
101632	25,144
101633	24,947
101634	18,696
101635	20,892
101636	20,751
101637	15,615
101638	17,102
101639	17,007
101640	14,374
101641	14,691
101642	14,645
101643	15,538
101644	14,645
101645	14,599
101646	18,62
101647	17,004
101648	16,908
101649	22,688
101650	20,853
101651	20,715
101652	27,165
101653	25,285
101654	25,096
101655	31,304
101656	29,874
101657	29,63
101658	34,852
101659	33,81
101660	33,447
101661	36,401
101662	37,109
101663	36,678
101664	35,158
101665	37,112
101666	36,642
101667	31,804
101668	34,844
101669	34,617
101670	26,726
101671	30,058
101672	30,317
101673	21,747
101674	24,104
101675	24,983
101676	19,255
101677	18,66
101678	20,748
101679	21,177
101680	19,046
101681	17,906
101682	26,195
101683	23,868
101684	31,619
101685	29,739
101686	35,205
101687	35,069
101688	36,372
101689	37,081
101690	34,948
101691	37,159
101692	31,416
101693	33,913
101694	27,186
101695	29,906
101696	22,727
101697	25,204
101698	18,725
101699	20,926
101700	15,585
101701	17,107
101702	14,316
101703	14,671
101704	15,511
101705	14,625
101706	18,651
101707	17,011
101708	22,773
101709	20,887
101710	27,283
101711	25,345
101712	31,415
101713	29,942
101714	34,909
101715	33,866
101716	36,359
101717	37,126
101718	34,981
101719	37,064
101720	31,489
101721	34,72
101722	26,25
101723	29,864
101724	21,067
101725	23,813
101726	18,85
101727	17,814
101728	21,177
101729	19,447
101730	17,906
101731	26,195
101732	24,162
101733	31,619
101734	29,934
101735	35,205
101736	35,19
101737	36,372
101738	37,134
101739	34,948
101740	37,141
101741	31,416
101742	33,856
101743	27,186
101744	29,838
101745	22,727
101746	25,144
101747	18,725
101748	20,892
101749	15,585
101750	17,102
101751	14,316
101752	14,691
101753	15,511
101754	14,645
101755	18,651
101756	17,004
101757	22,773
101758	20,853
101759	27,283
101760	25,285
101761	31,415
101762	29,874
101763	34,909
101764	33,81
101765	36,359
101766	37,109
101767	34,981
101768	37,112
101769	31,489
101770	34,844
101771	26,25
101772	30,058
101773	21,067
101774	24,104
101775	19,255
101776	17,814
101777	21,856
101778	18,749
101779	26,676
101780	31,928
101781	35,386
101782	36,417
101783	34,89
101784	31,304
101785	27,068
101786	22,642
101787	18,696
101788	15,615
101789	14,374
101790	15,538
101791	18,62
101792	22,688
101793	27,165
101794	31,304
101795	34,852
101796	36,401
101797	35,158
101798	31,804
101799	26,726
101800	21,747
101801	18,66
101802	21,124
101803	23,523
101804	17,346
101805	16,886
101806	17,346
101807	19,129
101808	21,038
101809	23,433
101810	27,443
101811	31,598
101812	34,385
101813	35,547
101814	34,16
101815	30,831
101816	26,864
101817	22,467
101818	18,451
101819	15,416
101820	14,279
101821	15,491
101822	18,523
101823	22,412
101824	26,758
101825	30,828
101826	34,204
101827	35,587
101828	34,667
101829	31,77
101830	27,343
101831	7,6473
101832	7,8859
101833	7,9586
101834	8,3996
101835	7,3003
101836	7,4424
101837	7,5504
101838	7,0661
101839	7,1557
101840	7,2725
101841	6,8894
101842	6,9547
101843	7,0687
101844	6,7444
101845	6,7985
101846	6,9073
101847	6,6223
101848	6,6653
101849	6,7694
101850	6,5241
101851	6,5572
101852	6,6584
101853	6,4504
101854	6,4705
101855	6,5699
101856	6,4052
101857	6,4115
101858	6,51
101859	6,39
101860	6,3807
101861	6,4788
101862	6,4055
101863	6,3813
101864	6,4794
101865	6,4512
101866	6,4117
101867	6,5102
101868	6,5252
101869	6,4718
101870	6,5711
101871	6,6232
101872	6,5583
101873	6,6595
101874	6,7454
101875	6,6659
101876	6,77
101877	6,8906
101878	6,7997
101879	6,9085
101880	7,069
101881	6,9564
101882	7,0704
101883	7,3038
101884	7,1595
101885	7,2762
101886	7,6525
101887	7,4462
101888	7,5541
101889	7,8926
101890	7,9647
101891	8,4063
101892	7,6214
101893	7,8831
101894	8,3805
101895	7,2401
101896	7,4189
101897	6,9888
101898	7,1187
101899	6,8091
101900	6,9142
101901	6,6662
101902	6,7584
101903	6,5474
101904	6,6269
101905	6,452
101906	6,5205
101907	6,3804
101908	6,435
101909	6,3363
101910	6,3768
101911	6,3215
101912	6,3464
101913	6,3367
101914	6,3469
101915	6,3812
101916	6,377
101917	6,4531
101918	6,4363
101919	6,5483
101920	6,5215
101921	6,6672
101922	6,6275
101923	6,8103
101924	6,7596
101925	6,9917
101926	6,9158
101927	7,2437
101928	7,1224
101929	7,6269
101930	7,4228
101931	7,8899
101932	8,3868
101933	7,6214
101934	7,8859
101935	8,3805
101936	7,2401
101937	7,4424
101938	6,9888
101939	7,1557
101940	6,8091
101941	6,9547
101942	6,6662
101943	6,7985
101944	6,5474
101945	6,6653
101946	6,452
101947	6,5572
101948	6,3804
101949	6,4705
101950	6,3363
101951	6,4115
101952	6,3215
101953	6,3807
101954	6,3367
101955	6,3813
101956	6,3812
101957	6,4117
101958	6,4531
101959	6,4718
101960	6,5483
101961	6,5583
101962	6,6672
101963	6,6659
101964	6,8103
101965	6,7997
101966	6,9917
101967	6,9564
101968	7,2437
101969	7,1595
101970	7,6269
101971	7,4462
101972	7,8926
101973	8,3868
101974	7,6473
101975	8,3996
101976	7,3003
101977	7,0661
101978	6,8894
101979	6,7444
101980	6,6223
101981	6,5241
101982	6,4504
101983	6,4052
101984	6,39
101985	6,4055
101986	6,4512
101987	6,5252
101988	6,6232
101989	6,7454
101990	6,8906
101991	7,069
101992	7,3038
101993	7,6525
101994	8,4063
101995	8,4846
101996	7,8066
101997	8,9728
101998	9,4258
101999	7,4674
102000	7,2214
102001	7,0322
102002	6,8793
102003	6,7528
102004	6,653
102005	6,5783
102006	6,5325
102007	6,517
102008	6,5322
102009	6,5775
102010	6,6518
102011	6,7519
102012	6,8782
102013	7,0309
102014	7,2185
102015	7,4638
102016	7,8017
102017	8,4783
102018	8,9666
102019	9,4227
102020	8,9479
102021	9,4863
102022	8,9308
102023	9,4405
102024	8,9479
102025	9,4405
102026	9,4863
102027	8,9423
102028	9,4834
102029	8,9257
102030	9,438
102031	8,9423
102032	9,438
102033	9,4834
102034	20,179
102035	19,979
102036	20,079
102037	20,155
102038	20,723
102039	20,461
102040	20,662
102041	21,205
102042	20,989
102043	21,242
102044	21,478
102045	21,37
102046	21,644
102047	21,476
102048	21,512
102049	21,792
102050	21,204
102051	21,367
102052	21,638
102053	20,735
102054	20,99
102055	21,242
102056	20,199
102057	20,482
102058	20,683
102059	19,998
102060	20,099
102061	20,169
102062	20,115
102063	19,97
102064	20,107
102065	20,574
102066	20,406
102067	20,997
102068	20,894
102069	21,246
102070	21,257
102071	21,245
102072	21,393
102073	20,997
102074	21,254
102075	20,586
102076	20,896
102077	20,134
102078	20,427
102079	19,987
102080	20,121
102081	20,115
102082	19,979
102083	20,107
102084	20,574
102085	20,461
102086	20,997
102087	20,989
102088	21,246
102089	21,37
102090	21,245
102091	21,512
102092	20,997
102093	21,367
102094	20,586
102095	20,99
102096	20,134
102097	20,482
102098	19,998
102099	20,121
102100	20,179
102101	20,155
102102	20,723
102103	21,205
102104	21,478
102105	21,476
102106	21,204
102107	20,735
102108	20,199
102109	20,169
102110	20,214
102111	20,435
102112	20,393
102113	20,057
102114	21,036
102115	21,517
102116	21,793
102117	21,796
102118	21,521
102119	21,026
102120	20,415
102121	20,199
102122	20,384
102123	20,029
102124	20,394
102125	20,258
102126	20,355
102127	20,175
102128	20,394
102129	20,175
102130	20,258
102131	20,403
102132	20,286
102133	20,365
102134	20,202
102135	20,403
102136	20,202
102137	20,286
102138	7,7249
102139	7,2523
102140	7,2819
102141	7,1258
102142	8,9939
102143	8,2795
102144	8,3425
102145	10,637
102146	9,7498
102147	9,8363
102148	12,513
102149	11,536
102150	11,647
102151	14,487
102152	13,482
102153	13,621
102154	16,426
102155	15,463
102156	15,634
102157	18,187
102158	17,339
102159	17,542
102160	19,637
102161	18,966
102162	19,198
102163	20,683
102164	20,22
102165	20,475
102166	21,24
102167	21,046
102168	21,323
102169	21,228
102170	21,318
102171	21,603
102172	20,683
102173	21,032
102174	21,313
102175	19,638
102176	20,222
102177	20,486
102178	18,185
102179	18,968
102180	19,203
102181	16,41
102182	17,333
102183	17,536
102184	14,475
102185	15,435
102186	15,607
102187	12,508
102188	13,488
102189	13,622
102190	10,621
102191	11,517
102192	11,626
102193	8,9848
102194	9,7414
102195	9,8274
102196	7,7239
102197	8,2718
102198	8,3358
102199	7,2571
102200	7,2877
102201	7,1304
102202	7,7546
102203	7,2795
102204	7,1855
102205	8,9749
102206	8,2802
102207	10,577
102208	9,7275
102209	12,419
102210	11,496
102211	14,357
102212	13,425
102213	16,26
102214	15,388
102215	17,987
102216	17,246
102217	19,407
102218	18,857
102219	20,43
102220	20,097
102221	20,973
102222	20,914
102223	20,959
102224	21,183
102225	20,425
102226	20,898
102227	19,405
102228	20,097
102229	17,984
102230	18,858
102231	16,243
102232	17,239
102233	14,345
102234	15,36
102235	12,414
102236	13,431
102237	10,563
102238	11,477
102239	8,9673
102240	9,7203
102241	7,7535
102242	8,2728
102243	7,2838
102244	7,1894
102245	7,7546
102246	7,2523
102247	7,1855
102248	8,9749
102249	8,2795
102250	10,577
102251	9,7498
102252	12,419
102253	11,536
102254	14,357
102255	13,482
102256	16,26
102257	15,463
102258	17,987
102259	17,339
102260	19,407
102261	18,966
102262	20,43
102263	20,22
102264	20,973
102265	21,046
102266	20,959
102267	21,318
102268	20,425
102269	21,032
102270	19,405
102271	20,222
102272	17,984
102273	18,968
102274	16,243
102275	17,332
102276	14,345
102277	15,435
102278	12,414
102279	13,488
102280	10,563
102281	11,517
102282	8,9673
102283	9,7414
102284	7,7535
102285	8,2718
102286	7,2571
102287	7,1894
102288	7,7249
102289	7,1258
102290	8,9939
102291	10,637
102292	12,513
102293	14,487
102294	16,426
102295	18,187
102296	19,637
102297	20,683
102298	21,24
102299	21,228
102300	20,683
102301	19,638
102302	18,185
102303	16,41
102304	14,475
102305	12,508
102306	10,621
102307	8,9848
102308	7,7239
102309	7,1304
102310	7,2156
102311	7,849
102312	7,092
102313	7,1754
102314	9,1185
102315	10,758
102316	12,66
102317	14,651
102318	16,618
102319	18,421
102320	19,903
102321	20,968
102322	21,521
102323	21,532
102324	20,96
102325	19,893
102326	18,421
102327	16,633
102328	14,666
102329	12,668
102330	10,775
102331	9,1255
102332	7,8484
102333	7,2101
102334	7,0882
102335	7,1746
102336	7,0947
102337	7,1616
102338	7,1257
102339	7,2263
102340	7,0947
102341	7,2263
102342	7,1616
102343	7,0983
102344	7,1628
102345	7,1291
102346	7,2275
102347	7,0983
102348	7,2275
102349	7,1628
102350	20,203
102351	20,
102352	20,1
102353	20,166
102354	20,756
102355	20,489
102356	20,689
102357	21,244
102358	21,028
102359	21,28
102360	21,513
102361	21,406
102362	21,679
102363	21,505
102364	21,551
102365	21,83
102366	21,223
102367	21,385
102368	21,653
102369	20,743
102370	21,012
102371	21,263
102372	20,18
102373	20,476
102374	20,675
102375	19,969
102376	20,07
102377	20,13
102378	20,139
102379	19,99
102380	20,118
102381	20,607
102382	20,434
102383	21,036
102384	20,933
102385	21,281
102386	21,292
102387	21,274
102388	21,432
102389	21,016
102390	21,273
102391	20,594
102392	20,917
102393	20,116
102394	20,421
102395	19,959
102396	20,083
102397	20,139
102398	20,
102399	20,118
102400	20,607
102401	20,489
102402	21,036
102403	21,028
102404	21,281
102405	21,406
102406	21,274
102407	21,551
102408	21,016
102409	21,385
102410	20,594
102411	21,012
102412	20,116
102413	20,476
102414	19,969
102415	20,083
102416	20,203
102417	20,166
102418	20,756
102419	21,244
102420	21,513
102421	21,505
102422	21,223
102423	20,743
102424	20,18
102425	20,13
102426	20,175
102427	20,414
102428	20,342
102429	19,974
102430	21,043
102431	21,533
102432	21,819
102433	21,83
102434	21,558
102435	21,057
102436	20,439
102437	20,209
102438	20,384
102439	20,026
102440	20,353
102441	20,205
102442	20,315
102443	20,124
102444	20,353
102445	20,124
102446	20,205
102447	20,395
102448	20,255
102449	20,357
102450	20,173
102451	20,395
102452	20,173
102453	20,255
102454	18,842
102455	20,038
102456	16,115
102457	17,623
102458	13,207
102459	14,685
102460	10,592
102461	11,842
102462	8,4669
102463	9,4305
102464	6,852
102465	7,5475
102466	5,6819
102467	6,1579
102468	4,8665
102469	5,177
102470	4,3194
102471	4,5105
102472	3,9699
102473	4,0772
102474	3,7641
102475	3,813
102476	3,6626
102477	3,6705
102478	3,6371
102479	3,616
102480	3,6679
102481	3,6256
102482	3,7415
102483	3,6831
102484	3,8485
102485	3,7773
102486	3,9826
102487	3,9007
102488	4,1395
102489	4,0483
102490	4,3164
102491	4,2167
102492	4,5114
102493	4,4038
102494	4,7232
102495	4,608
102496	4,9511
102497	4,8285
102498	5,1943
102499	5,0646
102500	5,4523
102501	5,3157
102502	5,7247
102503	5,5813
102504	6,0109
102505	5,861
102506	6,3102
102507	6,1541
102508	6,6217
102509	6,4601
102510	6,9444
102511	6,7778
102512	7,2767
102513	7,106
102514	7,6168
102515	7,4431
102516	7,9618
102517	7,7868
102518	8,3082
102519	8,134
102520	8,6512
102521	8,4807
102522	8,9842
102523	8,8212
102524	9,2986
102525	9,148
102526	9,5825
102527	9,4511
102528	9,8207
102529	9,7168
102530	9,9936
102531	9,9277
102532	10,078
102533	10,062
102534	10,046
102535	10,093
102536	9,8749
102537	9,9958
102538	9,5484
102539	9,7476
102540	9,0748
102541	9,3435
102542	8,5019
102543	8,8099
102544	7,9286
102545	8,2207
102546	7,4889
102547	7,697
102548	7,2896
102549	7,3677
102550	7,2927
102551	18,821
102552	19,993
102553	16,197
102554	17,646
102555	13,323
102556	14,744
102557	10,683
102558	11,897
102559	8,5121
102560	9,4645
102561	6,8537
102562	7,5576
102563	5,653
102564	6,1492
102565	4,8211
102566	5,1568
102567	4,2684
102568	4,4853
102569	3,9204
102570	4,0514
102571	3,7196
102572	3,7892
102573	3,6241
102574	3,6497
102575	3,6046
102576	3,5983
102577	3,6408
102578	3,6108
102579	3,7189
102580	3,6707
102581	3,8295
102582	3,7669
102583	3,9664
102584	3,8919
102585	4,1255
102586	4,0408
102587	4,3041
102588	4,2102
102589	4,5005
102590	4,398
102591	4,7134
102592	4,6029
102593	4,9421
102594	4,8239
102595	5,186
102596	5,0603
102597	5,4447
102598	5,3117
102599	5,7176
102600	5,5776
102601	6,0043
102602	5,8575
102603	6,304
102604	6,151
102605	6,6161
102606	6,4571
102607	6,9394
102608	6,7751
102609	7,2724
102610	7,1037
102611	7,6132
102612	7,4411
102613	7,9591
102614	7,7852
102615	8,3065
102616	8,1329
102617	8,6507
102618	8,4801
102619	8,985
102620	8,8213
102621	9,3006
102622	9,1488
102623	9,5854
102624	9,4524
102625	9,8238
102626	9,7184
102627	9,9959
102628	9,9292
102629	10,078
102630	10,063
102631	10,043
102632	10,093
102633	9,8688
102634	9,9932
102635	9,5431
102636	9,7438
102637	9,0792
102638	9,3416
102639	8,5293
102640	8,8158
102641	7,9895
102642	8,2418
102643	7,5757
102644	7,7366
102645	7,3706
102646	7,4148
102647	7,3265
102648	18,821
102649	20,038
102650	16,197
102651	17,623
102652	13,323
102653	14,685
102654	10,683
102655	11,842
102656	8,5121
102657	9,4305
102658	6,8537
102659	7,5475
102660	5,653
102661	6,1579
102662	4,8211
102663	5,177
102664	4,2684
102665	4,5105
102666	3,9204
102667	4,0772
102668	3,7196
102669	3,813
102670	3,6241
102671	3,6705
102672	3,6046
102673	3,616
102674	3,6408
102675	3,6256
102676	3,7189
102677	3,6831
102678	3,8295
102679	3,7773
102680	3,9664
102681	3,9007
102682	4,1255
102683	4,0483
102684	4,3041
102685	4,2167
102686	4,5005
102687	4,4038
102688	4,7134
102689	4,6081
102690	4,9421
102691	4,8285
102692	5,186
102693	5,0646
102694	5,4447
102695	5,3157
102696	5,7176
102697	5,5813
102698	6,0043
102699	5,861
102700	6,304
102701	6,1541
102702	6,6161
102703	6,4601
102704	6,9394
102705	6,7778
102706	7,2724
102707	7,106
102708	7,6132
102709	7,4431
102710	7,9591
102711	7,7868
102712	8,3065
102713	8,134
102714	8,6507
102715	8,4807
102716	8,985
102717	8,8212
102718	9,3006
102719	9,148
102720	9,5854
102721	9,4511
102722	9,8238
102723	9,7168
102724	9,9959
102725	9,9277
102726	10,078
102727	10,062
102728	10,043
102729	10,093
102730	9,8688
102731	9,9958
102732	9,5431
102733	9,7476
102734	9,0792
102735	9,3435
102736	8,5293
102737	8,8099
102738	7,9895
102739	8,2207
102740	7,5757
102741	7,697
102742	7,3706
102743	7,3677
102744	7,2927
102745	18,842
102746	19,902
102747	16,115
102748	17,427
102749	13,207
102750	14,532
102751	10,592
102752	11,774
102753	8,4669
102754	9,446
102755	6,852
102756	7,6201
102757	5,6819
102758	6,2589
102759	4,8665
102760	5,2843
102761	4,3194
102762	4,6109
102763	3,9699
102764	4,1645
102765	3,7641
102766	3,8859
102767	3,6626
102768	3,73
102769	3,6371
102770	3,6641
102771	3,6679
102772	3,6645
102773	3,7415
102774	3,7148
102775	3,8485
102776	3,8035
102777	3,9826
102778	3,9228
102779	4,1395
102780	4,0672
102781	4,3164
102782	4,2333
102783	4,5114
102784	4,4186
102785	4,7232
102786	4,6215
102787	4,9511
102788	4,8409
102789	5,1943
102790	5,0761
102791	5,4523
102792	5,3264
102793	5,7247
102794	5,5914
102795	6,0109
102796	5,8705
102797	6,3102
102798	6,163
102799	6,6217
102800	6,4682
102801	6,9444
102802	6,7851
102803	7,2767
102804	7,1124
102805	7,6168
102806	7,4483
102807	7,9618
102808	7,7906
102809	8,3082
102810	8,1359
102811	8,6512
102812	8,4803
102813	8,9842
102814	8,8179
102815	9,2986
102816	9,1413
102817	9,5825
102818	9,4404
102819	9,8207
102820	9,7017
102821	9,9936
102822	9,9083
102823	10,078
102824	10,039
102825	10,046
102826	10,068
102827	9,8749
102828	9,9712
102829	9,5484
102830	9,7254
102831	9,0748
102832	9,3238
102833	8,5019
102834	8,789
102835	7,9286
102836	8,19
102837	7,4889
102838	7,6481
102839	7,2896
102840	7,3043
102841	7,2464
102842	18,49
102843	15,85
102844	13,105
102845	10,633
102846	8,6012
102847	7,0276
102848	5,8614
102849	5,0287
102850	4,4562
102851	4,0808
102852	3,8521
102853	3,7318
102854	3,6918
102855	3,7116
102856	3,7769
102857	3,8779
102858	4,0075
102859	4,1611
102860	4,3355
102861	4,5287
102862	4,7392
102863	4,966
102864	5,2083
102865	5,4656
102866	5,7372
102867	6,0226
102868	6,3211
102869	6,6317
102870	6,9532
102871	7,284
102872	7,6222
102873	7,9647
102874	8,308
102875	8,6471
102876	8,9751
102877	9,2832
102878	9,5597
102879	9,7894
102880	9,9536
102881	10,03
102882	9,9936
102883	9,8221
102884	9,5016
102885	9,0391
102886	8,478
102887	7,91
102888	7,4634
102889	7,2609
102890	9,9812
102891	10,054
102892	9,9417
102893	9,9526
102894	10,024
102895	9,9812
102896	10,024
102897	10,054
102898	10,097
102899	9,9104
102900	10,004
102901	10,096
102902	9,9324
102903	10,097
102904	9,9324
102905	9,9104
102906	9,7452
102907	9,4178
102908	9,6398
102909	9,7681
102910	9,4748
102911	9,7452
102912	9,4748
102913	9,4178
102914	9,1464
102915	8,7904
102916	9,0559
102917	9,1801
102918	8,8587
102919	9,1464
102920	8,8587
102921	8,7904
102922	8,5019
102923	8,1898
102924	8,4391
102925	8,536
102926	8,2523
102927	8,5019
102928	8,2523
102929	8,1898
102930	7,9398
102931	7,7046
102932	7,9054
102933	7,9677
102934	7,7519
102935	7,9398
102936	7,7519
102937	7,7046
102938	7,5165
102939	7,3609
102940	7,5044
102941	7,5356
102942	7,3909
102943	7,5165
102944	7,3909
102945	7,3609
102946	7,2353
102947	7,1442
102948	7,2367
102949	7,2461
102950	7,1597
102951	7,2353
102952	7,1597
102953	7,1442
102954	7,0687
102955	7,0212
102956	7,0758
102957	7,0733
102958	7,0269
102959	7,0687
102960	7,0269
102961	7,0212
102962	6,9794
102963	6,9557
102964	6,987
102965	6,9804
102966	6,956
102967	6,9794
102968	6,956
102969	6,9557
102970	6,9323
102971	6,9168
102972	6,9375
102973	6,9315
102974	6,9149
102975	6,9323
102976	6,9149
102977	6,9168
102978	6,8995
102979	6,8818
102980	6,9015
102981	6,8983
102982	6,8796
102983	6,8995
102984	6,8796
102985	6,8818
102986	6,8619
102987	6,8358
102988	6,8611
102989	6,8609
102990	6,8342
102991	6,8619
102992	6,8342
102993	6,8358
102994	6,8081
102995	6,7706
102996	6,8052
102997	6,8074
102998	6,7696
102999	6,8081
103000	6,7696
103001	6,7706
103002	6,7322
103003	6,6825
103004	6,7282
103005	6,7318
103006	6,6821
103007	6,7322
103008	6,6821
103009	6,6825
103010	6,6324
103011	6,5712
103012	6,6281
103013	6,6323
103014	6,571
103015	6,6324
103016	6,571
103017	6,5712
103018	6,5098
103019	6,4382
103020	6,5057
103021	6,5097
103022	6,4381
103023	6,5098
103024	6,4381
103025	6,4382
103026	6,3665
103027	6,2863
103028	6,3632
103029	6,3664
103030	6,286
103031	6,3665
103032	6,286
103033	6,2863
103034	6,2058
103035	6,1189
103036	6,2035
103037	6,2055
103038	6,1181
103039	6,2058
103040	6,1181
103041	6,1189
103042	6,0312
103043	5,9393
103044	6,03
103045	6,0307
103046	5,938
103047	6,0312
103048	5,938
103049	5,9393
103050	5,8461
103051	5,7509
103052	5,8461
103053	5,8453
103054	5,749
103055	5,8461
103056	5,749
103057	5,7509
103058	5,6538
103059	5,5569
103060	5,6551
103061	5,6527
103062	5,5544
103063	5,6538
103064	5,5544
103065	5,5569
103066	5,4574
103067	5,3602
103068	5,46
103069	5,456
103070	5,3569
103071	5,4574
103072	5,3569
103073	5,3602
103074	5,2596
103075	5,1632
103076	5,2634
103077	5,2578
103078	5,1593
103079	5,2596
103080	5,1593
103081	5,1632
103082	5,0628
103083	4,9684
103084	5,0677
103085	5,0607
103086	4,9636
103087	5,0628
103088	4,9636
103089	4,9684
103090	4,8692
103091	4,7777
103092	4,8753
103093	4,8666
103094	4,7721
103095	4,8692
103096	4,7721
103097	4,7777
103098	4,6806
103099	4,5929
103100	4,6879
103101	4,6775
103102	4,5863
103103	4,6806
103104	4,5863
103105	4,5929
103106	4,4987
103107	4,4158
103108	4,5073
103109	4,4951
103110	4,4081
103111	4,4987
103112	4,4081
103113	4,4158
103114	4,3252
103115	4,2479
103116	4,3352
103117	4,3211
103118	4,239
103119	4,3252
103120	4,239
103121	4,2479
103122	4,1617
103123	4,091
103124	4,1734
103125	4,1569
103126	4,0806
103127	4,1617
103128	4,0806
103129	4,091
103130	4,0099
103131	3,9472
103132	4,0238
103133	4,0043
103134	3,9349
103135	4,0099
103136	3,9349
103137	3,9472
103138	3,8721
103139	3,8188
103140	3,8885
103141	3,8654
103142	3,8042
103143	3,8721
103144	3,8042
103145	3,8188
103146	3,7509
103147	3,7093
103148	3,7706
103149	3,7429
103150	3,6918
103151	3,7509
103152	3,6918
103153	3,7093
103154	3,6502
103155	3,6233
103156	3,6741
103157	3,6406
103158	3,6021
103159	3,6502
103160	3,6021
103161	3,6233
103162	3,5752
103163	3,5673
103164	3,6047
103165	3,5636
103166	3,5417
103167	3,5752
103168	3,5417
103169	3,5673
103170	3,5337
103171	3,5508
103172	3,5703
103173	3,5196
103174	3,5198
103175	3,5337
103176	3,5198
103177	3,5508
103178	3,5368
103179	3,5874
103180	3,5826
103181	3,5198
103182	3,5503
103183	3,5368
103184	3,5503
103185	3,5874
103186	3,6008
103187	3,6967
103188	3,6579
103189	3,5806
103190	3,6534
103191	3,6008
103192	3,6534
103193	3,6967
103194	3,7491
103195	3,9067
103196	3,8197
103197	3,7259
103198	3,8581
103199	3,7491
103200	3,8581
103201	3,9067
103202	4,0154
103203	4,2564
103204	4,1006
103205	3,9901
103206	4,2059
103207	4,0154
103208	4,2059
103209	4,2564
103210	4,4467
103211	4,7997
103212	4,5452
103213	4,4216
103214	4,7541
103215	4,4467
103216	4,7541
103217	4,7997
103218	5,107
103219	5,6075
103220	5,2132
103221	5,0865
103222	5,5776
103223	5,107
103224	5,5776
103225	5,6075
103226	6,078
103227	6,767
103228	6,1791
103229	6,0686
103230	6,7671
103231	6,078
103232	6,7671
103233	6,767
103234	7,4557
103235	8,3711
103236	7,5296
103237	7,4649
103238	8,4145
103239	7,4557
103240	8,4145
103241	8,3711
103242	9,3289
103243	10,488
103244	9,3468
103245	9,3621
103246	10,578
103247	9,3289
103248	10,578
103249	10,488
103250	11,736
103251	13,107
103252	11,671
103253	11,79
103254	13,223
103255	11,736
103256	13,223
103257	13,107
103258	14,591
103259	16,029
103260	14,439
103261	14,65
103262	16,114
103263	14,591
103264	16,114
103265	16,029
103266	17,549
103267	18,775
103268	17,351
103269	17,572
103270	18,756
103271	17,549
103272	18,756
103273	18,775
103274	19,982
103275	19,843
103276	19,938
103277	19,982
103278	9,8918
103279	9,7342
103280	9,2795
103281	8,7059
103282	8,1554
103283	7,7055
103284	7,3802
103285	7,1683
103286	7,0416
103287	6,9688
103288	6,9222
103289	6,8809
103290	6,8305
103291	6,7628
103292	6,6738
103293	6,5627
103294	6,4307
103295	6,2803
103296	6,1146
103297	5,9369
103298	5,7504
103299	5,5582
103300	5,3632
103301	5,1679
103302	4,9746
103303	4,7855
103304	4,6023
103305	4,4268
103306	4,2608
103307	4,1062
103308	3,9652
103309	3,8404
103310	3,7355
103311	3,6557
103312	3,6079
103313	3,6023
103314	3,6534
103315	3,7812
103316	4,0139
103317	4,3897
103318	4,9588
103319	5,7849
103320	6,9423
103321	8,5072
103322	10,533
103323	13,009
103324	15,766
103325	18,421
103326	7,2871
103327	7,2939
103328	7,4731
103329	7,361
103330	7,8931
103331	7,6728
103332	8,4502
103333	8,1763
103334	9,0171
103335	8,7535
103336	9,4962
103337	9,2864
103338	9,8371
103339	9,7008
103340	10,028
103341	9,9668
103342	10,081
103343	10,086
103344	10,019
103345	10,076
103346	9,8656
103347	9,9631
103348	9,6451
103349	9,7712
103350	9,3764
103351	9,522
103352	9,0749
103353	9,233
103354	8,7527
103355	8,918
103356	8,4186
103357	8,5872
103358	8,0794
103359	8,2486
103360	7,7401
103361	7,9078
103362	7,4045
103363	7,5692
103364	7,0755
103365	7,2359
103366	6,755
103367	6,9103
103368	6,4446
103369	6,5943
103370	6,1457
103371	6,2891
103372	5,859
103373	5,9958
103374	5,5852
103375	5,7152
103376	5,325
103377	5,4479
103378	5,0789
103379	5,1943
103380	4,8472
103381	4,9549
103382	4,6306
103383	4,7302
103384	4,4296
103385	4,5207
103386	4,2453
103387	4,3271
103388	4,0791
103389	4,1506
103390	3,9329
103391	3,9927
103392	3,8099
103393	3,8559
103394	3,7148
103395	3,7437
103396	3,6541
103397	3,6617
103398	3,6379
103399	3,6178
103400	3,6804
103401	3,6238
103402	3,802
103403	3,6968
103404	4,0316
103405	3,8612
103406	4,4092
103407	4,1517
103408	4,9889
103409	4,6161
103410	5,8402
103411	5,3181
103412	7,0465
103413	6,337
103414	8,6914
103415	7,7627
103416	10,831
103417	9,6696
103418	13,435
103419	12,086
103420	16,296
103421	14,897
103422	18,943
103423	17,771
103424	20,089
103425	7,3677
103426	7,3274
103427	7,5606
103428	7,408
103429	7,9563
103430	7,7132
103431	8,4802
103432	8,1988
103433	9,0234
103434	8,7606
103435	9,4915
103436	9,2851
103437	9,8308
103438	9,6971
103439	10,024
103440	9,9639
103441	10,081
103442	10,085
103443	10,021
103444	10,077
103445	9,8687
103446	9,9646
103447	9,6481
103448	9,7729
103449	9,3787
103450	9,5234
103451	9,0761
103452	9,2339
103453	8,7526
103454	8,9183
103455	8,4173
103456	8,5869
103457	8,077
103458	8,2477
103459	7,7368
103460	7,9064
103461	7,4005
103462	7,5673
103463	7,0707
103464	7,2336
103465	6,7496
103466	6,9078
103467	6,4388
103468	6,5915
103469	6,1393
103470	6,2861
103471	5,8521
103472	5,9925
103473	5,5779
103474	5,7117
103475	5,3171
103476	5,444
103477	5,0703
103478	5,1902
103479	4,8379
103480	4,9504
103481	4,6203
103482	4,7253
103483	4,4182
103484	4,5153
103485	4,2324
103486	4,3211
103487	4,0643
103488	4,1437
103489	3,9158
103490	3,9848
103491	3,7898
103492	3,8466
103493	3,6908
103494	3,7328
103495	3,6256
103496	3,6487
103497	3,6039
103498	3,6022
103499	3,6404
103500	3,6053
103501	3,7561
103502	3,6751
103503	3,9814
103504	3,8368
103505	4,3587
103506	4,1258
103507	4,9454
103508	4,5914
103509	5,8151
103510	5,2994
103511	7,0536
103512	6,3306
103513	8,7421
103514	7,7757
103515	10,926
103516	9,7062
103517	13,551
103518	12,142
103519	16,375
103520	14,955
103521	18,918
103522	17,791
103523	20,043
103524	7,3677
103525	7,2939
103526	7,5606
103527	7,361
103528	7,9563
103529	7,6728
103530	8,4802
103531	8,1763
103532	9,0234
103533	8,7535
103534	9,4915
103535	9,2864
103536	9,8308
103537	9,7008
103538	10,024
103539	9,9668
103540	10,081
103541	10,086
103542	10,021
103543	10,076
103544	9,8687
103545	9,9631
103546	9,6481
103547	9,7712
103548	9,3787
103549	9,522
103550	9,0761
103551	9,233
103552	8,7526
103553	8,918
103554	8,4173
103555	8,5872
103556	8,077
103557	8,2486
103558	7,7368
103559	7,9078
103560	7,4005
103561	7,5692
103562	7,0707
103563	7,2359
103564	6,7496
103565	6,9103
103566	6,4388
103567	6,5943
103568	6,1393
103569	6,2891
103570	5,8521
103571	5,9958
103572	5,5779
103573	5,7152
103574	5,3171
103575	5,4479
103576	5,0703
103577	5,1943
103578	4,8379
103579	4,9549
103580	4,6203
103581	4,7302
103582	4,4182
103583	4,5207
103584	4,2324
103585	4,3271
103586	4,0643
103587	4,1506
103588	3,9158
103589	3,9927
103590	3,7898
103591	3,8559
103592	3,6908
103593	3,7437
103594	3,6256
103595	3,6617
103596	3,6039
103597	3,6178
103598	3,6404
103599	3,6238
103600	3,7561
103601	3,6968
103602	3,9814
103603	3,8612
103604	4,3587
103605	4,1517
103606	4,9454
103607	4,6161
103608	5,8151
103609	5,3181
103610	7,0536
103611	6,337
103612	8,7421
103613	7,7627
103614	10,926
103615	9,6696
103616	13,551
103617	12,086
103618	16,375
103619	14,897
103620	18,918
103621	17,771
103622	20,089
103623	7,2871
103624	7,2483
103625	7,4731
103626	7,2974
103627	7,8931
103628	7,6227
103629	8,4502
103630	8,1444
103631	9,0171
103632	8,732
103633	9,4962
103634	9,2669
103635	9,8371
103636	9,679
103637	10,028
103638	9,9424
103639	10,081
103640	10,061
103641	10,019
103642	10,053
103643	9,8656
103644	9,9429
103645	9,6451
103646	9,7551
103647	9,3764
103648	9,5102
103649	9,0749
103650	9,2253
103651	8,7527
103652	8,9138
103653	8,4186
103654	8,586
103655	8,0794
103656	8,2498
103657	7,7401
103658	7,911
103659	7,4045
103660	7,5739
103661	7,0755
103662	7,2418
103663	6,755
103664	6,9173
103665	6,4446
103666	6,6021
103667	6,1457
103668	6,2977
103669	5,859
103670	6,005
103671	5,5852
103672	5,725
103673	5,325
103674	5,4583
103675	5,0789
103676	5,2054
103677	4,8472
103678	4,9668
103679	4,6306
103680	4,743
103681	4,4296
103682	4,5347
103683	4,2453
103684	4,3426
103685	4,0791
103686	4,168
103687	3,9329
103688	4,0127
103689	3,8099
103690	3,8793
103691	3,7148
103692	3,7716
103693	3,6541
103694	3,6955
103695	3,6379
103696	3,6591
103697	3,6804
103698	3,6747
103699	3,802
103700	3,7594
103701	4,0316
103702	3,9373
103703	4,4092
103704	4,2419
103705	4,9889
103706	4,7184
103707	5,8402
103708	5,4255
103709	7,0465
103710	6,4354
103711	8,6914
103712	7,8296
103713	10,831
103714	9,6774
103715	13,435
103716	12,011
103717	16,296
103718	14,739
103719	18,943
103720	17,573
103721	19,956
103722	7,2585
103723	7,447
103724	7,8745
103725	8,4272
103726	8,9828
103727	9,4505
103728	9,7848
103729	9,9751
103730	10,032
103731	9,977
103732	9,8324
103733	9,6203
103734	9,3592
103735	9,0642
103736	8,7472
103737	8,4173
103738	8,0814
103739	7,7447
103740	7,4112
103741	7,0837
103742	6,7645
103743	6,4552
103744	6,1571
103745	5,8711
103746	5,5981
103747	5,3387
103748	5,0933
103749	4,8626
103750	4,6471
103751	4,4477
103752	4,2654
103753	4,1018
103754	3,9592
103755	3,8411
103756	3,7525
103757	3,7007
103758	3,6962
103759	3,754
103760	3,895
103761	4,1479
103762	4,5513
103763	5,1551
103764	6,0209
103765	7,2193
103766	8,8179
103767	10,861
103768	13,32
103769	16,021
103770	18,588
103771	18,828
103772	20,044
103773	16,068
103774	17,591
103775	13,141
103776	14,627
103777	10,517
103778	11,769
103779	8,3923
103780	9,3537
103781	6,7821
103782	7,4738
103783	5,6178
103784	6,0906
103785	4,8065
103786	5,1153
103787	4,2607
103788	4,4521
103789	3,9093
103790	4,0188
103791	3,6982
103792	3,7511
103793	3,5881
103794	3,6017
103795	3,5509
103796	3,5371
103797	3,567
103798	3,5335
103799	3,6228
103800	3,5747
103801	3,7086
103802	3,6495
103803	3,818
103804	3,7501
103805	3,9462
103806	3,8712
103807	4,09
103808	4,0089
103809	4,2468
103810	4,1606
103811	4,4147
103812	4,3241
103813	4,5918
103814	4,4976
103815	4,7766
103816	4,6794
103817	4,9673
103818	4,8681
103819	5,1622
103820	5,0617
103821	5,3591
103822	5,2586
103823	5,5559
103824	5,4564
103825	5,7499
103826	5,6529
103827	5,9384
103828	5,8452
103829	6,118
103830	6,0303
103831	6,2856
103832	6,205
103833	6,4375
103834	6,3658
103835	6,5706
103836	6,5091
103837	6,682
103838	6,6319
103839	6,7702
103840	6,7317
103841	6,8355
103842	6,8077
103843	6,8815
103844	6,8616
103845	6,9166
103846	6,8992
103847	6,9555
103848	6,932
103849	7,0211
103850	6,9793
103851	7,1442
103852	7,0686
103853	7,3609
103854	7,2352
103855	7,7046
103856	7,5166
103857	8,1899
103858	7,9398
103859	8,7906
103860	8,502
103861	9,418
103862	9,1466
103863	9,9109
103864	9,7455
103865	10,054
103866	10,098
103867	9,9809
103868	18,808
103869	20,
103870	16,153
103871	17,615
103872	13,258
103873	14,686
103874	10,607
103875	11,824
103876	8,4362
103877	9,3871
103878	6,7826
103879	7,4832
103880	5,5882
103881	6,0814
103882	4,761
103883	5,0949
103884	4,2103
103885	4,427
103886	3,8607
103887	3,9934
103888	3,6548
103889	3,7278
103890	3,5509
103891	3,5815
103892	3,5199
103893	3,52
103894	3,5414
103895	3,5194
103896	3,6016
103897	3,5631
103898	3,6911
103899	3,6399
103900	3,8033
103901	3,7421
103902	3,9339
103903	3,8645
103904	4,0796
103905	4,0033
103906	4,2379
103907	4,1558
103908	4,407
103909	4,32
103910	4,5852
103911	4,494
103912	4,7709
103913	4,6764
103914	4,9625
103915	4,8655
103916	5,1582
103917	5,0596
103918	5,3559
103919	5,2568
103920	5,5534
103921	5,455
103922	5,7481
103923	5,6518
103924	5,9371
103925	5,8444
103926	6,1173
103927	6,0298
103928	6,2852
103929	6,2048
103930	6,4374
103931	6,3657
103932	6,5704
103933	6,5091
103934	6,6816
103935	6,6318
103936	6,7692
103937	6,7314
103938	6,8338
103939	6,807
103940	6,8793
103941	6,8606
103942	6,9147
103943	6,898
103944	6,9558
103945	6,9313
103946	7,0267
103947	6,9803
103948	7,1596
103949	7,0732
103950	7,3909
103951	7,246
103952	7,7519
103953	7,5356
103954	8,2524
103955	7,9677
103956	8,8589
103957	8,5361
103958	9,475
103959	9,1802
103960	9,933
103961	9,7684
103962	10,025
103963	10,097
103964	9,9523
103965	18,808
103966	20,044
103967	16,153
103968	17,591
103969	13,258
103970	14,627
103971	10,607
103972	11,769
103973	8,4362
103974	9,3537
103975	6,7826
103976	7,4738
103977	5,5882
103978	6,0906
103979	4,761
103980	5,1153
103981	4,2103
103982	4,4521
103983	3,8607
103984	4,0188
103985	3,6548
103986	3,7511
103987	3,5509
103988	3,6017
103989	3,5199
103990	3,5371
103991	3,5414
103992	3,5335
103993	3,6016
103994	3,5747
103995	3,6911
103996	3,6495
103997	3,8033
103998	3,7501
103999	3,9339
104000	3,8712
104001	4,0796
104002	4,0089
104003	4,2379
104004	4,1606
104005	4,407
104006	4,3241
104007	4,5852
104008	4,4976
104009	4,7709
104010	4,6794
104011	4,9625
104012	4,8681
104013	5,1582
104014	5,0617
104015	5,3559
104016	5,2586
104017	5,5534
104018	5,4564
104019	5,7481
104020	5,6529
104021	5,9371
104022	5,8452
104023	6,1173
104024	6,0303
104025	6,2852
104026	6,205
104027	6,4374
104028	6,3658
104029	6,5704
104030	6,5091
104031	6,6816
104032	6,6319
104033	6,7692
104034	6,7317
104035	6,8338
104036	6,8077
104037	6,8793
104038	6,8616
104039	6,9147
104040	6,8992
104041	6,9558
104042	6,932
104043	7,0267
104044	6,9793
104045	7,1596
104046	7,0686
104047	7,3909
104048	7,2352
104049	7,7519
104050	7,5166
104051	8,2524
104052	7,9398
104053	8,8589
104054	8,502
104055	9,475
104056	9,1466
104057	9,933
104058	9,7455
104059	10,025
104060	10,098
104061	9,9809
104062	18,828
104063	19,908
104064	16,068
104065	17,394
104066	13,141
104067	14,474
104068	10,517
104069	11,703
104070	8,3923
104071	9,3708
104072	6,7821
104073	7,5474
104074	5,6178
104075	6,1916
104076	4,8065
104077	5,2216
104078	4,2607
104079	4,5508
104080	3,9093
104081	4,1041
104082	3,6982
104083	3,8218
104084	3,5881
104085	3,659
104086	3,5509
104087	3,583
104088	3,567
104089	3,5702
104090	3,6228
104091	3,6043
104092	3,7086
104093	3,6735
104094	3,818
104095	3,7698
104096	3,9462
104097	3,8876
104098	4,09
104099	4,0228
104100	4,2468
104101	4,1724
104102	4,4147
104103	4,3342
104104	4,5918
104105	4,5062
104106	4,7766
104107	4,6868
104108	4,9673
104109	4,8742
104110	5,1622
104111	5,0667
104112	5,3591
104113	5,2623
104114	5,5559
104115	5,4589
104116	5,7499
104117	5,6542
104118	5,9384
104119	5,8452
104120	6,118
104121	6,0292
104122	6,2856
104123	6,2027
104124	6,4375
104125	6,3625
104126	6,5706
104127	6,5051
104128	6,682
104129	6,6276
104130	6,7702
104131	6,7277
104132	6,8355
104133	6,8048
104134	6,8815
104135	6,8608
104136	6,9166
104137	6,9012
104138	6,9555
104139	6,9373
104140	7,0211
104141	6,9868
104142	7,1442
104143	7,0757
104144	7,3609
104145	7,2367
104146	7,7046
104147	7,5044
104148	8,1899
104149	7,9054
104150	8,7906
104151	8,4392
104152	9,418
104153	9,0561
104154	9,9109
104155	9,6402
104156	10,054
104157	10,005
104158	9,9414
104159	18,476
104160	15,805
104161	13,042
104162	10,561
104163	8,5279
104164	6,9574
104165	5,7954
104166	4,966
104167	4,3943
104168	4,0168
104169	3,7829
104170	3,6542
104171	3,6026
104172	3,6077
104173	3,6552
104174	3,7348
104175	3,8395
104176	3,9642
104177	4,1052
104178	4,2598
104179	4,4257
104180	4,6012
104181	4,7844
104182	4,9735
104183	5,1668
104184	5,3621
104185	5,5572
104186	5,7494
104187	5,936
104188	6,1138
104189	6,2796
104190	6,43
104191	6,5621
104192	6,6733
104193	6,7624
104194	6,8302
104195	6,8806
104196	6,922
104197	6,9686
104198	7,0415
104199	7,1682
104200	7,3802
104201	7,7056
104202	8,1555
104203	8,7061
104204	9,2798
104205	9,7349
104206	9,8921
